ITEM: TIMESTEP
4000000
ITEM: NUMBER OF ATOMS
1850
ITEM: BOX BOUNDS ff ff ff
-8.0000000000000002e-03 8.0000000000000002e-03
-8.0000000000000002e-03 8.0000000000000002e-03
0.0000000000000000e+00 7.0000000000000007e-02
ITEM: ATOMS id type x y z radius mass vx vy vz omegax omegay omegaz fx fy fz f_tubeWall[1] f_tubeWall[2] f_tubeWall[3] f_tubeWall[4] f_tubeWall[5] f_tubeWall[6] f_tubeWall[7] f_tubeWall[8]
1 1 0.00296324 -0.00656215 0.000799759 0.0008 3.43146e-06 -8.05726e-14 -2.78969e-13 1.8192e-13 3.24425e-10 -9.88538e-11 2.37737e-10 2.52851e-16 2.79473e-17 -4.19001e-18 1 3.58567e-05 6.13852e-05 0.000244918 0.00296324 -0.00656215 0 0.0008
2 1 -0.00308277 -0.003709 0.0021852 0.0008 3.43146e-06 -4.50493e-14 1.67272e-13 6.80813e-13 -6.91407e-10 1.55323e-10 -5.13723e-11 -5.67119e-16 1.88212e-17 3.44735e-16 0 0 0 0 0 0 0 0
3 1 0.00343514 -0.00103093 0.00218983 0.0008 3.43146e-06 2.21562e-14 -1.2223e-13 5.0976e-13 2.4701e-10 -9.67843e-11 -1.70352e-10 -4.25731e-16 1.03832e-16 -7.98573e-16 0 0 0 0 0 0 0 0
4 1 0.00354127 -0.00507051 0.000799284 0.0008 3.43146e-06 -4.3674e-13 3.3204e-13 2.69434e-13 -4.21937e-10 -5.48579e-10 4.52605e-10 -6.27095e-17 -1.20815e-16 9.44088e-17 1 0.000197804 -2.58133e-05 0.00125472 0.00354127 -0.00507051 0 0.0008
5 1 -0.00116535 0.00145458 0.00079969 0.0008 3.43146e-06 -2.65858e-13 4.73294e-13 2.4255e-13 -5.85214e-10 -3.27895e-10 4.19043e-10 -2.00124e-16 1.83197e-16 1.09097e-16 1 7.06972e-05 -3.13605e-05 0.000357537 -0.00116535 0.00145458 0 0.0008
6 1 0.00269169 -0.00244302 0.00207793 0.0008 3.43146e-06 2.07833e-13 -1.07077e-13 3.76956e-14 2.99768e-10 -2.13542e-10 3.29753e-10 -3.226e-16 2.59916e-16 -1.38456e-16 0 0 0 0 0 0 0 0
7 1 -0.00309184 0.00253799 0.00358947 0.0008 3.43146e-06 -1.27365e-13 5.32698e-13 3.51587e-13 9.39806e-10 -1.54424e-09 -1.78712e-09 8.58782e-16 1.87295e-16 -2.11646e-16 0 0 0 0 0 0 0 0
8 1 -0.00256728 -0.00672705 0.000799586 0.0008 3.43146e-06 4.92031e-15 -3.03256e-13 2.70956e-13 3.75107e-10 4.23329e-12 -1.45177e-10 -3.57953e-16 -1.55374e-16 -3.93836e-17 1 -2.36777e-05 -1.58917e-05 0.000551049 -0.00256728 -0.00672705 0 0.0008
9 1 -0.00459432 -0.00090103 0.000799043 0.0008 3.43146e-06 7.28228e-14 -4.45906e-14 -7.12396e-14 3.54429e-11 7.76817e-11 7.29667e-10 -4.6663e-16 1.16912e-16 4.03158e-17 1 6.03146e-06 -5.53588e-05 0.00193995 -0.00459432 -0.00090103 0 0.0008
10 1 -0.00161191 -0.00701742 0.00204936 0.0008 3.43146e-06 -3.67714e-13 -4.71376e-13 1.33783e-13 9.10253e-11 -3.3348e-10 2.9266e-10 -2.04626e-16 -7.14124e-17 8.02672e-18 1 2.61903e-05 0.000148662 4.88031e-05 -0.00179097 -0.00779695 0.00204936 0.0008
11 1 -0.00240954 0.0020545 0.00222591 0.0008 3.43146e-06 4.00958e-13 4.95812e-14 1.99059e-13 -7.29653e-10 6.00251e-10 3.95917e-10 2.35696e-16 -2.49952e-16 2.97214e-16 0 0 0 0 0 0 0 0
12 1 -0.004697 0.0032399 0.00398534 0.0008 3.43146e-06 8.93673e-13 -1.20512e-13 1.45986e-12 2.06595e-09 1.54426e-09 -3.43475e-09 3.77103e-16 -2.65682e-16 4.93356e-16 0 0 0 0 0 0 0 0
13 1 0.00612826 0.00377976 0.00223568 0.0008 3.43146e-06 2.36403e-14 1.78146e-13 6.35531e-14 -1.14498e-09 -6.16052e-10 -1.6737e-10 7.03217e-17 -1.16354e-16 7.16292e-17 1 -9.37185e-05 -7.36306e-05 3.05669e-05 0.00680904 0.00419964 0.00223568 0.0008
14 1 0.000621417 -0.00270189 0.000798829 0.0008 3.43146e-06 1.6794e-13 -2.08413e-13 2.00887e-13 2.7397e-10 2.22625e-10 4.22907e-10 -2.22613e-16 2.32454e-16 -2.39946e-16 1 -0.00010944 5.0784e-05 0.00262428 0.000621417 -0.00270189 0 0.0008
15 1 0.00138041 -0.00706694 0.00264098 0.0008 3.43146e-06 9.41562e-14 1.16863e-14 1.60111e-13 1.29606e-10 3.75656e-10 -1.09019e-10 3.03339e-17 -5.37211e-16 -5.17091e-16 1 -3.4354e-05 0.000742795 0.000101989 0.00153368 -0.00785161 0.00264098 0.0008
16 1 0.00644369 -0.00321283 0.0038692 0.0008 3.43146e-06 -1.68619e-12 8.47612e-13 -7.0029e-13 1.21414e-09 -1.5829e-09 -7.13115e-12 2.98554e-16 2.33085e-16 -5.05963e-17 1 -0.000194501 0.000158443 1.41415e-05 0.00715942 -0.0035697 0.0038692 0.0008
17 1 -0.00336063 0.00398311 0.000799551 0.0008 3.43146e-06 -3.16335e-13 5.65777e-15 2.70839e-13 -2.19973e-11 -3.92163e-10 6.74872e-10 1.63737e-16 5.11889e-17 9.34894e-17 1 -0.000105492 -5.74887e-06 0.000623236 -0.00336063 0.00398311 0 0.0008
18 1 0.00395973 -0.000124905 0.00572729 0.0008 3.43146e-06 1.78792e-12 -6.83509e-14 -5.58558e-13 -3.42586e-09 -3.74564e-10 -1.16319e-11 -4.39051e-15 2.06184e-16 2.15433e-15 0 0 0 0 0 0 0 0
19 1 -0.00297626 -0.00591239 0.00211392 0.0008 3.43146e-06 -3.42701e-13 -7.86818e-14 9.4661e-13 -4.25292e-10 3.3812e-10 1.08538e-09 -5.87395e-16 -1.13803e-16 3.71973e-16 0 0 0 0 0 0 0 0
20 1 0.00554786 -0.000189387 0.00347418 0.0008 3.43146e-06 1.10182e-12 8.94821e-15 -6.31525e-13 4.27407e-10 1.03591e-09 -3.06207e-10 -7.15612e-16 -3.78482e-16 -9.86939e-17 0 0 0 0 0 0 0 0
21 1 -0.00108098 -0.00412227 0.000799936 0.0008 3.43146e-06 -9.75143e-41 -4.8505e-41 1.71818e-13 6.06298e-38 -1.2189e-37 0.0705916 3.48266e-44 1.73233e-44 7.17249e-22 1 -1.39305e-44 -6.92924e-45 3.36626e-05 -0.00108098 -0.00412227 0 0.0008
22 1 -0.00103403 0.00125894 0.00241102 0.0008 3.43146e-06 5.41497e-13 4.41767e-13 3.58011e-13 -5.23703e-10 -8.35483e-11 -4.66553e-11 -5.32251e-16 -5.68658e-16 2.25005e-17 0 0 0 0 0 0 0 0
23 1 0.0044683 0.00564593 0.00343734 0.0008 3.43146e-06 7.17487e-13 -9.16613e-13 -1.00223e-12 2.18075e-09 7.51283e-10 1.41524e-09 -3.88261e-16 2.16272e-16 -1.21068e-15 1 -9.51379e-05 -9.22566e-05 3.30401e-05 0.00496467 0.00627312 0.00343734 0.0008
24 1 -0.00353896 -0.00210381 0.000799936 0.0008 3.43146e-06 1.47028e-40 4.39744e-41 -2.62592e-14 -5.49667e-38 1.83781e-37 0.100492 -5.25101e-44 -1.57052e-44 -2.78593e-21 1 2.10039e-44 6.28201e-45 3.36626e-05 -0.00353896 -0.00210381 0 0.0008
25 1 -0.00310091 -0.000328832 0.0007997 0.0008 3.43146e-06 -1.74208e-13 -2.35772e-15 -4.52141e-15 -3.3931e-12 -1.72391e-10 -5.30337e-10 -5.00681e-17 5.50212e-18 1.60209e-16 1 4.38888e-05 -7.10253e-05 0.000340639 -0.00310091 -0.000328832 0 0.0008
26 1 -0.000850655 -0.00355067 0.0022882 0.0008 3.43146e-06 -5.35822e-14 1.79866e-13 7.44524e-13 -2.16124e-10 8.05333e-10 1.58642e-11 -2.87363e-17 -5.57117e-16 4.3965e-16 0 0 0 0 0 0 0 0
27 1 0.00702887 0.00156311 0.00362308 0.0008 3.43146e-06 2.06126e-13 5.40899e-13 7.12885e-14 -7.32517e-10 -7.73315e-11 -6.10265e-10 -8.1596e-17 1.82801e-16 3.78443e-17 1 -0.000907463 -0.000221975 0.000279912 0.00780923 0.00173665 0.00362308 0.0008
28 1 0.00190674 0.0053468 0.000799548 0.0008 3.43146e-06 -1.44641e-13 2.09579e-13 -2.44019e-13 -2.67044e-10 -1.91003e-10 -6.76879e-10 -1.34518e-16 -2.35395e-16 -4.10204e-17 1 0.000131332 -0.000109832 0.000629526 0.00190674 0.0053468 0 0.0008
29 1 0.00222706 0.00219578 0.00190664 0.0008 3.43146e-06 -3.26641e-13 5.7587e-13 -5.37982e-13 -1.6512e-09 -7.81931e-10 7.49399e-10 -2.52471e-16 -5.29902e-16 -8.09431e-16 0 0 0 0 0 0 0 0
30 1 -0.00287599 -0.00486873 0.000799421 0.0008 3.43146e-06 -6.7561e-13 6.18634e-13 2.71028e-13 -7.43684e-10 -8.01572e-10 6.50746e-10 1.35609e-17 -2.1745e-16 4.10741e-16 1 6.87921e-05 1.20418e-05 0.000911944 -0.00287599 -0.00486873 0 0.0008
31 1 0.00439423 0.0057037 0.000799434 0.0008 3.43146e-06 1.57675e-13 -2.55866e-14 8.86371e-14 1.86261e-11 1.84826e-10 2.26138e-10 3.92541e-17 2.51481e-17 3.32358e-17 1 1.21022e-05 -9.17234e-06 0.000881684 0.00439423 0.0057037 0 0.0008
32 1 -0.00286072 0.0066074 0.00217838 0.0008 3.43146e-06 -9.22935e-13 -5.81411e-14 7.86735e-13 2.94295e-11 -2.47528e-09 -1.09436e-09 1.58772e-16 2.47985e-16 -1.5344e-16 1 2.12366e-05 -6.06998e-05 1.09157e-05 -0.00317853 0.00734145 0.00217838 0.0008
33 1 -0.00199113 -0.00559851 0.00440363 0.0008 3.43146e-06 -1.016e-12 2.27591e-13 1.44696e-12 2.37571e-10 5.03687e-10 1.89562e-11 3.3217e-16 4.24728e-16 4.064e-16 0 0 0 0 0 0 0 0
34 1 0.00690951 0.00202614 0.00542924 0.0008 3.43146e-06 2.30973e-13 1.08013e-13 7.6124e-13 -3.54268e-10 8.82182e-10 -4.876e-11 -4.50288e-16 2.47727e-16 1.49643e-16 1 -0.00064531 -0.000155143 0.000252598 0.00767675 0.00225113 0.00542924 0.0008
35 1 0.00218354 -0.00421516 0.00345105 0.0008 3.43146e-06 2.48589e-13 -1.22517e-12 7.2721e-13 7.73248e-10 1.32467e-10 1.25723e-10 -3.37476e-16 7.15396e-17 -1.20925e-15 0 0 0 0 0 0 0 0
36 1 0.00142493 -0.00154284 0.00445647 0.0008 3.43146e-06 -1.99551e-13 5.41658e-13 -8.30767e-13 3.09048e-10 -7.69248e-11 1.17996e-10 8.33713e-16 -4.26548e-16 -1.70642e-15 0 0 0 0 0 0 0 0
37 1 0.00231129 -0.0033249 0.000799097 0.0008 3.43146e-06 5.13408e-13 -3.33763e-14 7.59725e-14 4.17074e-11 6.36559e-10 8.76007e-10 -7.00712e-16 -5.65989e-16 -4.88422e-18 1 -0.00023262 -4.14752e-05 0.00177801 0.00231129 -0.0033249 0 0.0008
38 1 0.000225232 0.00399869 0.00172333 0.0008 3.43146e-06 -6.68416e-14 3.76777e-13 -3.15875e-13 1.57028e-10 -2.53209e-10 1.16499e-09 5.00633e-17 -3.26055e-16 1.57741e-16 0 0 0 0 0 0 0 0
39 1 0.00707606 -0.0013324 0.00187863 0.0008 3.43146e-06 4.54944e-13 -2.55768e-13 1.74235e-13 3.29048e-10 1.63578e-10 2.11844e-10 -1.02138e-16 -1.13682e-17 1.43526e-16 1 -0.000571875 3.2807e-05 9.40229e-05 0.00786184 -0.00148036 0.00187863 0.0008
40 1 -0.00717645 -0.000587701 0.000799376 0.0008 3.43146e-06 3.39897e-13 2.71024e-13 -2.69956e-13 -3.33901e-10 3.7881e-10 3.12572e-10 -7.31701e-17 1.76555e-16 1.09967e-16 1 6.16324e-05 5.73837e-05 0.00102237 -0.00717645 -0.000587701 0 0.0008
41 1 0.00510718 0.00507552 0.0020861 0.0008 3.43146e-06 -2.11772e-13 6.64754e-13 4.95411e-13 -1.30639e-09 -4.13434e-10 -7.71668e-10 -1.04232e-16 -9.74305e-17 -9.34507e-17 1 -0.000208403 -0.000266158 -2.98394e-05 0.00567442 0.00563924 0.0020861 0.0008
42 1 -0.00238441 0.00519671 0.00276766 0.0008 3.43146e-06 5.09672e-13 7.69363e-13 -8.21524e-13 -3.07234e-10 2.86823e-10 1.24721e-09 -1.58356e-16 2.36863e-16 1.42036e-16 0 0 0 0 0 0 0 0
43 1 -0.000535418 0.00214864 0.00502884 0.0008 3.43146e-06 2.77945e-13 1.08376e-12 -5.55957e-14 -4.85886e-10 9.13858e-11 1.81461e-10 3.06403e-16 1.19511e-16 1.56032e-15 0 0 0 0 0 0 0 0
44 1 0.00676242 -0.00247144 0.000799806 0.0008 3.43146e-06 1.86947e-13 -1.2572e-13 -1.60677e-13 1.52669e-10 2.35155e-10 -2.06697e-10 -4.58889e-17 -2.71585e-16 -2.9655e-16 1 -1.08234e-05 6.10692e-06 0.000176485 0.00676242 -0.00247144 0 0.0008
45 1 -0.00390247 -0.00110398 0.00377087 0.0008 3.43146e-06 1.08416e-12 -2.69617e-14 5.36644e-13 3.8155e-10 -1.09551e-09 -1.40682e-09 -5.34458e-16 1.10092e-15 -7.73667e-17 0 0 0 0 0 0 0 0
46 1 0.000510303 -0.00429753 0.000799476 0.0008 3.43146e-06 2.57312e-13 2.55715e-13 2.7059e-13 -3.2771e-10 3.19661e-10 -3.56485e-10 -2.32245e-16 -3.85533e-17 1.32428e-16 1 1.29585e-05 4.76877e-05 0.000786382 0.000510303 -0.00429753 0 0.0008
47 1 -0.000328186 0.00718552 0.000799936 0.0008 3.43146e-06 1.61228e-40 -9.94348e-41 1.32202e-13 1.24291e-37 2.01531e-37 -0.819107 -5.75817e-44 3.55125e-44 1.21261e-21 1 2.30325e-44 -1.42049e-44 3.36626e-05 -0.000328186 0.00718552 0 0.0008
48 1 0.00436783 0.00268208 0.00363764 0.0008 3.43146e-06 -1.06668e-12 1.03608e-12 9.02274e-15 -2.71248e-11 -1.59614e-09 7.58213e-10 1.35111e-16 -1.90922e-16 -3.90833e-16 0 0 0 0 0 0 0 0
49 1 -0.000987136 -0.00447131 0.00387416 0.0008 3.43146e-06 1.06912e-14 9.88254e-13 1.04476e-12 2.25858e-10 2.03958e-11 -6.55719e-10 -3.76089e-16 -2.60969e-16 5.46896e-16 0 0 0 0 0 0 0 0
50 1 0.00136546 0.00333251 0.000799936 0.0008 3.43146e-06 1.60767e-40 -9.8942e-41 1.32202e-13 1.23675e-37 2.00954e-37 -12.3632 -5.74167e-44 3.53365e-44 1.21263e-21 1 2.29665e-44 -1.41345e-44 3.36626e-05 0.00136546 0.00333251 0 0.0008
51 1 -0.00678551 0.00240814 0.00199968 0.0008 3.43146e-06 -1.28009e-13 -6.40397e-14 8.01322e-13 2.13264e-10 -1.1381e-09 -1.29491e-10 -4.36572e-16 -1.71566e-16 -1.61886e-16 1 0.000114902 -6.57198e-05 2.94197e-05 -0.00753929 0.00267566 0.00199968 0.0008
52 1 -0.000582278 -0.000683799 0.000799364 0.0008 3.43146e-06 -4.62019e-14 2.34298e-13 -5.03163e-14 -2.96689e-10 -5.15639e-11 -1.04546e-09 6.426e-17 -5.50242e-17 -3.59808e-16 1 -4.49067e-05 -3.97016e-05 0.00105031 -0.000582278 -0.000683799 0 0.0008
53 1 0.00719201 -0.000340603 0.00494646 0.0008 3.43146e-06 -5.88266e-13 -1.24079e-13 -2.6677e-13 -9.04849e-10 -2.87637e-10 2.04096e-10 4.34733e-16 3.24323e-16 7.58671e-16 1 -4.19447e-05 1.08836e-05 -8.75832e-07 0.00799104 -0.000378444 0.00494646 0.0008
54 1 -0.00583796 0.0042146 0.00453927 0.0008 3.43146e-06 3.83517e-13 1.57205e-12 2.00623e-12 -1.50729e-09 -2.00741e-09 1.88722e-09 6.20797e-16 2.65952e-16 2.98258e-16 1 0.000329526 -0.000202064 5.20559e-05 -0.00648633 0.00468268 0.00453927 0.0008
55 1 -0.00274928 0.00123145 0.000800117 0.0008 3.43146e-06 -1.17011e-13 -1.6122e-13 3.96853e-15 -8.94504e-12 -6.12404e-11 3.97671e-10 6.35065e-17 2.49475e-16 -2.72123e-17 0 0 0 0 0 0 0 0
56 1 -0.00573248 0.00250356 0.000799499 0.0008 3.43146e-06 7.66837e-13 1.82628e-13 -2.4963e-14 -2.22812e-10 9.60359e-10 4.67831e-10 -1.93656e-16 -1.55877e-17 -7.43292e-17 1 -9.22035e-05 -3.9832e-06 0.000734943 -0.00573248 0.00250356 0 0.0008
57 1 0.001976 -0.00584044 0.00347731 0.0008 3.43146e-06 9.14243e-13 -1.89688e-13 -9.97667e-14 7.66986e-11 9.77223e-10 -3.0181e-10 -1.15974e-16 -8.4209e-16 -1.00478e-15 0 0 0 0 0 0 0 0
58 1 -0.00174961 0.000146443 0.00151154 0.0008 3.43146e-06 5.40679e-13 6.76512e-14 2.34008e-13 7.23343e-10 5.51197e-10 7.05597e-10 2.8507e-16 4.80493e-16 3.59354e-16 0 0 0 0 0 0 0 0
59 1 -0.00526779 -0.00490888 0.000799657 0.0008 3.43146e-06 -1.69789e-15 3.24505e-13 -2.56129e-13 -4.24073e-10 1.90712e-11 3.13656e-10 -1.5902e-17 -4.83739e-17 1.92986e-17 1 -4.33616e-05 -1.75132e-05 0.000416922 -0.00526779 -0.00490888 0 0.0008
60 1 0.00381403 0.00232946 0.00217896 0.0008 3.43146e-06 1.77755e-13 5.16902e-13 2.09191e-13 -3.63838e-10 4.45989e-10 5.18754e-10 2.25812e-16 -5.60333e-16 -2.99413e-17 0 0 0 0 0 0 0 0
61 1 0.00274816 -0.00501577 0.002187 0.0008 3.43146e-06 -1.3233e-13 -1.79357e-13 -1.51466e-13 8.00597e-10 6.27152e-10 1.06349e-10 -1.95805e-16 -2.07704e-16 -3.15142e-16 0 0 0 0 0 0 0 0
62 1 -0.00418639 -0.00160303 0.00217695 0.0008 3.43146e-06 -3.01644e-13 3.24849e-13 9.39772e-13 -1.04959e-09 -6.97763e-10 -1.0418e-09 -1.22606e-15 -2.16797e-16 2.06407e-17 0 0 0 0 0 0 0 0
63 1 -0.00231391 0.00553552 0.00633204 0.0008 3.43146e-06 -1.08328e-12 -1.63611e-13 -1.91251e-12 -1.02224e-09 5.47086e-11 1.16877e-09 7.9644e-16 1.73149e-16 -2.98544e-16 0 0 0 0 0 0 0 0
64 1 -0.0039185 0.00232294 0.000799546 0.0008 3.43146e-06 -3.69406e-13 3.32682e-14 -2.70609e-13 -1.94897e-11 -4.52301e-10 -3.77344e-10 1.46744e-17 -1.01944e-16 1.29918e-16 1 -7.29854e-06 2.21761e-05 0.000633427 -0.0039185 0.00232294 0 0.0008
65 1 0.000552342 0.00574783 0.00349185 0.0008 3.43146e-06 -2.38612e-13 1.66163e-12 7.35051e-13 5.01024e-10 5.1493e-10 -9.66559e-10 3.29006e-16 -5.41948e-16 1.85045e-16 0 0 0 0 0 0 0 0
66 1 0.00651004 0.00307609 0.00362028 0.0008 3.43146e-06 6.46937e-13 4.76385e-14 5.57592e-13 9.70675e-10 1.23596e-09 2.88385e-10 1.22925e-16 -5.82901e-17 -9.36211e-17 1 -0.000196028 -3.48786e-05 5.13009e-05 0.00723317 0.00341778 0.00362028 0.0008
67 1 0.00064315 0.00247744 0.00203058 0.0008 3.43146e-06 -2.67085e-13 -3.96259e-14 5.1511e-13 2.47368e-10 -1.02875e-09 4.97734e-10 1.97944e-16 -4.05845e-16 -8.34208e-16 0 0 0 0 0 0 0 0
68 1 -0.000945953 -0.00222518 0.00317923 0.0008 3.43146e-06 2.70934e-13 -3.89084e-13 7.71181e-13 5.01325e-10 -1.66656e-10 -1.11671e-10 -3.6731e-16 -2.36849e-16 9.35489e-16 0 0 0 0 0 0 0 0
69 1 -0.00285844 -0.0048396 0.0032945 0.0008 3.43146e-06 -8.13979e-13 6.90632e-13 1.08287e-12 -1.75381e-10 -8.11054e-10 -6.38941e-10 3.92258e-16 -7.93612e-17 1.9617e-17 0 0 0 0 0 0 0 0
70 1 -0.00558169 0.00218512 0.00317069 0.0008 3.43146e-06 -8.01909e-13 1.0835e-12 3.2422e-13 -1.88263e-10 -1.04282e-09 1.36147e-09 -6.36373e-16 1.75672e-16 2.49772e-16 0 0 0 0 0 0 0 0
71 1 0.00414842 0.00412273 0.000799911 0.0008 3.43146e-06 -2.68365e-13 -2.65466e-13 -1.79656e-13 3.20283e-10 -3.13876e-10 -7.57507e-10 2.24196e-17 -1.79201e-16 -1.43526e-16 1 2.9531e-06 -3.19487e-06 5.52183e-05 0.00414842 0.00412273 0 0.0008
72 1 0.00245345 -0.0036087 0.00490604 0.0008 3.43146e-06 6.50394e-13 -9.27158e-13 1.81686e-14 -1.6368e-09 6.47037e-11 -1.24268e-09 2.65997e-17 1.05329e-15 -2.37391e-15 0 0 0 0 0 0 0 0
73 1 0.000486158 -0.000257023 0.00461065 0.0008 3.43146e-06 1.35618e-13 1.35673e-13 -1.82543e-13 5.43026e-10 3.82097e-10 -2.96118e-10 4.74415e-17 6.00357e-16 -1.51028e-15 0 0 0 0 0 0 0 0
74 1 -0.00592528 0.00409142 0.00079959 0.0008 3.43146e-06 2.08869e-13 8.03778e-14 -1.47977e-13 -8.85633e-11 2.74063e-10 2.39907e-10 -3.92704e-17 -2.71649e-17 2.68598e-17 1 2.67937e-05 -0.000112614 0.000544087 -0.00592528 0.00409142 0 0.0008
75 1 -0.00471156 -0.0054449 0.00334974 0.0008 3.43146e-06 -4.34896e-13 -8.02319e-13 -2.08267e-13 1.57269e-09 2.21643e-09 -2.35852e-10 6.79905e-17 4.11839e-16 1.11005e-16 1 0.000315966 0.000432211 -6.83846e-06 -0.00523478 -0.00604956 0.00334974 0.0008
76 1 -0.00231606 0.00277144 0.000799252 0.0008 3.43146e-06 1.38476e-14 -3.06153e-13 2.69861e-13 3.76078e-10 1.48277e-11 -6.00767e-10 1.48564e-16 -3.95049e-17 -4.39322e-17 1 -0.000107212 0.000111663 0.00134115 -0.00231606 0.00277144 0 0.0008
77 1 -0.00545176 -0.00310706 0.00497955 0.0008 3.43146e-06 -3.12907e-13 -4.89156e-14 3.78341e-13 -2.06297e-10 -3.71843e-10 -2.77523e-09 2.23376e-16 -3.82362e-17 2.64764e-16 0 0 0 0 0 0 0 0
78 1 0.00373116 0.00383091 0.0027248 0.0008 3.43146e-06 -7.14502e-13 1.08075e-13 1.45085e-13 4.41805e-10 -3.09289e-10 7.50184e-10 1.98781e-16 -2.77275e-16 1.34736e-16 0 0 0 0 0 0 0 0
79 1 -0.0053508 0.00134216 0.00183096 0.0008 3.43146e-06 8.61365e-13 5.41804e-13 -1.18228e-14 -1.44119e-10 -6.90756e-10 -4.49616e-10 -5.66833e-16 -8.9359e-17 5.51162e-18 0 0 0 0 0 0 0 0
80 1 0.0035175 -0.00194385 0.000799932 0.0008 3.43146e-06 1.79363e-13 1.09322e-13 2.70431e-13 -1.29789e-10 2.26748e-10 -2.60528e-11 -5.79306e-18 -4.86936e-16 -2.33463e-17 1 5.64356e-07 -2.83509e-08 3.68925e-05 0.0035175 -0.00194385 0 0.0008
81 1 -0.00103185 0.00559347 0.00162186 0.0008 3.43146e-06 5.4166e-13 -1.29729e-13 2.55193e-14 -3.36562e-10 4.7219e-10 -1.0811e-09 -1.17117e-16 2.03642e-16 1.10982e-16 0 0 0 0 0 0 0 0
82 1 -0.00469474 -0.00312094 0.00210578 0.0008 3.43146e-06 1.3262e-12 -1.07087e-13 -1.08073e-12 -1.30432e-09 1.24353e-09 -1.05404e-09 -1.40379e-16 2.82527e-16 -4.73331e-16 0 0 0 0 0 0 0 0
83 1 -0.00317773 0.000651679 0.00223005 0.0008 3.43146e-06 6.63581e-13 -2.70947e-13 8.03876e-13 5.57218e-10 6.57115e-10 7.95619e-11 -7.78162e-17 -2.42025e-17 -8.22133e-17 0 0 0 0 0 0 0 0
84 1 0.00127867 0.00417665 0.00528959 0.0008 3.43146e-06 -5.42118e-13 1.5532e-12 -1.40421e-12 2.95944e-10 1.00129e-09 1.50484e-09 -5.68049e-16 5.55069e-17 2.3104e-16 0 0 0 0 0 0 0 0
85 1 0.00169563 0.00355088 0.00257643 0.0008 3.43146e-06 -5.13478e-13 3.69294e-13 4.62418e-13 -5.52008e-10 8.70379e-10 -1.91575e-12 7.03649e-17 -3.45664e-17 -3.58732e-16 0 0 0 0 0 0 0 0
86 1 -0.0040358 -0.00376712 0.000799537 0.0008 3.43146e-06 -1.76851e-13 -4.82185e-13 -2.70921e-13 6.33575e-10 -1.88276e-10 -8.16752e-11 -2.59882e-16 3.73838e-16 6.5461e-16 1 -6.10669e-06 9.13723e-06 0.000651994 -0.0040358 -0.00376712 0 0.0008
87 1 -0.00317298 -0.00169439 0.00531889 0.0008 3.43146e-06 5.90164e-13 5.39878e-13 1.56833e-12 2.00285e-09 -2.67101e-09 -1.26367e-09 2.09248e-16 -1.48169e-16 1.48521e-15 0 0 0 0 0 0 0 0
88 1 -0.00445594 0.00100489 0.00334696 0.0008 3.43146e-06 -1.06225e-12 2.61896e-13 1.08407e-12 -1.31588e-10 -1.5083e-09 -1.54363e-13 -2.09644e-16 -3.13033e-16 2.9831e-16 0 0 0 0 0 0 0 0
89 1 0.000308106 0.00530258 0.000799221 0.0008 3.43146e-06 1.33948e-13 -1.38096e-13 -2.70705e-13 1.69734e-10 1.63545e-10 1.11324e-09 1.40691e-16 1.62479e-16 4.00849e-17 1 -8.25817e-05 0.000197002 0.00142598 0.000308106 0.00530258 0 0.0008
90 1 0.00292563 0.00657947 0.000799578 0.0008 3.43146e-06 5.18045e-14 -2.046e-13 -1.81499e-13 2.64516e-10 6.54309e-11 1.63202e-10 2.04748e-16 -8.3805e-17 9.32768e-17 1 -6.55083e-05 -1.04064e-05 0.000567087 0.00292563 0.00657947 0 0.0008
91 1 0.00176965 -3.87827e-06 0.00368988 0.0008 3.43146e-06 1.07176e-13 1.04901e-14 -6.36646e-15 4.21638e-10 -3.45767e-10 -4.56664e-10 6.66498e-17 5.08735e-16 -1.33566e-15 0 0 0 0 0 0 0 0
92 1 0.00449437 0.000668914 0.00203955 0.0008 3.43146e-06 6.9912e-13 -1.45868e-13 1.02568e-14 5.8117e-10 1.68523e-10 9.62918e-10 -2.26516e-16 -2.36836e-16 -4.14815e-16 0 0 0 0 0 0 0 0
93 1 -0.000319949 0.00281243 0.000798932 0.0008 3.43146e-06 9.89658e-14 2.4509e-13 -2.70823e-13 -3.03492e-10 1.22207e-10 -9.67212e-10 4.63063e-17 -1.26503e-16 -7.26131e-17 1 -0.000257669 0.000302464 0.00228569 -0.000319949 0.00281243 0 0.0008
94 1 -0.000726093 -0.0021752 0.00148147 0.0008 3.43146e-06 -2.7072e-13 -2.09408e-13 5.41917e-13 -1.80381e-10 -5.95726e-11 -1.53442e-10 -2.15969e-16 3.07992e-16 -1.70988e-16 0 0 0 0 0 0 0 0
95 1 0.00121837 0.00163295 0.00079969 0.0008 3.43146e-06 3.04379e-13 -1.28357e-13 1.11924e-13 1.45346e-10 3.80414e-10 -6.02322e-10 -1.4666e-16 1.76072e-16 -5.85615e-16 1 -4.35904e-05 1.82054e-05 0.000358159 0.00121837 0.00163295 0 0.0008
96 1 9.04442e-05 0.000687885 0.00142741 0.0008 3.43146e-06 4.64694e-15 2.41621e-13 2.89297e-13 5.6792e-10 4.72518e-10 -5.23633e-10 -1.48366e-16 -2.35031e-16 -5.89165e-16 0 0 0 0 0 0 0 0
97 1 -0.00120024 0.0041337 0.000989983 0.0008 3.43146e-06 1.42308e-13 4.91778e-13 1.388e-13 5.80096e-10 3.29865e-10 7.81436e-10 1.43893e-17 -7.75123e-17 1.30669e-16 0 0 0 0 0 0 0 0
98 1 -0.00187723 -0.00695153 0.00524926 0.0008 3.43146e-06 -3.64834e-13 -1.39769e-12 8.76915e-13 1.35925e-09 8.46483e-10 -1.30568e-11 1.30917e-16 1.02302e-15 1.57698e-16 1 0.000284086 0.000787699 0.000178116 -0.00208565 -0.00772335 0.00524926 0.0008
99 1 0.00220834 0.00409394 0.00399092 0.0008 3.43146e-06 -1.06299e-12 1.92554e-12 -1.81213e-13 -1.46803e-09 -1.23368e-09 7.95886e-10 1.66225e-16 -7.48757e-16 2.2994e-16 0 0 0 0 0 0 0 0
100 1 0.00720037 -8.75619e-06 0.00338141 0.0008 3.43146e-06 -1.81315e-13 -2.3684e-16 -2.25197e-13 1.05049e-09 -2.79541e-10 -5.66296e-12 -1.75731e-16 -1.5982e-17 9.99947e-17 1 -0.000480047 0.000171201 -3.52507e-05 0.00799999 -9.7286e-06 0.00338141 0.0008
101 1 -0.0037221 0.00508994 0.00189654 0.0008 3.43146e-06 3.71845e-13 6.4589e-13 2.51597e-13 -5.04967e-10 8.77024e-10 -1.54772e-09 -6.86117e-17 -2.69714e-17 8.15348e-17 0 0 0 0 0 0 0 0
102 1 0.00682246 0.00230269 0.00222002 0.0008 3.43146e-06 2.57223e-14 -7.91073e-15 5.14961e-13 2.72996e-10 7.68273e-10 2.01236e-11 3.80964e-17 -1.03164e-16 -1.21705e-16 1 -0.000852127 -0.000411933 0.000201074 0.0075799 0.00255833 0.00222002 0.0008
103 1 0.000141395 0.000200805 0.00309987 0.0008 3.43146e-06 6.75505e-14 -6.75611e-14 5.60393e-13 -4.11596e-10 -3.0248e-10 2.26751e-10 1.64312e-16 1.13545e-16 -9.24464e-16 0 0 0 0 0 0 0 0
104 1 -0.00536346 -0.00107052 0.00312004 0.0008 3.43146e-06 4.30551e-13 -2.38557e-13 -8.80352e-14 1.6305e-10 6.89377e-10 1.96615e-09 3.46111e-16 -1.02115e-16 3.09139e-16 0 0 0 0 0 0 0 0
105 1 -0.000294569 -0.00719439 0.00516036 0.0008 3.43146e-06 1.1348e-13 -9.47488e-13 5.38249e-14 9.14253e-11 1.0118e-09 -2.0032e-10 1.08638e-16 -2.65465e-16 2.17724e-16 1 -9.16295e-07 0.000568453 3.35402e-06 -0.00032728 -0.0079933 0.00516036 0.0008
106 1 -0.00593581 -0.00116153 0.00162971 0.0008 3.43146e-06 4.75835e-14 -8.95882e-14 -4.28793e-13 4.61223e-10 -3.52006e-10 -9.22005e-10 3.25907e-18 -2.39518e-16 -5.4831e-17 0 0 0 0 0 0 0 0
107 1 0.00288436 -0.001119 0.00395836 0.0008 3.43146e-06 -9.40137e-13 5.02427e-13 2.90513e-13 -6.62561e-11 -8.92914e-10 1.27601e-10 -6.49912e-16 -6.35346e-16 -7.5552e-16 0 0 0 0 0 0 0 0
108 1 0.00429192 -0.00509057 0.00266045 0.0008 3.43146e-06 1.2421e-12 -4.0498e-14 1.02939e-12 1.25163e-09 -7.10519e-10 -1.40675e-09 -3.87933e-16 2.40478e-16 -5.23658e-16 0 0 0 0 0 0 0 0
109 1 -0.00234017 0.00376722 0.0020505 0.0008 3.43146e-06 7.88421e-13 7.14744e-13 4.78648e-13 -1.2006e-09 3.89785e-10 -4.86241e-10 1.94484e-16 -1.67528e-16 -1.23666e-17 0 0 0 0 0 0 0 0
110 1 0.0004672 0.00640007 0.00195211 0.0008 3.43146e-06 -1.35469e-13 3.21328e-13 -5.4131e-13 -6.7576e-10 4.87778e-10 1.28562e-10 7.78175e-17 5.92314e-16 4.08369e-18 0 0 0 0 0 0 0 0
111 1 -0.000798287 0.00466839 0.00423307 0.0008 3.43146e-06 -1.7976e-13 -1.32624e-12 -5.24293e-13 -3.93315e-10 1.73564e-10 -2.60551e-10 1.19208e-16 -3.14126e-16 -1.73181e-16 0 0 0 0 0 0 0 0
112 1 -0.000294274 -0.00501815 0.00197897 0.0008 3.43146e-06 -1.35527e-13 2.25118e-13 6.00057e-13 2.9089e-10 -3.81759e-10 -2.224e-11 -2.17436e-16 -1.98103e-16 -3.50518e-16 0 0 0 0 0 0 0 0
113 1 -0.00720012 4.80758e-05 0.0038896 0.0008 3.43146e-06 5.72339e-13 -8.86473e-14 -8.45511e-13 -4.13407e-10 1.0371e-09 -1.44265e-10 3.05697e-16 2.06669e-16 1.72847e-16 1 0.000320003 -2.87573e-05 -4.399e-05 -0.00799982 5.34154e-05 0.0038896 0.0008
114 1 -0.00680531 0.0023533 0.00581857 0.0008 3.43146e-06 -1.7531e-12 7.76991e-13 -6.27099e-13 -9.78806e-10 1.16879e-09 1.89674e-10 -2.47117e-16 -3.73223e-17 -1.23276e-16 1 0.0011412 -0.000598635 3.6886e-05 -0.00756071 0.00261452 0.00581857 0.0008
115 1 -0.0012462 0.00709201 0.00213741 0.0008 3.43146e-06 5.40882e-13 6.41026e-13 3.88291e-14 1.06128e-10 -8.77898e-10 8.0498e-10 -4.63366e-17 1.24876e-15 1.46096e-16 1 0.000378483 -0.0011273 0.000112377 -0.00138454 0.00787928 0.00213741 0.0008
116 1 -0.000821025 -0.000849682 0.00237203 0.0008 3.43146e-06 2.70952e-13 2.7029e-13 1.08344e-12 3.18568e-10 7.80191e-10 -2.11601e-10 -7.57917e-16 6.13713e-16 1.08672e-16 0 0 0 0 0 0 0 0
117 1 0.00704946 0.0014655 0.000799858 0.0008 3.43146e-06 -1.1128e-13 -3.62994e-13 -1.35111e-13 4.68381e-10 -1.00359e-10 4.03797e-10 1.18251e-16 5.70425e-17 6.35912e-18 1 6.02749e-07 -8.16846e-06 0.000110804 0.00704946 0.0014655 0 0.0008
118 1 0.0050521 0.00292395 0.00135312 0.0008 3.43146e-06 -6.86144e-13 1.85987e-13 -3.11051e-13 -1.42937e-10 -1.02445e-10 8.40413e-10 -1.06421e-17 -3.79396e-17 -9.36583e-17 0 0 0 0 0 0 0 0
119 1 -0.00179372 0.00162111 0.00377152 0.0008 3.43146e-06 -4.82633e-13 -8.89634e-14 8.49973e-13 9.27554e-10 -5.4379e-10 1.18837e-09 1.16474e-15 2.35776e-16 6.07682e-16 0 0 0 0 0 0 0 0
120 1 -0.0020357 -0.00338404 0.00334947 0.0008 3.43146e-06 9.18494e-13 1.04789e-12 9.51461e-13 -9.59831e-10 2.36922e-10 -5.00331e-10 -4.62174e-16 4.46308e-16 1.53756e-15 0 0 0 0 0 0 0 0
121 1 0.00383749 6.28535e-06 0.00333876 0.0008 3.43146e-06 2.85877e-13 6.65355e-15 2.53666e-13 -9.61702e-10 -5.59953e-10 -1.07599e-09 -3.7615e-16 3.76252e-16 1.76344e-16 0 0 0 0 0 0 0 0
122 1 -0.0046659 0.00349784 0.00158645 0.0008 3.43146e-06 1.06889e-13 -1.19285e-13 -4.50285e-13 4.15958e-10 -6.98159e-11 -4.29023e-10 6.12097e-17 -2.61471e-16 1.3779e-16 0 0 0 0 0 0 0 0
123 1 0.00653356 -0.00302572 0.00228295 0.0008 3.43146e-06 -9.92703e-14 9.25484e-13 -5.72629e-13 -1.0557e-09 -3.00941e-10 -9.9762e-10 2.68265e-16 5.79324e-17 8.07771e-17 1 -0.000125868 5.39655e-05 3.26898e-05 0.00725934 -0.00336183 0.00228295 0.0008
124 1 0.00288946 -0.00659514 0.00239746 0.0008 3.43146e-06 3.63321e-14 -8.60837e-14 -3.81079e-13 -5.93609e-10 2.03e-10 1.77609e-11 3.42145e-17 -3.11601e-16 2.86814e-17 1 -0.00010359 0.000409658 4.1521e-05 0.00321036 -0.00732759 0.00239746 0.0008
125 1 -0.00703556 0.00153347 0.0033153 0.0008 3.43146e-06 -6.68399e-13 6.27881e-14 -2.7039e-13 3.61312e-10 2.71834e-10 -1.07134e-10 -6.1838e-16 1.02261e-16 1.82392e-16 1 0.00131223 -0.000243701 0.000252269 -0.00781649 0.00170368 0.0033153 0.0008
126 1 0.00301067 0.00654043 0.00355646 0.0008 3.43146e-06 3.66893e-13 6.25243e-14 7.80096e-13 -4.77715e-10 1.27973e-09 3.87374e-10 4.80443e-16 -4.66393e-16 -1.4823e-16 1 -1.10474e-05 -6.03596e-05 -2.43941e-06 0.00334514 0.00726705 0.00355646 0.0008
127 1 0.00274044 0.00114003 0.000799736 0.0008 3.43146e-06 -1.50298e-13 -2.12894e-13 -1.20026e-13 2.81852e-10 -2.0136e-10 3.55734e-10 4.4253e-16 -3.49812e-16 -5.75296e-16 1 -6.57025e-06 -4.53581e-05 0.000280989 0.00274044 0.00114003 0 0.0008
128 1 0.0042891 -0.00238189 0.00213136 0.0008 3.43146e-06 -1.14797e-13 4.19628e-13 1.08106e-12 -3.20719e-10 -1.09695e-09 3.53445e-10 -2.15366e-16 7.5331e-17 -2.89678e-17 0 0 0 0 0 0 0 0
129 1 0.00603729 -0.00392414 0.000799348 0.0008 3.43146e-06 4.56135e-13 7.28249e-13 -1.24559e-14 -9.09862e-10 5.71376e-10 -1.07404e-09 2.16835e-16 2.79648e-16 2.8488e-17 1 -0.000139404 -3.85198e-05 0.00109072 0.00603729 -0.00392414 0 0.0008
130 1 0.00178663 -0.00266729 0.00337771 0.0008 3.43146e-06 -1.70375e-13 4.49183e-13 1.90594e-13 -1.32243e-09 -1.77894e-10 -1.34929e-10 1.64009e-16 6.38396e-16 -4.17922e-16 0 0 0 0 0 0 0 0
131 1 -0.00233321 -0.00140961 0.00371485 0.0008 3.43146e-06 -8.61762e-13 -5.42272e-13 1.66789e-12 1.36252e-09 -6.04625e-10 2.32667e-10 2.39632e-15 3.96226e-16 7.61775e-16 0 0 0 0 0 0 0 0
132 1 -2.86837e-05 0.00172202 0.0035656 0.0008 3.43146e-06 3.67806e-14 5.41966e-13 2.20169e-14 -4.15809e-10 -4.79501e-10 -5.10812e-10 6.12453e-16 -2.63719e-16 -1.01913e-15 0 0 0 0 0 0 0 0
133 1 -0.00686832 -0.00216122 0.000799584 0.0008 3.43146e-06 1.41894e-13 4.00513e-13 -2.55925e-13 -4.9866e-10 1.79481e-10 4.34765e-10 7.46612e-17 1.77818e-16 -1.32212e-16 1 6.40591e-05 9.99721e-05 0.000556911 -0.00686832 -0.00216122 0 0.0008
134 1 -0.00242631 -0.00325513 0.000799209 0.0008 3.43146e-06 -6.69223e-14 -5.86883e-14 2.70189e-13 7.29659e-11 -8.28061e-11 4.30772e-10 -2.9783e-16 2.80052e-16 1.44121e-16 1 -0.000110561 8.66822e-05 0.00145791 -0.00242631 -0.00325513 0 0.0008
135 1 -0.00622146 -0.00362449 0.000799718 0.0008 3.43146e-06 4.0196e-13 -1.46464e-13 -2.15427e-13 1.77502e-10 4.45306e-10 -4.19889e-10 5.45328e-17 -5.43346e-18 9.78955e-18 1 6.64161e-06 5.06448e-05 0.000309925 -0.00622146 -0.00362449 0 0.0008
136 1 -0.00487534 0.0052984 0.000799913 0.0008 3.43146e-06 -8.62065e-14 -2.8887e-13 -6.54317e-14 3.31288e-10 -1.72298e-10 -3.02793e-10 2.70232e-17 6.07016e-17 3.2052e-18 1 1.08533e-05 5.9929e-06 5.30525e-05 -0.00487534 0.0052984 0 0.0008
137 1 0.00144025 -0.00705445 0.000799936 0.0008 3.43146e-06 1.13689e-40 2.58305e-41 8.81855e-14 -3.22873e-38 1.42108e-37 -0.120349 -4.06034e-44 -9.22519e-45 4.14376e-22 1 1.62412e-44 3.69004e-45 3.36626e-05 0.00144025 -0.00705445 0 0.0008
138 1 0.00130525 -0.000141645 0.000799679 0.0008 3.43146e-06 -2.47775e-13 -3.16928e-14 -9.13935e-14 3.90674e-11 -3.1637e-10 -1.49187e-10 -4.33867e-16 1.8872e-16 -7.28715e-16 1 -7.96442e-05 2.51868e-06 0.00037663 0.00130525 -0.000141645 0 0.0008
139 1 -0.00706119 0.00138305 0.000799936 0.0008 3.43146e-06 1.61753e-40 -9.88408e-41 1.32202e-13 1.23548e-37 2.02186e-37 0.228115 -5.7769e-44 3.53004e-44 -5.56378e-21 1 2.31074e-44 -1.412e-44 3.36626e-05 -0.00706119 0.00138305 0 0.0008
140 1 0.00512875 0.00418754 0.00341603 0.0008 3.43146e-06 -5.2707e-13 -8.29678e-14 6.52792e-13 1.97304e-09 4.04378e-10 6.45004e-11 3.12991e-17 -3.03916e-16 1.79418e-16 0 0 0 0 0 0 0 0
141 1 -0.00417351 -0.00586813 0.00572825 0.0008 3.43146e-06 -2.09175e-13 -1.18053e-12 2.13689e-12 3.79521e-09 7.28048e-10 -6.39963e-10 9.00593e-17 3.34393e-16 4.1445e-16 1 0.000969728 0.00159056 0.000343199 -0.00463665 -0.00651932 0.00572825 0.0008
142 1 -0.00187135 -0.0047564 0.00203848 0.0008 3.43146e-06 -3.81273e-13 6.37803e-13 9.7942e-13 9.81278e-10 5.65124e-10 -4.60646e-10 -2.86792e-16 -5.69515e-16 1.51629e-16 0 0 0 0 0 0 0 0
143 1 0.00208439 0.00251976 0.00373567 0.0008 3.43146e-06 2.58721e-13 7.69801e-13 8.1438e-13 -1.07365e-10 -2.69116e-10 7.13239e-10 8.45934e-16 -7.44246e-16 -1.30466e-15 0 0 0 0 0 0 0 0
144 1 0.00546555 0.00468744 0.00614924 0.0008 3.43146e-06 4.65822e-13 -3.75195e-13 -9.0641e-13 -4.87867e-10 -1.9145e-09 7.38732e-10 -5.05967e-16 4.72417e-16 -5.46314e-16 1 -0.000330935 -0.000156832 -6.50906e-05 0.00607258 0.00520805 0.00614924 0.0008
145 1 0.000336067 -0.00589533 0.000799307 0.0008 3.43146e-06 1.0839e-13 4.88122e-14 2.57146e-13 -5.51038e-11 1.23136e-10 -1.31042e-10 -1.48113e-17 -1.00707e-16 -3.70208e-16 1 8.34311e-05 0.000121385 0.00119622 0.000336067 -0.00589533 0 0.0008
146 1 -0.00396678 0.00175255 0.00467416 0.0008 3.43146e-06 -1.42582e-12 5.419e-13 6.97308e-13 -5.16725e-10 1.2423e-09 1.98121e-10 -7.33403e-16 -4.86557e-16 1.44548e-15 0 0 0 0 0 0 0 0
147 1 0.00702098 -0.00159675 0.00345518 0.0008 3.43146e-06 -1.60627e-13 -5.61817e-14 -8.86515e-13 -3.6926e-10 -1.05014e-09 1.0751e-10 2.75126e-17 1.63847e-16 1.6741e-16 1 -0.000277323 7.7503e-05 1.32172e-05 0.0078008 -0.0017741 0.00345518 0.0008
148 1 -0.00358553 0.00624474 0.000799257 0.0008 3.43146e-06 3.19423e-13 1.02103e-13 -7.33663e-14 -1.188e-10 3.84896e-10 4.12511e-10 -5.17316e-17 2.68758e-17 -3.95024e-17 1 3.11407e-05 -0.000219743 0.00132789 -0.00358553 0.00624474 0 0.0008
149 1 -0.00199959 -0.0014887 0.000799406 0.0008 3.43146e-06 -3.05374e-13 -1.82602e-13 1.79001e-13 2.26538e-10 -3.9118e-10 2.61049e-10 2.08435e-16 1.43044e-16 5.11507e-16 1 4.93179e-05 -9.1792e-05 0.000948384 -0.00199959 -0.0014887 0 0.0008
150 1 0.00231908 -0.000244996 0.00517248 0.0008 3.43146e-06 -9.04877e-14 -4.55584e-14 -1.32665e-12 -4.80644e-10 8.90407e-10 -5.78433e-10 -2.34792e-15 -1.58127e-15 4.99053e-16 0 0 0 0 0 0 0 0
151 1 -0.00405364 -0.00595112 0.000799683 0.0008 3.43146e-06 -2.30428e-13 5.08434e-14 7.64304e-14 -7.69213e-11 -2.90358e-10 2.67613e-10 2.16751e-16 -1.00225e-16 -2.0563e-17 1 1.41619e-05 3.49365e-05 0.000369925 -0.00405364 -0.00595112 0 0.0008
152 1 -0.00427696 0.000755992 0.000799915 0.0008 3.43146e-06 5.27971e-13 6.89448e-14 2.70827e-13 -6.07967e-11 5.8242e-10 -3.33203e-10 -7.14151e-17 -1.63815e-16 1.45334e-16 1 -6.66242e-07 3.56854e-06 5.17227e-05 -0.00427696 0.000755992 0 0.0008
153 1 -0.00665054 0.00275872 0.0042694 0.0008 3.43146e-06 -2.36042e-14 6.02122e-13 -9.46401e-13 -1.00317e-09 1.70858e-09 6.73843e-10 -7.5361e-16 -1.75278e-16 -2.00862e-16 1 2.95343e-06 -1.05188e-06 -3.39654e-07 -0.00738947 0.00306524 0.0042694 0.0008
154 1 -7.60029e-05 -0.0065897 0.0021828 0.0008 3.43146e-06 -2.05534e-14 -8.64705e-15 4.70573e-13 -9.91422e-11 4.17899e-11 1.52089e-10 -1.79513e-16 -9.09778e-17 -7.1176e-16 0 0 0 0 0 0 0 0
155 1 -0.00210703 0.00278293 0.0048257 0.0008 3.43146e-06 -6.13667e-14 -8.74209e-13 3.69623e-13 -8.45387e-10 1.30488e-09 -8.78541e-10 2.83953e-16 8.25669e-16 -1.04802e-15 0 0 0 0 0 0 0 0
156 1 0.00655187 0.00298609 0.000799537 0.0008 3.43146e-06 -2.51952e-13 3.12527e-13 -1.27424e-13 -3.70598e-10 -3.24051e-10 -5.0446e-10 2.875e-17 -1.22707e-16 -6.6467e-17 1 0.000104004 -7.79473e-05 0.000652033 0.00655187 0.00298609 0 0.0008
157 1 0.00425646 0.00165109 0.000799526 0.0008 3.43146e-06 6.87797e-14 1.41692e-13 3.81411e-14 -1.75652e-10 6.45258e-11 -2.78874e-11 1.45754e-17 -3.27012e-16 -2.50297e-16 1 2.6686e-05 -7.40919e-07 0.000675779 0.00425646 0.00165109 0 0.0008
158 1 0.00272714 0.00418563 0.0015316 0.0008 3.43146e-06 -8.18581e-13 1.75001e-13 -1.94848e-13 1.26077e-10 -6.1677e-11 -6.05029e-11 -1.08538e-16 -2.42542e-16 7.92974e-17 0 0 0 0 0 0 0 0
159 1 0.00318541 0.00283943 0.000799378 0.0008 3.43146e-06 -3.03164e-13 5.23057e-14 -2.68925e-13 -6.46047e-11 -3.76286e-10 4.61547e-10 -1.26801e-16 -5.03575e-16 -2.32553e-17 1 -3.25768e-05 1.26077e-05 0.00101766 0.00318541 0.00283943 0 0.0008
160 1 0.00192366 -0.00177271 0.000799812 0.0008 3.43146e-06 -3.53782e-14 -4.84395e-14 1.98743e-13 3.85568e-12 -6.9081e-11 -1.78616e-10 -3.68355e-16 2.14638e-16 -3.25237e-17 1 -1.37037e-05 1.39189e-05 0.000169546 0.00192366 -0.00177271 0 0.0008
161 1 0.00507094 -0.00511264 0.00126349 0.0008 3.43146e-06 1.31908e-12 -1.06324e-13 5.2595e-13 4.23624e-11 8.92433e-10 -1.07682e-09 1.10675e-16 1.83266e-16 -7.53743e-17 1 -0.00130594 0.00144381 0.00036429 0.00563364 -0.00567997 0.00126349 0.0008
162 1 -0.00578196 0.000197573 0.000799786 0.0008 3.43146e-06 5.10429e-13 6.76276e-14 -2.56495e-13 -9.96157e-11 6.4161e-10 7.35794e-11 -2.83241e-16 1.48549e-16 -1.00783e-16 1 1.8021e-05 3.05411e-05 0.00020493 -0.00578196 0.000197573 0 0.0008
163 1 0.000430778 0.00415935 0.00334422 0.0008 3.43146e-06 -1.35075e-13 -6.00974e-13 9.8221e-14 9.77282e-11 -5.67278e-10 1.30624e-09 -9.86572e-17 -3.62198e-16 -4.38508e-16 0 0 0 0 0 0 0 0
164 1 0.000528016 -0.00274661 0.00239411 0.0008 3.43146e-06 1.38777e-13 -5.87518e-14 6.99937e-14 -4.76579e-10 -2.63596e-10 -4.26784e-10 -4.18881e-16 9.49728e-16 -4.55525e-16 0 0 0 0 0 0 0 0
165 1 -0.0041711 -0.00485941 0.00196274 0.0008 3.43146e-06 -8.6082e-13 1.25004e-13 2.44375e-13 2.65571e-10 -1.25565e-09 -8.09303e-10 2.14572e-16 2.62704e-16 2.84368e-16 0 0 0 0 0 0 0 0
166 1 -0.00319574 0.00645253 0.00373472 0.0008 3.43146e-06 -6.04494e-13 1.75439e-12 5.27619e-13 -2.13255e-09 2.82368e-09 3.00797e-10 1.51272e-16 1.32412e-16 -5.09467e-17 1 0.000390646 -0.000756849 -3.34085e-05 -0.00355055 0.00716893 0.00373472 0.0008
167 1 0.00130951 0.00125805 0.00282182 0.0008 3.43146e-06 -8.87223e-14 4.97335e-13 2.21242e-13 1.35851e-10 4.77327e-10 4.85987e-10 7.05155e-16 5.08907e-17 -1.89822e-15 0 0 0 0 0 0 0 0
168 1 0.00507257 -0.000946552 0.00214731 0.0008 3.43146e-06 2.33347e-13 2.67815e-13 -2.00534e-13 -6.60837e-10 -3.55994e-10 -9.64674e-10 -8.07961e-16 2.37323e-16 4.60798e-16 0 0 0 0 0 0 0 0
169 1 0.00276633 0.00509795 0.00287799 0.0008 3.43146e-06 -5.80763e-13 1.76443e-13 4.0921e-15 -3.7174e-10 -1.29489e-10 -9.84721e-10 -2.05641e-16 -7.66205e-17 -2.02268e-17 0 0 0 0 0 0 0 0
170 1 0.00325405 0.00642274 0.00513337 0.0008 3.43146e-06 -8.48056e-14 9.46464e-13 -1.7414e-13 -5.80199e-10 -1.62847e-09 -6.30762e-10 3.20424e-16 -2.4606e-16 -1.16103e-16 1 -5.6096e-06 -8.34322e-06 4.10332e-07 0.0036156 0.00713635 0.00513337 0.0008
171 1 0.00298903 0.0013464 0.00313391 0.0008 3.43146e-06 1.08364e-12 5.38402e-13 3.82743e-14 7.35958e-10 4.06281e-10 -1.27761e-10 2.35662e-16 -9.59114e-17 -5.98501e-16 0 0 0 0 0 0 0 0
172 1 -0.00578008 -0.00429347 0.00218456 0.0008 3.43146e-06 2.21948e-13 4.1537e-14 1.27386e-13 8.53907e-10 4.41642e-10 -1.32034e-10 -1.274e-16 -2.17443e-18 -1.71805e-17 1 0.000178842 0.000123929 -1.2957e-05 -0.00642211 -0.00477037 0.00218456 0.0008
173 1 0.00560155 0.000785157 0.000799839 0.0008 3.43146e-06 2.31892e-13 -2.71003e-13 -2.70557e-13 3.39553e-10 2.92373e-10 -3.07667e-10 1.04549e-17 -1.25962e-16 3.02903e-16 1 2.24649e-05 -7.93006e-07 0.000133844 0.00560155 0.000785157 0 0.0008
174 1 0.00043428 -0.00137544 0.00321214 0.0008 3.43146e-06 1.35579e-13 4.81732e-13 -2.92389e-14 5.74241e-11 2.32398e-10 3.66609e-10 4.28368e-16 -2.67483e-16 -5.12242e-16 0 0 0 0 0 0 0 0
175 1 0.00194293 -0.00500898 0.000799698 0.0008 3.43146e-06 1.96657e-13 -4.65897e-14 -9.66726e-15 5.51894e-11 2.30059e-10 -7.15749e-12 -3.87924e-17 -4.21164e-16 -8.13266e-17 1 -1.24012e-05 -2.0986e-05 0.00034425 0.00194293 -0.00500898 0 0.0008
176 1 0.00286812 -0.000481564 0.000799132 0.0008 3.43146e-06 -5.51478e-14 6.89542e-14 2.08479e-13 -7.84441e-11 -5.77944e-11 3.21481e-10 3.28052e-17 1.84871e-16 -1.97339e-16 1 -0.000162735 6.18187e-05 0.00167462 0.00286812 -0.000481564 0 0.0008
177 1 -0.00101154 0.00590057 0.00319129 0.0008 3.43146e-06 -4.84196e-13 2.16277e-12 -7.35319e-13 -2.67599e-09 -2.01601e-09 -2.62299e-12 1.38503e-16 4.54261e-17 1.12906e-16 0 0 0 0 0 0 0 0
178 1 0.00553463 0.00236207 0.00468394 0.0008 3.43146e-06 -1.5854e-12 6.30083e-13 8.14487e-13 2.82202e-09 -2.92309e-10 1.13203e-09 -8.5078e-17 3.01945e-16 6.37541e-17 0 0 0 0 0 0 0 0
179 1 -0.00235313 0.00522563 0.000799406 0.0008 3.43146e-06 -1.60218e-13 4.47426e-13 1.86737e-13 -5.76835e-10 -2.05595e-10 -4.78478e-10 -1.45703e-16 -5.09717e-18 2.97225e-17 1 0.000132192 -3.5447e-05 0.000948348 -0.00235313 0.00522563 0 0.0008
180 1 0.00559753 -0.0045287 0.00340806 0.0008 3.43146e-06 2.0357e-12 5.73544e-13 -7.17563e-14 1.06766e-09 -9.73917e-10 -2.15277e-09 2.86565e-16 -5.34648e-16 -5.74107e-17 1 -6.30231e-05 2.97743e-05 1.16579e-05 0.00621939 -0.00503181 0.00340806 0.0008
181 1 0.00573069 0.00435916 0.000799139 0.0008 3.43146e-06 2.04975e-13 -4.02363e-13 -5.5895e-14 5.07034e-10 2.72798e-10 5.2078e-10 -5.43369e-17 -3.43713e-17 -4.21665e-17 1 4.35543e-06 -2.07655e-05 0.00165532 0.00573069 0.00435916 0 0.0008
182 1 -0.00129925 -0.00571785 0.000799936 0.0008 3.43146e-06 1.622e-40 -9.96409e-41 1.32202e-13 1.24548e-37 2.02746e-37 -1.30286 -5.79289e-44 3.55861e-44 1.21262e-21 1 2.31713e-44 -1.42343e-44 3.36626e-05 -0.00129925 -0.00571785 0 0.0008
183 1 -0.00209872 0.00688539 0.000799648 0.0008 3.43146e-06 7.78307e-13 3.68594e-14 2.70718e-13 -4.35855e-11 9.65141e-10 7.81466e-10 -1.74071e-16 1.02925e-16 1.95194e-16 1 -2.24519e-05 -1.33682e-05 0.00043242 -0.00209872 0.00688539 0 0.0008
184 1 0.0051631 -0.00252617 0.000799572 0.0008 3.43146e-06 6.55639e-13 -6.53664e-14 2.69639e-13 8.16929e-11 8.19989e-10 -8.62537e-10 -7.70873e-18 -3.50172e-16 9.05118e-17 1 -0.000163028 2.69118e-05 0.000580532 0.0051631 -0.00252617 0 0.0008
185 1 -0.00318016 0.000307036 0.00401219 0.0008 3.43146e-06 2.5424e-13 4.45752e-14 3.27133e-13 -6.53687e-10 3.6712e-09 -2.03182e-10 4.43604e-16 -5.57883e-16 -3.17934e-18 0 0 0 0 0 0 0 0
186 1 -0.00417673 -0.00393758 0.00338034 0.0008 3.43146e-06 1.14787e-12 8.39578e-13 -2.83445e-13 -1.03937e-09 -3.03711e-10 -8.90878e-10 -1.60528e-16 2.97031e-16 1.31972e-17 0 0 0 0 0 0 0 0
187 1 0.00214205 0.00684112 0.00216964 0.0008 3.43146e-06 -1.07787e-12 7.07065e-14 4.23531e-13 -7.59491e-10 -7.71401e-10 4.79476e-10 1.09207e-16 -1.40495e-16 2.424e-16 0 0 0 0 0 0 0 0
188 1 -0.00384409 -0.00298937 0.00466173 0.0008 3.43146e-06 8.51943e-13 1.07965e-12 3.59637e-13 -2.02042e-09 -1.09053e-09 -2.30152e-10 3.31832e-16 -1.33831e-16 -4.11587e-16 0 0 0 0 0 0 0 0
189 1 0.00352101 -0.00368899 0.00264267 0.0008 3.43146e-06 9.14762e-13 7.09437e-13 7.63505e-13 -7.27184e-10 -8.95784e-10 1.33416e-09 -8.48583e-16 -1.50794e-16 -5.69321e-17 0 0 0 0 0 0 0 0
190 1 0.00400597 -0.0039793 0.00441892 0.0008 3.43146e-06 6.00796e-14 -7.87554e-14 2.55411e-13 4.61468e-10 2.41965e-10 1.74184e-10 4.02564e-16 -1.61742e-16 3.54039e-16 0 0 0 0 0 0 0 0
191 1 0.00488598 -0.00301356 0.00349704 0.0008 3.43146e-06 4.68087e-13 8.61951e-13 6.30557e-13 -5.36199e-10 -1.93702e-09 1.25522e-09 4.2526e-16 -1.06582e-16 4.29277e-16 0 0 0 0 0 0 0 0
192 1 -0.000914349 0.00364312 0.00545547 0.0008 3.43146e-06 1.47049e-13 -9.70649e-13 -8.25773e-13 2.03204e-10 -2.66985e-12 6.98556e-10 -4.51288e-16 5.19531e-16 -1.68537e-16 0 0 0 0 0 0 0 0
193 1 -0.00337293 -0.00251483 0.00320884 0.0008 3.43146e-06 1.86625e-13 6.52035e-14 1.08397e-12 8.74949e-10 1.3117e-09 8.85538e-10 -5.39624e-16 -2.33667e-16 1.33834e-16 0 0 0 0 0 0 0 0
194 1 0.0071986 -0.000157684 0.000799659 0.0008 3.43146e-06 1.78125e-13 6.14858e-14 1.60059e-13 -6.88307e-11 2.13296e-10 -8.42197e-11 -8.06868e-17 1.74092e-17 -2.06356e-17 1 -6.10045e-05 -9.18636e-05 0.000411915 0.0071986 -0.000157684 0 0.0008
195 1 -0.00102113 0.00284873 0.00223588 0.0008 3.43146e-06 9.46396e-15 8.78163e-13 -4.90026e-13 -4.80866e-10 -3.25699e-10 7.59759e-10 -8.66221e-18 -8.16469e-17 2.95191e-16 0 0 0 0 0 0 0 0
196 1 0.00236459 0.000293714 0.00210414 0.0008 3.43146e-06 2.38359e-13 1.34989e-13 -3.65117e-13 -5.31846e-10 4.14801e-10 -6.35857e-11 6.41876e-16 1.47611e-16 -1.58121e-15 0 0 0 0 0 0 0 0
197 1 0.00152027 -0.00400544 0.00201079 0.0008 3.43146e-06 5.17258e-13 -5.34223e-13 3.12439e-13 7.16344e-11 -6.92733e-10 -2.11713e-10 -8.50061e-16 -9.2093e-16 -2.76641e-16 0 0 0 0 0 0 0 0
198 1 0.0062766 0.000104471 0.00208047 0.0008 3.43146e-06 2.78839e-13 2.42787e-14 -3.49228e-13 -4.6044e-10 -3.49926e-10 7.49076e-10 -3.93746e-16 2.64685e-16 -2.43014e-16 0 0 0 0 0 0 0 0
199 1 0.00591609 -0.00111371 0.000799229 0.0008 3.43146e-06 1.10302e-13 -2.19639e-13 2.70272e-13 2.73401e-10 1.2812e-10 3.26573e-10 1.56919e-16 -1.96612e-17 -8.48832e-16 1 -9.10662e-05 5.41445e-05 0.0014023 0.00591609 -0.00111371 0 0.0008
200 1 0.00331579 -0.00265513 0.00384616 0.0008 3.43146e-06 -6.17904e-13 7.75968e-13 4.18691e-13 3.06534e-10 -2.92702e-10 2.56581e-10 -2.62029e-16 -5.59943e-18 -3.96377e-16 0 0 0 0 0 0 0 0
201 1 -0.00218562 -0.00237859 0.00211519 0.0008 3.43146e-06 3.20096e-13 3.64424e-13 -7.32724e-14 -6.18826e-10 1.00816e-09 8.03828e-11 2.92525e-16 3.64009e-16 3.0192e-16 0 0 0 0 0 0 0 0
202 1 0.00375627 -0.00614288 0.00543624 0.0008 3.43146e-06 -9.09844e-13 -1.61305e-13 -1.15684e-12 -2.9391e-10 -2.27342e-09 1.07283e-09 -2.97894e-16 -1.24479e-16 7.32555e-17 1 -0.000268531 0.000282375 4.77451e-05 0.00417345 -0.00682513 0.00543624 0.0008
203 1 -0.00461634 -4.28049e-05 0.0021486 0.0008 3.43146e-06 -3.04804e-13 1.76762e-14 4.38409e-13 2.38955e-10 -7.27295e-10 -9.21809e-10 -4.94325e-16 4.11809e-18 -1.88e-16 0 0 0 0 0 0 0 0
204 1 0.000973438 -0.00713391 0.00418665 0.0008 3.43146e-06 -2.70982e-13 -5.51777e-13 1.93375e-13 4.88312e-10 -8.36728e-10 4.14546e-10 1.08703e-16 -2.11815e-16 4.42859e-16 1 -3.48102e-07 4.75135e-06 5.01689e-07 0.0010816 -0.00792655 0.00418665 0.0008
205 1 -0.00364168 -0.00621122 0.00425903 0.0008 3.43146e-06 7.45574e-14 -9.45096e-13 -1.39467e-12 -2.03004e-09 4.52397e-11 -6.71759e-10 5.29119e-16 -2.20386e-16 4.1488e-17 1 1.6609e-05 3.77874e-05 -4.242e-06 -0.00404627 -0.00690128 0.00425903 0.0008
206 1 -0.00654098 -0.00138518 0.00415539 0.0008 3.43146e-06 2.14005e-13 -5.41869e-13 3.41883e-13 -1.26802e-09 -8.03982e-10 -6.66417e-10 7.52878e-16 -2.24329e-16 -6.32464e-17 0 0 0 0 0 0 0 0
207 1 -0.000131017 -0.00387543 0.00508659 0.0008 3.43146e-06 6.79674e-14 1.08265e-12 8.47522e-13 -1.58974e-09 -5.99048e-10 -9.43889e-10 6.00817e-16 -1.9362e-16 -1.2848e-15 0 0 0 0 0 0 0 0
208 1 0.00390248 -0.00351167 0.000799936 0.0008 3.43146e-06 5.66565e-41 4.67768e-41 -2.6175e-13 -5.84697e-38 7.0819e-38 0.130171 -2.02345e-44 -1.6706e-44 -1.53758e-21 1 8.09374e-45 6.68236e-45 3.36626e-05 0.00390248 -0.00351167 0 0.0008
209 1 -0.00523056 -0.00236868 0.00079968 0.0008 3.43146e-06 5.75799e-13 -5.15288e-13 -2.70812e-13 6.51526e-10 7.54627e-10 2.8183e-11 -1.56413e-16 8.18577e-17 5.32041e-16 1 3.40077e-05 -2.43728e-05 0.000375198 -0.00523056 -0.00236868 0 0.0008
210 1 0.00134889 0.00707274 0.000799591 0.0008 3.43146e-06 -3.65875e-13 -2.46953e-13 -2.70871e-13 2.92927e-10 -4.53528e-10 -3.9218e-10 8.21811e-18 2.23342e-17 7.48369e-16 1 -0.000131613 -7.57419e-05 0.000541551 0.00134889 0.00707274 0 0.0008
211 1 -0.00718935 0.000399434 0.00205773 0.0008 3.43146e-06 6.58808e-13 1.35513e-13 -4.48208e-13 3.26292e-10 5.40175e-10 2.16021e-10 1.82231e-16 -4.16951e-17 4.60873e-16 1 0.000617289 -9.97064e-05 7.00024e-05 -0.00798768 0.000443788 0.00205773 0.0008
212 1 0.00129521 0.00506464 0.00225052 0.0008 3.43146e-06 -5.41157e-13 9.26507e-13 -1.68317e-13 -3.06875e-10 -1.05411e-10 -3.3332e-10 1.98506e-16 -7.80481e-16 2.351e-16 0 0 0 0 0 0 0 0
213 1 -0.00493096 -0.00254076 0.00357723 0.0008 3.43146e-06 1.87763e-12 4.3816e-13 -9.30162e-13 8.27154e-10 -7.80436e-10 2.10703e-10 1.97526e-16 1.64863e-16 3.24639e-17 0 0 0 0 0 0 0 0
214 1 0.00189044 -0.00115576 0.00258704 0.0008 3.43146e-06 -1.23403e-13 3.92756e-13 1.61857e-13 -1.34098e-10 -2.73317e-10 -4.7529e-10 5.24981e-16 -1.66671e-16 -1.51042e-15 0 0 0 0 0 0 0 0
215 1 0.0044614 -0.000340422 0.000799308 0.0008 3.43146e-06 5.03226e-13 9.40962e-14 -2.57349e-13 -1.20468e-10 6.2687e-10 -3.57426e-10 -2.5698e-16 3.86877e-18 4.03461e-17 1 -0.000111027 8.15021e-05 0.00119198 0.0044614 -0.000340422 0 0.0008
216 1 -0.000626144 -0.00717317 0.000799272 0.0008 3.43146e-06 -5.2779e-14 -1.32355e-13 1.82265e-13 1.90267e-10 -5.12536e-11 7.35702e-11 -1.76058e-16 1.93788e-16 -2.75088e-16 1 0.000175477 0.000139403 0.0012862 -0.000626144 -0.00717317 0 0.0008
217 1 -0.00620636 0.00365 0.00301717 0.0008 3.43146e-06 -6.89878e-13 -1.58284e-13 4.74657e-13 1.29943e-09 -1.4529e-09 -6.12713e-10 -2.58623e-16 -7.39068e-17 1.28576e-16 1 5.87804e-05 -1.83062e-05 2.10306e-06 -0.00689586 0.0040555 0.00301717 0.0008
218 1 -0.00658493 -0.00291068 0.00218435 0.0008 3.43146e-06 2.90583e-13 2.01493e-13 8.13429e-13 1.42696e-10 -4.70025e-10 -2.72301e-11 2.22226e-16 -2.31196e-16 3.09868e-16 0 0 0 0 0 0 0 0
219 1 0.00637192 0.00335405 0.00615811 0.0008 3.43146e-06 1.6745e-12 1.04317e-12 -3.43364e-13 4.68395e-10 -2.37368e-10 -1.77902e-10 -4.14924e-18 -9.02903e-17 1.23415e-16 1 -0.00128542 -0.000607558 0.000366785 0.00707916 0.00372632 0.00615811 0.0008
220 1 0.00325497 -0.00642338 0.00810273 0.0008 3.43146e-06 -9.48719e-13 -8.00711e-13 8.97079e-13 1.70873e-09 -8.95803e-10 1.50866e-09 3.00345e-16 -2.06364e-16 -5.39199e-16 1 -0.000936623 0.00198916 0.000478297 0.00361612 -0.00713608 0.00810273 0.0008
221 1 -0.00262556 -0.00549014 0.00586776 0.0008 3.43146e-06 -9.00579e-14 -1.60463e-12 2.05025e-12 2.03819e-09 8.41672e-10 5.75711e-10 4.74671e-16 8.89595e-16 7.54516e-16 0 0 0 0 0 0 0 0
222 1 0.00355995 -0.000379159 0.00763008 0.0008 3.43146e-06 7.92421e-13 -1.35008e-13 8.28645e-13 4.3034e-10 8.12431e-10 -1.14252e-09 2.88868e-15 5.72042e-17 -3.1159e-15 0 0 0 0 0 0 0 0
223 1 -0.00119804 -0.00581432 0.00303126 0.0008 3.43146e-06 -5.4162e-13 1.32353e-13 2.84907e-13 -8.7358e-11 -2.48699e-10 -4.29118e-11 -5.10353e-17 -8.98085e-16 4.88342e-16 0 0 0 0 0 0 0 0
224 1 -0.00677011 -0.00245178 0.00774195 0.0008 3.43146e-06 1.14872e-12 9.28567e-13 -2.50317e-13 -3.816e-10 1.83017e-10 6.00224e-10 6.8673e-16 3.12764e-16 -6.81956e-16 1 0.000454482 0.000254172 2.48301e-05 -0.00752194 -0.00272406 0.00774195 0.0008
225 1 0.00567993 -0.00186956 0.00428296 0.0008 3.43146e-06 -1.05105e-12 1.58571e-13 -1.66565e-13 6.83126e-11 1.22996e-09 -5.17354e-10 -1.79024e-16 -1.14214e-17 -2.8725e-16 0 0 0 0 0 0 0 0
226 1 -0.000571969 -0.00717782 0.00358527 0.0008 3.43146e-06 -2.70936e-13 -4.98455e-13 4.5019e-13 5.17408e-10 -4.59699e-10 3.00903e-10 -8.87722e-17 -1.18642e-16 -6.27292e-17 1 3.02932e-05 0.000914014 0.000100286 -0.000635471 -0.00797472 0.00358527 0.0008
227 1 -0.000378687 0.000270705 0.00743417 0.0008 3.43146e-06 -1.35579e-13 1.34893e-13 -7.46703e-13 2.78554e-10 1.91816e-10 4.12416e-11 -1.12275e-16 3.32307e-16 7.72441e-18 0 0 0 0 0 0 0 0
228 1 -0.00200938 -0.0022484 0.00978816 0.0008 3.43146e-06 4.57173e-14 -3.99804e-13 1.0918e-12 -1.46688e-09 -8.81436e-10 -6.09775e-10 -3.36464e-16 2.80946e-16 -1.37886e-15 0 0 0 0 0 0 0 0
229 1 0.000734725 -0.00699174 0.0098327 0.0008 3.43146e-06 2.69635e-13 -1.41791e-12 -1.01632e-12 -2.16152e-09 2.59944e-10 1.20371e-09 -3.08506e-16 5.62206e-16 7.00964e-16 0 0 0 0 0 0 0 0
230 1 -0.000706435 0.00344932 0.0071556 0.0008 3.43146e-06 -2.15326e-13 2.53716e-13 7.4039e-14 -1.78514e-10 3.40424e-10 -9.69766e-10 4.53829e-16 -1.63192e-16 -1.03664e-16 0 0 0 0 0 0 0 0
231 1 0.00153261 0.00464019 0.0099224 0.0008 3.43146e-06 -5.41594e-13 -1.25022e-12 -9.39462e-13 -8.87549e-10 -1.00959e-09 -4.37935e-10 -2.85466e-16 -3.18173e-16 5.49562e-16 0 0 0 0 0 0 0 0
232 1 -0.00716957 -0.000667669 0.00543872 0.0008 3.43146e-06 -8.66312e-13 4.03464e-15 6.09156e-13 1.32547e-09 -6.37473e-10 1.18601e-10 3.12593e-16 3.43247e-16 -5.21146e-17 1 0.000949727 0.000286123 4.27328e-05 -0.00796553 -0.000741793 0.00543872 0.0008
233 1 0.000405027 -0.00417501 0.00314455 0.0008 3.43146e-06 1.32686e-13 6.18017e-14 4.87831e-13 -4.15152e-10 5.31872e-10 -5.85847e-10 1.21658e-16 -2.67582e-16 -6.42123e-16 0 0 0 0 0 0 0 0
234 1 -0.00495714 0.000902762 0.00559946 0.0008 3.43146e-06 -9.97927e-13 2.47271e-13 6.06245e-14 4.10612e-10 -2.11519e-09 1.04692e-09 1.49941e-15 7.41016e-16 -2.01582e-16 0 0 0 0 0 0 0 0
235 1 0.00544861 0.00368852 0.00742001 0.0008 3.43146e-06 -9.3005e-13 1.03075e-12 8.13561e-13 2.33197e-10 -1.63736e-09 3.34075e-10 -2.24331e-16 -1.95699e-16 1.37848e-16 0 0 0 0 0 0 0 0
236 1 0.00702866 0.00156193 0.00852015 0.0008 3.43146e-06 4.4902e-13 4.63164e-13 1.3554e-13 1.18149e-09 4.11353e-10 -4.33422e-10 -4.92593e-16 3.20914e-16 -1.32863e-16 1 -7.90264e-05 -2.71456e-05 6.71042e-06 0.0078095 0.00173545 0.00852015 0.0008
237 1 -0.00601132 -0.00396371 0.00783515 0.0008 3.43146e-06 3.87523e-13 2.8172e-13 -9.67597e-13 -2.81498e-10 1.27083e-09 2.74042e-11 6.51461e-17 1.40039e-15 -5.837e-16 1 0.000587446 0.000398088 0.000149711 -0.0066788 -0.00440383 0.00783515 0.0008
238 1 -0.00252163 0.00115892 0.00519486 0.0008 3.43146e-06 1.08404e-12 -4.80858e-13 -1.71806e-12 2.67869e-10 -1.22256e-09 2.70313e-10 3.93025e-16 -4.81812e-16 -6.53627e-16 0 0 0 0 0 0 0 0
239 1 -0.00520241 0.0029848 0.0092203 0.0008 3.43146e-06 -1.68578e-12 3.67964e-13 -1.5796e-12 1.79925e-10 1.79358e-09 2.16798e-09 -2.65636e-16 6.24799e-16 -4.02029e-16 0 0 0 0 0 0 0 0
240 1 0.00159115 0.00421462 0.00709717 0.0008 3.43146e-06 -3.27035e-13 -7.87937e-13 -2.16562e-12 6.41085e-10 -5.14986e-10 -1.02421e-09 7.548e-17 3.13575e-16 -2.76396e-16 0 0 0 0 0 0 0 0
241 1 0.000379048 -0.0057441 0.00346185 0.0008 3.43146e-06 -1.34422e-13 2.00994e-13 4.28821e-13 -1.42573e-10 -2.41803e-10 -9.05772e-11 7.59251e-17 -8.48014e-16 -6.50985e-16 0 0 0 0 0 0 0 0
242 1 0.000281217 0.00551874 0.00505187 0.0008 3.43146e-06 -1.34706e-13 1.37444e-12 3.92745e-13 -4.24349e-10 -7.21126e-10 2.71485e-09 -3.41825e-16 -8.2801e-16 -5.20312e-17 0 0 0 0 0 0 0 0
243 1 0.000391872 0.00224544 0.00928247 0.0008 3.43146e-06 -1.3453e-13 -1.08281e-12 -1.94334e-12 3.23124e-09 3.14995e-10 2.03383e-10 1.72306e-15 2.51489e-16 -9.732e-17 0 0 0 0 0 0 0 0
244 1 -0.00410089 0.00223326 0.00238625 0.0008 3.43146e-06 -2.75505e-13 1.04328e-12 -6.72208e-13 -1.20882e-09 5.48342e-10 1.53984e-10 1.75212e-16 -4.45203e-16 1.0813e-16 0 0 0 0 0 0 0 0
245 1 -0.00185774 9.68067e-05 0.00313818 0.0008 3.43146e-06 -5.23669e-13 -3.21866e-14 2.59489e-14 -2.97851e-10 -2.68429e-09 6.08158e-10 -2.69371e-16 -1.37497e-16 -5.19989e-17 0 0 0 0 0 0 0 0
246 1 -0.00074789 0.00313343 0.00378594 0.0008 3.43146e-06 -1.84972e-13 1.08107e-12 7.89674e-14 5.40793e-10 1.68509e-10 4.3135e-10 4.59735e-17 1.23025e-16 -5.89357e-16 0 0 0 0 0 0 0 0
247 1 -0.00591309 0.000432431 0.00302083 0.0008 3.43146e-06 1.66475e-15 1.35425e-13 -6.43248e-13 6.8578e-10 -8.05373e-10 5.62395e-10 -3.05168e-16 1.79133e-16 2.56552e-16 0 0 0 0 0 0 0 0
248 1 0.000789179 -0.00193503 0.00940355 0.0008 3.43146e-06 -2.63156e-13 -5.41931e-13 2.59382e-12 -2.34689e-09 -1.40647e-09 -4.5182e-10 7.32253e-17 1.85308e-16 4.33878e-16 0 0 0 0 0 0 0 0
249 1 0.00596103 0.00403931 0.00477326 0.0008 3.43146e-06 1.23586e-12 -3.17914e-13 1.14356e-12 -1.04144e-09 1.01832e-09 1.19557e-09 -8.30944e-17 -8.97588e-17 -1.06738e-17 1 -0.000961629 -0.000746969 0.000394453 0.00662273 0.0044877 0.00477326 0.0008
250 1 -0.00305466 -0.00505563 0.00821411 0.0008 3.43146e-06 1.08269e-12 -6.49574e-13 -2.09714e-12 3.86887e-09 3.1225e-09 1.85331e-09 -7.25632e-17 -5.07941e-17 -6.83086e-16 0 0 0 0 0 0 0 0
251 1 0.00220266 -0.00380184 0.00780626 0.0008 3.43146e-06 4.23318e-13 -2.22796e-13 -9.64068e-13 -1.01113e-09 1.08268e-09 -1.67262e-10 -1.95802e-16 -6.5472e-16 -1.36295e-15 0 0 0 0 0 0 0 0
252 1 0.0027411 0.0053257 0.00705156 0.0008 3.43146e-06 -8.74104e-13 -2.06848e-12 -1.77337e-12 1.55785e-09 2.02687e-09 2.63855e-10 -2.73658e-17 4.14916e-16 8.25047e-17 0 0 0 0 0 0 0 0
253 1 0.00299312 0.00489517 0.00553124 0.0008 3.43146e-06 -4.13501e-13 2.14726e-12 -6.07304e-13 4.8642e-10 6.8921e-11 3.52549e-10 -7.96956e-17 -2.89996e-16 -4.44468e-16 0 0 0 0 0 0 0 0
254 1 -0.000939779 0.00282006 0.00860783 0.0008 3.43146e-06 -2.70852e-13 1.69594e-13 -7.03426e-13 8.74449e-10 -1.50992e-10 -5.86321e-12 -7.03692e-16 -5.48971e-16 -9.39011e-17 0 0 0 0 0 0 0 0
255 1 0.00481456 -0.00535434 0.00453263 0.0008 3.43146e-06 -1.05884e-13 2.65909e-13 -9.86788e-14 -3.49197e-11 -1.40208e-10 -1.21866e-10 4.17776e-16 -1.35015e-16 -2.55206e-16 1 -0.000810738 0.000669577 6.50608e-05 0.00534905 -0.00594876 0.00453263 0.0008
256 1 -0.00680281 -0.00235911 0.00539723 0.0008 3.43146e-06 1.76031e-13 1.0831e-12 -3.62122e-14 -2.08541e-10 -1.78576e-11 1.21778e-09 8.69172e-16 7.4522e-17 -7.23977e-17 1 0.000265415 3.64928e-05 -1.28844e-05 -0.00755841 -0.00262114 0.00539723 0.0008
257 1 -0.00576123 -0.00431877 0.00378413 0.0008 3.43146e-06 -8.23247e-13 -4.89953e-13 1.02941e-12 -1.94027e-10 -1.75625e-09 1.4363e-10 -6.45039e-17 1.57048e-16 -9.84258e-17 1 0.000172987 0.000198459 3.68103e-05 -0.00640115 -0.00479847 0.00378413 0.0008
258 1 -0.00190714 -0.00380041 0.00844258 0.0008 3.43146e-06 -4.85756e-13 1.0839e-12 -1.57258e-12 2.99403e-09 2.0608e-09 2.0254e-09 -3.32965e-16 -6.27343e-17 -5.60183e-16 0 0 0 0 0 0 0 0
259 1 0.00545569 -0.00201281 0.00586051 0.0008 3.43146e-06 -2.39197e-13 9.30311e-13 5.73641e-13 -6.30469e-10 2.02585e-10 -2.86842e-09 -8.82626e-16 -5.38915e-16 -5.23841e-16 0 0 0 0 0 0 0 0
260 1 0.00415242 -0.00156096 0.00504939 0.0008 3.43146e-06 3.659e-13 1.58005e-13 2.04019e-12 4.82312e-10 1.83553e-09 -1.03926e-09 2.94885e-16 -1.85525e-15 -8.44964e-16 0 0 0 0 0 0 0 0
261 1 -0.00159768 -0.00702071 0.00932914 0.0008 3.43146e-06 2.2475e-13 -1.87458e-12 -1.49951e-12 -2.41141e-09 -2.07833e-09 -7.66168e-10 1.22098e-17 -3.04825e-16 -4.10045e-16 1 1.63811e-05 0.000197726 1.26781e-05 -0.00177515 -0.00780057 0.00932914 0.0008
262 1 -0.00205137 -0.00034875 0.00493686 0.0008 3.43146e-06 1.08384e-12 1.35245e-13 -7.9868e-13 1.19095e-09 -2.10579e-09 7.56256e-10 4.48162e-16 -9.32077e-16 -6.71764e-16 0 0 0 0 0 0 0 0
263 1 0.00355664 0.00215362 0.00648635 0.0008 3.43146e-06 7.9237e-13 7.37871e-13 -1.28788e-12 -3.77882e-10 1.10197e-09 -1.35447e-09 2.94452e-16 1.66286e-15 -1.54866e-16 0 0 0 0 0 0 0 0
264 1 0.000263929 0.0067557 0.00623319 0.0008 3.43146e-06 8.46918e-14 -2.65048e-14 -2.01307e-12 -1.02962e-09 1.75697e-09 -7.61943e-11 -1.68301e-15 -5.22615e-16 2.33022e-15 0 0 0 0 0 0 0 0
265 1 0.00126538 -6.69367e-05 0.0072575 0.0008 3.43146e-06 5.3295e-13 -1.92438e-15 -8.08679e-13 4.9833e-10 4.38653e-11 -4.95542e-10 -4.66564e-16 -8.3142e-16 -7.05362e-16 0 0 0 0 0 0 0 0
266 1 0.00479722 0.0011615 0.00388831 0.0008 3.43146e-06 3.20601e-13 4.27255e-13 3.85555e-13 2.79509e-10 -2.79802e-10 1.00555e-09 -1.62198e-16 -1.56924e-16 -1.05492e-16 0 0 0 0 0 0 0 0
267 1 9.97997e-05 0.00454 0.00630743 0.0008 3.43146e-06 -3.49411e-14 2.48821e-13 -8.72601e-13 -5.38228e-10 3.09322e-10 7.62275e-10 -1.5403e-16 6.61988e-16 -8.26165e-16 0 0 0 0 0 0 0 0
268 1 0.00444215 0.000777379 0.00696485 0.0008 3.43146e-06 1.47828e-12 -2.61099e-13 8.14806e-13 -1.44033e-10 -6.91132e-10 1.41995e-10 6.07251e-16 -5.83913e-16 -2.62109e-17 0 0 0 0 0 0 0 0
269 1 -0.00550862 -0.00199501 0.00862268 0.0008 3.43146e-06 -1.70036e-12 -5.88849e-13 -9.70924e-14 -1.86691e-09 3.94753e-10 3.51269e-09 1.32029e-15 5.37069e-16 -3.24494e-16 0 0 0 0 0 0 0 0
270 1 -0.00371712 0.00105866 0.00809137 0.0008 3.43146e-06 -1.08415e-12 5.42061e-13 1.33734e-12 -6.64856e-10 1.06494e-09 -5.60138e-13 -4.88082e-16 -4.7934e-16 -1.48122e-16 0 0 0 0 0 0 0 0
271 1 0.000448972 0.00300873 0.00600156 0.0008 3.43146e-06 -1.35301e-13 -3.14287e-13 -8.57717e-13 2.51859e-10 -4.03679e-10 1.14371e-10 -1.10755e-16 1.33698e-16 -1.11696e-15 0 0 0 0 0 0 0 0
272 1 -0.00277988 0.00664198 0.00527484 0.0008 3.43146e-06 -1.08356e-12 -1.89247e-13 -1.22683e-12 1.4914e-09 4.1e-10 -1.35409e-09 -2.17135e-16 2.14591e-16 4.83034e-18 1 6.87499e-05 -0.000263375 6.45379e-05 -0.00308865 0.00737972 0.00527484 0.0008
273 1 -0.00533032 0.00484032 0.00907881 0.0008 3.43146e-06 -1.97282e-12 -8.56484e-13 -2.24729e-12 6.06744e-09 -1.70838e-09 -2.45105e-09 -3.50597e-16 2.13719e-16 1.48386e-16 1 2.42273e-05 -3.04435e-05 -8.86132e-06 -0.00592252 0.00537808 0.00907881 0.0008
274 1 0.00373713 0.00615419 0.00799049 0.0008 3.43146e-06 5.92576e-13 1.90817e-14 6.01473e-13 1.48781e-10 1.68946e-09 6.32711e-10 -6.70025e-16 5.68115e-17 -4.30204e-16 1 -1.22655e-06 -1.46306e-06 -6.02181e-08 0.00415236 0.00683798 0.00799049 0.0008
275 1 -0.00213924 0.00389773 0.00653215 0.0008 3.43146e-06 -4.14424e-13 -6.52712e-13 -9.26821e-13 1.72832e-10 3.37272e-10 -4.91118e-10 2.00449e-16 -6.62315e-16 4.82526e-16 0 0 0 0 0 0 0 0
276 1 -0.00477316 0.0053905 0.00474665 0.0008 3.43146e-06 -1.68939e-12 1.41471e-12 -2.71499e-14 -1.59207e-09 1.92245e-09 -3.8323e-10 1.83582e-16 3.12522e-16 7.47307e-17 1 8.30323e-06 -1.31207e-05 -4.44999e-07 -0.00530349 0.00598941 0.00474665 0.0008
277 1 -0.00576724 0.000349895 0.00849035 0.0008 3.43146e-06 -3.11831e-13 4.69462e-14 -6.90432e-13 -2.79245e-10 -1.82151e-09 -5.31809e-10 -5.68115e-16 -1.28966e-16 5.84859e-16 0 0 0 0 0 0 0 0
278 1 0.0036862 0.00618529 0.0021504 0.0008 3.43146e-06 5.43121e-14 -2.37466e-13 -8.22939e-14 -2.71625e-11 -2.63897e-10 2.21358e-10 5.18823e-17 7.63404e-17 -1.49192e-16 1 -0.000252811 -0.000506138 1.64871e-07 0.00409554 0.00687215 0.0021504 0.0008
279 1 8.96136e-06 -0.00719476 0.0067307 0.0008 3.43146e-06 -1.83336e-15 -1.07569e-12 6.09459e-13 -2.53722e-10 -1.28299e-09 -1.56932e-09 -1.46372e-16 2.10533e-16 4.29743e-16 0 0 0 0 0 0 0 0
280 1 -0.00336758 -0.00259199 0.00891531 0.0008 3.43146e-06 -1.08396e-12 1.08325e-12 -1.44151e-12 2.1044e-11 -1.07023e-09 -1.82343e-09 2.12988e-16 4.14643e-16 4.64486e-16 0 0 0 0 0 0 0 0
281 1 0.000756008 0.00716026 0.00839604 0.0008 3.43146e-06 -2.7004e-13 -1.03387e-13 1.48028e-12 -1.94405e-09 -1.01826e-09 -3.9737e-10 1.7549e-16 3.56253e-16 -1.76695e-16 1 4.09986e-06 -3.29773e-05 -4.63647e-06 0.000840002 0.00795578 0.00839604 0.0008
282 1 -0.00556446 0.00282435 0.00671132 0.0008 3.43146e-06 -2.1252e-12 1.22948e-13 -1.80431e-12 4.18019e-11 -6.46673e-10 -1.35893e-09 -8.78748e-17 -3.06273e-16 -3.17387e-16 0 0 0 0 0 0 0 0
283 1 0.00324543 0.00296706 0.00474094 0.0008 3.43146e-06 -1.05635e-12 1.08383e-12 -1.04979e-12 -9.56541e-10 8.58977e-10 -1.0821e-10 -4.85933e-16 -8.11312e-17 -1.91881e-15 0 0 0 0 0 0 0 0
284 1 -0.0021384 -0.00449219 0.00701858 0.0008 3.43146e-06 -4.29209e-13 1.49957e-12 2.16703e-12 -3.56108e-09 1.27939e-09 3.72649e-09 -8.44185e-17 7.85227e-16 3.20017e-16 0 0 0 0 0 0 0 0
285 1 -0.00233253 0.00144786 0.00879223 0.0008 3.43146e-06 -9.44053e-13 3.29941e-13 7.35739e-13 8.1827e-10 -2.49528e-10 -1.68782e-10 -9.27508e-16 1.52065e-15 -1.27694e-15 0 0 0 0 0 0 0 0
286 1 -0.00130387 0.000848078 0.00618411 0.0008 3.43146e-06 5.41835e-13 -2.05867e-13 -9.70076e-13 4.68156e-10 -1.91418e-10 7.79312e-10 7.1961e-16 -4.73429e-16 -1.73402e-15 0 0 0 0 0 0 0 0
287 1 -0.00318687 0.0064564 0.0073065 0.0008 3.43146e-06 -4.30043e-13 -2.02315e-12 -2.12761e-12 3.39355e-09 -8.82906e-10 -1.59781e-09 -3.31285e-17 -9.97819e-17 1.9165e-16 1 2.26377e-05 -4.45262e-05 -8.22089e-06 -0.00354092 0.00717369 0.0073065 0.0008
288 1 0.0061496 -0.00238968 0.00884284 0.0008 3.43146e-06 -9.96521e-13 -3.38024e-13 -1.29419e-12 -6.15105e-10 -1.48429e-09 1.17362e-09 7.90778e-16 -3.75095e-16 5.49334e-16 0 0 0 0 0 0 0 0
289 1 0.00238779 0.00330782 0.00604743 0.0008 3.43146e-06 -6.9394e-13 4.11886e-13 -2.16624e-12 2.5933e-09 -1.7336e-09 -1.44044e-09 -8.7146e-16 7.96158e-16 1.9603e-18 0 0 0 0 0 0 0 0
290 1 -0.00393883 0.00584313 0.00603438 0.0008 3.43146e-06 -3.02072e-13 1.61488e-12 -2.16601e-12 -6.86374e-11 5.03216e-10 -1.03054e-09 1.90339e-16 3.41816e-16 -4.14463e-16 0 0 0 0 0 0 0 0
291 1 -0.00113606 -0.00593845 0.00624034 0.0008 3.43146e-06 -3.72549e-13 1.20291e-12 1.02533e-12 -2.42104e-09 1.85548e-10 2.62077e-09 1.54506e-15 2.71744e-15 -3.26203e-16 0 0 0 0 0 0 0 0
292 1 -0.00719349 -0.000324451 0.00822973 0.0008 3.43146e-06 -1.64124e-12 -1.3536e-13 -1.1075e-12 7.45185e-11 1.42786e-09 -8.33056e-11 1.88313e-16 -3.80827e-16 1.35029e-15 1 0.00153172 0.000152275 0.000102471 -0.00799188 -0.000360461 0.00822973 0.0008
293 1 -0.00374678 -0.00448159 0.00640106 0.0008 3.43146e-06 -1.08399e-12 -2.10991e-12 1.11932e-12 -4.29974e-09 -5.02496e-10 1.47894e-09 -7.46797e-16 1.08076e-15 1.34974e-15 0 0 0 0 0 0 0 0
294 1 0.00371848 -0.00616601 0.00369658 0.0008 3.43146e-06 1.264e-15 3.8261e-13 -3.34132e-13 -2.11036e-10 -4.61994e-10 -2.53075e-10 8.85436e-17 -2.9051e-16 1.37474e-16 1 -0.000262749 0.000626962 0.000112086 0.00413137 -0.00685068 0.00369658 0.0008
295 1 0.00409825 0.00402165 0.00820936 0.0008 3.43146e-06 -2.16089e-12 7.8678e-14 -5.14094e-13 1.34499e-10 -5.58982e-10 9.17398e-10 -2.76313e-16 -7.90569e-16 3.87225e-17 0 0 0 0 0 0 0 0
296 1 -7.84949e-05 0.00719999 0.0032249 0.0008 3.43146e-06 9.7076e-14 1.15021e-12 8.13659e-14 -8.63547e-11 5.00661e-10 1.35017e-10 -4.82873e-17 2.98546e-16 -5.25504e-16 1 8.20497e-07 -0.000581354 0.00012935 -8.72115e-05 0.00799952 0.0032249 0.0008
297 1 -0.000863362 -0.000835421 0.00397589 0.0008 3.43146e-06 1.16647e-13 2.71294e-13 1.38108e-12 -4.14212e-10 1.60948e-09 5.12574e-10 9.68985e-16 -3.78373e-16 4.33366e-16 0 0 0 0 0 0 0 0
298 1 0.00461095 0.00131781 0.00546897 0.0008 3.43146e-06 1.05343e-12 1.23975e-13 -1.1386e-12 -3.19161e-10 1.15786e-09 8.76077e-10 2.74238e-16 2.57744e-16 -6.43291e-17 0 0 0 0 0 0 0 0
299 1 -0.00423674 0.00582162 0.00844555 0.0008 3.43146e-06 -2.82811e-14 -1.55969e-12 7.33178e-13 -1.54254e-09 5.35933e-10 -1.14986e-09 -3.99144e-16 1.29257e-16 2.33341e-16 1 2.28828e-05 -4.58153e-05 -9.79191e-06 -0.00470743 0.00646839 0.00844555 0.0008
300 1 -0.00266945 0.00551005 0.0085241 0.0008 3.43146e-06 -1.08283e-12 -1.01021e-12 -7.35484e-13 1.11184e-09 1.36161e-09 1.50748e-09 -4.46674e-16 -4.06382e-16 -2.79601e-16 0 0 0 0 0 0 0 0
301 1 -0.0044688 0.00564625 0.00319709 0.0008 3.43146e-06 -9.77875e-13 1.08871e-12 5.94001e-13 1.35067e-09 -2.89734e-09 -1.0847e-10 1.66712e-16 -8.6495e-17 -3.63786e-17 1 0.000851881 -0.000962943 0.000176124 -0.00496484 0.00627299 0.00319709 0.0008
302 1 0.0019109 0.00196215 0.00887019 0.0008 3.43146e-06 -5.41751e-13 1.15861e-13 -1.00021e-12 -7.57447e-10 -1.76061e-09 5.26382e-10 -5.73121e-16 -3.83598e-16 -3.82291e-16 0 0 0 0 0 0 0 0
303 1 0.00265646 -0.0066923 0.0064593 0.0008 3.43146e-06 -1.08305e-12 -3.38054e-13 -1.37652e-12 -2.0962e-09 6.35777e-10 1.42793e-09 6.12623e-16 3.02275e-16 -6.81024e-16 1 -0.000151444 0.000234516 3.17426e-05 0.00295152 -0.00743563 0.0064593 0.0008
304 1 -0.00358218 0.00368211 0.0050438 0.0008 3.43146e-06 1.08417e-12 -1.06429e-12 1.53839e-12 -2.00035e-09 -1.7449e-09 1.87059e-09 -1.25942e-16 -6.70519e-16 1.10195e-15 0 0 0 0 0 0 0 0
305 1 -0.001003 0.00438744 0.00267194 0.0008 3.43146e-06 -2.85802e-13 -6.424e-13 -3.89047e-13 1.12481e-09 -1.52554e-10 -5.46694e-10 8.13724e-17 1.92497e-17 7.80057e-17 0 0 0 0 0 0 0 0
306 1 -4.22908e-05 -0.00170273 0.00507348 0.0008 3.43146e-06 3.26915e-14 -5.40671e-13 5.03297e-13 2.16494e-12 1.75272e-09 1.25285e-09 1.35361e-16 3.40878e-17 -2.59692e-16 0 0 0 0 0 0 0 0
307 1 -0.00423331 0.000141273 0.00680517 0.0008 3.43146e-06 -1.15359e-12 -6.75263e-14 -8.70338e-13 1.6071e-09 1.27417e-09 6.36002e-10 2.34567e-15 6.05971e-17 5.94185e-17 0 0 0 0 0 0 0 0
308 1 -0.00606647 -0.0038784 0.0062388 0.0008 3.43146e-06 -9.03882e-13 4.09118e-13 1.21422e-14 5.4083e-10 3.27045e-10 1.03952e-09 -3.69613e-16 7.71874e-16 -2.19615e-17 1 0.000260591 0.000181401 6.31785e-05 -0.00674026 -0.00430916 0.0062388 0.0008
309 1 0.000310474 -0.00281211 0.00397687 0.0008 3.43146e-06 1.35063e-13 1.53103e-13 2.58635e-13 1.11607e-10 2.66349e-10 1.05307e-09 4.25455e-16 -8.32999e-16 9.18815e-16 0 0 0 0 0 0 0 0
310 1 0.00464495 0.00546399 0.0050167 0.0008 3.43146e-06 2.13473e-12 -7.29249e-13 -2.16834e-12 -2.58967e-09 1.51382e-09 -4.28209e-09 1.32676e-16 4.39445e-17 2.57571e-15 0 0 0 0 0 0 0 0
311 1 -0.000733334 0.00446587 0.00916963 0.0008 3.43146e-06 1.36887e-13 6.08014e-13 -9.58996e-13 6.59084e-10 1.28284e-09 -2.22349e-09 -1.34024e-16 -1.42991e-15 3.05816e-16 0 0 0 0 0 0 0 0
312 1 -0.00171449 -0.00423652 0.00527971 0.0008 3.43146e-06 -6.07795e-14 1.37246e-12 1.56526e-12 -9.87608e-10 3.39465e-10 1.25072e-09 1.63144e-15 2.81921e-16 5.31401e-16 0 0 0 0 0 0 0 0
313 1 -0.00497056 -0.00158614 0.00486012 0.0008 3.43146e-06 1.37814e-12 4.07926e-13 -1.64241e-13 -2.54256e-10 8.7699e-10 9.26836e-10 7.77884e-16 7.28281e-16 -1.48889e-16 0 0 0 0 0 0 0 0
314 1 0.00674145 -6.20577e-06 0.00864876 0.0008 3.43146e-06 -3.08536e-13 1.04744e-14 -1.0038e-13 -7.22049e-10 6.03481e-11 -4.55264e-10 -5.56399e-16 1.87201e-19 -6.41052e-17 0 0 0 0 0 0 0 0
315 1 0.00102809 0.000620265 0.00583332 0.0008 3.43146e-06 5.41934e-13 -2.25936e-14 -9.41394e-14 -1.94362e-10 1.83961e-10 2.52471e-10 4.92718e-16 -3.10359e-16 -6.71045e-16 0 0 0 0 0 0 0 0
316 1 0.00229978 0.000156191 0.00845686 0.0008 3.43146e-06 1.08394e-12 -6.88516e-14 8.2318e-13 1.31411e-10 -8.62226e-10 5.58398e-10 3.8039e-16 2.85419e-16 -3.84186e-15 0 0 0 0 0 0 0 0
317 1 0.00511857 -0.00374843 0.00209616 0.0008 3.43146e-06 1.79226e-12 9.29838e-13 1.06415e-12 -5.89696e-11 1.73056e-09 2.0342e-09 1.7533e-16 -7.00526e-17 3.38248e-16 0 0 0 0 0 0 0 0
318 1 0.000707693 0.00295425 0.00442415 0.0008 3.43146e-06 2.70027e-13 4.55577e-13 3.6489e-13 7.31251e-10 -3.85193e-10 -6.74273e-10 -7.88164e-16 3.3416e-16 -3.10022e-16 0 0 0 0 0 0 0 0
319 1 0.00147911 0.00704651 0.00361113 0.0008 3.43146e-06 -5.69733e-14 1.99663e-13 7.5288e-14 2.8335e-10 1.82185e-09 -1.15139e-10 3.81366e-16 -2.479e-16 1.57262e-16 1 -1.50698e-06 -4.42142e-05 1.30448e-06 0.00164343 0.00782938 0.00361113 0.0008
320 1 0.00435635 -0.00150141 0.00346465 0.0008 3.43146e-06 -9.41353e-13 5.40955e-13 9.86619e-13 1.14993e-10 1.53093e-12 -1.55083e-10 -2.40994e-16 -9.8893e-18 -8.31005e-16 0 0 0 0 0 0 0 0
321 1 -0.0021715 0.00455656 0.00507485 0.0008 3.43146e-06 -8.14207e-13 -1.14545e-12 -9.5623e-13 -7.67847e-10 4.24969e-10 3.29506e-11 4.30183e-16 1.79862e-16 -4.42325e-16 0 0 0 0 0 0 0 0
322 1 0.00220188 -0.00104677 0.00950573 0.0008 3.43146e-06 -5.13789e-13 4.12751e-13 -1.68589e-13 3.71339e-10 -8.96426e-10 -1.76772e-09 8.94528e-17 -2.24249e-15 3.94044e-16 0 0 0 0 0 0 0 0
323 1 -0.00539032 0.00477385 0.00222311 0.0008 3.43146e-06 -5.35398e-14 7.9617e-13 -1.60781e-13 -1.29946e-09 1.41898e-09 6.98615e-10 3.8913e-17 -1.9599e-16 9.1524e-17 1 0.000346622 -0.000309919 1.62841e-05 -0.00598894 0.00530401 0.00222311 0.0008
324 1 0.00428521 -0.0046263 0.00585532 0.0008 3.43146e-06 1.10788e-12 1.46709e-12 -6.85406e-13 -1.88375e-09 1.57766e-09 -2.87144e-10 4.76153e-16 2.09768e-15 -1.33665e-15 0 0 0 0 0 0 0 0
325 1 0.00414047 -0.00149924 0.00664731 0.0008 3.43146e-06 3.13647e-13 -4.31777e-13 7.71998e-13 2.0116e-10 -1.99769e-09 -7.71501e-10 2.07755e-15 -8.20717e-16 -1.46784e-15 0 0 0 0 0 0 0 0
326 1 -0.00275972 -0.000336029 0.0063713 0.0008 3.43146e-06 -7.51809e-13 -1.34989e-13 3.68571e-13 -4.35108e-10 7.20807e-10 -1.5121e-09 5.94264e-16 4.0746e-16 -1.89608e-15 0 0 0 0 0 0 0 0
327 1 -0.000477955 0.00584619 0.00840317 0.0008 3.43146e-06 4.92652e-14 7.99624e-13 -1.7552e-12 -9.66659e-10 1.35524e-09 1.02038e-09 -3.76168e-18 -8.90264e-16 1.96267e-16 0 0 0 0 0 0 0 0
328 1 0.00539401 -0.00206252 0.00746601 0.0008 3.43146e-06 -1.40403e-12 1.49065e-13 6.02071e-13 -2.18946e-10 9.89465e-10 7.33381e-10 8.27676e-16 -1.15505e-15 -1.74727e-15 0 0 0 0 0 0 0 0
329 1 -0.00196493 0.00692695 0.00829013 0.0008 3.43146e-06 -1.08366e-12 3.78e-13 -8.02215e-13 5.59158e-10 1.65723e-09 -1.20732e-09 1.20421e-16 6.56244e-16 4.04177e-16 1 3.18764e-05 -0.000264326 6.30274e-06 -0.00218318 0.00769635 0.00829013 0.0008
330 1 -0.00672633 0.0025698 0.00947425 0.0008 3.43146e-06 -5.16567e-13 -5.39093e-13 -3.23954e-13 6.40538e-10 2.22708e-10 -8.84577e-10 -2.70157e-16 3.75852e-16 -1.51513e-16 1 0.000672715 -0.00041608 0.000163039 -0.00747317 0.00285513 0.00947425 0.0008
331 1 -0.00320173 0.00240639 0.00592982 0.0008 3.43146e-06 1.08419e-12 -1.08193e-12 6.20338e-13 3.31554e-09 7.08667e-10 -9.83436e-10 -7.17954e-16 4.97002e-16 1.06425e-15 0 0 0 0 0 0 0 0
332 1 0.00694803 -0.00189105 0.00525657 0.0008 3.43146e-06 -2.11917e-13 -3.17474e-13 -2.47832e-13 7.97504e-10 -5.23972e-10 4.53307e-10 -3.4988e-17 6.08109e-18 4.19287e-16 1 -0.00142202 0.000281477 0.000323421 0.0077192 -0.00210094 0.00525657 0.0008
333 1 0.0019246 0.00563649 0.0043068 0.0008 3.43146e-06 -5.35336e-13 -1.33496e-12 4.38826e-13 3.39068e-09 -5.49726e-10 -1.12074e-09 1.19918e-16 -7.95101e-16 5.21646e-16 0 0 0 0 0 0 0 0
334 1 0.00497285 0.00520707 0.00758555 0.0008 3.43146e-06 -4.59749e-13 8.71005e-13 -4.94693e-13 -8.26225e-10 -1.76409e-09 -1.1669e-09 -2.63871e-16 3.49058e-17 1.82173e-16 1 -0.00012755 -0.000131422 2.28555e-05 0.00552524 0.00578548 0.00758555 0.0008
335 1 -0.00152726 0.00703685 0.00623825 0.0008 3.43146e-06 -3.79341e-13 1.33867e-12 -4.14693e-13 5.56725e-11 2.15186e-09 -1.01778e-10 -6.45816e-16 2.57007e-16 -8.85255e-17 1 0.000445716 -0.00111255 0.000133661 -0.00169679 0.00781799 0.00623825 0.0008
336 1 -0.000386089 -0.000449464 0.00600569 0.0008 3.43146e-06 1.35101e-13 2.64004e-15 8.28854e-14 -8.78079e-10 -1.36559e-09 -1.19617e-09 7.54356e-16 -1.08156e-15 -3.69056e-15 0 0 0 0 0 0 0 0
337 1 0.00248476 -0.00528695 0.00728263 0.0008 3.43146e-06 -1.38522e-13 -1.17619e-12 5.58681e-13 -1.0932e-09 -1.51737e-09 -7.81376e-10 4.12302e-16 5.10251e-16 -1.38335e-15 0 0 0 0 0 0 0 0
338 1 -0.00372761 0.00380296 0.00284535 0.0008 3.43146e-06 8.43695e-13 4.10381e-13 8.53148e-13 7.35076e-11 7.7681e-11 1.57785e-09 2.23253e-16 -5.97225e-16 4.61177e-17 0 0 0 0 0 0 0 0
339 1 0.00523475 -8.39347e-06 0.00811095 0.0008 3.43146e-06 1.12235e-12 -3.91506e-15 5.77001e-13 4.9173e-10 1.16969e-10 4.29868e-10 -6.06154e-16 -4.41753e-17 -4.97067e-16 0 0 0 0 0 0 0 0
340 1 -0.00127338 0.00587732 0.00516625 0.0008 3.43146e-06 -5.42062e-13 -6.56716e-13 -1.50625e-12 -8.01519e-10 -1.39058e-09 -7.03078e-11 9.16495e-17 -3.52792e-16 4.47251e-16 0 0 0 0 0 0 0 0
341 1 0.000893507 0.00588547 0.00741747 0.0008 3.43146e-06 1.29513e-14 1.92753e-13 1.83239e-13 5.29456e-10 -4.55597e-09 2.38134e-09 -2.54915e-15 -4.02555e-16 1.52312e-15 0 0 0 0 0 0 0 0
342 1 0.000420181 -0.0050141 0.00756083 0.0008 3.43146e-06 -1.34939e-13 6.50609e-13 -3.94076e-13 -1.08512e-09 1.85017e-10 -7.94443e-11 1.06678e-15 -3.7991e-17 -1.98239e-15 0 0 0 0 0 0 0 0
343 1 -0.000470479 -0.00276718 0.00618837 0.0008 3.43146e-06 -1.35371e-13 7.23904e-13 -1.74718e-12 5.69247e-10 -3.09007e-09 -1.51242e-09 -5.54104e-16 -5.58818e-17 -7.95006e-17 0 0 0 0 0 0 0 0
344 1 -0.0004391 -0.00359657 0.00784003 0.0008 3.43146e-06 1.35007e-13 1.08403e-12 -6.68511e-13 -1.58941e-09 -3.14955e-09 -2.72821e-09 6.10774e-16 2.94936e-16 4.02594e-16 0 0 0 0 0 0 0 0
345 1 0.0027351 0.000576252 0.00647984 0.0008 3.43146e-06 1.01064e-12 -6.84432e-15 -5.61412e-13 1.46356e-09 1.02377e-09 1.55343e-09 -1.85192e-15 2.41621e-16 2.34586e-17 0 0 0 0 0 0 0 0
346 1 0.0053587 -0.0048093 0.00732744 0.0008 3.43146e-06 -5.56185e-13 3.27312e-13 5.37642e-13 1.18835e-09 -1.6682e-10 1.59246e-10 2.48765e-16 -5.00858e-17 4.29614e-17 1 -0.000310079 0.000320171 -2.35488e-06 0.00595382 -0.00534341 0.00732744 0.0008
347 1 -0.000310505 0.00719381 0.00480703 0.0008 3.43146e-06 -1.35271e-13 1.05537e-13 -1.07884e-12 1.4e-09 -1.00586e-09 -1.53347e-10 -1.7339e-17 1.8749e-16 1.39947e-17 1 8.34029e-05 -0.000772955 0.000288095 -0.000344982 0.00799256 0.00480703 0.0008
348 1 0.000352202 -0.00174702 0.00710497 0.0008 3.43146e-06 -6.00516e-14 -5.02179e-13 1.39171e-13 -7.14644e-10 -1.09093e-09 -2.1119e-09 -1.77253e-15 -2.88589e-15 -6.49981e-17 0 0 0 0 0 0 0 0
349 1 -0.00216842 0.0038531 0.00363828 0.0008 3.43146e-06 2.33724e-14 2.71295e-13 1.67695e-13 1.74275e-09 -1.27889e-09 6.05453e-10 4.69049e-16 2.94347e-16 -4.22356e-16 0 0 0 0 0 0 0 0
350 1 -0.00231561 0.00362886 0.00871595 0.0008 3.43146e-06 -1.08042e-12 -1.00187e-12 -1.77352e-12 1.59057e-09 -2.87395e-09 1.5172e-09 -1.58015e-16 8.65769e-16 2.02295e-16 0 0 0 0 0 0 0 0
351 1 0.00155059 0.00703106 0.00520937 0.0008 3.43146e-06 3.34405e-13 1.47778e-12 1.24898e-12 -1.89867e-09 -1.39388e-09 7.92124e-12 -2.08316e-16 -2.61955e-16 -3.59709e-16 1 -9.76715e-07 -3.09349e-06 -5.60395e-08 0.00172287 0.00781228 0.00520937 0.0008
352 1 0.0016156 0.00560378 0.00592948 0.0008 3.43146e-06 -5.40803e-13 1.93503e-12 6.88828e-13 2.28262e-09 2.71685e-10 -6.26973e-10 1.07906e-16 -2.04831e-16 -4.50415e-16 0 0 0 0 0 0 0 0
353 1 0.00266202 -0.00207711 0.00531835 0.0008 3.43146e-06 4.67811e-13 2.41289e-14 4.77205e-13 1.70419e-09 -1.68376e-09 1.21576e-09 9.31815e-16 1.06155e-15 -1.53735e-15 0 0 0 0 0 0 0 0
354 1 -0.00570599 -0.00228477 0.00655945 0.0008 3.43146e-06 4.67988e-13 1.08373e-12 -1.78427e-12 6.40241e-10 1.79959e-09 -6.78917e-10 2.28364e-16 -3.58635e-16 -9.41018e-17 0 0 0 0 0 0 0 0
355 1 -0.00294455 -0.00183608 0.00689592 0.0008 3.43146e-06 -5.8541e-13 -5.41858e-13 1.61198e-12 -6.68304e-10 1.18203e-09 1.23029e-09 -2.79748e-17 -6.35474e-17 7.74811e-16 0 0 0 0 0 0 0 0
356 1 0.00164418 0.00168313 0.0068579 0.0008 3.43146e-06 -5.25593e-13 -4.38359e-13 2.83341e-13 4.77029e-10 -1.89487e-09 -2.21156e-10 -1.23931e-15 9.66953e-16 -8.32978e-16 0 0 0 0 0 0 0 0
357 1 0.00317335 0.00617979 0.00949572 0.0008 3.43146e-06 3.09393e-13 -1.69872e-12 2.5513e-12 1.91938e-09 -5.81252e-10 -3.33688e-09 -5.78267e-16 -7.32971e-17 5.67745e-16 0 0 0 0 0 0 0 0
358 1 0.00552168 -0.00397559 0.00493119 0.0008 3.43146e-06 -3.48951e-13 1.10507e-12 -1.54875e-12 -1.34025e-09 1.73391e-09 1.09723e-09 6.72233e-16 -3.72615e-16 -4.81708e-16 0 0 0 0 0 0 0 0
359 1 0.00566405 0.00444542 0.00881241 0.0008 3.43146e-06 6.1379e-13 9.95043e-13 1.92903e-12 5.81421e-10 3.52877e-09 -5.06796e-10 1.47876e-17 -3.19577e-16 1.29588e-16 1 -0.000175361 -0.000151745 6.83025e-05 0.00629319 0.0049392 0.00881241 0.0008
360 1 -0.00699823 0.00169283 0.00737478 0.0008 3.43146e-06 -2.16521e-12 5.25205e-13 -6.47058e-13 -4.07405e-10 7.9393e-10 4.98358e-11 1.23636e-16 -1.49673e-16 2.16274e-16 1 3.16085e-05 -1.05133e-05 4.66147e-06 -0.00777574 0.0018809 0.00737478 0.0008
361 1 -0.0033291 0.00488471 0.00402068 0.0008 3.43146e-06 8.13145e-14 -1.28849e-12 1.70253e-12 1.6884e-09 1.14582e-09 1.88494e-10 7.57749e-16 4.74673e-16 -6.34066e-16 0 0 0 0 0 0 0 0
362 1 -0.0032259 -0.00445772 0.00480373 0.0008 3.43146e-06 -9.80018e-13 1.41347e-12 1.93546e-12 1.1125e-10 2.99515e-10 -1.73296e-09 1.81648e-16 8.64373e-16 -4.70031e-17 0 0 0 0 0 0 0 0
363 1 -0.00657258 -0.00294036 0.00378364 0.0008 3.43146e-06 -4.45523e-13 -6.19589e-13 6.14172e-13 8.85454e-10 -4.41656e-10 -4.75417e-10 3.33838e-16 5.72297e-17 -2.60791e-16 1 0.000308405 0.000226579 -3.56044e-05 -0.00730255 -0.00326693 0.00378364 0.0008
364 1 -0.00268529 -0.000562361 0.00933737 0.0008 3.43146e-06 9.54657e-13 2.71018e-13 -2.49411e-13 6.98905e-10 -1.47521e-09 -1.64647e-09 5.15584e-16 8.61903e-16 5.47e-17 0 0 0 0 0 0 0 0
365 1 0.00557862 -0.000647503 0.00668541 0.0008 3.43146e-06 1.55462e-12 1.57128e-13 -3.20618e-13 6.88509e-11 -2.25916e-10 1.16129e-10 -7.672e-16 -2.65379e-16 -1.21685e-16 0 0 0 0 0 0 0 0
366 1 0.00259921 -0.00103816 0.00653344 0.0008 3.43146e-06 -6.65077e-13 3.70316e-13 8.33376e-13 -1.70103e-09 -7.1387e-10 -1.89439e-09 1.80304e-15 -2.5416e-15 -1.35986e-15 0 0 0 0 0 0 0 0
367 1 0.000728582 0.00122289 0.00808661 0.0008 3.43146e-06 -2.43664e-13 -4.96546e-13 -1.40201e-12 4.21745e-10 1.11853e-09 2.29458e-11 -4.4661e-16 6.12414e-16 3.58017e-16 0 0 0 0 0 0 0 0
368 1 -0.000579261 0.00156275 0.0103542 0.0008 3.43146e-06 -1.70889e-13 -5.41962e-13 -1.57425e-12 -3.4878e-09 1.7793e-10 -1.04586e-09 5.89578e-16 -9.63437e-16 1.50105e-15 0 0 0 0 0 0 0 0
369 1 0.00107776 -0.0047322 0.00448464 0.0008 3.43146e-06 4.64239e-13 -1.44768e-12 3.50215e-13 1.27982e-09 5.11211e-10 -1.47617e-09 -1.87485e-17 -4.45852e-16 -1.23357e-16 0 0 0 0 0 0 0 0
370 1 0.0013307 -0.00640982 0.00730813 0.0008 3.43146e-06 -3.55581e-13 -3.52716e-13 6.95072e-13 2.98871e-09 1.91891e-09 -1.85216e-09 -3.59215e-16 8.70301e-16 7.67166e-16 0 0 0 0 0 0 0 0
371 1 0.0018802 -0.0051241 0.00581124 0.0008 3.43146e-06 2.53892e-13 -2.16601e-12 -9.93074e-13 -9.05881e-10 5.16122e-10 -3.71105e-10 6.21587e-16 5.89754e-17 -1.50736e-15 0 0 0 0 0 0 0 0
372 1 0.000108779 -0.000197912 0.00984421 0.0008 3.43146e-06 2.27789e-13 -7.19064e-14 5.37898e-13 7.35176e-10 8.63934e-10 4.39661e-10 2.62324e-16 -1.38061e-16 6.26311e-16 0 0 0 0 0 0 0 0
373 1 -0.0048041 -0.00456843 0.00504135 0.0008 3.43146e-06 -2.14199e-12 1.69536e-12 2.11209e-12 -1.92887e-09 -4.17072e-10 1.5577e-09 2.67696e-16 1.69582e-16 -2.38646e-16 0 0 0 0 0 0 0 0
374 1 -0.00523253 -8.53137e-05 0.00437273 0.0008 3.43146e-06 3.18014e-13 -3.37636e-14 -3.55977e-13 -3.6259e-10 7.32494e-10 -2.48409e-12 5.91672e-16 -8.60903e-17 -2.57176e-16 0 0 0 0 0 0 0 0
375 1 0.00172665 -0.00146871 0.00787464 0.0008 3.43146e-06 -8.54397e-14 -5.40935e-13 1.71787e-12 -2.89153e-09 -1.51243e-09 -1.63087e-10 2.34407e-16 -7.89167e-17 -1.50292e-15 0 0 0 0 0 0 0 0
376 1 -0.00563219 -0.000525039 0.00585821 0.0008 3.43146e-06 2.07304e-12 1.9564e-13 5.84789e-13 -7.36092e-11 1.73359e-09 1.56632e-10 2.08191e-15 1.36839e-15 -9.79867e-16 0 0 0 0 0 0 0 0
377 1 -0.00148526 -0.00160055 0.00575648 0.0008 3.43146e-06 1.28397e-13 5.41254e-13 1.56153e-12 -3.43207e-09 -2.72573e-10 -1.08227e-09 -6.19039e-16 2.43664e-16 -2.6319e-15 0 0 0 0 0 0 0 0
378 1 -0.00119184 -0.00710073 0.00778367 0.0008 3.43146e-06 -5.41812e-13 -1.53758e-12 1.94342e-12 2.7622e-09 1.93497e-09 3.06796e-10 -9.32539e-17 -5.24918e-17 2.54448e-16 1 7.26203e-06 2.81452e-05 5.72736e-06 -0.00132425 -0.00788964 0.00778367 0.0008
379 1 0.00409944 0.00591924 0.00644997 0.0008 3.43146e-06 1.95599e-12 1.16567e-12 -2.02902e-12 1.42005e-09 -2.40126e-09 1.17217e-09 -2.96442e-17 1.01054e-16 -8.85342e-16 1 -7.83715e-05 -0.000157072 -3.08135e-05 0.00455481 0.00657676 0.00644997 0.0008
380 1 0.002046 -0.00269937 0.00665741 0.0008 3.43146e-06 4.53338e-13 -8.40675e-14 -1.87268e-12 4.59592e-11 1.02456e-09 -2.23124e-09 7.76309e-16 3.37716e-16 -1.96727e-15 0 0 0 0 0 0 0 0
381 1 -0.00275605 -0.000891052 0.00225719 0.0008 3.43146e-06 6.58966e-13 -1.12062e-13 1.98922e-14 -1.22332e-10 1.44948e-09 -3.61614e-11 6.48424e-18 1.65915e-16 2.835e-16 0 0 0 0 0 0 0 0
382 1 -0.00437065 0.00176386 0.00681263 0.0008 3.43146e-06 -6.44984e-13 5.29471e-13 9.34456e-13 -1.36104e-09 1.7993e-10 -3.77475e-09 1.01766e-15 1.0903e-15 4.36488e-16 0 0 0 0 0 0 0 0
383 1 0.00274753 0.00405166 0.00906476 0.0008 3.43146e-06 -1.08402e-12 -1.15136e-12 -4.21865e-13 -3.78497e-10 1.4039e-09 1.032e-09 -4.06262e-16 -1.22529e-15 -1.5647e-16 0 0 0 0 0 0 0 0
384 1 -0.00533731 0.00240012 0.00518595 0.0008 3.43146e-06 -6.27868e-13 3.49069e-13 -3.66418e-13 1.01048e-10 -2.04777e-09 -4.28159e-10 -2.43549e-16 5.41744e-16 1.814e-16 0 0 0 0 0 0 0 0
385 1 -0.00321228 -0.00308545 0.0104288 0.0008 3.43146e-06 -5.09764e-13 5.85224e-13 3.24104e-12 -1.47855e-09 1.87054e-09 -1.01484e-10 -1.14072e-16 4.70395e-16 -1.41839e-15 0 0 0 0 0 0 0 0
386 1 0.00391005 -0.0030079 0.0056856 0.0008 3.43146e-06 -7.36617e-13 7.47398e-13 1.62375e-12 -1.6939e-10 -1.70613e-09 -6.39982e-10 6.18786e-16 -3.51907e-16 -6.90843e-16 0 0 0 0 0 0 0 0
387 1 0.0061239 0.000828241 0.00471738 0.0008 3.43146e-06 -5.91162e-13 2.24003e-13 -1.11985e-13 1.71723e-09 -2.37295e-10 -3.60673e-10 -7.91466e-17 3.1512e-16 6.01705e-16 0 0 0 0 0 0 0 0
388 1 0.00376281 0.00439112 0.00422285 0.0008 3.43146e-06 -1.05498e-12 1.21768e-12 8.83898e-13 -1.44651e-09 -6.89195e-10 -2.14524e-09 2.64474e-17 -5.46241e-16 8.6593e-17 0 0 0 0 0 0 0 0
389 1 -0.00240913 -0.00678557 0.00341656 0.0008 3.43146e-06 -1.07786e-12 -1.03069e-12 1.92759e-13 1.52767e-10 -2.83644e-10 8.3488e-10 -7.19618e-17 -4.63364e-16 1.03744e-16 1 0.00029447 0.000796702 1.50922e-05 -0.00267661 -0.00753895 0.00341656 0.0008
390 1 -0.00715455 0.000809888 0.00605019 0.0008 3.43146e-06 -1.64664e-12 2.70479e-13 1.01146e-12 -1.01111e-09 -1.19288e-09 1.55023e-10 1.21191e-16 6.20178e-16 -7.75272e-16 1 0.000257339 5.98103e-06 7.96845e-05 -0.00794923 0.000899845 0.00605019 0.0008
391 1 -0.00276852 -0.00664523 0.00830561 0.0008 3.43146e-06 8.6322e-13 -5.42816e-14 1.50733e-12 7.67556e-10 5.58938e-09 -4.56473e-09 9.88628e-17 -3.23429e-16 -1.67319e-16 0 0 0 0 0 0 0 0
392 1 0.00596023 0.0010301 0.00629534 0.0008 3.43146e-06 -2.10085e-13 -2.81499e-13 6.64987e-13 -1.00392e-09 8.48362e-10 6.661e-10 -3.64905e-16 5.43693e-16 1.08052e-16 0 0 0 0 0 0 0 0
393 1 0.000239446 0.00450768 0.00790059 0.0008 3.43146e-06 6.47814e-14 -1.53953e-14 -2.45486e-12 8.64216e-10 7.2577e-12 -1.09908e-09 -1.6873e-17 -3.49682e-16 -4.75642e-16 0 0 0 0 0 0 0 0
394 1 -0.00114511 -0.00112029 0.0072437 0.0008 3.43146e-06 -1.53696e-13 5.41127e-13 -1.93128e-12 1.83593e-09 4.54331e-10 -1.0303e-10 7.9665e-16 -4.17066e-16 1.89868e-18 0 0 0 0 0 0 0 0
395 1 -0.00387519 -0.00606845 0.00728701 0.0008 3.43146e-06 -4.31809e-13 -1.54882e-12 -2.00322e-12 -2.90967e-09 1.07662e-10 -5.83731e-10 -5.74899e-16 6.85128e-16 -5.56269e-16 1 0.000109906 0.000195473 4.6702e-05 -0.00430563 -0.00674252 0.00728701 0.0008
396 1 0.00238785 0.00181661 0.00544776 0.0008 3.43146e-06 3.0205e-13 5.18118e-13 3.3719e-13 5.89301e-11 8.63757e-10 1.6819e-09 -7.36815e-18 1.43718e-15 -9.98789e-16 0 0 0 0 0 0 0 0
397 1 0.000664299 0.00273272 0.00756215 0.0008 3.43146e-06 -1.86259e-13 -1.01467e-12 -3.8593e-13 4.83026e-10 3.0746e-10 -4.83448e-10 -7.06361e-16 2.35632e-16 -9.54412e-16 0 0 0 0 0 0 0 0
398 1 0.00248432 -0.00675792 0.00468537 0.0008 3.43146e-06 1.08373e-12 3.85011e-13 -5.94777e-13 -1.13921e-09 9.69084e-10 -1.45506e-09 1.7113e-16 -8.16294e-16 -5.48411e-16 1 -2.04999e-05 5.32221e-05 -1.09786e-05 0.00276033 -0.0075087 0.00468537 0.0008
399 1 -0.00393679 -0.000289104 0.00528874 0.0008 3.43146e-06 1.5011e-12 1.35132e-13 1.40846e-12 1.48869e-10 -1.70944e-09 6.02268e-10 1.5845e-15 9.58231e-17 1.40289e-16 0 0 0 0 0 0 0 0
400 1 -0.00110445 -0.0054574 0.00776565 0.0008 3.43146e-06 5.41504e-13 5.4807e-13 1.80488e-12 3.45332e-09 4.47768e-10 -4.45906e-09 -2.06784e-16 2.00957e-15 -3.49817e-16 0 0 0 0 0 0 0 0
401 1 -0.00430097 0.00377487 0.00646969 0.0008 3.43146e-06 4.81291e-13 -5.55337e-13 -1.00023e-12 8.71595e-10 -2.90199e-10 -1.33696e-09 2.53317e-16 -3.63258e-16 1.42794e-16 0 0 0 0 0 0 0 0
402 1 -0.00620032 0.00116263 0.0046276 0.0008 3.43146e-06 6.34388e-13 -5.06911e-13 1.63649e-13 1.84636e-10 7.37596e-10 2.54181e-10 -9.66946e-17 -3.74362e-17 1.05528e-15 0 0 0 0 0 0 0 0
403 1 0.00537511 -0.000530982 0.00510303 0.0008 3.43146e-06 1.03525e-13 -2.63814e-13 -2.90675e-13 -4.8571e-10 1.96139e-09 9.21534e-10 -3.78324e-16 2.04548e-16 2.08662e-16 0 0 0 0 0 0 0 0
404 1 -0.00152386 0.00466773 0.00779209 0.0008 3.43146e-06 -5.42025e-13 7.20081e-13 -9.25356e-13 -1.48397e-09 -4.27206e-10 1.32499e-09 -9.4919e-17 1.70839e-16 7.10981e-16 0 0 0 0 0 0 0 0
405 1 0.00126515 0.00132762 0.00441895 0.0008 3.43146e-06 2.60581e-13 -5.87531e-14 6.65246e-13 5.71165e-10 -1.22525e-11 -7.07184e-11 6.2117e-16 4.41217e-17 -2.06552e-15 0 0 0 0 0 0 0 0
406 1 -0.000627954 -0.00444365 0.00649618 0.0008 3.43146e-06 -2.70779e-13 2.16778e-12 1.64235e-13 1.54758e-09 9.58811e-10 -2.16884e-09 3.5201e-19 -8.07662e-17 -1.72336e-15 0 0 0 0 0 0 0 0
407 1 -0.00157301 0.00242129 0.0062893 0.0008 3.43146e-06 -5.41808e-13 -1.07827e-13 -7.19237e-13 4.41258e-11 -1.2605e-09 4.37738e-10 -2.41836e-16 3.44737e-16 1.34193e-16 0 0 0 0 0 0 0 0
408 1 0.00298073 0.0014451 0.00779944 0.0008 3.43146e-06 4.90353e-13 5.29579e-13 9.26537e-13 -5.71807e-10 -3.47599e-10 1.14454e-09 -8.67834e-16 -8.53078e-16 -1.92181e-15 0 0 0 0 0 0 0 0
409 1 -0.00707191 0.00135514 0.0104558 0.0008 3.43146e-06 4.83956e-13 3.46075e-13 -1.18351e-12 -1.38947e-10 1.53102e-09 5.55085e-10 -1.60013e-16 -2.77411e-17 -3.18427e-16 1 0.000944482 -8.03066e-05 -6.25102e-05 -0.00785705 0.00150559 0.0104558 0.0008
410 1 0.00530979 0.00193263 0.00258414 0.0008 3.43146e-06 6.65358e-13 5.34149e-13 5.48098e-13 -3.38141e-10 -5.24758e-10 -5.04546e-10 5.65799e-16 -1.13606e-16 -4.50632e-16 0 0 0 0 0 0 0 0
411 1 0.00495369 0.00272198 0.00859484 0.0008 3.43146e-06 -1.9639e-12 1.04219e-12 3.42886e-13 -3.21193e-10 -3.22518e-10 -7.70183e-11 3.1678e-16 -1.37123e-15 1.24925e-15 0 0 0 0 0 0 0 0
412 1 0.000449902 -0.00575758 0.00614384 0.0008 3.43146e-06 -6.6776e-14 1.00587e-12 5.98298e-13 -4.27108e-09 -4.14008e-10 -2.50558e-09 3.34688e-16 1.395e-15 -1.22036e-15 0 0 0 0 0 0 0 0
413 1 0.00120428 -0.00557087 0.00210258 0.0008 3.43146e-06 2.458e-13 -2.9635e-15 2.01772e-13 -9.24796e-11 4.36698e-12 -1.95563e-10 -4.11783e-17 -6.01518e-16 -5.30088e-16 0 0 0 0 0 0 0 0
414 1 -0.00264366 0.00268669 0.00744783 0.0008 3.43146e-06 3.62988e-13 7.47239e-14 -4.15132e-13 -3.67727e-10 2.38211e-09 -5.33352e-10 -5.7327e-16 -5.83607e-16 1.18989e-15 0 0 0 0 0 0 0 0
415 1 -0.000448818 -0.00563784 0.00482649 0.0008 3.43146e-06 6.69667e-14 -1.29846e-13 7.05342e-13 7.43147e-10 6.56777e-10 -1.65131e-10 1.08021e-15 -4.60454e-16 -4.09124e-16 0 0 0 0 0 0 0 0
416 1 -0.00329283 0.00470802 0.00728866 0.0008 3.43146e-06 -6.31037e-13 -1.46398e-12 -9.88704e-13 -9.82688e-11 -2.67213e-10 1.57322e-09 -1.60934e-16 -8.9773e-16 8.88006e-16 0 0 0 0 0 0 0 0
417 1 0.00112783 -0.00283305 0.00535402 0.0008 3.43146e-06 2.21661e-13 3.95773e-13 -5.27799e-13 -5.95137e-10 5.78964e-11 6.13418e-10 5.2275e-16 2.78053e-15 -3.29176e-15 0 0 0 0 0 0 0 0
418 1 -0.00208053 -0.0027495 0.00481634 0.0008 3.43146e-06 1.85573e-13 8.08001e-13 2.16021e-12 1.88402e-09 -1.7849e-09 -8.55241e-10 1.78277e-15 4.37937e-16 -1.68668e-15 0 0 0 0 0 0 0 0
419 1 0.00714857 -0.000859769 0.00646273 0.0008 3.43146e-06 -4.33991e-13 2.25863e-13 6.38114e-14 -1.0587e-09 2.23918e-10 -2.2792e-10 -3.44655e-16 -5.63617e-16 -2.26493e-17 1 -5.32713e-05 1.32466e-05 1.01126e-06 0.00794276 -0.000955287 0.00646273 0.0008
420 1 0.00677939 -0.00242605 0.00675411 0.0008 3.43146e-06 -4.36537e-13 -4.0876e-15 -3.72177e-13 -1.21202e-09 -4.73466e-11 2.04502e-10 1.14185e-16 -6.44845e-16 -3.18682e-16 1 -0.00050163 0.000256123 0.000169625 0.00753223 -0.00269546 0.00675411 0.0008
421 1 0.00127397 -0.00708646 0.00575725 0.0008 3.43146e-06 4.53637e-14 -1.54523e-12 8.22865e-13 9.00561e-10 1.12522e-09 2.98217e-10 -1.09369e-17 -1.17068e-16 -3.1731e-16 1 3.66576e-07 3.67335e-05 8.45726e-06 0.00141551 -0.00787377 0.00575725 0.0008
422 1 0.0051357 0.00240533 0.00651774 0.0008 3.43146e-06 2.96412e-13 -1.92272e-13 -1.33175e-12 7.51153e-10 -1.00044e-09 3.11887e-10 3.00654e-16 -1.47159e-16 -2.3967e-16 0 0 0 0 0 0 0 0
423 1 0.00187345 -0.00695342 0.00871053 0.0008 3.43146e-06 1.35695e-13 -2.10809e-12 -7.14944e-13 -7.90121e-10 -4.81275e-10 5.18109e-10 1.3067e-16 3.13319e-16 -6.99537e-16 1 -0.000918246 0.00331043 0.000375495 0.00208121 -0.00772454 0.00871053 0.0008
424 1 -0.00712111 -0.00106513 0.00269944 0.0008 3.43146e-06 3.17049e-13 -2.16678e-13 -3.08281e-13 1.14853e-09 5.67175e-10 -3.26114e-10 9.69136e-17 6.33921e-17 -5.60816e-16 1 0.000403104 6.1497e-06 3.41972e-05 -0.00791199 -0.00118342 0.00269944 0.0008
425 1 0.00708527 -0.0012807 0.00955432 0.0008 3.43146e-06 -1.39288e-12 3.87615e-13 -5.60063e-13 -1.25239e-09 -4.87249e-10 -1.61274e-10 -1.36378e-16 1.34576e-16 1.13817e-16 1 -5.60721e-05 1.23148e-05 5.0177e-06 0.00787243 -0.00142298 0.00955432 0.0008
426 1 -0.00487805 0.00135257 0.00936314 0.0008 3.43146e-06 -1.82997e-12 5.41954e-13 1.7961e-12 2.39805e-10 -2.84746e-09 4.42118e-10 -5.40734e-17 -1.86328e-16 -1.81898e-16 0 0 0 0 0 0 0 0
427 1 0.00334686 0.000844545 0.00461019 0.0008 3.43146e-06 4.66863e-13 -2.70973e-13 -1.34882e-12 7.3981e-10 -7.43963e-10 -2.85541e-10 -1.43484e-16 -8.79506e-17 1.26566e-15 0 0 0 0 0 0 0 0
428 1 0.00111841 -0.000986924 0.00592468 0.0008 3.43146e-06 5.41745e-13 -5.41993e-13 -4.79625e-14 1.18699e-09 1.37588e-09 6.8646e-10 -9.65683e-16 4.25009e-17 -4.61919e-15 0 0 0 0 0 0 0 0
429 1 -0.00173672 0.00698806 0.00411282 0.0008 3.43146e-06 -5.39397e-13 1.58691e-12 -2.01937e-12 2.44758e-09 5.9156e-10 -1.72711e-10 6.2662e-19 1.38089e-16 1.61548e-16 1 0.000170104 -0.00107782 0.000251219 -0.00192952 0.00776382 0.00411282 0.0008
430 1 3.92376e-05 0.00159464 0.00662816 0.0008 3.43146e-06 6.76122e-14 1.15607e-13 -2.38303e-13 7.05802e-11 -6.48532e-10 -6.59169e-11 -1.39838e-15 -1.98584e-15 -1.84317e-15 0 0 0 0 0 0 0 0
431 1 0.00459761 0.0034977 0.00541062 0.0008 3.43146e-06 -1.84235e-12 -1.24115e-14 4.78292e-13 -4.96643e-10 -3.92561e-09 -2.04388e-09 -3.06913e-16 2.05862e-16 -5.77654e-16 0 0 0 0 0 0 0 0
432 1 -0.000839147 0.000638493 0.00459734 0.0008 3.43146e-06 2.71024e-13 2.70551e-13 5.99802e-13 -4.38611e-10 6.76374e-10 1.31602e-10 1.63845e-17 -1.75879e-16 5.65652e-16 0 0 0 0 0 0 0 0
433 1 0.000625443 -0.00133182 0.00162436 0.0008 3.43146e-06 -1.71254e-13 1.27489e-13 1.57972e-13 -5.59961e-10 1.84068e-10 3.52333e-10 -2.21528e-16 1.26371e-16 -7.90948e-16 0 0 0 0 0 0 0 0
434 1 0.00288939 -0.00511404 0.00457075 0.0008 3.43146e-06 5.7961e-14 -1.49979e-12 -8.83245e-13 1.50433e-09 -4.28448e-10 9.48799e-10 4.75716e-16 -2.43964e-16 -2.96577e-16 0 0 0 0 0 0 0 0
435 1 0.00554658 -0.000444193 0.00961812 0.0008 3.43146e-06 -8.04218e-13 -1.67742e-14 -1.92182e-12 7.86037e-10 -2.32844e-09 7.6301e-10 2.5106e-16 -1.32637e-15 5.73832e-16 0 0 0 0 0 0 0 0
436 1 -0.0052985 0.000308963 0.0120335 0.0008 3.43146e-06 -5.01228e-13 -1.34991e-13 1.31573e-12 1.04675e-10 3.8478e-09 1.33576e-09 -1.17851e-15 1.16122e-16 -4.52231e-17 0 0 0 0 0 0 0 0
437 1 0.0035897 -0.00287608 0.00724702 0.0008 3.43146e-06 -5.62407e-13 8.1973e-13 -9.26779e-14 1.83763e-10 1.36826e-09 -7.81139e-10 -2.53742e-16 6.62628e-16 -2.40507e-16 0 0 0 0 0 0 0 0
438 1 -0.00532338 -0.00218029 0.0134669 0.0008 3.43146e-06 2.16646e-12 -1.08418e-12 -1.48436e-12 7.09722e-10 -2.36198e-09 1.2019e-09 -6.3112e-16 -7.65188e-16 4.14569e-16 0 0 0 0 0 0 0 0
439 1 -0.00031079 -0.00330783 0.0117574 0.0008 3.43146e-06 4.99262e-14 1.08247e-12 9.26388e-13 -3.00125e-09 2.64107e-09 -2.71732e-10 -1.30027e-15 3.73722e-16 -7.74435e-16 0 0 0 0 0 0 0 0
440 1 -0.0035248 0.00217947 0.00956886 0.0008 3.43146e-06 -1.08193e-12 1.08346e-12 2.58375e-12 -2.51276e-10 1.90043e-09 -4.04392e-10 -8.90673e-17 -1.88065e-16 -2.27591e-16 0 0 0 0 0 0 0 0
441 1 -0.00573942 -0.000773676 0.00962865 0.0008 3.43146e-06 -2.16706e-12 -2.71098e-13 -7.46592e-13 6.4939e-10 8.35636e-10 -1.69358e-09 3.91232e-16 8.20977e-17 -7.8926e-16 0 0 0 0 0 0 0 0
442 1 0.00442943 -0.00567667 0.0100722 0.0008 3.43146e-06 1.90783e-12 -1.92731e-13 5.72872e-13 1.41405e-09 -6.4501e-10 -1.73036e-09 -1.77056e-16 9.14325e-17 -1.01612e-20 1 -0.000218152 0.000295416 0.000100271 0.00492138 -0.00630714 0.0100722 0.0008
443 1 0.00328786 -0.00310112 0.012243 0.0008 3.43146e-06 -7.82724e-13 -8.20244e-13 -2.91153e-12 2.46528e-09 -2.85219e-09 -1.13739e-10 -2.69229e-16 -1.14929e-15 2.33145e-16 0 0 0 0 0 0 0 0
444 1 -0.000719546 -0.00448478 0.00979126 0.0008 3.43146e-06 2.55651e-13 -2.07144e-13 1.33896e-12 5.17338e-10 -2.2587e-09 -5.59503e-10 8.49596e-16 2.98769e-17 -1.98155e-15 0 0 0 0 0 0 0 0
445 1 -0.00105113 0.000601818 0.011543 0.0008 3.43146e-06 -1.69047e-13 1.6724e-13 -2.66643e-15 1.68501e-09 4.66477e-10 6.72052e-10 -9.7069e-16 -1.04504e-15 1.95987e-15 0 0 0 0 0 0 0 0
446 1 0.00560733 0.0015113 0.00777922 0.0008 3.43146e-06 -3.97825e-13 4.99081e-13 5.74765e-13 -5.12085e-10 -3.02772e-10 1.6191e-09 -3.90243e-16 -1.26267e-16 5.60172e-16 0 0 0 0 0 0 0 0
447 1 -0.00340606 0.000664291 0.0100675 0.0008 3.43146e-06 7.05818e-13 -1.90814e-13 1.54153e-12 1.81476e-09 1.39439e-09 1.58403e-09 -8.09371e-17 -9.21683e-16 -1.82987e-16 0 0 0 0 0 0 0 0
448 1 -0.00525323 -0.0049243 0.0119609 0.0008 3.43146e-06 -1.76412e-13 -6.98949e-13 1.09493e-12 2.15048e-09 1.39026e-10 -4.95726e-10 4.34825e-16 1.77466e-16 -6.91543e-16 1 0.000357382 0.000285608 3.33945e-05 -0.00583663 -0.00547117 0.0119609 0.0008
449 1 0.00163473 0.00289574 0.0136154 0.0008 3.43146e-06 -5.41943e-13 -1.08145e-12 7.86057e-13 -1.89332e-09 -4.72676e-10 -1.31555e-09 -1.53277e-16 5.7201e-16 2.21419e-15 0 0 0 0 0 0 0 0
450 1 -0.0036085 0.00469345 0.0113537 0.0008 3.43146e-06 -1.05289e-12 -1.69625e-12 -5.49661e-13 4.90366e-09 -2.44377e-09 -1.62011e-09 -1.53573e-17 -7.56301e-16 9.72325e-16 0 0 0 0 0 0 0 0
451 1 -0.00477327 -0.00539101 0.010447 0.0008 3.43146e-06 -1.72894e-13 -4.39762e-13 4.33686e-13 1.94359e-09 1.37442e-09 -2.02481e-10 6.14562e-16 4.79548e-16 -5.6004e-16 1 0.0004839 0.000557893 0.000172258 -0.00530327 -0.0059896 0.010447 0.0008
452 1 -0.00446284 0.00403893 0.0101698 0.0008 3.43146e-06 -7.88924e-13 2.08801e-12 -1.88931e-12 6.06651e-10 2.34922e-09 1.06204e-09 -4.16982e-16 8.23829e-16 -1.31498e-17 0 0 0 0 0 0 0 0
453 1 -0.0028447 0.00339127 0.0103602 0.0008 3.43146e-06 -7.68003e-13 2.44469e-13 1.7526e-12 1.13574e-09 7.91599e-10 9.90875e-10 -2.18273e-16 9.67877e-16 -8.79085e-16 0 0 0 0 0 0 0 0
454 1 -0.00562737 -0.00449179 0.0094368 0.0008 3.43146e-06 5.43024e-13 7.0215e-14 7.02995e-13 -1.11182e-09 -2.01019e-09 -3.61052e-10 4.80382e-16 -9.75034e-17 -3.71413e-16 1 0.000188502 0.000158556 4.72849e-05 -0.00625242 -0.00499071 0.0094368 0.0008
455 1 -0.00703298 0.00154201 0.0137688 0.0008 3.43146e-06 -1.75596e-12 5.41623e-13 1.85758e-12 -3.78821e-09 -1.53647e-09 2.6298e-10 -1.38967e-15 -3.9726e-18 -1.63424e-16 1 1.74389e-05 -3.37833e-06 -4.1111e-07 -0.00781438 0.00171334 0.0137688 0.0008
456 1 -0.00238301 -0.00679488 0.00676028 0.0008 3.43146e-06 -7.94314e-13 -7.23195e-13 5.1109e-13 -5.80334e-10 -3.6299e-09 6.489e-10 7.18677e-16 1.1084e-15 7.8058e-16 1 0.000265483 0.00104336 -0.000182675 -0.00264756 -0.0075492 0.00676028 0.0008
457 1 -0.00268443 -0.00668087 0.0104531 0.0008 3.43146e-06 3.94465e-13 -1.63044e-12 2.13967e-12 4.81149e-09 4.79948e-09 -1.19882e-09 -4.9973e-16 3.70145e-16 -3.62734e-16 1 5.41301e-07 2.70256e-06 2.31981e-07 -0.0029827 -0.00742317 0.0104531 0.0008
458 1 0.00066937 0.00412307 0.0132691 0.0008 3.43146e-06 1.62483e-14 -1.33609e-13 -3.13193e-13 5.19266e-10 3.18321e-10 -1.94462e-10 -3.25457e-16 3.45427e-16 7.14398e-16 0 0 0 0 0 0 0 0
459 1 0.000547181 0.00586613 0.00963078 0.0008 3.43146e-06 2.70467e-13 1.19802e-12 -2.8794e-12 -7.50477e-10 -2.56772e-10 -2.27835e-09 -1.99595e-16 -1.68969e-16 3.83909e-17 0 0 0 0 0 0 0 0
460 1 0.00229848 0.00682377 0.00670647 0.0008 3.43146e-06 -1.08322e-12 -2.0764e-12 9.52609e-14 6.45272e-11 5.58356e-10 -4.54835e-10 -1.45124e-16 7.96533e-16 -1.65342e-17 1 -0.000192815 -0.000677359 0.000230247 0.0025537 0.00758147 0.00670647 0.0008
461 1 -0.00343739 0.00632682 0.0112777 0.0008 3.43146e-06 6.33446e-13 -1.41477e-12 -2.17995e-12 3.3668e-09 -5.07007e-10 -1.0688e-10 5.38008e-16 4.53788e-16 2.33691e-16 1 8.2958e-05 -0.000342425 8.9909e-05 -0.00381917 0.00702951 0.0112777 0.0008
462 1 -6.72804e-05 -0.00479436 0.0112189 0.0008 3.43146e-06 3.36403e-14 -7.99148e-13 1.58988e-12 7.06524e-10 1.63109e-09 1.5136e-09 3.34461e-16 5.18172e-16 -1.31565e-15 0 0 0 0 0 0 0 0
463 1 0.00554752 0.00459064 0.010401 0.0008 3.43146e-06 7.66246e-13 1.86097e-12 -1.35551e-12 -1.90896e-09 -3.78298e-09 -1.1838e-09 4.09084e-17 -6.45664e-16 -1.36936e-16 1 -0.000707507 -0.000766376 0.000208074 0.00616338 0.00510027 0.010401 0.0008
464 1 0.00404828 0.00227622 0.0118221 0.0008 3.43146e-06 -8.56883e-13 3.18231e-13 1.00433e-12 3.62751e-10 -1.69154e-09 6.73755e-10 -2.63711e-18 -6.17299e-16 9.5059e-16 0 0 0 0 0 0 0 0
465 1 -0.00509038 0.00382863 0.00786285 0.0008 3.43146e-06 -2.14857e-12 1.08147e-12 -3.86332e-12 -2.67367e-09 1.0094e-09 1.27765e-09 -1.79814e-16 9.28671e-16 6.64585e-17 0 0 0 0 0 0 0 0
466 1 -0.00525867 -0.0008377 0.00754667 0.0008 3.43146e-06 -2.16761e-12 -1.69188e-13 -1.11043e-12 1.52839e-09 6.58877e-10 -3.43329e-09 -2.8391e-16 8.95745e-17 5.74053e-16 0 0 0 0 0 0 0 0
467 1 -0.00126856 0.00328633 0.0101076 0.0008 3.43146e-06 -5.41644e-13 7.2102e-13 5.53764e-14 -5.17053e-10 1.17797e-09 -4.75262e-10 -2.93241e-16 -6.49667e-16 1.61364e-15 0 0 0 0 0 0 0 0
468 1 0.00412722 0.00240799 0.0102302 0.0008 3.43146e-06 3.17488e-14 1.7304e-13 8.0244e-13 -4.23135e-10 8.2882e-10 -3.49117e-09 -1.59065e-15 -1.10002e-15 8.72806e-16 0 0 0 0 0 0 0 0
469 1 -0.00429623 -0.00233779 0.00763794 0.0008 3.43146e-06 -2.15889e-12 4.36914e-13 -1.3246e-12 -1.68428e-09 2.44573e-09 1.06878e-09 3.91752e-16 9.96066e-16 7.73114e-16 0 0 0 0 0 0 0 0
470 1 0.00270009 0.00173047 0.011157 0.0008 3.43146e-06 -1.08314e-12 2.82461e-13 7.17309e-13 -1.30184e-09 1.06735e-09 -1.24022e-09 -1.33348e-16 2.55845e-16 1.00151e-15 0 0 0 0 0 0 0 0
471 1 -0.00212935 0.00195499 0.0103169 0.0008 3.43146e-06 -6.44833e-13 1.22308e-13 -4.67394e-13 3.04765e-09 1.38791e-09 3.34135e-10 1.74272e-15 6.93884e-16 4.53282e-16 0 0 0 0 0 0 0 0
472 1 -0.000651242 -0.00717095 0.0106102 0.0008 3.43146e-06 2.71033e-13 -1.31647e-12 2.82356e-13 4.36701e-10 9.66065e-10 -4.85247e-10 2.58401e-16 1.29794e-16 -8.74492e-17 1 0.000176823 0.000650709 -2.62424e-05 -0.000723556 -0.00796721 0.0106102 0.0008
473 1 0.00542309 -0.00193198 0.0101923 0.0008 3.43146e-06 -9.34125e-13 4.86872e-13 -1.9609e-12 -1.02684e-09 1.50755e-09 -6.65508e-10 9.42296e-16 -4.59057e-16 2.49732e-16 0 0 0 0 0 0 0 0
474 1 -0.0018699 0.00300689 0.0115684 0.0008 3.43146e-06 1.18779e-13 7.37688e-14 -8.45009e-13 -1.17876e-09 2.4284e-09 -2.07894e-09 -1.4589e-15 -1.07582e-15 6.81337e-16 0 0 0 0 0 0 0 0
475 1 0.00308369 0.00124065 0.00968389 0.0008 3.43146e-06 -1.0839e-12 1.13646e-13 1.10776e-12 1.1926e-09 -1.476e-09 2.93939e-10 -1.92839e-16 -2.37384e-15 1.223e-15 0 0 0 0 0 0 0 0
476 1 0.000193761 -0.00204814 0.0108935 0.0008 3.43146e-06 6.66526e-14 -4.23808e-13 6.83469e-13 -6.52429e-11 -1.80572e-10 1.71552e-10 1.08535e-16 -7.03379e-16 -9.42587e-17 0 0 0 0 0 0 0 0
477 1 -0.00307425 -0.00140911 0.0106373 0.0008 3.43146e-06 -5.17914e-13 -3.82206e-13 -4.73983e-13 1.76815e-12 -3.646e-10 1.28e-09 4.91573e-16 4.31552e-16 -2.3173e-16 0 0 0 0 0 0 0 0
478 1 0.00547564 -0.00150936 0.0117341 0.0008 3.43146e-06 -2.11565e-12 -3.73831e-13 -2.58559e-13 2.61384e-09 -3.0519e-09 8.14994e-10 1.7366e-16 1.34603e-16 2.40444e-16 0 0 0 0 0 0 0 0
479 1 -0.000606712 0.000876785 0.00889721 0.0008 3.43146e-06 2.70336e-13 2.7101e-13 -2.67646e-13 -8.23769e-11 3.32283e-10 -1.26849e-09 -3.13183e-17 -1.45845e-16 1.51788e-15 0 0 0 0 0 0 0 0
480 1 -0.00459702 0.0021115 0.0125082 0.0008 3.43146e-06 1.43479e-12 1.08237e-12 1.64702e-12 1.59273e-09 3.02492e-09 -1.96967e-09 -4.78921e-16 -1.78433e-16 2.14741e-16 0 0 0 0 0 0 0 0
481 1 0.00231335 -0.00527126 0.0107919 0.0008 3.43146e-06 9.14544e-13 1.66639e-12 -9.64109e-13 1.50523e-09 2.08726e-09 1.63624e-09 -8.22737e-17 -2.18345e-17 -2.03019e-16 0 0 0 0 0 0 0 0
482 1 -0.0031656 -0.00145098 0.0131143 0.0008 3.43146e-06 3.21489e-13 2.23246e-13 1.87646e-13 6.12383e-11 7.67132e-10 -6.96018e-10 -1.85504e-15 1.64756e-17 -8.69644e-16 0 0 0 0 0 0 0 0
483 1 0.00336021 0.00163442 0.0131148 0.0008 3.43146e-06 -2.77676e-13 3.6585e-13 9.97705e-14 1.72581e-09 3.37068e-09 -3.59311e-09 -6.69055e-16 -1.74712e-16 1.29142e-15 0 0 0 0 0 0 0 0
484 1 -0.00549338 0.0018385 0.00796896 0.0008 3.43146e-06 -1.37063e-12 -3.45063e-13 -7.53602e-13 -2.73922e-10 -3.85893e-10 4.11317e-09 2.15407e-16 -2.78293e-17 -1.92778e-16 0 0 0 0 0 0 0 0
485 1 -0.00568256 0.000564438 0.0105023 0.0008 3.43146e-06 -1.03008e-12 1.48526e-13 2.31342e-13 -5.89566e-11 -3.49341e-09 -1.67892e-09 -8.12124e-16 -7.03101e-16 -8.41443e-16 0 0 0 0 0 0 0 0
486 1 -0.00140549 0.00181015 0.0125293 0.0008 3.43146e-06 -5.41927e-13 -3.28028e-13 8.83748e-13 4.20687e-10 -3.51712e-09 -2.59485e-09 -2.82901e-16 -7.33055e-16 2.06066e-15 0 0 0 0 0 0 0 0
487 1 0.00157968 -0.00538614 0.00859731 0.0008 3.43146e-06 2.5024e-13 1.22332e-13 -9.36462e-13 6.30413e-10 9.52776e-10 -1.21454e-09 -5.73492e-16 1.09568e-15 -1.99819e-15 0 0 0 0 0 0 0 0
488 1 0.00540838 -0.00475428 0.0129658 0.0008 3.43146e-06 7.90921e-13 -2.16682e-12 -1.56109e-12 -1.26923e-09 -1.48154e-09 1.38207e-09 -1.24193e-16 -3.32774e-16 2.81438e-17 1 -0.00158472 0.00119816 8.86073e-05 0.00600852 -0.00528183 0.0129658 0.0008
489 1 0.00601561 0.00395663 0.0145511 0.0008 3.43146e-06 -1.69054e-12 1.62049e-12 -2.37843e-12 1.04393e-09 -2.87217e-09 -2.85482e-09 5.83433e-16 3.11862e-16 3.76736e-16 1 -0.000143527 -5.98095e-05 2.58029e-05 0.00668385 0.00439615 0.0145511 0.0008
490 1 -0.00582233 0.000672241 0.00692473 0.0008 3.43146e-06 -6.80094e-13 -1.28317e-13 2.96579e-13 2.40062e-10 2.69788e-09 -1.20445e-09 -3.61364e-16 -5.15429e-16 3.12341e-16 0 0 0 0 0 0 0 0
491 1 0.0034661 -0.00108791 0.0146977 0.0008 3.43146e-06 6.86001e-13 2.53849e-13 7.94091e-13 5.93495e-11 -1.65124e-10 -1.70283e-10 -9.03814e-17 -1.38005e-15 -6.08106e-16 0 0 0 0 0 0 0 0
492 1 -0.00310071 -0.00301486 0.0134458 0.0008 3.43146e-06 1.08192e-12 -6.86944e-14 -1.48097e-13 3.56332e-10 1.4438e-09 1.22132e-09 2.31223e-16 -3.07763e-16 1.33479e-15 0 0 0 0 0 0 0 0
493 1 -0.00493728 0.00524137 0.00712945 0.0008 3.43146e-06 -2.15149e-12 1.74556e-13 -2.16664e-12 4.10715e-09 -4.00349e-10 -1.80118e-09 -2.68017e-16 -1.88543e-16 3.57019e-16 1 0.000518873 -0.000884935 0.000151924 -0.00548541 0.00582325 0.00712945 0.0008
494 1 -0.000509474 0.00641504 0.0106992 0.0008 3.43146e-06 2.71009e-13 1.25134e-12 -1.18984e-12 1.78485e-09 1.51218e-09 1.87932e-09 1.26493e-16 -4.43309e-16 3.3309e-16 0 0 0 0 0 0 0 0
495 1 0.00355695 -0.00130579 0.0118989 0.0008 3.43146e-06 4.79082e-14 5.00578e-13 1.54837e-12 -1.33569e-09 -5.56683e-10 1.07005e-09 3.96886e-17 -7.01208e-16 -4.271e-16 0 0 0 0 0 0 0 0
496 1 7.07571e-05 0.00603357 0.0121428 0.0008 3.43146e-06 8.31124e-15 1.68588e-12 1.30437e-12 -2.75532e-09 -1.70769e-10 1.5601e-09 -3.20092e-16 -2.75548e-16 5.45674e-16 0 0 0 0 0 0 0 0
497 1 -0.00231516 0.00441269 0.0143843 0.0008 3.43146e-06 -1.01609e-12 1.92206e-12 1.36857e-12 -3.71928e-09 2.34905e-10 -4.43704e-10 6.68351e-16 -8.40989e-16 -5.51531e-16 0 0 0 0 0 0 0 0
498 1 0.000909108 -0.00400698 0.00641827 0.0008 3.43146e-06 7.43607e-15 -2.20729e-13 -1.06807e-13 7.60213e-10 5.51015e-11 -9.04988e-10 -6.07293e-16 6.34685e-16 -2.03403e-15 0 0 0 0 0 0 0 0
499 1 -0.0012083 0.00559138 0.0129961 0.0008 3.43146e-06 3.31659e-13 1.61381e-12 -6.69573e-13 2.99434e-10 -2.68537e-09 7.35991e-10 -8.33888e-17 -1.93737e-15 8.00729e-16 0 0 0 0 0 0 0 0
500 1 0.00506029 -0.00262008 0.0128081 0.0008 3.43146e-06 -1.00211e-12 -8.28807e-13 -2.10856e-12 -7.46752e-10 3.06024e-09 6.22372e-10 2.83132e-16 -3.36916e-16 1.11248e-16 0 0 0 0 0 0 0 0
501 1 -0.00258579 0.00671977 0.0126163 0.0008 3.43146e-06 -2.15666e-13 3.01273e-13 -1.67573e-12 2.13829e-09 2.39785e-10 -1.20199e-10 7.7089e-17 -1.37832e-17 6.2156e-16 1 3.26869e-05 -7.12277e-05 1.4361e-05 -0.00287305 0.00746629 0.0126163 0.0008
502 1 0.00379477 -0.00611884 0.0127324 0.0008 3.43146e-06 5.10394e-13 8.48903e-13 1.99737e-12 2.7152e-09 3.59082e-10 -1.10631e-09 1.58069e-16 -9.9823e-16 3.01958e-16 1 -4.86396e-06 1.20033e-05 -3.30183e-07 0.0042164 -0.00679868 0.0127324 0.0008
503 1 -0.00650411 0.00308956 0.00797819 0.0008 3.43146e-06 -1.39619e-12 5.20109e-13 -1.25371e-12 4.33826e-10 1.53464e-09 -1.51854e-10 -2.84519e-16 -3.3416e-16 4.25876e-16 1 0.000921482 -0.000462202 0.000256737 -0.00722617 0.00343255 0.00797819 0.0008
504 1 -0.000618044 0.00717351 0.00928536 0.0008 3.43146e-06 8.02252e-15 2.13222e-12 -7.56482e-13 8.80678e-10 7.67392e-10 2.39863e-10 -1.08661e-16 -7.02335e-16 2.20279e-16 1 2.56429e-06 -4.9474e-05 2.69581e-06 -0.000686707 0.00797047 0.00928536 0.0008
505 1 -0.00244876 -0.0052764 0.0116715 0.0008 3.43146e-06 2.01287e-14 -2.13172e-12 -3.65307e-13 -1.59228e-09 -2.10421e-10 -6.66903e-10 -1.68358e-16 -2.64456e-16 -6.57461e-16 0 0 0 0 0 0 0 0
506 1 0.00231597 0.00681802 0.00830588 0.0008 3.43146e-06 3.37978e-13 -3.32845e-13 2.02235e-12 -2.2636e-09 1.20173e-09 5.33976e-10 -3.82089e-16 8.36243e-16 3.90053e-16 1 -0.000303878 -0.00102448 0.000265248 0.00257308 0.00757491 0.00830588 0.0008
507 1 -0.00608777 0.00384452 0.0102384 0.0008 3.43146e-06 -1.6373e-12 1.86092e-14 -1.24281e-13 3.07009e-10 -5.32305e-12 -1.07533e-09 -7.0861e-17 4.01205e-16 -8.36345e-16 1 4.59689e-05 -2.94178e-05 -1.28358e-06 -0.0067641 0.00427164 0.0102384 0.0008
508 1 0.00398074 -0.00410529 0.0132774 0.0008 3.43146e-06 -1.53334e-12 -2.1185e-12 -2.43647e-12 -9.18658e-10 7.26306e-10 1.15645e-10 -4.50165e-16 -6.92788e-16 -1.2114e-16 0 0 0 0 0 0 0 0
509 1 -0.00376939 -0.00453105 0.00954578 0.0008 3.43146e-06 -2.83885e-13 -1.05793e-12 6.79687e-13 -3.20556e-09 -2.33089e-09 6.3376e-10 8.95504e-16 1.11242e-16 -1.34913e-15 0 0 0 0 0 0 0 0
510 1 -0.00336775 0.00244659 0.0115406 0.0008 3.43146e-06 5.22853e-13 7.18206e-13 7.738e-13 -1.61504e-09 -1.3381e-09 1.46331e-09 -1.16793e-15 3.1565e-16 8.34878e-17 0 0 0 0 0 0 0 0
511 1 0.00462377 -0.00137059 0.00868521 0.0008 3.43146e-06 9.6628e-13 6.97877e-14 8.02315e-13 1.59777e-11 1.70898e-09 -1.3681e-09 1.75989e-17 -7.8626e-16 -8.09759e-16 0 0 0 0 0 0 0 0
512 1 -0.00049031 -9.32147e-06 0.0130124 0.0008 3.43146e-06 -2.70749e-13 -4.7901e-14 -6.08906e-13 1.46247e-09 -3.43689e-10 -4.91353e-10 -1.25171e-16 1.35441e-15 2.35266e-15 0 0 0 0 0 0 0 0
513 1 -0.00432905 -0.00300731 0.00618561 0.0008 3.43146e-06 -1.94691e-12 1.08326e-12 -1.65583e-12 2.59199e-09 -2.97129e-09 -1.59306e-09 -3.33821e-16 1.20302e-16 2.7387e-16 0 0 0 0 0 0 0 0
514 1 -0.002615 0.000918787 0.0114337 0.0008 3.43146e-06 -7.21621e-13 2.70563e-13 -9.25401e-13 -2.68114e-09 -1.34747e-09 -7.31818e-10 1.10495e-16 6.7516e-16 1.54054e-15 0 0 0 0 0 0 0 0
515 1 0.0031427 -0.00193067 0.00845678 0.0008 3.43146e-06 4.14862e-13 3.3808e-13 2.40458e-12 1.7919e-09 1.1393e-09 1.14328e-09 7.45149e-16 5.45765e-17 -9.52132e-16 0 0 0 0 0 0 0 0
516 1 0.00584189 0.000283618 0.0110117 0.0008 3.43146e-06 -1.39366e-12 7.87639e-14 -1.64286e-12 -6.55806e-10 1.82908e-09 1.68534e-12 5.20808e-16 -7.91879e-16 2.56054e-16 0 0 0 0 0 0 0 0
517 1 0.00410042 0.000947864 0.0108839 0.0008 3.43146e-06 -1.84614e-12 4.68507e-14 1.54346e-12 -3.66721e-10 1.96549e-10 4.39763e-10 -1.41418e-16 -1.81147e-15 -5.18873e-16 0 0 0 0 0 0 0 0
518 1 -0.0027484 -0.00325243 0.00617949 0.0008 3.43146e-06 -7.27817e-13 -1.08409e-12 -2.40205e-13 2.25278e-09 3.96748e-10 -8.43739e-10 -1.52172e-16 -6.08618e-16 3.40863e-15 0 0 0 0 0 0 0 0
519 1 -0.00641201 -0.00225488 0.0104621 0.0008 3.43146e-06 -4.98193e-13 1.64828e-13 -2.64037e-12 4.50991e-10 2.72772e-09 2.5782e-09 -1.09575e-15 -1.93392e-15 -7.58469e-16 0 0 0 0 0 0 0 0
520 1 -0.00154629 0.00590691 0.00959197 0.0008 3.43146e-06 3.64233e-13 5.58094e-13 -3.6293e-13 -4.93968e-10 1.83134e-10 1.10776e-09 -6.89198e-16 -1.03243e-15 -9.28616e-16 0 0 0 0 0 0 0 0
521 1 -0.0057738 0.00430205 0.00613536 0.0008 3.43146e-06 -1.31393e-12 1.342e-12 -8.84724e-13 1.64834e-09 1.58155e-10 3.49502e-10 -3.54539e-16 7.06128e-16 7.11563e-16 1 0.000273384 -0.000236573 1.11559e-05 -0.00641506 0.00477985 0.00613536 0.0008
522 1 0.00333555 -0.00359451 0.00891657 0.0008 3.43146e-06 -1.34382e-14 1.15627e-13 -1.77671e-12 -1.97297e-10 -8.98299e-10 -2.34847e-10 -7.78216e-17 1.30838e-16 -1.10567e-15 0 0 0 0 0 0 0 0
523 1 -0.00435294 0.0041096 0.012707 0.0008 3.43146e-06 1.39391e-12 2.02862e-12 1.23967e-12 6.04153e-10 2.36047e-09 2.72418e-10 -5.01256e-16 -1.12734e-15 1.69062e-16 0 0 0 0 0 0 0 0
524 1 -0.00461933 -0.00124056 0.0123811 0.0008 3.43146e-06 4.91542e-13 -1.06473e-13 2.25013e-12 4.22937e-09 3.55894e-09 -1.5547e-09 -4.5345e-16 8.85768e-16 -2.55727e-15 0 0 0 0 0 0 0 0
525 1 0.0018995 0.00528696 0.0085065 0.0008 3.43146e-06 -5.41462e-13 -1.70651e-12 2.44393e-12 2.53068e-09 8.17843e-10 -1.42063e-09 -4.19906e-16 -2.16637e-16 1.21847e-15 0 0 0 0 0 0 0 0
526 1 0.0023694 0.00290933 0.00759669 0.0008 3.43146e-06 -1.08311e-12 5.09694e-13 -1.42101e-12 -2.94402e-09 1.50094e-09 3.81919e-10 4.95975e-17 8.16507e-16 2.25898e-16 0 0 0 0 0 0 0 0
527 1 -0.00380139 0.00422141 0.008725 0.0008 3.43146e-06 -8.19094e-13 1.064e-12 -4.28724e-12 -9.76973e-10 -7.65188e-10 -4.05805e-09 4.93031e-16 5.07003e-16 3.15933e-16 0 0 0 0 0 0 0 0
528 1 -0.00104125 -0.00114582 0.0104249 0.0008 3.43146e-06 4.2711e-13 -4.08597e-13 7.26654e-13 3.95142e-11 1.04869e-10 -4.21208e-10 -8.79201e-16 5.0071e-17 1.55497e-16 0 0 0 0 0 0 0 0
529 1 0.00389328 0.00605704 0.0128062 0.0008 3.43146e-06 -3.70725e-13 4.80471e-13 -2.3111e-12 2.43742e-09 -1.55512e-09 -7.10883e-10 4.35705e-16 -8.07327e-16 -7.45029e-17 1 -0.000357388 -0.000355527 3.35062e-05 0.00432565 0.00672969 0.0128062 0.0008
530 1 0.00473392 -0.00384698 0.0118345 0.0008 3.43146e-06 -2.44852e-13 -9.89092e-13 -3.70459e-12 2.83737e-09 -1.49126e-09 2.17467e-09 6.68311e-16 -1.7007e-16 4.08851e-16 0 0 0 0 0 0 0 0
531 1 -0.00184421 -0.00544673 0.00918402 0.0008 3.43146e-06 5.41967e-13 -1.16384e-12 -3.44643e-12 9.09128e-10 -3.53711e-09 6.94858e-10 5.15259e-17 -9.62918e-16 -1.28536e-15 0 0 0 0 0 0 0 0
532 1 0.00107042 0.00223196 0.0107347 0.0008 3.43146e-06 -6.83227e-14 -2.10308e-13 -1.8379e-12 -2.87686e-09 -1.52965e-10 3.63998e-10 5.13433e-16 -8.8418e-16 3.04611e-15 0 0 0 0 0 0 0 0
533 1 0.00172917 0.00022419 0.0120589 0.0008 3.43146e-06 5.37096e-13 -8.1286e-14 1.91168e-12 2.72337e-10 -1.24137e-09 6.83552e-10 -5.76366e-16 -1.27896e-16 -2.0966e-15 0 0 0 0 0 0 0 0
534 1 -0.00125102 0.00159844 0.00762288 0.0008 3.43146e-06 -5.32572e-13 5.41923e-13 -5.43888e-13 -6.74044e-10 9.69452e-10 1.91884e-10 -6.39589e-16 -3.42851e-16 -2.35673e-16 0 0 0 0 0 0 0 0
535 1 0.00478286 -0.00335681 0.00984765 0.0008 3.43146e-06 -1.91062e-12 6.69892e-13 -7.25236e-13 -5.65137e-10 -1.19755e-09 -6.46048e-10 7.63181e-16 7.70643e-17 -2.90363e-16 0 0 0 0 0 0 0 0
536 1 0.00529011 0.00371504 0.0117142 0.0008 3.43146e-06 2.01268e-13 1.02716e-12 6.59967e-14 1.84362e-09 3.68338e-09 6.7788e-10 2.79026e-16 -3.58641e-16 6.39891e-16 0 0 0 0 0 0 0 0
537 1 -0.000172149 -0.00585402 0.00900353 0.0008 3.43146e-06 6.76752e-14 -2.07105e-12 8.02776e-13 -2.20204e-09 4.92126e-10 3.26084e-10 2.18131e-16 1.83179e-15 7.90184e-16 0 0 0 0 0 0 0 0
538 1 -0.000583879 0.0071769 0.00752245 0.0008 3.43146e-06 -2.70986e-13 1.67495e-13 -9.87845e-13 1.38188e-09 -1.56143e-09 -3.21947e-10 7.4121e-16 -2.38788e-16 1.58741e-16 1 0.000238755 -0.00100061 5.6762e-05 -0.000648699 0.00797366 0.00752245 0.0008
539 1 0.00472572 -0.0054327 0.0116252 0.0008 3.43146e-06 6.90397e-13 7.75685e-13 -2.65347e-12 -3.85429e-09 -6.20162e-10 -1.28954e-09 -1.41694e-16 -2.47872e-16 5.9359e-16 1 -0.00042967 0.000521812 -2.29685e-05 0.00525046 -0.00603594 0.0116252 0.0008
540 1 -0.00345729 -0.00457026 0.013578 0.0008 3.43146e-06 1.21166e-13 -8.48162e-13 2.03462e-12 2.51798e-09 -3.24952e-09 -3.2997e-09 9.80358e-17 -3.9525e-16 -3.62743e-16 0 0 0 0 0 0 0 0
541 1 0.00354572 -0.00212871 0.0134859 0.0008 3.43146e-06 -6.38179e-13 -5.81136e-13 -3.27148e-14 -3.08103e-10 3.19064e-09 1.04852e-09 -1.55466e-16 -8.18313e-16 1.19933e-16 0 0 0 0 0 0 0 0
542 1 0.000587017 -0.00417467 0.00892203 0.0008 3.43146e-06 2.68705e-13 5.53148e-13 1.29721e-12 1.14804e-10 2.2943e-09 1.2582e-09 -4.43639e-17 5.28311e-16 -6.72964e-16 0 0 0 0 0 0 0 0
543 1 -4.30015e-05 -0.000637846 0.0116108 0.0008 3.43146e-06 1.48263e-14 4.90828e-14 -2.65962e-13 -1.1301e-09 -6.31891e-10 -5.65603e-10 -2.06974e-16 -1.28341e-15 1.8415e-15 0 0 0 0 0 0 0 0
544 1 0.00694875 0.00188708 0.0100836 0.0008 3.43146e-06 1.35805e-12 5.40722e-13 7.41155e-13 -1.11143e-09 6.5621e-10 -2.01251e-10 -2.20084e-16 -9.95586e-17 3.8585e-16 1 -0.000590617 -8.74356e-05 0.000172011 0.00772037 0.00209663 0.0100836 0.0008
545 1 -0.00440496 0.00129478 0.011146 0.0008 3.43146e-06 3.52719e-13 -4.54196e-13 -1.67605e-13 -1.6101e-09 -3.5205e-09 -2.08815e-09 -2.83587e-16 -3.30887e-16 -1.40539e-16 0 0 0 0 0 0 0 0
546 1 -0.00432336 -0.000104826 0.00900663 0.0008 3.43146e-06 7.91038e-13 3.26292e-14 5.14662e-13 1.95513e-09 2.61201e-10 1.69115e-09 4.36521e-17 4.19643e-16 -6.79106e-16 0 0 0 0 0 0 0 0
547 1 -0.00378211 -0.00612674 0.00942944 0.0008 3.43146e-06 8.8862e-13 1.82442e-12 2.88143e-12 6.74626e-10 -5.77241e-09 2.56287e-10 1.05201e-16 -4.68698e-16 -5.74939e-16 1 2.46013e-05 5.20105e-05 2.64153e-06 -0.00420229 -0.00680741 0.00942944 0.0008
548 1 0.000845513 0.00715061 0.011126 0.0008 3.43146e-06 -2.65843e-13 1.58737e-12 -5.6902e-13 5.71736e-10 -1.21443e-09 -5.65581e-10 -5.04562e-16 -3.02106e-16 1.46254e-16 1 8.71964e-05 -0.000606267 -3.3802e-05 0.000939403 0.00794465 0.011126 0.0008
549 1 0.00187395 0.00174917 0.012526 0.0008 3.43146e-06 -4.43137e-13 -5.34494e-13 4.00951e-13 2.88609e-09 -5.88288e-10 5.74489e-10 -8.06906e-16 7.6102e-17 4.50514e-16 0 0 0 0 0 0 0 0
550 1 -0.00454114 -0.000502341 0.0108454 0.0008 3.43146e-06 -2.16748e-12 5.25203e-14 1.10685e-12 2.29403e-09 -3.17538e-10 1.51891e-09 -2.47442e-16 1.01052e-15 -7.50853e-16 0 0 0 0 0 0 0 0
551 1 0.00205857 0.00394312 0.0112627 0.0008 3.43146e-06 4.5897e-13 -1.76429e-12 1.96191e-13 7.06125e-10 1.76745e-09 4.57322e-10 -3.67419e-16 -2.05705e-15 1.73547e-15 0 0 0 0 0 0 0 0
552 1 -0.000607654 -0.00510147 0.0139848 0.0008 3.43146e-06 1.5786e-13 6.3225e-13 2.70149e-14 7.58937e-10 2.87335e-10 8.3549e-10 9.43663e-17 -4.74988e-16 -9.58871e-16 0 0 0 0 0 0 0 0
553 1 -0.0028602 -0.00639413 0.0127503 0.0008 3.43146e-06 -1.00949e-12 1.09351e-13 -5.66798e-13 -1.7572e-09 9.45891e-10 -1.23946e-10 -8.48521e-20 -5.74103e-16 4.73602e-16 0 0 0 0 0 0 0 0
554 1 -0.0040858 0.00261484 0.00813624 0.0008 3.43146e-06 -9.98171e-13 1.08397e-12 -3.53683e-13 -1.01756e-09 -3.08635e-09 -2.83686e-10 3.57055e-16 -5.98582e-16 5.26205e-16 0 0 0 0 0 0 0 0
555 1 -0.0044414 -0.00392995 0.0110066 0.0008 3.43146e-06 1.58985e-13 6.57996e-13 3.53756e-12 1.31339e-09 -1.2427e-09 4.30911e-10 -1.66107e-16 1.87787e-16 -4.43636e-16 0 0 0 0 0 0 0 0
556 1 0.00203044 -0.00423246 0.00960853 0.0008 3.43146e-06 8.7689e-13 1.12942e-12 1.895e-12 6.54903e-10 -2.67617e-09 -4.42579e-11 -2.85622e-17 4.31995e-16 -1.47623e-15 0 0 0 0 0 0 0 0
557 1 0.00264711 0.00669629 0.0119745 0.0008 3.43146e-06 3.30754e-13 3.98224e-13 -4.09968e-13 -8.92616e-10 -3.666e-09 2.01858e-10 -1.28108e-16 9.38395e-17 -1.3984e-16 1 -0.000234265 -0.000759952 0.00010971 0.00294102 0.00743979 0.0119745 0.0008
558 1 0.00451775 -0.000595869 0.0108354 0.0008 3.43146e-06 -1.5832e-12 1.50575e-13 1.04701e-12 3.85766e-10 2.02024e-09 -9.15449e-13 1.04373e-15 -1.18529e-15 -5.27119e-17 0 0 0 0 0 0 0 0
559 1 0.00129706 -0.00200554 0.012051 0.0008 3.43146e-06 -2.85086e-13 1.74164e-13 -1.98903e-12 -2.22546e-09 2.07787e-09 -1.36782e-09 -1.16277e-15 -8.9736e-16 8.82388e-16 0 0 0 0 0 0 0 0
560 1 0.000874532 -0.000842353 0.013065 0.0008 3.43146e-06 -1.51117e-13 -1.83897e-13 -9.24271e-13 3.77554e-09 -2.39604e-09 6.30746e-10 1.46006e-15 2.8342e-16 4.55916e-17 0 0 0 0 0 0 0 0
561 1 0.00285932 -6.35209e-05 0.0105831 0.0008 3.43146e-06 -6.61617e-13 -2.8784e-14 -4.12693e-14 -1.90241e-10 2.0494e-10 1.12313e-09 -1.25912e-15 -1.594e-15 2.21622e-15 0 0 0 0 0 0 0 0
562 1 -0.00719873 -0.000146611 0.00981954 0.0008 3.43146e-06 -4.06314e-13 1.65099e-13 -1.0352e-13 -3.79241e-10 1.22333e-10 2.50269e-10 -2.84029e-16 3.0756e-18 -8.95311e-16 1 0.000230143 -9.43956e-06 5.47669e-05 -0.00799834 -0.000162896 0.00981954 0.0008
563 1 -0.0071096 0.00113862 0.00887118 0.0008 3.43146e-06 -1.05905e-12 5.40457e-13 -5.4968e-13 3.06059e-10 6.02807e-10 3.14747e-10 -5.04883e-16 -2.3939e-16 -1.4791e-17 1 0.000192351 -2.14721e-05 3.31779e-05 -0.00789934 0.0012651 0.00887118 0.0008
564 1 -0.00170722 -0.00302783 0.01266 0.0008 3.43146e-06 -5.40377e-13 -9.96669e-13 6.00198e-14 -1.42234e-09 -6.74013e-10 -1.97294e-09 -2.56362e-17 -1.11217e-16 2.35992e-16 0 0 0 0 0 0 0 0
565 1 0.00277633 0.00306334 0.0123898 0.0008 3.43146e-06 1.0836e-12 8.11176e-13 -1.06584e-12 -3.95695e-09 1.77034e-09 -1.38503e-09 -2.88255e-16 3.12557e-16 1.20758e-15 0 0 0 0 0 0 0 0
566 1 -0.000220533 -0.00192086 0.0125492 0.0008 3.43146e-06 -6.63396e-14 3.62894e-13 -1.01187e-12 1.46482e-09 -7.94973e-10 1.37053e-09 2.07015e-17 -2.30995e-16 7.54357e-16 0 0 0 0 0 0 0 0
567 1 0.00626004 -0.00355877 0.00775677 0.0008 3.43146e-06 -3.3936e-13 7.54083e-13 4.38443e-13 -2.32829e-11 6.39525e-10 -6.03159e-10 1.84208e-16 -3.88968e-16 -5.86786e-16 1 -0.00148985 0.00103608 2.36932e-05 0.00695473 -0.0039537 0.00775677 0.0008
568 1 -0.00477688 -0.00538606 0.0084188 0.0008 3.43146e-06 -4.97471e-13 1.00901e-12 1.37172e-12 -6.66864e-10 4.56075e-09 2.7255e-09 -2.24292e-16 -6.04586e-18 -5.24579e-16 0 0 0 0 0 0 0 0
569 1 0.00248255 -0.00675848 0.0134016 0.0008 3.43146e-06 2.22155e-13 -1.52016e-12 6.41264e-14 -6.56084e-10 2.17471e-09 3.67947e-10 4.93781e-16 7.226e-16 -1.60887e-16 1 -3.98996e-07 1.07327e-06 -2.1835e-08 0.00275839 -0.00750941 0.0134016 0.0008
570 1 -0.00128457 -0.00570291 0.0106607 0.0008 3.43146e-06 -5.41811e-13 -1.87991e-12 9.78476e-13 1.65951e-10 -1.42362e-10 1.73034e-09 3.38074e-17 -3.28739e-16 -1.01653e-15 0 0 0 0 0 0 0 0
571 1 0.00553481 -0.00460539 0.0105072 0.0008 3.43146e-06 5.40086e-13 -2.15748e-12 9.50004e-13 7.06128e-10 9.59452e-10 1.6358e-09 4.733e-17 7.09992e-17 -4.00321e-16 1 -0.000192712 0.000207604 3.31314e-05 0.00614957 -0.00511692 0.0105072 0.0008
572 1 0.00574166 0.00112315 0.0093633 0.0008 3.43146e-06 -5.24577e-13 2.96327e-14 -1.51972e-13 1.04089e-09 -6.60672e-10 -6.52578e-10 -1.11985e-15 -4.74677e-16 1.62276e-15 0 0 0 0 0 0 0 0
573 1 -0.000811751 0.00574034 0.00684254 0.0008 3.43146e-06 -2.70769e-13 4.18184e-13 -1.05289e-12 4.69483e-10 -7.6873e-10 -7.72585e-10 2.32726e-16 -5.41053e-17 -1.79622e-16 0 0 0 0 0 0 0 0
574 1 -0.00159144 0.000362637 0.0100487 0.0008 3.43146e-06 5.41986e-13 -5.74731e-13 6.56648e-13 1.06927e-09 1.01995e-09 1.60542e-09 -4.95591e-16 1.58813e-15 9.67376e-17 0 0 0 0 0 0 0 0
575 1 -0.00407334 0.000416132 0.0130555 0.0008 3.43146e-06 9.38612e-13 -1.35103e-13 -2.24468e-12 5.9332e-11 7.49685e-10 -1.0535e-09 -2.28166e-15 -3.64232e-16 -2.35209e-16 0 0 0 0 0 0 0 0
576 1 -0.00193473 0.000161712 0.00779047 0.0008 3.43146e-06 5.41189e-13 -6.75045e-14 -1.46246e-12 2.11203e-09 -6.87862e-10 1.24342e-09 7.51808e-16 4.44069e-16 6.90497e-16 0 0 0 0 0 0 0 0
577 1 -0.00176872 -0.00697951 0.0117383 0.0008 3.43146e-06 -3.10732e-13 -1.13122e-12 1.11062e-13 -2.73607e-10 -1.68247e-09 5.29109e-11 -5.78991e-16 -2.25574e-16 4.3402e-16 1 1.95912e-05 9.81549e-05 9.87237e-06 -0.00196521 -0.00775487 0.0117383 0.0008
578 1 0.00694319 -0.00190679 0.0110195 0.0008 3.43146e-06 -6.78528e-13 5.41763e-13 1.52402e-12 1.53371e-10 1.93341e-09 -4.45208e-10 2.19731e-16 4.9901e-16 2.86619e-16 1 -0.000259039 0.000127768 3.43036e-05 0.00771438 -0.00211858 0.0110195 0.0008
579 1 0.00530693 0.00486586 0.013365 0.0008 3.43146e-06 1.41613e-12 1.23657e-13 5.00866e-13 2.72208e-09 3.31518e-09 1.0632e-09 1.20772e-16 2.21025e-16 -5.45106e-16 1 -1.2864e-06 -1.12202e-06 -3.3392e-08 0.00589659 0.0054065 0.013365 0.0008
580 1 0.00241205 -0.00183673 0.0109168 0.0008 3.43146e-06 4.43266e-13 -5.40397e-13 -1.87091e-12 2.09441e-09 -2.7357e-09 1.64784e-10 4.21516e-16 -7.82779e-16 1.48369e-16 0 0 0 0 0 0 0 0
581 1 0.00337702 0.00260055 0.00883108 0.0008 3.43146e-06 -8.33319e-13 8.59269e-13 -4.30441e-14 -4.02989e-10 -9.76996e-12 5.18172e-10 -2.75604e-16 -2.00497e-15 6.69367e-16 0 0 0 0 0 0 0 0
582 1 -0.00348084 0.00295032 0.0133797 0.0008 3.43146e-06 1.07773e-12 3.61448e-13 4.34848e-13 -2.22011e-09 2.27663e-09 -4.16184e-09 7.65441e-16 -1.0058e-15 1.85121e-15 0 0 0 0 0 0 0 0
583 1 0.000370797 0.00499702 0.0109622 0.0008 3.43146e-06 -1.34969e-13 -7.20548e-13 -6.56099e-14 1.2444e-09 2.01483e-09 -6.54532e-10 9.06958e-18 -3.19693e-16 4.33167e-16 0 0 0 0 0 0 0 0
584 1 -0.00296855 0.00485858 0.0129936 0.0008 3.43146e-06 -5.41932e-13 -1.85439e-13 -4.15071e-13 -5.24931e-10 -7.03523e-10 -1.45925e-09 -6.60198e-16 -9.41599e-16 2.79445e-16 0 0 0 0 0 0 0 0
585 1 -0.000583081 0.00441057 0.012105 0.0008 3.43146e-06 -2.70793e-13 -2.16819e-12 1.71497e-12 1.79715e-09 7.77538e-10 -1.45064e-09 1.59764e-16 4.84639e-16 -6.8165e-16 0 0 0 0 0 0 0 0
586 1 0.00334881 -0.00465273 0.0118586 0.0008 3.43146e-06 7.0081e-13 1.01105e-12 -4.32221e-12 -1.04162e-10 4.37695e-10 1.50824e-09 -9.43518e-16 -9.31131e-16 1.66653e-15 0 0 0 0 0 0 0 0
587 1 0.000343623 -0.0071921 0.00829474 0.0008 3.43146e-06 -1.14732e-13 -2.13021e-12 1.07756e-12 1.30429e-09 1.01898e-09 2.60851e-10 -3.25696e-16 6.62159e-16 4.52628e-16 1 -5.92976e-05 0.000347325 2.73221e-06 0.000381787 -0.00799088 0.00829474 0.0008
588 1 0.00475994 -0.00330523 0.0082491 0.0008 3.43146e-06 -5.61802e-14 4.47906e-13 -2.2237e-14 3.21313e-10 -1.1183e-09 8.19084e-10 2.71771e-16 -1.28001e-16 -9.68872e-16 0 0 0 0 0 0 0 0
589 1 0.000900525 -0.00527871 0.0100414 0.0008 3.43146e-06 2.67812e-13 2.41166e-13 3.25675e-13 -5.31615e-10 -2.82142e-10 8.81196e-10 1.64399e-16 4.45181e-16 -6.55275e-16 0 0 0 0 0 0 0 0
590 1 0.00382862 -0.00444225 0.00761724 0.0008 3.43146e-06 4.07834e-13 1.17649e-12 4.32482e-13 -1.17562e-09 2.27521e-10 -1.48673e-09 1.65294e-16 4.02119e-16 -5.72665e-16 0 0 0 0 0 0 0 0
591 1 0.00238334 0.00288109 0.0100919 0.0008 3.43146e-06 -2.44285e-13 -5.05182e-13 -7.17557e-13 -4.72372e-10 -2.76889e-09 1.26806e-09 6.81428e-16 -4.63145e-16 5.15859e-16 0 0 0 0 0 0 0 0
592 1 -0.00188322 0.00106938 0.0139775 0.0008 3.43146e-06 -5.11183e-13 -2.36277e-14 -1.52398e-12 -1.27191e-09 -1.62141e-09 1.0061e-09 -1.97049e-15 -1.38366e-15 -2.38205e-15 0 0 0 0 0 0 0 0
593 1 0.00360067 -0.0043288 0.0103128 0.0008 3.43146e-06 -2.80068e-13 8.07948e-13 -1.87113e-12 -1.08507e-10 -4.90113e-10 2.34994e-09 -2.59336e-16 -5.12439e-17 -1.23981e-15 0 0 0 0 0 0 0 0
594 1 0.00669453 -0.00265037 0.0124139 0.0008 3.43146e-06 1.38132e-13 1.08206e-12 2.48565e-14 5.12332e-10 -1.81704e-10 -1.32805e-09 1.45755e-16 -1.83416e-17 -3.8887e-16 1 -4.76286e-05 2.15395e-05 -1.06097e-05 0.00743828 -0.00294482 0.0124139 0.0008
595 1 0.0015875 0.000684173 0.00978817 0.0008 3.43146e-06 5.37915e-13 -2.75322e-13 1.13005e-13 -8.02619e-10 3.33372e-10 9.21361e-10 -5.92267e-16 4.45688e-17 3.49402e-16 0 0 0 0 0 0 0 0
596 1 -0.00438244 -0.00141139 0.00633731 0.0008 3.43146e-06 -1.38211e-12 -4.25625e-13 -7.44107e-13 1.25075e-09 -3.77622e-09 -7.26653e-10 5.02921e-16 1.2711e-15 8.19863e-16 0 0 0 0 0 0 0 0
597 1 -0.00516516 -0.00501657 0.00691148 0.0008 3.43146e-06 -2.16719e-12 -1.81922e-12 4.82406e-13 -2.50304e-09 -3.26555e-09 2.54213e-10 -2.7724e-16 6.76667e-16 6.05891e-16 1 0.000364607 0.000227411 1.9405e-05 -0.0057388 -0.00557371 0.00691148 0.0008
598 1 0.00686318 0.00217867 0.0126721 0.0008 3.43146e-06 1.12713e-12 5.86886e-13 1.04054e-12 -4.05577e-10 1.24493e-09 -2.6145e-10 -1.76939e-16 -1.35149e-16 -7.89508e-17 1 -0.0011534 -0.000292049 7.96498e-05 0.00762503 0.00242051 0.0126721 0.0008
599 1 0.00420238 -0.00584638 0.00694379 0.0008 3.43146e-06 -5.62459e-13 6.53155e-13 1.0518e-12 1.26056e-10 2.09744e-09 8.49616e-11 2.12277e-16 3.20308e-16 1.19886e-17 1 -9.23103e-07 2.07139e-06 2.40298e-07 0.00466931 -0.00649597 0.00694379 0.0008
600 1 0.00717827 -0.000564152 0.0140582 0.0008 3.43146e-06 -2.20932e-13 1.02744e-13 7.90369e-13 1.37823e-09 8.79405e-10 -1.11915e-10 2.34065e-16 6.52067e-17 2.85376e-16 1 -0.00054965 -7.51309e-05 0.000135786 0.00797541 -0.0006268 0.0140582 0.0008
601 1 0.00133004 -0.000665853 0.0107912 0.0008 3.43146e-06 4.52743e-13 -2.7106e-13 -7.60537e-13 1.54695e-09 8.62612e-10 -1.16877e-10 -2.31048e-15 2.68778e-16 -1.37431e-16 0 0 0 0 0 0 0 0
602 1 -0.00332681 -0.000440252 0.0118848 0.0008 3.43146e-06 -1.02465e-12 1.29211e-13 1.00443e-12 2.86542e-10 1.48098e-09 7.53271e-10 -6.55111e-16 1.68207e-15 5.82521e-16 0 0 0 0 0 0 0 0
603 1 0.000255378 0.0056138 0.013675 0.0008 3.43146e-06 -7.61495e-14 1.25198e-12 2.76815e-12 2.94383e-09 -4.6248e-10 -4.12264e-10 -2.9586e-16 -9.03707e-16 1.36083e-15 0 0 0 0 0 0 0 0
604 1 -0.00204591 0.00690348 0.0107391 0.0008 3.43146e-06 2.37774e-13 -3.80231e-13 -6.54584e-13 7.989e-10 2.59073e-10 1.55384e-10 -5.35803e-16 -1.57744e-17 1.85316e-17 1 9.45741e-05 -0.000270242 6.55224e-05 -0.00227315 0.00767025 0.0107391 0.0008
605 1 -0.00447421 0.00563884 0.0101695 0.0008 3.43146e-06 -1.41336e-13 1.97516e-12 7.41256e-14 1.84596e-09 -1.2364e-09 -1.8705e-09 2.11994e-16 1.23052e-16 1.04839e-16 0 0 0 0 0 0 0 0
606 1 0.00303918 0.00487178 0.0104065 0.0008 3.43146e-06 -1.05786e-12 -4.17791e-13 -3.155e-13 1.6628e-10 -2.45526e-11 1.35264e-09 -3.29758e-16 -1.39134e-15 6.57445e-16 0 0 0 0 0 0 0 0
607 1 -0.00328157 -0.00357381 0.00765557 0.0008 3.43146e-06 -1.02494e-12 3.31494e-13 -2.60532e-13 -1.5184e-09 -5.90488e-10 -7.92468e-11 1.16082e-15 1.26359e-15 -5.45375e-16 0 0 0 0 0 0 0 0
608 1 -0.00436632 -0.0022106 0.0111345 0.0008 3.43146e-06 -2.16427e-12 1.07921e-12 -3.44995e-12 2.00325e-09 -2.79064e-09 -4.05596e-09 5.28116e-16 2.48245e-16 2.03065e-15 0 0 0 0 0 0 0 0
609 1 -0.00700596 -0.00164972 0.00910578 0.0008 3.43146e-06 -1.33633e-12 -4.22009e-13 -1.63256e-12 9.05085e-10 -2.89983e-09 1.51512e-09 1.35512e-16 -1.46043e-15 7.84546e-16 0 0 0 0 0 0 0 0
610 1 -0.00508237 -0.00295454 0.00991285 0.0008 3.43146e-06 -1.11003e-12 1.08103e-12 -2.15643e-12 -5.38608e-09 -3.1047e-10 1.30442e-10 2.18913e-16 1.4535e-16 1.00469e-15 0 0 0 0 0 0 0 0
611 1 0.00688377 0.00211266 0.00702614 0.0008 3.43146e-06 7.22986e-13 9.79841e-13 -6.22608e-14 -7.79192e-10 -3.24484e-10 -9.08989e-10 -1.47038e-16 2.06029e-16 1.39557e-16 1 -0.00119333 -3.41714e-05 0.000245312 0.00764792 0.00234719 0.00702614 0.0008
612 1 0.00711045 0.00113494 0.0114855 0.0008 3.43146e-06 7.41859e-13 5.4072e-13 -9.75141e-13 2.08703e-09 -9.11354e-10 -5.28871e-10 -8.39412e-17 9.59378e-17 -2.79631e-16 1 -0.000641168 -0.000199806 0.000211459 0.0079 0.00126096 0.0114855 0.0008
613 1 0.00136881 0.00510126 0.0122145 0.0008 3.43146e-06 5.33705e-13 -1.6937e-12 7.55386e-13 1.45199e-09 2.09055e-09 -4.72078e-09 -3.73918e-16 -6.54009e-16 9.92881e-16 0 0 0 0 0 0 0 0
614 1 -0.000334397 0.00139906 0.0137552 0.0008 3.43146e-06 8.8033e-15 1.7819e-13 -1.41473e-13 -1.18159e-09 -7.84737e-10 -4.69746e-10 -1.46246e-15 3.70225e-16 -1.06444e-15 0 0 0 0 0 0 0 0
615 1 -0.00670559 -0.00108646 0.00691091 0.0008 3.43146e-06 -1.35782e-12 5.41297e-13 -7.50414e-13 -4.95732e-10 -3.72353e-10 3.13604e-09 7.7856e-16 4.05792e-16 1.50313e-15 0 0 0 0 0 0 0 0
616 1 0.00242866 -0.0034359 0.0109365 0.0008 3.43146e-06 8.91879e-14 2.81419e-14 -1.87992e-12 -2.10069e-09 2.56487e-09 -5.93662e-10 2.62669e-16 -3.05925e-16 -9.34864e-16 0 0 0 0 0 0 0 0
617 1 -0.00605973 0.00254495 0.01299 0.0008 3.43146e-06 3.87074e-13 1.0835e-12 1.27617e-12 -9.38281e-10 -4.0563e-09 2.07481e-09 -5.30155e-16 1.84357e-16 -1.59756e-16 0 0 0 0 0 0 0 0
618 1 -0.00166717 -0.00275941 0.00724936 0.0008 3.43146e-06 -2.71243e-13 -3.04859e-13 -2.08586e-12 -1.15665e-09 2.70089e-09 3.75861e-09 -1.50803e-15 -1.90829e-16 1.79106e-15 0 0 0 0 0 0 0 0
619 1 0.00374024 0.00376345 0.0113217 0.0008 3.43146e-06 -9.56572e-13 1.67267e-13 6.30685e-13 4.254e-11 -2.70483e-09 9.43576e-10 -2.58619e-16 -5.7185e-16 4.27262e-16 0 0 0 0 0 0 0 0
620 1 -0.00431664 -0.00576343 0.0129496 0.0008 3.43146e-06 -9.93851e-13 -1.57766e-13 -6.73911e-13 -9.87343e-10 1.03313e-10 8.41541e-10 5.96889e-16 9.26523e-17 1.56741e-16 1 0.00093536 0.000949422 0.000129542 -0.00479578 -0.00640316 0.0129496 0.0008
621 1 0.0071791 0.000551862 0.00721454 0.0008 3.43146e-06 -5.82513e-14 1.42794e-13 -7.92331e-14 9.69415e-10 -3.29456e-11 -1.99141e-10 -6.21179e-16 7.5336e-17 9.79423e-18 1 -0.000313347 3.8962e-05 -6.36162e-05 0.00797647 0.000613157 0.00721454 0.0008
622 1 0.00563896 -0.00447688 0.00891048 0.0008 3.43146e-06 -5.11746e-13 -9.19007e-13 2.64183e-13 1.65472e-09 -8.87352e-10 1.29453e-09 -2.13816e-16 1.48979e-16 -6.47359e-16 1 -4.60539e-06 4.45861e-06 -1.02488e-06 0.00626549 -0.0049743 0.00891048 0.0008
623 1 0.00430828 0.00119293 0.00865621 0.0008 3.43146e-06 8.21718e-13 3.33918e-13 4.50642e-13 -1.1385e-09 5.79164e-10 7.93755e-11 -2.78737e-15 -2.19367e-15 2.65881e-15 0 0 0 0 0 0 0 0
624 1 0.00328316 0.00527507 0.0140614 0.0008 3.43146e-06 -1.02532e-12 -1.34995e-13 -3.52153e-12 -1.08371e-09 3.57483e-10 5.59195e-10 -6.98486e-16 1.41554e-19 -7.50522e-17 0 0 0 0 0 0 0 0
625 1 -0.00433521 -0.00156232 0.00966512 0.0008 3.43146e-06 2.46718e-13 5.38999e-13 -3.27082e-12 2.08414e-09 -2.89176e-09 -1.28826e-09 -5.5601e-16 -9.55937e-17 1.10927e-15 0 0 0 0 0 0 0 0
626 1 0.00462558 0.00551796 0.00938705 0.0008 3.43146e-06 2.15725e-12 -2.16448e-12 2.20867e-12 -2.60392e-09 1.18744e-09 3.8132e-09 2.22664e-16 5.20811e-16 9.61027e-16 1 -0.000230923 -0.000183569 -1.7441e-05 0.00513934 0.00613084 0.00938705 0.0008
627 1 0.00424303 -0.00251216 0.0111031 0.0008 3.43146e-06 -7.47293e-13 7.04967e-13 1.85119e-13 2.66883e-09 1.96491e-09 -1.58678e-09 4.41843e-16 -4.78902e-16 -5.42253e-16 0 0 0 0 0 0 0 0
628 1 0.00166267 0.00700592 0.00975399 0.0008 3.43146e-06 5.40674e-13 -1.6906e-13 -1.23707e-12 9.9908e-10 -2.4785e-09 7.06626e-10 -9.22296e-17 5.8966e-16 -5.30955e-16 1 -0.000173544 -0.000756239 0.000179216 0.00184728 0.0077838 0.00975399 0.0008
629 1 -0.00655864 0.0029717 0.0115311 0.0008 3.43146e-06 1.865e-12 8.5587e-13 -7.16748e-13 1.51453e-09 2.9008e-10 1.94553e-09 -5.79842e-17 1.3211e-16 -1.21453e-17 1 0.000658084 -0.000221755 1.85085e-05 -0.0072869 0.00330167 0.0115311 0.0008
630 1 0.00179655 0.0058867 0.0108887 0.0008 3.43146e-06 4.70909e-13 -7.27298e-13 -1.5921e-12 -1.24921e-10 2.00112e-09 -3.82979e-10 3.13463e-16 -5.65729e-16 2.70788e-16 0 0 0 0 0 0 0 0
631 1 0.00126242 0.00350755 0.00882647 0.0008 3.43146e-06 6.58326e-14 -1.08297e-12 2.88592e-13 -4.77768e-10 -1.01494e-09 -7.3069e-10 -1.99374e-15 -5.47424e-16 -1.66941e-15 0 0 0 0 0 0 0 0
632 1 0.00104835 0.00306185 0.0121341 0.0008 3.43146e-06 5.4173e-13 -1.08305e-12 3.86174e-13 -1.6854e-09 -1.9236e-09 -6.03585e-10 6.29402e-16 2.56381e-16 2.11218e-15 0 0 0 0 0 0 0 0
633 1 0.00367584 -0.000167884 0.00921118 0.0008 3.43146e-06 8.02628e-14 -1.30535e-14 1.54081e-12 -5.63974e-10 -1.92364e-09 -8.03226e-12 5.62102e-16 -1.05632e-15 4.68928e-16 0 0 0 0 0 0 0 0
634 1 -0.000561337 -0.00209268 0.0083719 0.0008 3.43146e-06 -2.71046e-13 1.08167e-12 -2.97016e-12 -6.94836e-10 -1.51691e-09 1.79623e-09 2.22378e-16 -3.90142e-17 -1.92091e-15 0 0 0 0 0 0 0 0
635 1 0.00719803 0.000191726 0.0101691 0.0008 3.43146e-06 -1.9841e-12 -2.96408e-14 -1.37646e-12 3.57816e-10 -1.70672e-09 -2.81505e-11 -1.42457e-16 -7.49515e-17 1.65514e-16 1 -0.000947125 -0.000129676 0.000120097 0.00799716 0.000213012 0.0101691 0.0008
636 1 0.000951308 -0.00284964 0.00810086 0.0008 3.43146e-06 2.68535e-13 -7.24454e-13 1.34626e-12 3.08593e-09 9.54415e-10 7.03965e-10 -3.34018e-16 -3.88583e-16 -1.70671e-16 0 0 0 0 0 0 0 0
637 1 -0.00646861 -0.00316347 0.00914261 0.0008 3.43146e-06 1.68409e-12 1.96791e-13 1.17474e-14 9.53195e-10 4.51209e-10 -7.14703e-10 6.31384e-16 1.72872e-16 4.64458e-17 1 0.00117741 0.000568727 -0.000152968 -0.00718662 -0.00351461 0.00914261 0.0008
638 1 0.00365108 -0.00159402 0.00993508 0.0008 3.43146e-06 -1.50597e-13 4.40433e-13 2.72799e-12 -1.05466e-09 -1.39463e-09 1.35855e-09 7.90757e-16 -6.86749e-16 -4.2721e-16 0 0 0 0 0 0 0 0
639 1 -0.00236744 -0.00443891 0.0103109 0.0008 3.43146e-06 -7.27741e-13 -1.39791e-12 2.73417e-13 2.9584e-09 2.47786e-09 -1.22765e-09 -5.39677e-16 -3.1205e-16 -8.29317e-16 0 0 0 0 0 0 0 0
640 1 -0.000546632 -0.00289484 0.00975577 0.0008 3.43146e-06 2.70506e-13 -5.83324e-13 1.61107e-12 -3.43678e-10 9.26597e-10 5.34557e-10 1.37641e-16 6.26111e-16 -2.18404e-15 0 0 0 0 0 0 0 0
641 1 -0.000814293 -0.00715383 0.0130105 0.0008 3.43146e-06 1.54287e-14 -2.16819e-12 1.11145e-12 1.51661e-09 1.18355e-09 -3.36422e-10 -5.21296e-17 -3.80404e-17 3.34018e-17 1 1.15832e-06 5.95864e-06 -1.1731e-06 -0.000904768 -0.00794867 0.0130105 0.0008
642 1 0.00650418 0.00308982 0.00846267 0.0008 3.43146e-06 -2.14359e-12 3.98694e-14 1.46456e-13 1.42496e-09 8.8033e-10 -1.19382e-09 -2.58498e-17 -3.63952e-16 5.96207e-17 1 -0.00141629 -0.00049172 7.1304e-05 0.00722608 0.00343276 0.00846267 0.0008
643 1 -0.0017477 -0.00317278 0.0110672 0.0008 3.43146e-06 3.16807e-13 -1.04947e-12 3.05818e-12 1.00615e-09 -2.92907e-10 2.11448e-09 -1.11739e-15 -3.70001e-16 -1.5677e-15 0 0 0 0 0 0 0 0
644 1 0.00421115 -0.000697763 0.0132253 0.0008 3.43146e-06 -1.07493e-12 -2.7063e-13 -8.17472e-13 1.00096e-09 5.71028e-10 -9.93136e-10 2.95906e-16 -1.0386e-16 -2.16381e-16 0 0 0 0 0 0 0 0
645 1 0.000282117 0.00166856 0.0123047 0.0008 3.43146e-06 1.35584e-13 -5.41768e-13 6.08524e-13 4.97079e-10 2.98619e-10 7.25275e-11 -8.27267e-17 -3.23475e-16 2.17003e-15 0 0 0 0 0 0 0 0
646 1 -0.00318225 0.00645957 0.00970426 0.0008 3.43146e-06 -3.55881e-13 -3.02963e-13 6.34283e-13 -1.50377e-09 1.26176e-09 -5.80328e-10 6.56171e-17 2.03957e-16 1.83618e-16 1 0.000675019 -0.00164441 0.000117986 -0.00353539 0.00717642 0.00970426 0.0008
647 1 -0.000434735 0.00302752 0.0128953 0.0008 3.43146e-06 -1.35584e-13 -1.08414e-12 1.10405e-12 -1.99051e-09 1.0002e-09 8.55397e-10 -4.27607e-16 -6.98353e-16 4.63526e-16 0 0 0 0 0 0 0 0
648 1 0.00515623 -0.00339365 0.00661092 0.0008 3.43146e-06 -1.44902e-12 8.5183e-13 1.50553e-12 1.02837e-10 1.31333e-09 4.9288e-10 2.1656e-16 -1.12799e-15 2.55524e-16 0 0 0 0 0 0 0 0
649 1 0.00083378 -0.00469267 0.0134236 0.0008 3.43146e-06 2.31881e-13 1.06036e-12 -1.56295e-13 -2.31124e-09 -5.59708e-10 2.94848e-10 -3.99893e-16 8.1717e-18 -1.71155e-15 0 0 0 0 0 0 0 0
650 1 0.000289535 0.00364763 0.0100885 0.0008 3.43146e-06 -8.77067e-14 9.57173e-14 -9.89048e-13 -6.33292e-10 -9.9898e-11 -3.56904e-10 -1.08518e-15 -8.67244e-16 6.2412e-16 0 0 0 0 0 0 0 0
651 1 0.00226935 -0.0068331 0.0102551 0.0008 3.43146e-06 -3.32639e-13 6.27684e-13 -1.99898e-12 -2.69899e-09 2.98896e-10 1.85655e-10 -8.71433e-17 3.10367e-16 3.84281e-16 1 -2.10296e-05 4.47663e-05 3.90358e-06 0.00252147 -0.00759225 0.0102551 0.0008
652 1 0.00289744 -0.00403046 0.00638345 0.0008 3.43146e-06 1.88255e-13 4.00329e-13 -3.66594e-13 5.42041e-10 -7.6937e-10 2.62325e-09 -3.69162e-16 1.15333e-15 -1.23402e-15 0 0 0 0 0 0 0 0
653 1 -0.00292037 -0.000148093 0.0140094 0.0008 3.43146e-06 3.76293e-13 -6.76979e-14 -1.3938e-12 -1.61625e-09 -1.36387e-09 -8.08948e-11 4.21365e-16 3.42955e-16 -8.18186e-16 0 0 0 0 0 0 0 0
654 1 0.00300893 -0.0054736 0.00936528 0.0008 3.43146e-06 2.04967e-13 9.65945e-13 2.52695e-12 -2.69728e-09 4.0866e-09 -3.91375e-10 -3.6009e-16 5.59488e-16 -1.27179e-15 0 0 0 0 0 0 0 0
655 1 0.00346536 -0.00631149 0.0111796 0.0008 3.43146e-06 4.86615e-13 2.00155e-12 -1.52738e-12 -1.3218e-09 -1.55157e-09 -1.73476e-09 -7.65573e-17 -4.02783e-16 4.7084e-16 1 -0.000104647 0.000240749 6.68498e-05 0.00385026 -0.00701252 0.0111796 0.0008
656 1 0.00221533 -0.00264521 0.00955079 0.0008 3.43146e-06 -5.07533e-13 1.07369e-12 8.12442e-13 -1.66963e-09 5.73467e-09 1.64428e-09 2.89383e-16 -4.30429e-16 -7.1757e-16 0 0 0 0 0 0 0 0
657 1 0.000551053 -0.00626941 0.0112477 0.0008 3.43146e-06 2.38979e-13 2.74838e-13 -4.49172e-14 7.5667e-10 1.31947e-10 -8.0174e-10 8.4774e-17 -1.43897e-16 -5.65904e-16 0 0 0 0 0 0 0 0
658 1 0.00398923 0.00431815 0.00664168 0.0008 3.43146e-06 -1.66266e-12 8.35876e-13 -1.73812e-12 3.93028e-10 1.68054e-10 -2.79277e-09 -5.50311e-16 -4.34282e-16 1.53464e-16 0 0 0 0 0 0 0 0
659 1 0.00112626 -0.00314125 0.0131643 0.0008 3.43146e-06 2.23089e-13 8.05118e-13 -1.04174e-12 1.1438e-09 5.54182e-10 -2.93027e-10 -8.55904e-16 -4.76068e-16 -2.0356e-16 0 0 0 0 0 0 0 0
660 1 0.00717221 0.000639383 0.0130048 0.0008 3.43146e-06 -3.03651e-13 2.15201e-13 -4.40777e-14 -2.07415e-09 -2.38339e-10 -3.04261e-10 -9.42885e-17 -1.96667e-16 3.09088e-16 1 -0.00111954 -0.000124487 0.000137097 0.0079684 0.000710361 0.0130048 0.0008
661 1 -0.00220164 -0.00168315 0.00830441 0.0008 3.43146e-06 -2.77246e-15 -3.43622e-13 -1.2337e-12 3.20905e-10 1.11647e-09 -7.69207e-10 8.32698e-16 2.03551e-16 9.57268e-16 0 0 0 0 0 0 0 0
662 1 0.00123702 0.00699404 0.0126694 0.0008 3.43146e-06 -5.3359e-13 2.16829e-12 -2.07074e-12 -1.62309e-09 1.59956e-09 -1.4132e-09 -1.02279e-16 -4.45083e-17 6.2e-18 0 0 0 0 0 0 0 0
663 1 -0.00113122 -0.00065711 0.00890484 0.0008 3.43146e-06 5.41921e-13 -2.47552e-13 -1.60153e-12 -6.59193e-10 -4.57843e-10 3.60784e-10 4.51552e-16 1.06822e-16 8.75392e-16 0 0 0 0 0 0 0 0
664 1 0.0045571 -0.00557457 0.00848103 0.0008 3.43146e-06 6.16694e-13 3.69226e-13 9.10419e-13 -4.69141e-10 2.38663e-09 -8.90309e-10 -1.71305e-17 -1.33926e-16 -2.7286e-16 1 -0.000128633 0.000162591 6.55777e-05 0.0050633 -0.00619379 0.00848103 0.0008
665 1 -0.00560322 0.00216151 0.0105369 0.0008 3.43146e-06 8.54313e-13 1.52268e-13 -2.4443e-12 -3.29933e-09 3.77281e-09 -6.76847e-10 7.02212e-17 -2.29874e-16 -6.64436e-16 0 0 0 0 0 0 0 0
666 1 0.00706004 -0.00141436 0.00796058 0.0008 3.43146e-06 -6.82931e-13 2.84122e-13 -1.59291e-13 1.07467e-09 -4.22459e-10 -1.73247e-10 -2.652e-16 -1.107e-16 3.94011e-17 1 -0.000358565 0.00014284 8.15106e-05 0.00784414 -0.00157144 0.00796058 0.0008
667 1 -0.00271805 0.00119029 0.00684897 0.0008 3.43146e-06 2.78017e-13 -5.41277e-13 -1.5628e-12 -1.70796e-09 -2.69584e-10 2.66879e-10 -4.42802e-16 5.70746e-16 -1.59351e-15 0 0 0 0 0 0 0 0
668 1 -0.00118737 0.00478146 0.0106708 0.0008 3.43146e-06 -4.12509e-14 5.27342e-13 7.40915e-15 5.10783e-10 -1.71438e-09 -4.85697e-10 3.31209e-17 -1.12454e-15 -5.49729e-16 0 0 0 0 0 0 0 0
669 1 0.00455067 -0.00557982 0.0140344 0.0008 3.43146e-06 1.27286e-12 -1.08168e-12 -1.8468e-13 -1.67669e-09 1.70124e-09 -3.61898e-10 8.09317e-17 -7.37166e-16 -5.87301e-17 1 -0.000127503 0.000155387 2.41261e-05 0.00505616 -0.00619962 0.0140344 0.0008
670 1 -0.00547194 0.0011157 0.0134042 0.0008 3.43146e-06 2.14459e-12 5.42e-13 3.21613e-12 -7.06218e-11 1.27404e-09 3.77326e-10 -7.86782e-16 -1.45263e-16 -1.64308e-16 0 0 0 0 0 0 0 0
671 1 -0.00552039 -0.00462274 0.0135091 0.0008 3.43146e-06 2.12661e-13 -1.72356e-12 -1.51175e-13 -7.36951e-10 -3.85994e-10 -1.80081e-09 -3.32983e-16 4.2761e-16 5.99901e-16 1 0.000295035 0.000219214 0.000108738 -0.00613351 -0.00513615 0.0135091 0.0008
672 1 0.00529141 0.0018952 0.0127534 0.0008 3.43146e-06 -1.97548e-12 1.70463e-13 1.79652e-12 1.1098e-09 -3.64437e-10 4.43373e-11 -3.23854e-17 -2.47252e-16 1.10626e-16 0 0 0 0 0 0 0 0
673 1 -0.00116484 -0.00462732 0.01237 0.0008 3.43146e-06 5.41923e-13 -1.95816e-12 8.84369e-13 1.58661e-10 -1.76327e-09 -4.94178e-10 -4.70455e-16 2.62694e-16 -1.51147e-15 0 0 0 0 0 0 0 0
674 1 0.000373904 -0.000779263 0.0083781 0.0008 3.43146e-06 1.34828e-13 -1.03152e-13 -7.99729e-13 -2.9205e-10 -2.12357e-10 1.20336e-10 -1.11226e-15 -1.78749e-16 4.79913e-16 0 0 0 0 0 0 0 0
675 1 -0.00718415 -0.000479325 0.0113841 0.0008 3.43146e-06 2.16745e-12 1.35511e-13 -2.46461e-12 1.0255e-09 3.1578e-09 -7.83965e-12 1.1274e-15 -1.23117e-16 2.17528e-15 1 8.95998e-05 -1.03129e-06 9.2093e-06 -0.00798225 -0.000532574 0.0113841 0.0008
676 1 -0.005787 0.00428493 0.0140949 0.0008 3.43146e-06 -8.1984e-13 -1.71993e-12 -2.34358e-12 2.37631e-09 1.87384e-09 -2.347e-09 -1.68827e-16 6.08107e-16 1.11447e-15 1 0.00089704 -0.000824621 0.000141925 -0.00642938 0.00476057 0.0140949 0.0008
677 1 -0.00332374 -0.000627588 0.00787247 0.0008 3.43146e-06 7.81084e-13 -2.70348e-13 -8.68533e-13 -2.53599e-09 1.26798e-09 -8.97742e-10 8.62104e-17 -1.25259e-17 -1.06791e-16 0 0 0 0 0 0 0 0
678 1 0.000878538 -0.0033691 0.0103059 0.0008 3.43146e-06 2.70277e-13 2.2544e-13 6.26115e-13 4.31787e-10 1.37423e-10 3.93493e-10 3.67615e-17 4.28785e-16 -1.78255e-15 0 0 0 0 0 0 0 0
679 1 -0.00275453 0.0049525 0.0100257 0.0008 3.43146e-06 -1.08396e-12 -5.49035e-13 1.96352e-12 -9.55031e-10 1.46562e-09 -1.10826e-09 2.63884e-16 -2.6444e-16 -7.94482e-16 0 0 0 0 0 0 0 0
680 1 -0.00461669 0.00552555 0.0138962 0.0008 3.43146e-06 -9.88094e-13 -8.9569e-13 1.41893e-12 2.16443e-09 -5.31513e-09 -1.65344e-09 -5.23152e-16 -4.61259e-16 -1.0895e-17 1 0.000433482 -0.000295405 7.11626e-05 -0.00512938 0.00613917 0.0138962 0.0008
681 1 0.00420546 0.00395757 0.00980376 0.0008 3.43146e-06 -4.3097e-13 5.6128e-13 -1.913e-12 -5.4463e-10 2.75674e-09 1.01371e-09 9.10728e-17 -1.05877e-15 7.14984e-17 0 0 0 0 0 0 0 0
682 1 -0.00461523 -0.00362232 0.00853677 0.0008 3.43146e-06 -3.3997e-13 -5.86489e-13 -1.63349e-12 3.04297e-09 -3.4002e-10 4.54268e-10 1.30113e-15 1.13865e-15 -9.02982e-16 0 0 0 0 0 0 0 0
683 1 0.00559098 0.00303534 0.0100284 0.0008 3.43146e-06 3.37795e-13 8.27723e-13 -7.07362e-13 8.28917e-10 3.677e-09 5.77693e-10 4.29704e-16 -9.09139e-16 5.0595e-16 0 0 0 0 0 0 0 0
684 1 -0.000302957 0.00281064 0.011316 0.0008 3.43146e-06 -1.34114e-13 -9.45119e-13 -2.51412e-12 2.7202e-09 -5.21081e-10 5.50127e-10 1.40186e-16 -1.80063e-15 1.63624e-15 0 0 0 0 0 0 0 0
685 1 -0.00295879 -0.00242805 0.0118649 0.0008 3.43146e-06 -4.53112e-14 -2.55483e-13 -9.90095e-13 3.77123e-10 -1.87988e-10 3.64967e-10 -8.36392e-16 1.58571e-15 -6.7482e-16 0 0 0 0 0 0 0 0
686 1 -0.0034951 -0.00629494 0.0142152 0.0008 3.43146e-06 -5.17639e-14 1.20328e-12 -2.69525e-13 -1.12236e-10 4.12835e-10 9.2564e-10 2.17237e-16 -1.52345e-16 -1.96495e-16 1 3.91017e-05 0.00010549 1.5297e-05 -0.00388337 -0.00699424 0.0142152 0.0008
687 1 0.00659138 0.00289888 0.0112694 0.0008 3.43146e-06 9.64451e-13 8.27121e-13 -1.54539e-12 -7.00978e-10 -2.41851e-09 -4.58252e-10 9.71723e-17 -3.48617e-16 4.02531e-16 1 -0.00106755 -0.000510113 -0.000142076 0.00732307 0.00322067 0.0112694 0.0008
688 1 0.000475804 -0.00516412 0.0151597 0.0008 3.43146e-06 -7.98125e-14 3.13163e-13 -3.94169e-13 -7.10487e-10 -1.35862e-10 -1.41982e-09 -1.544e-15 -6.989e-16 -7.74435e-16 0 0 0 0 0 0 0 0
689 1 -0.00094807 0.00140277 0.0152325 0.0008 3.43146e-06 -2.15302e-13 5.42135e-13 8.00707e-14 8.92254e-10 6.17149e-10 -1.20153e-10 -1.99539e-15 4.72287e-16 -1.23897e-15 0 0 0 0 0 0 0 0
690 1 0.00109021 -5.41612e-05 0.0162002 0.0008 3.43146e-06 1.26522e-13 -6.6431e-14 -9.94502e-13 2.16345e-10 1.82001e-10 9.73467e-11 1.10041e-15 1.4655e-15 -2.34823e-16 0 0 0 0 0 0 0 0
691 1 0.00205236 -0.00298924 0.0160622 0.0008 3.43146e-06 -7.76432e-13 -1.41427e-13 -9.45162e-13 -1.44085e-09 7.75325e-10 -1.13121e-09 4.01389e-16 -2.07833e-15 -7.91782e-16 0 0 0 0 0 0 0 0
692 1 0.00264438 0.00669738 0.0135738 0.0008 3.43146e-06 -2.84629e-13 3.22843e-13 1.14422e-13 9.88966e-10 2.89241e-09 -4.78704e-10 -6.01719e-16 -4.92212e-16 -3.80154e-16 1 -0.000386202 -0.000730156 4.47156e-05 0.00293798 0.00744099 0.0135738 0.0008
693 1 -0.000913896 0.00714247 0.0151213 0.0008 3.43146e-06 -3.61871e-14 -1.6733e-12 1.42089e-12 -1.79693e-09 -7.31095e-12 -3.39062e-10 -1.40579e-16 2.88475e-16 4.06074e-16 1 0.000140466 -0.00124685 1.79747e-05 -0.00101534 0.00793531 0.0151213 0.0008
694 1 0.00456199 -0.00379624 0.0156881 0.0008 3.43146e-06 -1.84676e-12 -1.08369e-12 -2.48665e-12 1.36888e-09 1.27219e-09 -1.61125e-09 -1.8731e-16 1.93142e-17 -2.96922e-16 0 0 0 0 0 0 0 0
695 1 -0.00228734 0.00567754 0.0156072 0.0008 3.43146e-06 -3.50385e-13 -7.01206e-13 7.19784e-13 -1.97975e-09 -3.4928e-10 -1.08673e-09 -1.56031e-16 -6.72342e-16 7.05696e-16 0 0 0 0 0 0 0 0
696 1 -0.00111876 -0.00408502 0.0151093 0.0008 3.43146e-06 -9.30614e-14 -1.26006e-12 -1.25671e-12 -3.50573e-10 -5.1896e-10 6.51488e-10 1.37522e-16 -9.57349e-16 -1.52923e-15 0 0 0 0 0 0 0 0
697 1 0.000391111 0.006226 0.0152485 0.0008 3.43146e-06 -1.33473e-13 7.11873e-14 2.27735e-12 -6.76511e-10 3.03262e-10 1.81178e-09 -5.43452e-16 -9.14843e-17 6.85422e-16 0 0 0 0 0 0 0 0
698 1 0.00577327 -0.00241273 0.0151838 0.0008 3.43146e-06 -2.10584e-12 -1.08324e-12 2.80928e-12 -5.46963e-09 1.80592e-09 -1.32826e-09 2.49878e-16 2.47041e-16 -1.28036e-15 0 0 0 0 0 0 0 0
699 1 -0.00533747 0.0048328 0.0112485 0.0008 3.43146e-06 -3.08881e-13 1.86847e-12 -4.37451e-15 -1.42494e-09 1.31264e-09 1.47587e-09 4.65625e-17 -1.3203e-17 -3.42271e-16 1 0.000234631 -0.000298301 0.000101786 -0.00593027 0.00536954 0.0112485 0.0008
700 1 0.00679759 -0.00237484 0.0166654 0.0008 3.43146e-06 -6.82114e-13 -3.25242e-13 -8.42643e-13 3.98819e-10 -1.25489e-09 6.65042e-10 -2.37256e-16 -4.62557e-16 -2.35183e-16 1 -0.000756002 7.7958e-05 -1.70528e-06 0.00755236 -0.00263853 0.0166654 0.0008
701 1 0.00525358 0.00492413 0.0172263 0.0008 3.43146e-06 1.08444e-12 8.46785e-15 -1.48985e-12 1.56778e-09 -1.08671e-09 9.37661e-10 2.54451e-16 1.63275e-16 2.01258e-16 1 -0.000440802 -0.000618633 1.57728e-06 0.00583691 0.00547088 0.0172263 0.0008
702 1 -0.00705183 -0.00145539 0.0167014 0.0008 3.43146e-06 1.38372e-12 4.64233e-13 8.21458e-13 6.85719e-10 -9.31268e-10 2.28387e-10 -1.54253e-15 -1.59827e-16 6.94784e-16 1 0.000630002 0.000134115 7.5978e-05 -0.00783488 -0.001617 0.0167014 0.0008
703 1 0.00121636 0.0024085 0.0170518 0.0008 3.43146e-06 2.03431e-13 -1.08415e-12 8.93458e-13 5.03378e-10 4.67676e-10 -2.90851e-10 -6.58684e-16 -4.50038e-16 2.38383e-15 0 0 0 0 0 0 0 0
704 1 -0.0035466 0.00129517 0.0143356 0.0008 3.43146e-06 -1.08411e-12 5.4208e-13 2.56631e-12 -4.63663e-09 8.68783e-10 -4.00804e-09 -3.46796e-16 -3.59748e-16 4.10768e-15 0 0 0 0 0 0 0 0
705 1 0.00327107 0.00641428 0.0151845 0.0008 3.43146e-06 2.5957e-13 1.26788e-12 -8.47254e-13 2.22945e-09 2.05908e-09 -4.28378e-10 -5.86437e-16 -3.0746e-17 -4.56142e-16 1 -6.77632e-05 -0.000185308 -5.18594e-06 0.00363442 0.00712678 0.0151845 0.0008
706 1 0.00199866 -0.00423275 0.0150557 0.0008 3.43146e-06 8.89988e-13 -1.40012e-12 -1.7258e-12 -6.5331e-09 8.17431e-10 -3.1604e-09 -8.16573e-16 1.51961e-15 -1.06019e-15 0 0 0 0 0 0 0 0
707 1 -0.003607 -0.000723013 0.0153348 0.0008 3.43146e-06 -1.72922e-13 1.86319e-14 -7.17228e-13 7.26257e-10 7.72132e-10 7.36471e-10 2.26282e-16 -6.52898e-16 6.55177e-16 0 0 0 0 0 0 0 0
708 1 -0.00536027 0.00265123 0.0186181 0.0008 3.43146e-06 3.15355e-13 2.94509e-13 -1.85482e-12 -2.85111e-09 -2.54659e-09 -1.73718e-09 -1.31754e-15 8.21829e-16 -2.4258e-16 0 0 0 0 0 0 0 0
709 1 -0.000521184 4.79612e-05 0.0159688 0.0008 3.43146e-06 2.45491e-13 -6.07515e-14 -5.22813e-13 4.70152e-11 1.51582e-11 3.18192e-10 -1.17232e-17 -1.87766e-16 -8.83369e-16 0 0 0 0 0 0 0 0
710 1 0.000721656 -0.00716419 0.0125627 0.0008 3.43146e-06 -7.10306e-14 -1.69445e-12 6.08035e-13 8.16738e-10 -5.50379e-10 2.91286e-10 1.97537e-17 -2.91357e-17 -3.17658e-16 1 -8.35915e-05 0.000621717 -7.05649e-05 0.000801791 -0.00795972 0.0125627 0.0008
711 1 0.00200719 -0.00691524 0.0154116 0.0008 3.43146e-06 1.08191e-12 5.20159e-13 -2.71027e-12 -3.04686e-09 -1.67514e-09 -1.47591e-09 3.9471e-16 1.78765e-15 -6.84173e-16 1 -0.000659064 0.000976474 8.12361e-05 0.00223001 -0.00768291 0.0154116 0.0008
712 1 0.00314518 -0.0026347 0.0149494 0.0008 3.43146e-06 1.94167e-13 -1.08376e-12 2.56681e-14 6.30915e-10 -2.52487e-09 3.07677e-10 1.30235e-15 -1.66593e-16 -4.69358e-16 0 0 0 0 0 0 0 0
713 1 0.00139538 0.00419695 0.0146926 0.0008 3.43146e-06 -3.44856e-13 -1.19972e-12 2.63373e-12 1.77424e-09 -2.28653e-09 1.42189e-09 7.15661e-16 -1.14076e-15 2.04447e-15 0 0 0 0 0 0 0 0
714 1 -0.00397426 -0.00201312 0.0143749 0.0008 3.43146e-06 1.6432e-12 1.03813e-12 -6.0219e-13 -6.56871e-10 -8.60993e-11 9.79165e-10 -3.73651e-16 3.69493e-16 -1.41822e-16 0 0 0 0 0 0 0 0
715 1 -0.00485298 0.00246984 0.0140462 0.0008 3.43146e-06 8.79513e-13 1.0818e-12 1.02235e-12 -2.27854e-09 -3.10752e-09 5.21512e-09 -5.12832e-16 -2.84324e-16 1.14839e-15 0 0 0 0 0 0 0 0
716 1 0.000893626 0.00381388 0.0161626 0.0008 3.43146e-06 -2.70589e-13 1.08414e-12 -2.439e-12 -4.0599e-09 -5.0586e-10 1.03534e-09 3.1927e-16 3.83298e-16 -1.71565e-15 0 0 0 0 0 0 0 0
717 1 -0.00399481 0.00337604 0.0163633 0.0008 3.43146e-06 -6.59159e-13 1.07865e-12 6.02902e-12 1.90518e-09 4.1316e-09 -2.03462e-09 -1.74906e-15 2.56385e-16 2.17121e-15 0 0 0 0 0 0 0 0
718 1 -0.00555997 -0.002031 0.0167375 0.0008 3.43146e-06 -1.47792e-13 6.562e-13 -1.72807e-13 7.33546e-10 1.68277e-09 -6.62474e-10 1.68608e-16 -4.44693e-16 9.67623e-16 0 0 0 0 0 0 0 0
719 1 0.00313792 0.000267517 0.0139144 0.0008 3.43146e-06 -2.86541e-13 -1.34868e-13 3.96955e-13 -9.35942e-10 1.59005e-09 7.98514e-10 7.86792e-17 -2.68994e-16 2.79852e-16 0 0 0 0 0 0 0 0
720 1 -0.00153107 -4.34139e-06 0.0172288 0.0008 3.43146e-06 -2.64323e-13 -3.38377e-14 -7.24739e-13 -1.80891e-10 -5.24827e-10 -6.50757e-10 -1.20946e-15 3.75583e-16 -1.54731e-15 0 0 0 0 0 0 0 0
721 1 -0.00280618 0.00109873 0.0177163 0.0008 3.43146e-06 -2.80797e-13 1.29336e-13 1.16033e-12 2.21513e-09 -2.52861e-10 -7.78175e-11 -3.21865e-16 6.24234e-16 -1.91097e-17 0 0 0 0 0 0 0 0
722 1 -0.00667833 -0.00168994 0.0151639 0.0008 3.43146e-06 2.16553e-12 1.28272e-14 -3.83299e-12 -1.89538e-10 1.22118e-09 -1.0078e-09 -2.79463e-17 9.79679e-17 7.91798e-16 0 0 0 0 0 0 0 0
723 1 0.00133102 -0.00311554 0.017883 0.0008 3.43146e-06 -5.41298e-13 -1.07391e-12 -3.07277e-13 -1.42355e-09 7.73224e-10 9.13123e-10 -1.7153e-16 -1.81583e-15 -6.25733e-16 0 0 0 0 0 0 0 0
724 1 0.00285338 0.00661129 0.0168739 0.0008 3.43146e-06 9.86955e-13 1.72707e-12 2.14363e-12 -3.12501e-09 -4.77547e-10 2.7834e-10 2.75005e-16 -1.00383e-15 5.61731e-16 1 -0.000576733 -0.00126786 0.000307808 0.00317009 0.0073451 0.0168739 0.0008
725 1 -0.00096031 -0.00553937 0.0157565 0.0008 3.43146e-06 2.705e-13 1.71103e-12 -6.84643e-13 -1.67357e-09 -5.20931e-10 6.86635e-10 1.40009e-16 -9.74238e-16 -1.58506e-15 0 0 0 0 0 0 0 0
726 1 -0.00259264 -0.00512875 0.0148358 0.0008 3.43146e-06 -1.04801e-12 8.99785e-13 8.49738e-13 -2.36903e-09 -6.38889e-09 -2.73522e-09 1.26196e-16 -9.67685e-16 -1.0382e-15 0 0 0 0 0 0 0 0
727 1 -0.00266392 -0.00576068 0.01682 0.0008 3.43146e-06 2.11028e-13 6.3685e-14 -1.87584e-12 -8.67946e-10 2.22794e-09 5.5016e-10 2.05761e-16 -2.62588e-16 1.01656e-16 0 0 0 0 0 0 0 0
728 1 -0.00136371 0.00706974 0.0135878 0.0008 3.43146e-06 -2.72731e-13 -1.92819e-12 -9.50173e-13 1.29775e-09 -5.73751e-10 -7.57848e-10 -7.01723e-16 -1.00227e-16 8.29465e-16 1 4.4323e-06 -3.21703e-05 2.94798e-06 -0.00151521 0.0078552 0.0135878 0.0008
729 1 -0.00190896 -0.00309594 0.0172575 0.0008 3.43146e-06 -1.99536e-13 1.03026e-14 -2.61308e-12 7.75132e-11 1.65668e-10 1.24894e-09 2.49971e-16 -1.1228e-15 -5.47262e-16 0 0 0 0 0 0 0 0
730 1 0.00107549 -0.00711953 0.0141223 0.0008 3.43146e-06 2.88296e-13 -1.56468e-12 -6.19862e-13 -9.82529e-10 1.34086e-09 -5.93285e-11 -3.11833e-16 2.37744e-16 -1.44153e-16 1 2.38692e-05 0.000363339 1.30564e-05 0.00119494 -0.00791025 0.0141223 0.0008
731 1 -0.00212639 0.00411872 0.0160082 0.0008 3.43146e-06 -5.72145e-13 1.58771e-12 1.15182e-12 -3.60144e-10 7.89945e-10 9.29649e-10 6.65001e-16 4.7363e-16 2.06977e-15 0 0 0 0 0 0 0 0
732 1 0.00566591 0.00112332 0.0167533 0.0008 3.43146e-06 3.28316e-13 5.41653e-13 -7.2217e-13 1.18549e-09 -1.12043e-09 -1.54497e-09 6.22822e-16 -6.06769e-17 -1.94609e-16 0 0 0 0 0 0 0 0
733 1 -0.00350507 0.00276406 0.0149685 0.0008 3.43146e-06 1.72197e-13 1.08417e-12 -1.24297e-13 1.35377e-09 -3.09271e-09 1.44492e-09 9.63258e-16 -1.39216e-16 -3.52333e-17 0 0 0 0 0 0 0 0
734 1 0.00241444 -0.00142812 0.0158537 0.0008 3.43146e-06 -7.09777e-13 -2.89138e-13 2.77609e-14 3.78373e-10 -1.80288e-09 5.18813e-10 6.64862e-16 -1.17377e-15 1.5062e-15 0 0 0 0 0 0 0 0
735 1 -0.00448475 -0.00431014 0.017563 0.0008 3.43146e-06 2.6111e-13 9.59462e-14 -2.14152e-12 -1.17623e-09 9.94729e-10 -3.84758e-12 2.41868e-16 -1.72902e-17 -1.08005e-16 0 0 0 0 0 0 0 0
736 1 0.00274453 0.00197675 0.017254 0.0008 3.43146e-06 -6.94355e-13 7.19222e-13 -6.90695e-13 -1.86656e-09 1.30434e-12 -1.66916e-10 7.39588e-17 6.88162e-16 1.4372e-16 0 0 0 0 0 0 0 0
737 1 -0.00713824 -0.000945428 0.0138252 0.0008 3.43146e-06 -7.08932e-13 1.89417e-13 -2.70674e-12 2.55015e-10 3.4508e-09 3.49661e-10 1.17651e-15 -5.04456e-16 -6.83782e-16 1 0.000926882 7.50613e-05 7.61811e-05 -0.00793074 -0.00105039 0.0138252 0.0008
738 1 0.00372127 -0.00219032 0.0163736 0.0008 3.43146e-06 -9.41168e-13 -3.76535e-13 1.56866e-12 -1.35086e-09 1.98106e-10 -7.6758e-10 5.73475e-16 -1.26153e-15 -2.88705e-16 0 0 0 0 0 0 0 0
739 1 0.000545407 -0.00254079 0.015768 0.0008 3.43146e-06 -2.65717e-13 -4.43874e-13 -8.5392e-13 -1.04596e-09 -3.92819e-11 8.10919e-10 1.49095e-16 -2.21014e-16 -5.42554e-16 0 0 0 0 0 0 0 0
740 1 0.00540323 -0.00151015 0.0139161 0.0008 3.43146e-06 -2.07639e-12 -5.3822e-13 -9.79154e-13 3.80795e-09 -4.06827e-09 2.74917e-09 9.81218e-16 3.46513e-17 3.4918e-16 0 0 0 0 0 0 0 0
741 1 -0.00179429 -0.00617281 0.0139226 0.0008 3.43146e-06 5.41673e-13 9.62426e-13 -1.61981e-13 -1.80205e-10 -1.14827e-10 -7.84719e-10 -1.79384e-16 -1.58765e-15 -1.14682e-15 0 0 0 0 0 0 0 0
742 1 -0.00707252 0.00135112 0.0159205 0.0008 3.43146e-06 5.68124e-13 5.28193e-13 -6.50701e-13 -1.53277e-09 1.16928e-09 7.82433e-10 -2.23889e-16 2.50195e-16 1.34334e-16 1 0.000543116 -0.000219539 0.00011111 -0.00785789 0.00150116 0.0159205 0.0008
743 1 0.0026778 -0.00503355 0.0132594 0.0008 3.43146e-06 -1.04526e-12 -1.43961e-12 -4.33631e-12 2.63697e-09 -2.43843e-09 -4.32028e-10 -3.11012e-16 -3.30135e-16 -1.20661e-15 0 0 0 0 0 0 0 0
744 1 -0.00109917 0.00711607 0.0120107 0.0008 3.43146e-06 3.54725e-13 -7.83936e-13 -1.89255e-13 2.73439e-10 -3.32358e-10 2.91765e-10 -5.76593e-16 -4.40266e-16 3.24227e-16 1 0.000190889 -0.000644492 -6.87337e-05 -0.00122122 0.00790624 0.0120107 0.0008
745 1 0.00388912 0.00101103 0.015115 0.0008 3.43146e-06 -2.27944e-13 -4.22274e-13 5.9381e-13 2.05007e-09 -9.37421e-10 1.37816e-10 -2.3708e-17 -3.34e-16 -4.76089e-16 0 0 0 0 0 0 0 0
746 1 0.00510761 0.00249991 0.0175414 0.0008 3.43146e-06 -1.32561e-12 1.08378e-12 -2.20289e-12 6.64911e-10 2.21231e-09 3.86004e-10 7.87246e-16 5.56466e-16 -1.70018e-16 0 0 0 0 0 0 0 0
747 1 -0.00557409 -0.00455789 0.0187074 0.0008 3.43146e-06 3.36821e-14 -7.7909e-13 5.56801e-13 2.84844e-09 1.41871e-09 -7.78548e-10 -4.06286e-16 -3.83654e-16 -9.5299e-17 1 0.000324287 0.000252079 4.39423e-05 -0.00619314 -0.00506409 0.0187074 0.0008
748 1 0.00336921 -0.00475837 0.0163209 0.0008 3.43146e-06 -2.36511e-13 -1.91928e-12 1.86613e-13 1.80352e-09 2.96286e-10 -4.62934e-09 1.21959e-15 7.66301e-16 -1.58487e-16 0 0 0 0 0 0 0 0
749 1 -0.00516882 -0.00501239 0.0161589 0.0008 3.43146e-06 -5.15034e-13 1.21871e-12 -1.59467e-12 -1.13854e-09 1.675e-09 1.54058e-09 3.01983e-16 -2.09313e-16 1.72719e-17 1 1.61324e-05 2.4123e-05 4.39986e-06 -0.00574309 -0.00556928 0.0161589 0.0008
750 1 0.00212406 -0.00687996 0.0118474 0.0008 3.43146e-06 -7.0467e-13 2.24398e-13 2.18033e-12 2.95895e-09 -3.26716e-10 7.54281e-10 -4.12163e-16 3.76918e-17 -3.06688e-16 1 -0.000185904 0.000463207 3.08629e-05 0.00235995 -0.00764399 0.0118474 0.0008
751 1 0.00575775 -0.00119779 0.0162771 0.0008 3.43146e-06 -1.31669e-12 2.85784e-13 8.21342e-13 4.89523e-10 7.74467e-10 -5.32019e-10 -3.26049e-16 1.45086e-16 4.01864e-16 0 0 0 0 0 0 0 0
752 1 -0.00576953 -0.0040819 0.014994 0.0008 3.43146e-06 -3.27074e-13 2.39807e-13 -1.35666e-12 -1.73382e-09 -1.17819e-09 -2.89777e-10 -6.57902e-16 -2.42141e-16 1.91747e-16 0 0 0 0 0 0 0 0
753 1 -0.0051791 -0.00100125 0.0154293 0.0008 3.43146e-06 4.33994e-14 5.41567e-13 -1.98208e-12 -3.75267e-11 -2.24015e-09 -1.36102e-09 2.91852e-16 -2.14405e-16 2.33136e-17 0 0 0 0 0 0 0 0
754 1 0.000569522 -0.00365823 0.0146233 0.0008 3.43146e-06 1.5819e-13 8.39854e-14 -2.16203e-12 2.63935e-09 6.33364e-10 5.57718e-10 -2.42887e-17 1.1249e-15 -1.75277e-15 0 0 0 0 0 0 0 0
755 1 0.00608202 0.00240742 0.0140491 0.0008 3.43146e-06 9.30531e-13 -5.02121e-13 1.28026e-12 6.91421e-10 -1.058e-09 2.61339e-09 -2.82235e-17 -9.73278e-16 1.07894e-16 0 0 0 0 0 0 0 0
756 1 -0.0018485 -0.00084203 0.0159035 0.0008 3.43146e-06 -5.4137e-13 2.08876e-13 -5.94213e-13 -8.38772e-11 -1.17284e-10 -1.17359e-09 1.34118e-16 -4.89452e-16 -1.80663e-15 0 0 0 0 0 0 0 0
757 1 -0.000491452 -0.00140553 0.0152705 0.0008 3.43146e-06 -1.4915e-13 -1.52138e-13 -9.58665e-13 7.8252e-10 8.45425e-11 6.10938e-10 8.49855e-16 6.8244e-17 -8.91621e-16 0 0 0 0 0 0 0 0
758 1 0.00189001 0.00135623 0.0160528 0.0008 3.43146e-06 -3.0701e-13 2.65938e-13 3.11602e-13 9.84499e-10 3.28754e-10 6.66622e-10 -8.775e-16 9.02081e-16 9.62465e-16 0 0 0 0 0 0 0 0
759 1 0.00504895 -0.000231756 0.017339 0.0008 3.43146e-06 -9.14186e-13 1.99181e-15 -5.86415e-13 -5.66848e-10 1.78157e-09 -1.99534e-12 5.40251e-16 8.58289e-16 -4.12574e-16 0 0 0 0 0 0 0 0
760 1 0.00153593 -0.00543266 0.0121911 0.0008 3.43146e-06 -3.20293e-13 -5.68459e-14 3.3991e-12 -6.66109e-10 -1.05816e-09 -1.54379e-09 -6.32975e-16 -3.20365e-16 -8.49202e-16 0 0 0 0 0 0 0 0
761 1 0.00431506 0.00407643 0.0143729 0.0008 3.43146e-06 1.92249e-12 3.28665e-13 -1.9883e-13 -1.9263e-09 -5.29319e-09 9.34857e-10 -4.50233e-16 -7.45573e-16 1.12055e-15 0 0 0 0 0 0 0 0
762 1 -0.000824837 0.00427402 0.0138189 0.0008 3.43146e-06 1.16045e-13 1.49726e-13 4.41869e-13 -2.35585e-11 5.4254e-10 -3.3733e-10 8.80196e-17 -3.0264e-16 4.60842e-17 0 0 0 0 0 0 0 0
763 1 -0.00467073 0.00048756 0.015138 0.0008 3.43146e-06 -2.1673e-12 1.36291e-13 2.25455e-12 3.40671e-09 -2.9963e-09 4.82955e-09 4.21594e-16 1.87097e-16 4.19658e-15 0 0 0 0 0 0 0 0
764 1 -0.00382038 -0.00610331 0.0157698 0.0008 3.43146e-06 2.09559e-13 2.55295e-13 6.00825e-13 1.08949e-09 2.3343e-10 -6.48044e-11 3.25649e-16 -5.77708e-17 3.22035e-16 1 0.000324479 0.000415684 6.17109e-05 -0.00424464 -0.00678108 0.0157698 0.0008
765 1 -0.00512983 0.00505203 0.0153357 0.0008 3.43146e-06 -4.34559e-12 2.16864e-12 -4.33546e-12 -6.57758e-09 -3.54643e-09 7.74615e-09 8.72296e-16 -2.44156e-16 -9.36726e-16 0 0 0 0 0 0 0 0
766 1 -0.0039381 -0.00418704 0.0152984 0.0008 3.43146e-06 -2.16774e-12 -8.99193e-14 -8.93109e-14 -4.16095e-10 -4.19765e-09 -2.56558e-09 -4.04576e-16 -5.22078e-16 -1.1252e-16 0 0 0 0 0 0 0 0
767 1 -0.00355466 0.00470267 0.0155863 0.0008 3.43146e-06 -8.87474e-13 1.75645e-12 4.32942e-12 -7.78414e-10 3.89165e-09 -1.75874e-09 -1.01668e-15 -3.63013e-16 1.03567e-15 0 0 0 0 0 0 0 0
768 1 0.00257032 -0.00351228 0.0137422 0.0008 3.43146e-06 1.44281e-13 -1.08374e-12 -2.07049e-12 9.53211e-11 5.4765e-10 -1.82945e-09 -9.14201e-17 -1.02339e-15 -1.80329e-16 0 0 0 0 0 0 0 0
769 1 -0.00130635 -0.00270804 0.0142812 0.0008 3.43146e-06 8.52796e-15 -1.07257e-12 8.96357e-14 -2.1003e-10 -9.99088e-11 8.94043e-10 -9.39117e-16 4.62965e-16 -3.16641e-16 0 0 0 0 0 0 0 0
770 1 -0.00321359 0.00247847 0.0184159 0.0008 3.43146e-06 3.66858e-13 -3.39662e-13 2.17239e-12 -5.24216e-10 -2.33888e-10 -1.07044e-09 -8.96888e-16 1.12257e-15 4.99324e-16 0 0 0 0 0 0 0 0
771 1 -0.00081153 0.0035914 0.0152657 0.0008 3.43146e-06 9.80452e-14 6.76392e-13 1.33539e-13 -4.05298e-10 1.56321e-10 -1.20648e-09 -2.17874e-16 4.93658e-16 2.34056e-15 0 0 0 0 0 0 0 0
772 1 0.00448282 0.0032506 0.0130138 0.0008 3.43146e-06 2.14531e-12 6.53346e-13 3.37112e-12 4.51135e-10 2.15912e-09 -4.73966e-09 -6.29699e-16 -6.7004e-16 7.24277e-16 0 0 0 0 0 0 0 0
773 1 0.00179958 0.000165701 0.0147839 0.0008 3.43146e-06 2.89833e-13 1.02808e-14 5.27861e-13 4.38372e-10 -1.11649e-09 -6.84387e-10 9.54465e-16 6.37385e-16 1.71835e-15 0 0 0 0 0 0 0 0
774 1 -0.00422172 0.00402884 0.014299 0.0008 3.43146e-06 -7.95823e-13 -9.11965e-14 -3.68495e-13 2.61149e-09 -5.19348e-09 5.10315e-09 -4.15836e-16 -4.26396e-16 5.2445e-16 0 0 0 0 0 0 0 0
775 1 -0.00243817 0.00596569 0.0140196 0.0008 3.43146e-06 -3.03732e-13 -7.03505e-13 -1.80718e-12 -9.7113e-10 -1.11177e-10 -3.50296e-10 -5.06293e-16 -6.80136e-16 8.85248e-16 0 0 0 0 0 0 0 0
776 1 0.00620736 0.00364966 0.0173827 0.0008 3.43146e-06 -4.31786e-13 1.0144e-12 -1.62573e-12 6.6533e-10 -1.96418e-09 -1.35844e-09 -1.5794e-16 1.8029e-16 1.07789e-16 1 -0.00124438 -0.000811868 5.31602e-05 0.00689631 0.00405474 0.0173827 0.0008
777 1 0.00198521 -0.00203627 0.0139396 0.0008 3.43146e-06 7.31861e-13 2.72743e-13 -6.84084e-13 8.61354e-10 1.27953e-09 7.14025e-10 -2.71658e-16 -1.00829e-15 -7.54775e-17 0 0 0 0 0 0 0 0
778 1 0.00034451 -0.00539354 0.0169102 0.0008 3.43146e-06 -8.99404e-14 -3.39342e-13 4.25767e-13 6.83145e-10 -8.34046e-11 2.98062e-10 -6.36979e-16 2.16698e-16 -1.14727e-15 0 0 0 0 0 0 0 0
779 1 0.00353055 -0.0045697 0.0147406 0.0008 3.43146e-06 -3.21698e-13 -1.61765e-12 -7.37454e-13 -1.50927e-09 -1.0655e-11 4.16303e-09 -5.15138e-16 -4.2648e-16 1.56089e-17 0 0 0 0 0 0 0 0
780 1 0.00368106 0.000580612 0.0175079 0.0008 3.43146e-06 -8.6476e-13 1.17657e-13 9.80699e-13 1.33753e-09 1.33735e-11 -1.52291e-10 -2.31069e-16 8.35183e-16 -1.60117e-15 0 0 0 0 0 0 0 0
781 1 -0.00618124 -0.00369258 0.0123885 0.0008 3.43146e-06 8.63935e-13 -7.7282e-13 -9.89632e-13 -3.50954e-10 1.23576e-09 -1.39294e-09 2.73547e-17 3.85516e-16 3.37559e-16 1 0.000159717 9.82931e-05 5.52927e-05 -0.00686785 -0.00410276 0.0123885 0.0008
782 1 -0.0034237 0.00544753 0.0185258 0.0008 3.43146e-06 1.47866e-13 -1.4874e-12 1.4445e-12 8.76228e-10 -1.92873e-09 -1.84153e-09 1.85431e-15 1.04804e-15 -6.07344e-16 0 0 0 0 0 0 0 0
783 1 0.00625044 -0.0035743 0.0136421 0.0008 3.43146e-06 -9.77304e-13 -4.0885e-13 -2.35529e-13 1.11004e-09 -9.75314e-10 1.03991e-09 -9.99072e-17 3.7146e-17 2.46615e-16 1 -0.000251263 8.85215e-05 6.62421e-06 0.00694469 -0.00397131 0.0136421 0.0008
784 1 -0.00480292 -0.000730617 0.0138985 0.0008 3.43146e-06 8.85394e-13 -2.70678e-13 -8.77633e-13 -5.77025e-10 9.64496e-10 3.57333e-10 -1.09783e-15 1.57514e-17 2.46865e-16 0 0 0 0 0 0 0 0
785 1 0.00324159 -0.00641216 0.0162969 0.0008 3.43146e-06 1.07598e-12 8.36893e-13 5.17987e-14 -4.36401e-09 2.56699e-09 -1.59029e-09 -2.76354e-16 4.42199e-17 -1.91574e-15 0 0 0 0 0 0 0 0
786 1 0.000158028 -2.3645e-05 0.0145224 0.0008 3.43146e-06 6.77999e-14 9.73873e-15 -5.01755e-14 -1.81153e-10 -4.16283e-11 1.67322e-10 1.3838e-16 2.03135e-16 -1.0856e-16 0 0 0 0 0 0 0 0
787 1 0.00490833 0.000408541 0.0123043 0.0008 3.43146e-06 -1.35105e-12 -8.47253e-14 3.00138e-13 5.34812e-10 -3.13885e-10 7.61931e-10 2.78923e-16 -5.19213e-16 -1.89378e-16 0 0 0 0 0 0 0 0
788 1 0.00595669 -0.00316516 0.0110606 0.0008 3.43146e-06 -1.35128e-12 -1.85283e-13 1.46825e-12 -1.5391e-09 -3.86217e-09 4.12152e-10 3.63553e-16 -3.69717e-16 -1.04848e-16 0 0 0 0 0 0 0 0
789 1 0.00160599 -0.00701871 0.0169567 0.0008 3.43146e-06 5.41503e-13 1.04799e-12 2.57163e-12 2.60388e-09 2.83828e-09 -9.65413e-10 5.6576e-17 8.88745e-16 1.90248e-15 1 -2.33668e-05 6.6238e-05 1.0201e-05 0.00178441 -0.00779845 0.0169567 0.0008
790 1 0.00717721 -0.000572756 0.0166934 0.0008 3.43146e-06 2.97756e-13 1.05026e-13 6.58698e-13 7.54626e-10 7.31387e-10 -1.77355e-10 -5.50607e-17 -1.65857e-17 -2.36223e-16 1 -1.22233e-05 1.18939e-06 1.83734e-06 0.00797465 -0.000636392 0.0166934 0.0008
791 1 -0.00607038 2.40773e-05 0.0145168 0.0008 3.43146e-06 1.81531e-12 -7.03817e-15 -1.69643e-12 1.46208e-09 -2.18218e-09 -1.8672e-09 5.22787e-16 -3.60637e-16 -4.79897e-16 0 0 0 0 0 0 0 0
792 1 -0.00662162 0.00282873 0.01765 0.0008 3.43146e-06 2.47108e-13 3.31602e-13 -2.04623e-12 9.87053e-10 2.40405e-09 4.93572e-10 -6.49501e-16 -2.57308e-16 -8.18974e-16 1 0.000745286 -0.000319519 -4.52715e-05 -0.00735682 0.0031428 0.01765 0.0008
793 1 -0.00488714 0.00528778 0.0179003 0.0008 3.43146e-06 -1.03684e-12 1.04443e-12 -1.62495e-12 3.44599e-09 -6.76695e-10 -3.28592e-11 1.84142e-15 4.2695e-16 -5.1484e-16 1 0.000279769 -0.000294105 5.66389e-05 -0.00542991 0.00587504 0.0179003 0.0008
794 1 0.00179313 0.00697353 0.0154329 0.0008 3.43146e-06 2.53186e-13 1.86137e-12 1.18155e-12 -1.44846e-09 2.91141e-10 -2.59565e-10 2.46481e-16 1.46468e-16 -2.37128e-16 1 -0.000147288 -0.000474574 9.0487e-05 0.00199227 0.00774796 0.0154329 0.0008
795 1 -0.00714612 -0.000883542 0.0181921 0.0008 3.43146e-06 1.00582e-12 -5.10689e-14 -3.84403e-13 -6.16338e-10 3.86724e-10 -1.73695e-10 -8.62323e-16 -1.7496e-15 -1.2957e-15 1 0.000795327 0.00022094 7.18677e-05 -0.00793955 -0.000981642 0.0181921 0.0008
796 1 -0.000974517 0.00560167 0.0146974 0.0008 3.43146e-06 1.10891e-13 -1.21188e-12 1.38828e-12 1.9777e-09 -6.97041e-10 3.0883e-10 -1.74111e-16 -7.82026e-16 2.70184e-16 0 0 0 0 0 0 0 0
797 1 -0.00645081 0.00141361 0.0119288 0.0008 3.43146e-06 2.08518e-12 5.41457e-13 1.98667e-12 -1.59232e-09 -1.39119e-09 -4.38718e-09 9.55963e-17 -2.2587e-16 -2.16472e-16 0 0 0 0 0 0 0 0
798 1 0.00229107 0.00161017 0.0143044 0.0008 3.43146e-06 -5.98293e-13 -3.98955e-13 2.36584e-12 6.35772e-10 -1.74485e-09 2.35099e-09 9.32456e-16 -5.46237e-16 1.64173e-15 0 0 0 0 0 0 0 0
799 1 -0.00580691 0.000191011 0.0162902 0.0008 3.43146e-06 -8.97461e-13 6.7216e-14 -2.64302e-12 8.17922e-10 -7.08178e-10 9.99165e-10 -1.32741e-15 -1.44142e-16 -1.22741e-15 0 0 0 0 0 0 0 0
800 1 -0.00217986 0.00544908 0.0117331 0.0008 3.43146e-06 8.30442e-13 -5.95532e-13 -3.02163e-12 -1.74544e-09 4.77265e-10 1.55815e-09 -1.83337e-16 -6.03775e-16 -1.08436e-16 0 0 0 0 0 0 0 0
801 1 -0.00203427 0.0025823 0.0155715 0.0008 3.43146e-06 -1.08377e-12 9.05208e-13 -1.1326e-13 1.36002e-09 2.18276e-09 -8.69911e-10 -7.10798e-16 -3.74057e-16 -8.12338e-16 0 0 0 0 0 0 0 0
802 1 0.00626026 -6.24562e-05 0.0152683 0.0008 3.43146e-06 -2.56159e-13 7.82833e-15 9.72929e-13 -3.84415e-10 -1.24171e-09 -9.05029e-10 2.06792e-16 3.04406e-16 -9.55486e-17 0 0 0 0 0 0 0 0
803 1 0.00291705 0.00400239 0.0151467 0.0008 3.43146e-06 -7.2559e-13 2.11087e-12 1.01947e-12 -6.90369e-09 4.61047e-09 1.20447e-09 -1.07632e-15 2.93635e-17 1.70573e-15 0 0 0 0 0 0 0 0
804 1 -0.0020531 0.000100132 0.0126881 0.0008 3.43146e-06 -4.49189e-13 2.28705e-13 1.40363e-13 2.04335e-09 1.06107e-09 8.75219e-10 -2.34667e-15 -5.47215e-16 2.82891e-15 0 0 0 0 0 0 0 0
805 1 0.00459219 0.0055462 0.0149398 0.0008 3.43146e-06 -4.11486e-13 6.86321e-13 -1.06667e-12 -5.76063e-10 -2.76812e-09 -9.40027e-10 -4.93697e-17 -4.88552e-16 3.10893e-16 1 -0.000631445 -0.000728339 0.000268762 0.00510202 0.00616193 0.0149398 0.0008
806 1 -0.00244008 -0.00677403 0.0153182 0.0008 3.43146e-06 2.07877e-13 9.86219e-13 1.46135e-12 9.79843e-10 -2.26568e-09 2.0621e-10 -6.32574e-17 -9.48732e-16 -5.59676e-16 1 2.32281e-05 7.05306e-05 -6.91415e-07 -0.00271116 -0.00752659 0.0153182 0.0008
807 1 0.00247226 -0.000849996 0.0129829 0.0008 3.43146e-06 -4.65496e-13 2.12675e-13 1.10419e-12 1.11471e-09 -1.51781e-10 -3.6394e-10 3.17018e-16 -1.54662e-15 -1.55649e-15 0 0 0 0 0 0 0 0
808 1 -0.0015708 -0.00148361 0.0132864 0.0008 3.43146e-06 -5.20024e-13 -5.07397e-13 -9.53209e-13 -3.75438e-10 4.2749e-10 -6.03948e-10 1.05947e-16 5.03011e-16 5.06671e-16 0 0 0 0 0 0 0 0
809 1 -0.00145905 0.00529385 0.0169203 0.0008 3.43146e-06 -4.15204e-15 -4.391e-13 6.52858e-13 1.47089e-09 8.77031e-10 9.37772e-10 1.22286e-15 -2.93915e-16 -3.20513e-16 0 0 0 0 0 0 0 0
810 1 0.00425015 -0.000717787 0.0160418 0.0008 3.43146e-06 -4.94906e-13 3.56005e-14 9.30558e-13 3.58049e-10 -1.07302e-09 6.55813e-10 7.747e-16 -4.07853e-17 1.38906e-16 0 0 0 0 0 0 0 0
811 1 0.00213148 -0.00174794 0.0180988 0.0008 3.43146e-06 -1.04474e-12 -5.41031e-13 -3.72503e-13 1.85242e-09 1.21576e-10 1.10968e-10 1.63385e-15 3.25105e-16 5.64076e-16 0 0 0 0 0 0 0 0
812 1 0.00460038 -0.00302804 0.0142851 0.0008 3.43146e-06 -4.10673e-13 -5.13305e-13 -9.32229e-13 2.49195e-10 -1.73364e-09 -1.3487e-09 -7.49896e-16 -6.15851e-16 -3.62324e-16 0 0 0 0 0 0 0 0
813 1 0.000212229 0.00278512 0.0143381 0.0008 3.43146e-06 -7.0469e-14 1.86097e-13 -1.27248e-13 8.79419e-10 -3.37411e-10 1.17905e-10 1.4532e-15 -8.46894e-16 2.82504e-16 0 0 0 0 0 0 0 0
814 1 -0.0029428 0.00153256 0.0128732 0.0008 3.43146e-06 -1.08406e-12 -5.39945e-13 -1.35247e-12 3.17678e-09 1.22767e-09 2.05422e-09 8.38824e-16 7.90648e-17 1.08629e-15 0 0 0 0 0 0 0 0
815 1 -0.0058268 0.00168197 0.0168683 0.0008 3.43146e-06 -1.10298e-12 5.41731e-13 -2.39298e-12 -6.90205e-10 -1.15102e-09 -1.48392e-09 -1.92548e-15 4.62055e-16 -2.5018e-16 0 0 0 0 0 0 0 0
816 1 -0.0041421 -0.00207865 0.0159981 0.0008 3.43146e-06 -1.9469e-12 3.05257e-15 -9.39116e-13 -2.29594e-10 1.515e-10 -6.03394e-10 -3.64647e-16 3.29589e-16 -2.75337e-16 0 0 0 0 0 0 0 0
817 1 0.00718565 -0.000454818 0.0116452 0.0008 3.43146e-06 3.44531e-14 1.35188e-13 -6.61029e-13 -2.35539e-09 -6.71445e-10 -2.17394e-10 4.22199e-17 -2.3674e-16 -7.55532e-17 1 -9.6509e-06 -1.26308e-07 7.94415e-07 0.00798402 -0.000505351 0.0116452 0.0008
818 1 -0.0006427 -0.00128248 0.0168585 0.0008 3.43146e-06 -2.39935e-13 -4.83286e-13 -1.96871e-14 -3.56924e-10 -3.47497e-11 2.19036e-10 -4.40402e-16 2.78943e-15 -3.59287e-15 0 0 0 0 0 0 0 0
819 1 -0.00308386 0.00650642 0.0172928 0.0008 3.43146e-06 1.08229e-12 5.34057e-14 6.5056e-13 -1.87012e-09 2.04582e-09 1.26455e-09 -4.32804e-16 1.61081e-16 1.95806e-15 1 0.000147353 -0.000236498 -4.47719e-05 -0.00342639 0.0072291 0.0172928 0.0008
820 1 -5.49747e-05 -0.00576802 0.0126403 0.0008 3.43146e-06 7.49136e-15 9.81718e-13 5.7453e-13 -1.46759e-10 -1.02255e-09 -2.07059e-09 -3.72746e-17 -1.54051e-16 -6.60847e-16 0 0 0 0 0 0 0 0
821 1 -0.0045325 -0.00346445 0.0140003 0.0008 3.43146e-06 2.16591e-12 -5.88651e-13 1.14336e-13 -1.0957e-09 -9.54225e-10 5.65577e-11 1.65369e-17 1.37767e-16 1.42031e-15 0 0 0 0 0 0 0 0
822 1 0.000601178 0.00073484 0.0110463 0.0008 3.43146e-06 2.70358e-13 -2.70103e-13 4.58782e-13 -2.04042e-10 -2.17678e-10 3.07906e-10 -8.00743e-17 -5.2024e-16 -5.98962e-17 0 0 0 0 0 0 0 0
823 1 -0.00139784 -0.000383304 0.0144387 0.0008 3.43146e-06 -1.66336e-13 -9.25557e-15 -2.30397e-13 3.46002e-10 -1.01496e-10 -2.18036e-10 1.41376e-15 -3.12935e-16 -2.15259e-15 0 0 0 0 0 0 0 0
824 1 0.00381886 0.00610494 0.0110604 0.0008 3.43146e-06 1.39464e-13 7.86989e-13 2.57163e-13 1.43671e-09 2.91244e-09 -3.76251e-10 -5.54587e-16 -1.94218e-16 4.39737e-16 1 -0.00103431 -0.00174154 -0.000107121 0.0042426 0.00678235 0.0110604 0.0008
825 1 0.00533437 -0.00483661 0.0168293 0.0008 3.43146e-06 6.45918e-13 -1.21274e-12 2.01938e-12 -1.14223e-09 4.44541e-09 5.7541e-10 1.38347e-15 2.95578e-18 1.8947e-16 1 -0.000847218 0.000436019 -0.000111264 0.0059266 -0.00537358 0.0168293 0.0008
826 1 0.00504421 0.00426509 0.0157841 0.0008 3.43146e-06 -4.04561e-13 1.46498e-12 -2.03142e-12 7.41053e-10 3.87838e-09 7.00093e-10 7.43203e-16 -1.31747e-16 6.02825e-16 0 0 0 0 0 0 0 0
827 1 0.00545783 0.00131883 0.0151791 0.0008 3.43146e-06 -1.68477e-13 2.07201e-13 -1.52489e-13 -1.64767e-09 1.9555e-09 6.30663e-10 -7.11837e-16 8.83033e-17 -3.51602e-16 0 0 0 0 0 0 0 0
828 1 0.00622996 0.00360978 0.0130043 0.0008 3.43146e-06 1.37351e-12 1.06326e-12 -6.87757e-13 -1.6419e-09 -1.97814e-09 -2.84919e-10 1.35584e-16 1.55756e-16 7.75645e-17 1 -0.000173959 -9.60294e-05 6.44377e-05 0.00692198 0.00401075 0.0130043 0.0008
829 1 -0.00227429 -0.00433415 0.0161875 0.0008 3.43146e-06 7.69899e-13 5.51716e-13 1.37075e-12 1.51101e-09 4.309e-09 -5.07517e-09 4.17035e-16 -1.32731e-15 -7.69585e-16 0 0 0 0 0 0 0 0
830 1 -0.00345873 -0.00327747 0.0169004 0.0008 3.43146e-06 -4.41975e-14 -3.30707e-13 -2.86995e-12 4.84168e-10 -1.48206e-10 -1.68667e-10 -5.73523e-16 1.50337e-16 -3.19753e-16 0 0 0 0 0 0 0 0
831 1 -0.00316237 0.00168873 0.0162705 0.0008 3.43146e-06 -7.96161e-13 5.42078e-13 2.02474e-12 1.68395e-09 3.27356e-09 -1.19106e-09 -2.70472e-15 5.62008e-16 -8.14796e-16 0 0 0 0 0 0 0 0
832 1 -0.00527434 0.00341933 0.0153383 0.0008 3.43146e-06 -1.5116e-12 1.08327e-12 -1.80423e-12 -7.50391e-09 7.05344e-10 -1.93318e-09 1.93355e-16 -1.57311e-15 4.82316e-15 0 0 0 0 0 0 0 0
833 1 0.00107634 -0.00124454 0.0149963 0.0008 3.43146e-06 -4.37919e-13 3.48498e-13 -1.06606e-12 1.32113e-09 2.7473e-10 -3.21354e-10 -3.42928e-16 -4.88342e-16 1.47779e-15 0 0 0 0 0 0 0 0
834 1 0.00295395 0.00504845 0.0119943 0.0008 3.43146e-06 6.43719e-13 3.63676e-13 -1.93023e-12 -1.58318e-09 2.51085e-09 2.65539e-09 6.24484e-16 -1.77016e-15 5.71416e-16 0 0 0 0 0 0 0 0
835 1 -0.00327731 -0.00397765 0.012103 0.0008 3.43146e-06 5.54112e-13 6.43356e-13 2.23264e-13 -1.18295e-09 4.55718e-09 -4.47026e-10 -1.41176e-15 4.18737e-16 -1.006e-15 0 0 0 0 0 0 0 0
836 1 -0.00239289 0.000579675 0.0154119 0.0008 3.43146e-06 -1.0831e-12 2.16938e-13 -9.92529e-13 -3.07674e-10 1.2004e-10 1.81107e-09 1.64142e-16 -1.33709e-15 -4.57137e-15 0 0 0 0 0 0 0 0
837 1 0.00221531 0.00526412 0.0158346 0.0008 3.43146e-06 1.58635e-13 2.06489e-12 -9.42117e-13 9.36976e-10 2.07634e-09 1.91615e-09 -5.86507e-16 1.55646e-15 7.10484e-16 0 0 0 0 0 0 0 0
838 1 -0.00245637 -0.00156941 0.014615 0.0008 3.43146e-06 -8.83747e-13 5.41416e-13 -6.76355e-13 -2.60398e-10 -5.70757e-10 -8.5846e-10 6.19114e-16 1.76146e-16 -1.4736e-15 0 0 0 0 0 0 0 0
839 1 0.00491439 0.00526232 0.0118655 0.0008 3.43146e-06 1.73452e-13 6.36465e-13 1.05175e-13 -2.13027e-09 -2.08827e-09 -3.80751e-10 3.15323e-16 -1.48121e-16 3.8522e-16 1 -0.000159497 -0.000167605 3.94034e-05 0.00546026 0.00584684 0.0118655 0.0008
840 1 -0.00203718 0.00355933 0.0130598 0.0008 3.43146e-06 1.05094e-12 -6.64253e-13 -5.74589e-13 2.0305e-09 -9.10256e-10 2.86325e-09 -2.50965e-16 -9.0999e-16 3.80353e-16 0 0 0 0 0 0 0 0
841 1 -0.00181872 0.00696708 0.0164289 0.0008 3.43146e-06 -9.2741e-14 -1.58103e-13 1.01539e-14 2.26887e-10 -1.09086e-09 -1.52688e-10 1.06154e-15 3.25382e-16 1.72021e-16 1 0.000215261 -0.000835623 -7.03652e-05 -0.00202064 0.00774061 0.0164289 0.0008
842 1 -0.00259396 -0.00340549 0.0149245 0.0008 3.43146e-06 4.36675e-13 -1.08296e-12 1.09962e-12 -4.43548e-09 -8.91763e-10 1.40622e-09 -4.58651e-16 -1.83527e-16 -9.48871e-16 0 0 0 0 0 0 0 0
843 1 0.00711891 0.00107758 0.0145425 0.0008 3.43146e-06 -6.14349e-13 5.39144e-13 -6.30574e-13 1.5266e-09 -5.14481e-10 -8.23529e-10 4.03559e-16 -6.66835e-17 6.59955e-16 1 -1.83837e-06 -6.07375e-08 1.07274e-07 0.0079099 0.00119731 0.0145425 0.0008
844 1 0.00613186 -0.000567699 0.0128482 0.0008 3.43146e-06 -2.16514e-12 2.44304e-13 1.5878e-12 -2.10745e-09 1.60243e-09 -1.00133e-09 -1.07535e-16 1.69905e-16 2.89768e-16 0 0 0 0 0 0 0 0
845 1 0.000787167 0.00139932 0.0148952 0.0008 3.43146e-06 -2.69084e-13 5.10726e-13 6.75307e-13 8.42999e-10 -1.46008e-10 7.24797e-10 3.23979e-16 8.73956e-16 2.94307e-15 0 0 0 0 0 0 0 0
846 1 -0.00497108 0.00328352 0.0114851 0.0008 3.43146e-06 3.61775e-13 2.87649e-13 -4.09822e-12 2.04932e-09 -2.78752e-09 1.62485e-09 4.42471e-17 -4.07719e-16 -4.25114e-16 0 0 0 0 0 0 0 0
847 1 -8.81748e-05 -0.0071995 0.0172265 0.0008 3.43146e-06 4.5538e-13 1.12732e-12 -2.71786e-12 -3.35788e-09 -1.51968e-09 -7.40388e-10 -1.55589e-15 6.09168e-16 2.58417e-16 1 1.47264e-06 1.58807e-05 -3.77414e-06 -9.79715e-05 -0.0079994 0.0172265 0.0008
848 1 -0.00475001 -0.00541177 0.0146674 0.0008 3.43146e-06 -1.25897e-12 2.58795e-13 -6.36411e-13 -1.25406e-09 -1.91297e-10 1.38446e-09 -1.59381e-16 6.367e-16 9.71165e-17 1 0.000784051 0.00091453 0.000243722 -0.00527729 -0.0060125 0.0146674 0.0008
849 1 0.00177124 -0.00570483 0.014393 0.0008 3.43146e-06 4.2931e-13 -2.09018e-12 -4.27587e-12 -1.0329e-09 4.56461e-09 3.50639e-10 -8.29614e-16 2.29034e-17 -7.9469e-16 0 0 0 0 0 0 0 0
850 1 0.000547475 -0.00167307 0.0183077 0.0008 3.43146e-06 -2.12166e-13 -5.40467e-13 -4.93164e-13 -3.32477e-10 -2.31541e-10 -3.60585e-10 1.66603e-15 1.84473e-16 -2.68163e-16 0 0 0 0 0 0 0 0
851 1 0.000108658 0.00244544 0.0158977 0.0008 3.43146e-06 -3.18307e-14 -2.60697e-13 6.57455e-13 -5.41868e-10 5.34982e-10 -2.75291e-10 4.49278e-16 -2.00033e-15 9.33643e-16 0 0 0 0 0 0 0 0
852 1 0.00208214 -0.00439239 0.017197 0.0008 3.43146e-06 4.47811e-13 2.0679e-12 9.95617e-13 -1.80229e-09 2.75893e-10 -1.28099e-09 2.22721e-16 -1.81541e-15 -8.32061e-16 0 0 0 0 0 0 0 0
853 1 -0.000375121 -0.00658573 0.0145352 0.0008 3.43146e-06 1.34023e-13 -1.35792e-13 1.19966e-13 -5.80304e-10 -4.22832e-11 -1.09067e-09 3.8305e-17 -1.39532e-15 -1.87721e-15 0 0 0 0 0 0 0 0
854 1 -0.00259481 0.00297852 0.0170279 0.0008 3.43146e-06 4.13041e-13 -3.79317e-13 2.48344e-12 5.67333e-10 8.6814e-12 1.10154e-09 -1.75239e-15 -1.69198e-15 1.66669e-15 0 0 0 0 0 0 0 0
855 1 0.00451274 0.00210935 0.0141341 0.0008 3.43146e-06 3.06726e-13 -2.84697e-13 2.28944e-12 1.1773e-09 2.65352e-09 -3.15762e-09 -1.57998e-16 -1.93623e-15 -2.71186e-16 0 0 0 0 0 0 0 0
856 1 0.00101245 0.0052343 0.0168885 0.0008 3.43146e-06 2.2922e-13 -9.50522e-13 -1.21079e-12 6.32245e-09 -2.15237e-09 -3.23934e-09 -5.46739e-16 1.46698e-15 1.47895e-16 0 0 0 0 0 0 0 0
857 1 0.00319871 0.00299924 0.0139333 0.0008 3.43146e-06 1.68996e-13 2.73195e-13 3.67003e-12 2.17686e-09 -2.81296e-09 3.01172e-09 -1.93476e-15 -8.34959e-16 7.381e-16 0 0 0 0 0 0 0 0
858 1 -0.0061786 -0.000924035 0.012546 0.0008 3.43146e-06 7.0175e-13 2.20192e-13 6.77444e-14 -9.86766e-10 -6.95302e-09 7.09587e-10 -1.34529e-15 -8.25453e-16 -2.03888e-15 0 0 0 0 0 0 0 0
859 1 0.00288005 0.000103447 0.0159611 0.0008 3.43146e-06 -3.32263e-13 1.52517e-14 2.25401e-13 -1.77489e-09 8.59639e-10 -8.08826e-10 -5.489e-16 1.03939e-16 -2.6478e-16 0 0 0 0 0 0 0 0
860 1 -0.00190687 -0.0042065 0.0137228 0.0008 3.43146e-06 2.10428e-13 -2.16787e-12 2.79168e-12 7.1484e-11 2.86088e-09 1.86356e-09 3.68366e-16 8.42481e-16 -1.88467e-15 0 0 0 0 0 0 0 0
861 1 0.00419782 0.00584989 0.0164598 0.0008 3.43146e-06 -3.22207e-14 1.03923e-12 9.45247e-13 1.05255e-09 3.52564e-09 -8.02826e-10 1.15464e-16 -2.70603e-16 3.74867e-17 1 -0.00012009 -0.000152855 4.819e-05 0.00466411 0.0064997 0.0164598 0.0008
862 1 -0.00587249 0.00156778 0.0148857 0.0008 3.43146e-06 1.94997e-12 1.97135e-13 -9.05642e-13 -1.18134e-09 -2.50623e-09 6.88511e-10 -1.40205e-15 4.18916e-16 3.94281e-16 0 0 0 0 0 0 0 0
863 1 0.000201088 0.00719735 0.0138959 0.0008 3.43146e-06 -6.17178e-14 -2.16649e-12 2.23129e-12 -2.88855e-09 -3.42629e-09 1.01763e-11 1.38739e-16 -6.35649e-16 1.07501e-15 1 -9.44627e-06 -0.000130058 6.10198e-06 0.000223426 0.00799688 0.0138959 0.0008
864 1 -0.0059407 0.00406866 0.0125176 0.0008 3.43146e-06 -4.09566e-13 1.14444e-12 1.21744e-12 4.09747e-10 -2.11077e-09 8.99411e-10 -1.06491e-16 -4.89225e-16 -2.11639e-16 1 0.000492857 -0.000260092 8.92503e-05 -0.0066004 0.00452048 0.0125176 0.0008
865 1 -0.00719439 0.000287842 0.0127887 0.0008 3.43146e-06 -1.12367e-12 6.49428e-14 -3.92616e-13 5.57863e-09 2.68479e-10 -2.08224e-12 -1.26319e-15 -1.89379e-16 1.03509e-15 1 0.000112927 -2.06874e-05 7.08384e-06 -0.0079936 0.000319818 0.0127887 0.0008
866 1 0.00704937 -0.00146652 0.0153726 0.0008 3.43146e-06 8.91397e-14 -1.53293e-13 -4.60666e-13 -2.17817e-10 -5.45599e-10 1.65616e-10 9.45875e-17 1.51511e-16 2.63767e-16 1 -0.000326968 0.000103502 2.06438e-05 0.00783231 -0.00162939 0.0153726 0.0008
867 1 0.00239174 0.00334749 0.0165084 0.0008 3.43146e-06 1.06591e-12 3.85978e-13 4.58275e-12 7.53427e-09 -4.69982e-10 -1.15727e-09 -5.6342e-16 5.78584e-16 2.65181e-15 0 0 0 0 0 0 0 0
868 1 -0.00192992 -0.00120801 0.0117528 0.0008 3.43146e-06 1.58082e-13 -3.38689e-13 8.0591e-14 5.6267e-10 -7.79956e-10 -5.98649e-10 1.08553e-16 8.70661e-16 6.0061e-16 0 0 0 0 0 0 0 0
869 1 0.000857427 -0.00403944 0.0162308 0.0008 3.43146e-06 2.58768e-13 1.60437e-12 -7.93025e-14 -4.59465e-10 -7.00815e-10 5.13692e-10 -1.12579e-16 -9.54399e-16 -1.65525e-15 0 0 0 0 0 0 0 0
870 1 0.00687835 -0.00212891 0.013916 0.0008 3.43146e-06 -8.12628e-13 7.77102e-13 4.47524e-13 -5.59314e-10 7.63567e-10 -6.24153e-10 -1.55492e-17 -1.02457e-16 -1.88614e-16 1 -0.000302457 6.07119e-05 3.66732e-05 0.00764232 -0.00236536 0.013916 0.0008
871 1 0.000196565 -0.00220409 0.0140672 0.0008 3.43146e-06 6.73975e-14 5.33019e-13 -4.86921e-13 -1.11442e-09 3.13149e-10 1.14548e-09 1.88617e-16 -1.38844e-15 -8.16576e-17 0 0 0 0 0 0 0 0
872 1 0.00557603 -0.00455527 0.0147106 0.0008 3.43146e-06 -1.12078e-12 -8.78698e-13 -2.06073e-12 -9.88848e-10 -2.52481e-09 1.74039e-09 -1.13239e-16 -3.64939e-16 2.13365e-16 1 -0.000120888 0.000110435 3.93596e-05 0.00619544 -0.00506128 0.0147106 0.0008
873 1 0.0061441 -0.00375385 0.0159729 0.0008 3.43146e-06 -1.29677e-12 8.16256e-15 2.75657e-12 4.0675e-09 1.53138e-09 8.35791e-10 1.4968e-16 1.73745e-16 -1.66519e-16 1 -5.07505e-05 2.56558e-05 -9.98236e-07 0.00682669 -0.00417089 0.0159729 0.0008
874 1 0.00574785 0.000711934 0.013728 0.0008 3.43146e-06 -1.32519e-12 3.28017e-14 4.65172e-13 6.29344e-10 3.02234e-10 1.3612e-09 -5.0856e-16 4.44168e-16 1.01219e-16 0 0 0 0 0 0 0 0
875 1 0.00480129 -0.000209713 0.0146292 0.0008 3.43146e-06 1.93524e-13 2.02744e-14 3.50792e-13 -1.06576e-09 1.55077e-10 2.6597e-10 -2.01088e-17 -1.96403e-16 5.15613e-17 0 0 0 0 0 0 0 0
876 1 0.00162133 0.00271624 0.0152543 0.0008 3.43146e-06 -5.42026e-13 4.62531e-13 1.00113e-12 -2.49521e-10 1.66527e-10 -4.68589e-10 -3.23943e-16 -6.86617e-16 1.435e-15 0 0 0 0 0 0 0 0
877 1 -0.0065734 0.00293877 0.0144528 0.0008 3.43146e-06 2.15522e-13 5.64855e-13 -2.18412e-12 -4.46128e-10 3.18151e-09 7.56715e-10 -1.79196e-15 -4.67761e-17 3.24304e-16 1 0.000538383 -0.000172068 -8.05154e-06 -0.00730336 0.00326511 0.0144528 0.0008
878 1 -0.0068295 -0.00228138 0.012006 0.0008 3.43146e-06 2.11689e-12 -1.36108e-13 -8.76307e-13 -5.08102e-10 9.81615e-10 -9.92724e-10 -1.45678e-15 1.60889e-16 -1.71512e-15 1 0.000657578 0.000214804 3.94549e-05 -0.00758784 -0.0025347 0.012006 0.0008
879 1 -0.00334778 -0.000313092 0.0182563 0.0008 3.43146e-06 1.93901e-14 -1.35191e-13 7.96751e-14 2.57814e-10 5.07866e-10 -4.61499e-10 1.07964e-17 7.40533e-16 -2.0917e-16 0 0 0 0 0 0 0 0
880 1 0.00421507 -0.00127117 0.0182992 0.0008 3.43146e-06 -3.58673e-13 4.89944e-13 7.48667e-13 -1.40655e-09 1.65749e-09 1.55057e-10 3.29905e-16 -1.95665e-17 -3.06103e-16 0 0 0 0 0 0 0 0
881 1 0.00109793 0.000699354 0.0134495 0.0008 3.43146e-06 5.41896e-13 -2.70857e-13 -1.45555e-12 -1.7503e-09 -7.33703e-11 3.49632e-10 -3.54757e-16 -4.02124e-17 3.92682e-16 0 0 0 0 0 0 0 0
882 1 -0.00379393 -0.00611998 0.0114804 0.0008 3.43146e-06 -2.91245e-13 -1.41888e-12 -1.4519e-13 -8.34669e-10 -1.00443e-09 -6.18905e-10 7.57492e-16 -3.46494e-17 2.17912e-16 1 0.000451898 0.000762828 9.73013e-05 -0.00421516 -0.00679945 0.0114804 0.0008
883 1 -0.00705859 0.00142054 0.0182707 0.0008 3.43146e-06 1.20287e-12 -1.37168e-13 -2.04745e-13 -2.06799e-09 5.45734e-10 -4.00601e-11 -1.14164e-15 6.74114e-16 -9.13879e-17 1 7.47059e-05 -1.26828e-05 -8.96961e-07 -0.00784275 0.00157835 0.0182707 0.0008
884 1 -0.000242332 0.00492233 0.0159468 0.0008 3.43146e-06 -6.67605e-14 1.54032e-12 -2.21174e-12 -2.03159e-09 1.93231e-09 2.37414e-09 2.78789e-16 2.04974e-15 2.99094e-16 0 0 0 0 0 0 0 0
885 1 0.00228565 0.00431348 0.0132621 0.0008 3.43146e-06 -6.32669e-13 -2.16666e-12 -1.72617e-12 -1.72603e-09 6.11205e-10 1.16137e-09 -1.3529e-15 -1.11001e-15 8.7128e-16 0 0 0 0 0 0 0 0
886 1 -0.00578316 0.00428906 0.016581 0.0008 3.43146e-06 2.16743e-12 2.16792e-12 -4.54026e-12 2.65796e-09 5.10756e-09 3.77891e-09 -5.4662e-16 2.36578e-17 1.41751e-15 1 2.80874e-05 -2.29858e-05 -9.06755e-06 -0.00642567 0.00476558 0.016581 0.0008
887 1 -0.00418399 -0.00586015 0.0173084 0.0008 3.43146e-06 1.41024e-13 1.15987e-13 -3.95777e-13 -1.07532e-09 -6.25064e-10 -3.31862e-11 8.55722e-16 -2.64426e-16 1.4647e-16 1 0.000427123 0.000599434 1.13094e-05 -0.00464856 -0.00651083 0.0173084 0.0008
888 1 -0.00135856 0.00257371 0.0141213 0.0008 3.43146e-06 -5.40751e-13 7.78672e-13 -1.96009e-12 -6.35324e-10 -1.85825e-09 -9.68593e-10 -1.25019e-15 -5.09195e-16 -7.83405e-16 0 0 0 0 0 0 0 0
889 1 -0.00651586 -0.00306394 0.0159771 0.0008 3.43146e-06 -1.44731e-12 6.28554e-13 -4.20509e-13 1.77437e-09 1.41479e-09 1.48165e-09 5.31823e-17 1.82125e-16 2.93935e-16 1 0.00027435 0.000177247 8.34383e-05 -0.00723955 -0.00340424 0.0159771 0.0008
890 1 0.00116117 -0.00393411 0.0117756 0.0008 3.43146e-06 2.65715e-13 1.36195e-12 8.41567e-13 -1.71e-09 -4.97119e-10 6.12133e-10 -4.19724e-16 4.93434e-16 -1.26162e-15 0 0 0 0 0 0 0 0
891 1 -0.000388484 -0.00362247 0.0133426 0.0008 3.43146e-06 1.27105e-13 -3.75711e-13 6.82634e-13 -1.61161e-09 1.47582e-09 1.66495e-09 -1.46514e-16 -5.53587e-16 -1.82676e-15 0 0 0 0 0 0 0 0
892 1 -0.000113217 -0.00278405 0.0172808 0.0008 3.43146e-06 -3.40213e-14 -1.00431e-12 3.1456e-13 -5.59935e-10 1.89634e-10 -2.02679e-09 7.09018e-18 -1.10589e-15 -1.05811e-15 0 0 0 0 0 0 0 0
893 1 -0.00255475 -0.00226953 0.0160494 0.0008 3.43146e-06 -1.08346e-12 -8.54069e-14 -1.40517e-12 1.36091e-09 3.53545e-10 6.7763e-10 1.90125e-16 -4.2925e-16 -1.15559e-15 0 0 0 0 0 0 0 0
894 1 0.00166825 0.00574803 0.0144121 0.0008 3.43146e-06 -5.24568e-13 6.80715e-14 2.82763e-12 -1.62903e-09 1.99721e-10 -5.45966e-10 -2.23655e-16 -4.71945e-16 1.08888e-15 0 0 0 0 0 0 0 0
895 1 0.005332 0.00270282 0.0159709 0.0008 3.43146e-06 -4.50255e-13 9.45116e-13 -2.0455e-12 -7.61289e-10 -3.2609e-09 -9.41261e-10 3.72525e-16 -6.14365e-16 2.90884e-16 0 0 0 0 0 0 0 0
896 1 0.00115637 -0.00151983 0.016837 0.0008 3.43146e-06 -8.44404e-14 -5.414e-13 -1.59411e-12 6.61905e-10 7.35684e-10 -7.95294e-10 1.99964e-15 -5.78989e-16 1.90851e-15 0 0 0 0 0 0 0 0
897 1 0.004143 0.00174527 0.016513 0.0008 3.43146e-06 -1.36782e-12 -1.3366e-13 1.67294e-13 -2.51402e-09 3.32976e-11 1.07145e-09 2.0827e-16 7.52994e-16 -7.06569e-16 0 0 0 0 0 0 0 0
898 1 -0.00174815 -0.00698457 0.0173184 0.0008 3.43146e-06 5.42283e-13 -1.74026e-12 3.05806e-12 3.26081e-09 -2.26568e-09 -1.28741e-09 3.40596e-16 -4.62979e-16 -1.31199e-15 1 5.62593e-07 5.47413e-06 3.76775e-07 -0.00194238 -0.00776062 0.0173184 0.0008
899 1 -0.0065632 -0.0029629 0.0141055 0.0008 3.43146e-06 2.15862e-12 -3.58651e-14 -1.68099e-12 -3.18452e-09 8.62625e-10 -1.15192e-09 -1.6045e-15 -1.79344e-15 -1.28316e-16 1 0.00193325 0.000870718 0.000263775 -0.00729144 -0.00329165 0.0141055 0.0008
900 1 -0.00533165 -0.00254357 0.0150352 0.0008 3.43146e-06 -3.99899e-14 3.87437e-13 -2.07913e-12 -4.27308e-10 -3.15777e-09 -1.16834e-10 -1.46647e-16 -3.69251e-16 8.08882e-16 0 0 0 0 0 0 0 0
901 1 -0.00611805 -0.00379684 0.0107937 0.0008 3.43146e-06 -9.81012e-13 8.56574e-13 2.758e-13 2.27466e-09 1.01228e-09 1.55504e-09 4.16021e-16 -3.87629e-16 -3.34459e-16 1 0.000530035 0.000376237 5.22991e-05 -0.00679741 -0.00421844 0.0107937 0.0008
902 1 0.00332758 0.000263894 0.0121065 0.0008 3.43146e-06 -2.1379e-13 -3.84553e-15 1.48047e-12 1.11477e-09 1.78637e-09 -5.08989e-10 -3.38712e-16 -7.98815e-16 -2.01842e-15 0 0 0 0 0 0 0 0
903 1 -0.00102185 0.00314518 0.0167877 0.0008 3.43146e-06 4.18415e-13 4.10771e-13 1.74557e-12 3.53477e-10 9.73269e-10 -2.8421e-10 -9.0267e-16 -3.92316e-15 4.27242e-15 0 0 0 0 0 0 0 0
904 1 -0.00445763 0.00565499 0.0123099 0.0008 3.43146e-06 7.78154e-13 -1.82621e-12 3.5691e-13 -3.23855e-09 3.40279e-09 -6.52122e-10 1.19522e-16 -2.62386e-16 5.84071e-16 1 0.00057702 -0.000971979 0.000207282 -0.00495248 0.00628275 0.0123099 0.0008
905 1 -0.00465579 -0.00315782 0.012391 0.0008 3.43146e-06 2.16832e-12 1.08361e-12 5.88382e-13 -4.97519e-09 7.93059e-09 7.25274e-09 -2.55121e-17 -8.21765e-17 7.79413e-16 0 0 0 0 0 0 0 0
906 1 0.00684959 0.0022188 0.0170669 0.0008 3.43146e-06 -4.03188e-13 1.06398e-12 -3.54755e-13 -1.13907e-09 -7.76752e-10 9.44037e-10 -2.47304e-18 3.84348e-16 -2.22226e-16 0 0 0 0 0 0 0 0
907 1 -0.00675094 -0.002503 0.0178725 0.0008 3.43146e-06 1.36923e-12 9.81387e-13 -4.11079e-13 1.85652e-11 5.77832e-10 5.56023e-10 -1.0715e-15 -1.89832e-16 1.42723e-16 1 4.55596e-06 1.08586e-06 -8.06189e-08 -0.00750103 -0.00278111 0.0178725 0.0008
908 1 0.0031837 0.00241663 0.0154231 0.0008 3.43146e-06 -1.08411e-12 -1.08418e-12 3.32116e-13 9.00569e-10 5.01841e-10 -1.51733e-09 4.64019e-16 -2.17504e-16 1.08496e-15 0 0 0 0 0 0 0 0
909 1 -0.00367939 0.00618953 0.0150093 0.0008 3.43146e-06 -6.98095e-13 -9.5162e-13 1.50097e-12 -4.43935e-09 3.80898e-09 -1.34953e-09 -4.18073e-17 -1.51726e-16 5.86749e-16 1 0.000587337 -0.000703296 0.000123028 -0.00408789 0.00687671 0.0150093 0.0008
910 1 -0.00660093 0.00287536 0.016051 0.0008 3.43146e-06 4.91805e-13 8.58516e-13 2.33787e-12 -1.881e-10 -2.83394e-09 1.21235e-09 -1.53049e-15 4.20479e-16 -1.09929e-15 1 9.039e-08 -3.89482e-08 -3.94822e-10 -0.00733437 0.00319484 0.016051 0.0008
911 1 0.00680878 0.00234176 0.0154726 0.0008 3.43146e-06 -1.05381e-13 3.30621e-14 2.96558e-13 -6.24116e-11 3.66855e-10 -8.5622e-11 -2.96639e-16 -1.02449e-15 -2.68212e-16 1 -0.000229619 -7.63492e-05 3.7742e-06 0.00756507 0.00260188 0.0154726 0.0008
912 1 0.00541772 0.00182102 0.0111327 0.0008 3.43146e-06 -7.12309e-13 3.98261e-13 -7.88144e-13 2.8702e-10 3.52766e-09 -5.3152e-10 -2.47855e-16 -7.22421e-16 2.22558e-16 0 0 0 0 0 0 0 0
913 1 0.00277648 -0.00127085 0.0211266 0.0008 3.43146e-06 -2.50404e-13 -5.42074e-13 -1.68302e-12 7.64775e-10 2.53331e-09 -7.84562e-10 -3.93249e-15 -2.49438e-16 -3.22096e-15 0 0 0 0 0 0 0 0
914 1 -0.00193925 0.00382788 0.0207359 0.0008 3.43146e-06 -4.29377e-13 -9.71246e-13 -6.95626e-15 2.86519e-10 1.93967e-10 9.69536e-10 5.48722e-16 1.91601e-16 1.74626e-16 0 0 0 0 0 0 0 0
915 1 0.000250578 0.00115317 0.0168295 0.0008 3.43146e-06 1.34714e-13 -5.41721e-13 1.08673e-13 1.27272e-09 1.95271e-10 2.19727e-11 2.74356e-16 -3.41167e-16 -7.92969e-16 0 0 0 0 0 0 0 0
916 1 -0.00571526 0.00116784 0.019102 0.0008 3.43146e-06 2.0936e-12 6.49094e-14 -1.91416e-12 2.03704e-10 2.26236e-09 -8.43567e-10 -1.81496e-15 -3.82869e-16 7.41031e-16 0 0 0 0 0 0 0 0
917 1 0.00712941 -0.00101257 0.0182309 0.0008 3.43146e-06 -2.45882e-13 4.23482e-13 -1.07489e-12 -5.19933e-10 -1.28767e-09 -4.82681e-10 -3.57144e-16 -6.74606e-17 4.16751e-16 1 -0.00198115 0.000208935 4.5421e-05 0.00792051 -0.00112493 0.0182309 0.0008
918 1 0.00518509 0.0025373 0.0191386 0.0008 3.43146e-06 -8.21035e-13 1.11565e-13 1.57126e-12 5.4937e-10 -1.86518e-09 -3.04705e-09 1.87411e-17 7.15411e-16 2.52527e-16 0 0 0 0 0 0 0 0
919 1 -0.00428039 0.00578996 0.016508 0.0008 3.43146e-06 1.58975e-13 1.94778e-12 2.51614e-12 -1.55643e-09 -3.17737e-09 1.6066e-09 -5.49787e-16 -4.51899e-16 -1.35957e-16 1 0.000217043 -0.000446122 6.52833e-05 -0.00475574 0.00643295 0.016508 0.0008
920 1 0.0033365 -0.00638042 0.0147004 0.0008 3.43146e-06 4.71682e-13 -1.58928e-12 3.02113e-13 1.4025e-09 -1.81067e-09 4.42946e-10 -1.31175e-16 3.64034e-16 -6.7373e-16 1 -6.06627e-05 9.61411e-05 1.16837e-05 0.00370715 -0.00708922 0.0147004 0.0008
921 1 -0.00470444 -0.00318572 0.0207039 0.0008 3.43146e-06 2.68557e-13 -1.0827e-12 2.60256e-12 1.46862e-10 1.06895e-09 -1.41755e-10 1.30804e-15 -7.04943e-16 4.24155e-16 0 0 0 0 0 0 0 0
922 1 0.00429843 0.00383228 0.0179004 0.0008 3.43146e-06 1.79438e-12 7.34339e-13 -1.51832e-13 -1.24076e-09 4.57827e-09 -2.17802e-09 5.49789e-16 1.49733e-15 3.38571e-16 0 0 0 0 0 0 0 0
923 1 0.00509324 -0.0029389 0.0184687 0.0008 3.43146e-06 -1.40539e-12 8.87269e-13 -2.41121e-12 6.48275e-10 -3.11457e-09 -1.67721e-09 -1.04988e-15 -7.84183e-16 5.84768e-16 0 0 0 0 0 0 0 0
924 1 -0.00608316 -0.00385254 0.0173317 0.0008 3.43146e-06 1.20053e-12 6.22377e-13 -1.33139e-12 -1.31494e-10 1.88636e-09 -1.48086e-10 -4.79595e-16 -1.6661e-16 1.50287e-16 1 0.000578308 0.000397466 -8.05327e-06 -0.00675861 -0.00428032 0.0173317 0.0008
925 1 0.000603223 0.00291937 0.0193522 0.0008 3.43146e-06 2.46026e-13 -1.08423e-12 -9.3432e-13 1.4731e-10 1.49966e-09 -1.23719e-09 -1.53198e-15 4.61259e-16 3.44354e-16 0 0 0 0 0 0 0 0
926 1 0.00428246 -0.00375341 0.0173564 0.0008 3.43146e-06 1.00093e-12 8.50496e-13 2.03166e-12 -5.59197e-09 1.76367e-09 3.82852e-10 1.15391e-15 -2.01918e-15 -3.78765e-16 0 0 0 0 0 0 0 0
927 1 0.00283252 -0.000210573 0.0186097 0.0008 3.43146e-06 2.64439e-13 -6.516e-14 1.02511e-12 -3.55871e-10 1.83587e-09 -1.17014e-10 -2.67505e-16 2.4938e-16 -5.48369e-16 0 0 0 0 0 0 0 0
928 1 -0.00369799 0.00441455 0.0211645 0.0008 3.43146e-06 -1.08401e-12 -9.57995e-13 1.27794e-12 -1.80307e-09 -7.64034e-11 -2.10807e-09 7.43452e-16 1.84965e-15 -9.2717e-17 0 0 0 0 0 0 0 0
929 1 -0.000339172 -0.00442522 0.0195622 0.0008 3.43146e-06 -4.58777e-15 4.89447e-13 -2.13347e-12 1.79089e-09 -9.69225e-10 -1.51038e-09 5.78534e-16 1.19348e-16 -1.49393e-16 0 0 0 0 0 0 0 0
930 1 0.00672486 -0.00257312 0.0185875 0.0008 3.43146e-06 -7.66743e-13 5.68689e-13 -1.28191e-12 7.78982e-10 -2.01386e-09 -3.07071e-10 -1.96267e-17 -3.45873e-16 9.02811e-16 1 -0.000341909 0.000201189 -9.33279e-05 0.00747173 -0.00285889 0.0185875 0.0008
931 1 -0.00423385 0.00200896 0.0195553 0.0008 3.43146e-06 -1.98047e-12 -1.04899e-12 1.24786e-12 2.51172e-09 -2.07032e-09 -3.65509e-10 1.16954e-15 6.23298e-17 2.32646e-15 0 0 0 0 0 0 0 0
932 1 -8.31508e-05 0.00245467 0.0179838 0.0008 3.43146e-06 -1.0328e-13 -7.96177e-13 1.96726e-12 -1.17263e-09 3.65506e-10 4.0079e-10 -1.6614e-15 -7.38996e-16 -2.26936e-15 0 0 0 0 0 0 0 0
933 1 0.00605568 0.00389487 0.0194383 0.0008 3.43146e-06 4.94126e-13 -1.03141e-12 1.81945e-12 -3.27614e-09 5.84187e-10 1.3946e-09 -4.02328e-16 2.90304e-16 5.77291e-16 1 -4.98227e-05 -2.96185e-05 -4.08379e-06 0.00672845 0.00432758 0.0194383 0.0008
934 1 -0.00162757 0.00149449 0.0166778 0.0008 3.43146e-06 1.82194e-13 -5.41869e-13 -2.92084e-13 4.69914e-10 -3.66614e-10 4.16464e-10 -2.09742e-15 -1.37471e-16 -8.06721e-16 0 0 0 0 0 0 0 0
935 1 0.00330712 -0.00472578 0.0181706 0.0008 3.43146e-06 2.57061e-13 -7.86911e-14 2.90128e-12 4.52857e-09 -2.63865e-09 5.20128e-10 5.05777e-16 -3.00301e-15 1.55211e-15 0 0 0 0 0 0 0 0
936 1 -0.0030079 0.00492379 0.017073 0.0008 3.43146e-06 1.08371e-12 -3.19343e-13 4.93284e-13 1.90414e-09 -1.67823e-10 -1.06409e-09 7.76739e-16 -1.06215e-15 2.03211e-15 0 0 0 0 0 0 0 0
937 1 0.00487826 -0.00529608 0.019961 0.0008 3.43146e-06 -2.04357e-12 -5.36015e-14 -4.6679e-12 -5.65961e-09 -2.45966e-09 1.91792e-09 -3.88492e-16 -1.78168e-16 3.14112e-17 1 -0.000310738 0.000467231 -7.51638e-05 0.00541999 -0.0058842 0.019961 0.0008
938 1 0.000995557 -0.000954035 0.0206148 0.0008 3.43146e-06 -5.42099e-13 2.71347e-13 -8.72517e-13 1.22571e-09 -4.97908e-10 7.59299e-11 -7.27114e-16 4.49091e-16 2.60218e-16 0 0 0 0 0 0 0 0
939 1 0.000592155 0.00717588 0.0183402 0.0008 3.43146e-06 -9.44862e-16 -2.1627e-12 2.5661e-13 -1.82474e-10 1.51369e-09 2.06447e-10 -1.03184e-16 1.55877e-16 -1.0676e-17 1 -2.42052e-05 -0.000290561 7.78307e-05 0.000657926 0.0079729 0.0183402 0.0008
940 1 0.00115551 0.0061735 0.0199108 0.0008 3.43146e-06 -1.24825e-13 -1.18045e-12 1.21839e-12 4.37888e-09 -1.22281e-09 -2.78757e-11 -1.49604e-15 7.93394e-16 8.75364e-16 0 0 0 0 0 0 0 0
941 1 -0.00590789 0.00411538 0.0182772 0.0008 3.43146e-06 7.13851e-13 -9.18961e-14 -2.93648e-12 1.2182e-09 3.6772e-09 1.34288e-09 1.61801e-15 -2.38271e-15 7.33783e-16 0 0 0 0 0 0 0 0
942 1 0.00383959 0.00428478 0.0193646 0.0008 3.43146e-06 -4.32789e-14 9.65162e-13 2.10747e-12 1.90588e-09 -5.99457e-09 2.33419e-09 5.48723e-16 8.8257e-17 8.11466e-17 0 0 0 0 0 0 0 0
943 1 -0.00524264 0.00493534 0.021235 0.0008 3.43146e-06 -1.26208e-12 2.91314e-13 1.80113e-12 -4.14109e-09 7.16976e-10 -8.01743e-10 1.45281e-15 4.18318e-16 2.55747e-15 1 0.000141462 -0.000118704 1.549e-05 -0.005825 0.00548356 0.021235 0.0008
944 1 0.00273518 0.00378867 0.0182367 0.0008 3.43146e-06 8.49272e-13 8.33e-13 2.08813e-12 1.51682e-10 -2.12233e-09 2.24169e-09 -3.94425e-17 9.24316e-16 2.09903e-16 0 0 0 0 0 0 0 0
945 1 0.00100687 -0.0071297 0.0184359 0.0008 3.43146e-06 5.41929e-13 -8.29642e-13 1.49364e-13 7.30878e-10 -3.7928e-09 -5.47914e-10 -2.44195e-16 -6.24279e-16 2.74228e-16 1 -5.66714e-06 0.000639806 5.47815e-06 0.00111868 -0.0079214 0.0184359 0.0008
946 1 0.0058028 -0.000284838 0.0187485 0.0008 3.43146e-06 9.67528e-13 1.35609e-13 -1.73134e-12 3.95676e-10 1.02087e-09 3.64364e-11 -9.40681e-16 3.02614e-17 8.64078e-16 0 0 0 0 0 0 0 0
947 1 0.00703858 -0.00151606 0.0197468 0.0008 3.43146e-06 -1.53113e-12 5.41832e-13 -4.51564e-14 -2.65947e-11 -7.19711e-11 -2.62726e-10 5.20055e-16 -4.0028e-17 7.26768e-16 1 -1.07346e-06 2.96806e-07 -1.78219e-07 0.00782064 -0.00168451 0.0197468 0.0008
948 1 -0.00719384 0.00030939 0.0171279 0.0008 3.43146e-06 1.23982e-12 -1.35447e-13 4.30334e-13 1.31857e-09 -5.84377e-10 -4.044e-11 -2.37731e-16 3.22084e-16 1.32245e-16 1 0.000722096 -3.25494e-06 0.000157907 -0.00799261 0.000343744 0.0171279 0.0008
949 1 0.000970968 -0.00713465 0.0200352 0.0008 3.43146e-06 -2.70999e-13 -2.19384e-13 -9.36599e-13 -1.52758e-09 2.74277e-09 4.26707e-10 -4.01251e-16 4.3788e-16 -7.86834e-16 1 -7.85601e-07 0.000571248 7.2385e-05 0.00107879 -0.00792693 0.0200352 0.0008
950 1 0.00118653 -0.000206696 0.0190548 0.0008 3.43146e-06 -3.60739e-14 5.94493e-14 -9.80626e-13 -4.26197e-10 -1.98638e-11 -2.9971e-10 -6.37255e-16 -1.98359e-16 -6.50721e-16 0 0 0 0 0 0 0 0
951 1 -0.00466202 0.00202475 0.0158265 0.0008 3.43146e-06 -1.55413e-12 1.07858e-12 2.70569e-12 2.69106e-09 -3.13655e-09 1.98829e-09 -1.55562e-15 1.67595e-15 1.36566e-15 0 0 0 0 0 0 0 0
952 1 -0.00216735 -0.00250671 0.0197136 0.0008 3.43146e-06 -7.8664e-13 5.57558e-13 -1.30217e-12 1.24573e-09 -1.6073e-09 -8.46489e-10 2.17141e-15 -1.29066e-15 -1.31096e-15 0 0 0 0 0 0 0 0
953 1 -0.00626859 -0.000340994 0.019414 0.0008 3.43146e-06 1.1459e-12 -1.36381e-13 -1.62513e-12 -4.54754e-11 4.80946e-10 -1.81413e-10 7.93038e-16 -1.04631e-16 -2.50734e-15 0 0 0 0 0 0 0 0
954 1 -0.000638003 0.000956292 0.0181446 0.0008 3.43146e-06 -1.98396e-13 -2.70952e-13 -7.12683e-13 -9.70462e-10 -1.00516e-09 -9.19637e-10 -1.47224e-15 -3.1166e-17 -1.72161e-15 0 0 0 0 0 0 0 0
955 1 0.00497899 -0.00278535 0.0204881 0.0008 3.43146e-06 -2.82195e-13 9.51344e-13 -3.13182e-12 -1.4849e-09 -1.02897e-08 9.02922e-09 -1.54344e-15 9.6003e-16 1.86462e-15 0 0 0 0 0 0 0 0
956 1 0.00154456 -0.0057151 0.0179178 0.0008 3.43146e-06 5.41279e-13 7.84782e-13 2.21085e-12 4.7588e-10 -1.68612e-09 2.97083e-09 -1.93688e-16 -6.1029e-16 -2.37065e-15 0 0 0 0 0 0 0 0
957 1 -0.000177176 -0.00158884 0.0197308 0.0008 3.43146e-06 2.79221e-14 -1.28637e-13 -1.29246e-12 -6.52491e-10 9.61941e-11 1.05671e-09 1.20349e-15 -2.36534e-16 1.03929e-15 0 0 0 0 0 0 0 0
958 1 0.00189948 -0.00611825 0.0208496 0.0008 3.43146e-06 -5.21937e-13 -7.7804e-13 -5.87059e-12 3.27638e-10 3.10613e-09 1.42194e-09 6.15638e-16 1.43828e-16 5.85674e-16 0 0 0 0 0 0 0 0
959 1 0.003563 -0.00263343 0.0188259 0.0008 3.43146e-06 -5.52007e-13 7.0561e-13 2.64859e-12 -9.43797e-11 6.03143e-10 -9.81942e-10 1.41711e-16 -9.54212e-16 -7.97095e-16 0 0 0 0 0 0 0 0
960 1 -0.00046903 0.00328831 0.0214576 0.0008 3.43146e-06 3.06982e-14 -7.53607e-13 1.09629e-12 -1.27002e-09 1.50819e-10 -1.96692e-10 1.69047e-15 -1.29514e-15 1.49558e-16 0 0 0 0 0 0 0 0
961 1 0.00570331 -0.00160944 0.0178217 0.0008 3.43146e-06 2.09257e-15 4.1379e-13 -1.15973e-12 1.35482e-11 8.79343e-10 4.53243e-10 -8.15445e-16 3.04821e-16 8.88287e-16 0 0 0 0 0 0 0 0
962 1 -0.00406137 -0.0017829 0.0202834 0.0008 3.43146e-06 1.15789e-12 -2.75434e-13 1.75259e-12 -1.14506e-09 -1.72749e-09 -1.76985e-10 2.93971e-15 -8.96788e-16 9.49736e-16 0 0 0 0 0 0 0 0
963 1 0.00516497 -0.00500182 0.0184116 0.0008 3.43146e-06 -2.74008e-13 -5.47222e-13 7.77092e-12 -5.44747e-10 -4.95353e-09 4.43491e-10 -1.49593e-15 4.48239e-17 8.07077e-17 0 0 0 0 0 0 0 0
964 1 -0.000196726 0.00598625 0.0176179 0.0008 3.43146e-06 -6.47031e-14 -9.73896e-13 8.47016e-13 1.06527e-09 6.75304e-11 -2.85988e-10 2.48243e-16 3.27923e-16 -1.52959e-16 0 0 0 0 0 0 0 0
965 1 0.00119161 -0.00411101 0.0199045 0.0008 3.43146e-06 -4.21655e-13 -9.00556e-13 3.45221e-13 8.78944e-10 -1.83157e-09 3.29227e-10 1.12992e-16 -7.60288e-16 -1.34203e-15 0 0 0 0 0 0 0 0
966 1 0.0036343 0.00435459 0.0165348 0.0008 3.43146e-06 8.74077e-13 6.93704e-13 4.53862e-12 -2.89799e-09 4.30311e-09 1.70213e-09 7.6339e-16 -9.23702e-16 7.11203e-16 0 0 0 0 0 0 0 0
967 1 -0.00118587 -0.0054859 0.0173654 0.0008 3.43146e-06 6.36536e-14 -4.14804e-13 -1.74656e-12 1.66558e-09 -2.33392e-09 -8.61675e-10 -9.9945e-16 2.40497e-16 -5.09478e-16 0 0 0 0 0 0 0 0
968 1 -0.0043786 0.000754558 0.0167563 0.0008 3.43146e-06 -1.45711e-12 -1.73744e-14 -1.09071e-13 1.6747e-09 3.62328e-10 3.96712e-10 -1.73147e-15 -1.46209e-15 -1.32985e-15 0 0 0 0 0 0 0 0
969 1 -0.000683343 -0.0041475 0.0166473 0.0008 3.43146e-06 2.32339e-14 -2.63038e-14 -3.55634e-13 -6.0246e-10 2.02532e-10 1.8623e-09 -6.04486e-16 -4.86375e-17 -4.87958e-16 0 0 0 0 0 0 0 0
970 1 4.82677e-05 0.00142752 0.0195102 0.0008 3.43146e-06 -4.80482e-15 -5.41194e-13 -1.01502e-12 9.82967e-10 1.27546e-09 3.58847e-10 -1.65924e-15 -8.8816e-17 1.84561e-15 0 0 0 0 0 0 0 0
971 1 0.00253402 0.00513405 0.0173962 0.0008 3.43146e-06 7.87586e-13 2.06909e-13 3.39314e-12 1.57435e-09 -2.66642e-09 1.06366e-09 1.29687e-16 -1.06287e-16 -1.29866e-17 0 0 0 0 0 0 0 0
972 1 0.00384658 0.00204046 0.0184116 0.0008 3.43146e-06 5.43779e-13 8.75748e-13 -7.32899e-13 7.50613e-10 1.14101e-09 -7.52208e-10 8.33509e-16 1.70879e-15 -8.1779e-16 0 0 0 0 0 0 0 0
973 1 0.00286436 -0.00301871 0.0174399 0.0008 3.43146e-06 -7.44029e-13 4.5545e-13 3.81247e-13 6.32548e-10 -1.58988e-09 1.31124e-09 -1.73665e-16 -3.1509e-15 8.08945e-17 0 0 0 0 0 0 0 0
974 1 -0.000816579 -0.000846161 0.018429 0.0008 3.43146e-06 -1.17013e-13 5.84231e-14 -9.83134e-13 -4.51873e-10 3.49329e-12 -2.96926e-10 2.24194e-15 5.21255e-16 -1.38454e-15 0 0 0 0 0 0 0 0
975 1 0.0045647 -0.00556858 0.0156336 0.0008 3.43146e-06 -1.46808e-13 -2.08029e-12 6.94079e-14 2.94137e-09 -3.46296e-09 1.79716e-09 7.11186e-16 6.36116e-16 -5.41203e-16 1 -0.000302147 0.000408234 -2.78091e-05 0.00507162 -0.00618698 0.0156336 0.0008
976 1 -0.00713546 -0.000963027 0.020606 0.0008 3.43146e-06 8.77626e-13 -2.70735e-13 -3.32609e-13 3.61483e-11 4.66262e-10 -4.93944e-10 -2.15251e-16 -2.73672e-16 -2.18404e-16 1 0.000124173 1.11011e-05 5.77636e-06 -0.00792812 -0.00107001 0.020606 0.0008
977 1 0.0049278 0.00485209 0.0203912 0.0008 3.43146e-06 1.03999e-12 6.06006e-13 2.79969e-12 -2.86331e-09 5.44266e-09 -4.54567e-09 1.4287e-15 2.70155e-15 4.00576e-17 0 0 0 0 0 0 0 0
978 1 0.00244843 0.00216054 0.0208048 0.0008 3.43146e-06 -1.012e-12 -4.60313e-13 4.30915e-13 2.78021e-11 -8.04099e-10 8.7585e-10 1.73736e-15 -7.40782e-16 7.66565e-16 0 0 0 0 0 0 0 0
979 1 0.00389751 0.00570972 0.0180247 0.0008 3.43146e-06 4.83289e-13 5.61808e-13 7.95241e-13 -7.46237e-10 -3.06615e-09 2.50626e-09 6.07279e-16 -6.52961e-16 9.36891e-18 0 0 0 0 0 0 0 0
980 1 -0.00579826 0.000129812 0.0178884 0.0008 3.43146e-06 -4.15159e-13 -2.96235e-14 -1.14392e-12 -7.96036e-10 1.24912e-09 7.82352e-11 -2.61186e-15 7.37056e-16 -1.33365e-15 0 0 0 0 0 0 0 0
981 1 -0.00302191 -0.0065353 0.0181758 0.0008 3.43146e-06 4.42586e-13 -2.16781e-12 1.59401e-12 1.76901e-09 -1.10864e-09 -1.74644e-09 1.45818e-16 1.10628e-15 -5.39118e-16 1 6.44872e-05 0.000102059 2.35061e-05 -0.00335761 -0.0072613 0.0181758 0.0008
982 1 -0.000753974 -0.00296721 0.0203029 0.0008 3.43146e-06 2.27486e-13 -1.03477e-12 5.44201e-14 -4.96053e-10 4.0299e-10 -3.32439e-10 9.93756e-16 4.4985e-16 -6.21265e-16 0 0 0 0 0 0 0 0
983 1 -0.00303708 -0.000114966 0.0167001 0.0008 3.43146e-06 -1.18186e-13 -2.46825e-14 -9.84474e-13 -2.66725e-10 -2.81693e-11 4.80176e-10 -1.06924e-15 -1.24577e-15 -5.6835e-16 0 0 0 0 0 0 0 0
984 1 0.000992525 0.00116038 0.0182466 0.0008 3.43146e-06 -5.42126e-13 -3.22623e-13 -2.35187e-12 -1.26063e-09 4.60161e-10 6.50197e-10 1.71262e-16 -7.49811e-16 1.76938e-15 0 0 0 0 0 0 0 0
985 1 -0.00719685 -0.000233619 0.0156229 0.0008 3.43146e-06 4.84714e-13 6.56914e-14 -1.36295e-12 -1.45075e-10 1.69056e-09 4.69353e-11 2.64616e-16 -6.74352e-18 -1.39973e-15 1 0.00109354 0.00016747 0.000126303 -0.00799579 -0.000259553 0.0156229 0.0008
986 1 -0.00301301 -0.00299609 0.0184111 0.0008 3.43146e-06 7.42405e-13 -1.9489e-13 -2.22192e-12 -6.69533e-10 9.55815e-10 -3.56398e-10 7.30389e-17 5.68876e-16 -1.48057e-16 0 0 0 0 0 0 0 0
987 1 -4.66342e-05 -0.00592644 0.0183981 0.0008 3.43146e-06 1.86407e-14 -2.14592e-12 -1.55514e-13 2.32234e-09 -3.26204e-10 2.21958e-09 1.58094e-16 -7.27248e-16 3.70526e-16 0 0 0 0 0 0 0 0
988 1 0.00121993 0.00385729 0.0177295 0.0008 3.43146e-06 4.40276e-13 -1.05575e-12 -1.44836e-12 -3.1679e-09 -1.786e-09 -6.71586e-10 -4.0927e-16 -2.07323e-15 -1.23958e-16 0 0 0 0 0 0 0 0
989 1 -0.000268441 0.004393 0.0174936 0.0008 3.43146e-06 -9.77909e-14 -4.04045e-13 -2.64649e-12 3.34471e-09 2.68694e-10 2.33933e-10 -9.27962e-17 -3.88299e-16 -1.51364e-15 0 0 0 0 0 0 0 0
990 1 -0.00576664 0.00431148 0.0198584 0.0008 3.43146e-06 7.56291e-13 -1.31508e-12 2.12602e-12 1.06614e-09 -4.17192e-09 -8.03662e-10 4.43533e-15 -2.71119e-15 1.84232e-15 1 0.00017326 -0.000101308 3.46097e-05 -0.00640719 0.0047904 0.0198584 0.0008
991 1 0.00156857 0.00419186 0.0192547 0.0008 3.43146e-06 -5.41976e-13 1.29154e-13 7.74509e-13 1.52758e-09 -8.1046e-10 -2.38082e-09 2.29158e-16 -5.57219e-16 -3.13513e-15 0 0 0 0 0 0 0 0
992 1 0.00713932 0.000934509 0.0161583 0.0008 3.43146e-06 1.44412e-13 1.36799e-13 7.05615e-13 -7.26547e-10 7.84212e-10 -1.50177e-10 7.96364e-17 1.75854e-16 -9.06408e-17 1 -0.000227456 -1.54987e-05 3.00649e-05 0.00793233 0.00103831 0.0161583 0.0008
993 1 -0.0061195 0.000337308 0.0208683 0.0008 3.43146e-06 2.47557e-13 -1.36165e-13 -1.35147e-12 -7.20841e-10 -1.43883e-10 9.44683e-10 6.31856e-16 1.4789e-15 3.76076e-17 0 0 0 0 0 0 0 0
994 1 0.00237686 -0.00679637 0.0193504 0.0008 3.43146e-06 -1.08409e-12 -2.43558e-14 -1.40939e-12 -1.02556e-09 -2.4101e-09 1.2593e-09 2.972e-16 2.59981e-16 -9.71259e-16 1 -9.26065e-07 2.02565e-06 9.85128e-08 0.00264095 -0.00755151 0.0193504 0.0008
995 1 -0.00438403 0.00366137 0.0193837 0.0008 3.43146e-06 2.16839e-12 -1.08298e-12 -3.15986e-13 6.02085e-09 3.72392e-09 -1.0009e-10 -7.81607e-16 -3.80311e-16 -5.06304e-16 0 0 0 0 0 0 0 0
996 1 0.00312807 -0.000888079 0.0171907 0.0008 3.43146e-06 -8.14765e-13 2.31563e-13 1.157e-12 6.42791e-10 -6.98911e-10 -4.92096e-10 4.11206e-16 -5.04575e-16 2.0991e-16 0 0 0 0 0 0 0 0
997 1 -0.00441938 0.00222996 0.0173946 0.0008 3.43146e-06 1.46838e-12 1.01111e-12 1.219e-12 3.47618e-09 -1.20832e-09 1.442e-09 -8.16615e-16 -6.66704e-17 2.40093e-15 0 0 0 0 0 0 0 0
998 1 0.00618638 -0.00368452 0.0175703 0.0008 3.43146e-06 2.15807e-13 -1.02874e-12 -7.95764e-13 -2.90808e-09 5.65877e-10 9.70494e-10 8.16152e-17 7.41131e-16 1.17961e-16 1 -0.000609373 0.00037553 -7.35038e-05 0.0068733 -0.00409363 0.0175703 0.0008
999 1 0.0052223 -0.00265102 0.0166779 0.0008 3.43146e-06 -1.42104e-12 -9.96926e-13 -6.26602e-13 2.84725e-09 2.08968e-09 -2.27876e-11 -2.80507e-16 -5.52725e-16 -4.01453e-16 0 0 0 0 0 0 0 0
1000 1 -0.00403768 -0.0048943 0.0202245 0.0008 3.43146e-06 -2.16765e-12 -1.30524e-12 -9.72536e-13 -3.89167e-10 -6.01428e-09 -2.03877e-09 1.20009e-16 4.51726e-16 -7.90651e-16 0 0 0 0 0 0 0 0
1001 1 -0.0013684 -0.00157567 0.0207978 0.0008 3.43146e-06 2.49874e-13 -5.35304e-14 -3.88965e-13 -1.05247e-09 9.40666e-10 3.5133e-10 4.57605e-16 1.10891e-15 -1.01808e-17 0 0 0 0 0 0 0 0
1002 1 -6.56982e-05 0.00720022 0.019798 0.0008 3.43146e-06 -3.32243e-14 -9.24191e-13 1.25982e-12 -1.56507e-09 -1.03947e-09 -5.20272e-11 8.16168e-17 5.13487e-16 9.35841e-16 1 -4.8244e-05 -0.000808097 1.91557e-06 -7.29926e-05 0.00799967 0.019798 0.0008
1003 1 0.00204651 -0.00284754 0.0192886 0.0008 3.43146e-06 -1.06692e-12 4.24532e-13 1.4266e-12 6.10611e-10 -2.14e-09 9.67347e-10 2.31682e-16 -1.61808e-15 2.94792e-16 0 0 0 0 0 0 0 0
1004 1 -0.00501377 -0.00286223 0.0179906 0.0008 3.43146e-06 2.72967e-13 -8.702e-13 -1.79181e-12 1.86732e-09 -7.22581e-10 4.42763e-10 4.52672e-16 -2.02791e-16 -1.05401e-16 0 0 0 0 0 0 0 0
1005 1 -0.00202194 -0.00691091 0.0193664 0.0008 3.43146e-06 -9.44774e-13 -1.86854e-12 -2.30392e-12 -2.00814e-09 3.30154e-09 4.31731e-10 8.65871e-16 2.41897e-16 7.83919e-17 1 0.000214927 0.00101357 0.000203926 -0.0022464 -0.00767813 0.0193664 0.0008
1006 1 -0.00193597 0.000249099 0.0187557 0.0008 3.43146e-06 -3.51433e-13 -1.35496e-13 -7.58033e-13 2.32714e-10 5.76172e-10 9.68812e-10 3.4742e-16 7.12197e-18 -1.44581e-15 0 0 0 0 0 0 0 0
1007 1 -0.001807 0.00550741 0.0200597 0.0008 3.43146e-06 -5.04727e-13 1.79374e-13 1.76214e-12 -1.32916e-09 -1.89455e-09 -1.23504e-10 2.19553e-16 1.02552e-15 -1.97228e-15 0 0 0 0 0 0 0 0
1008 1 -0.00102851 -0.00273992 0.01597 0.0008 3.43146e-06 -5.41082e-13 -3.12849e-13 -1.33832e-12 -4.37045e-10 -7.94983e-10 -8.03804e-10 4.65041e-17 -1.05563e-15 -4.7096e-16 0 0 0 0 0 0 0 0
1009 1 0.00720028 4.87915e-05 0.0194514 0.0008 3.43146e-06 -8.13391e-14 4.97753e-14 -1.55946e-12 -7.86044e-10 -1.94085e-09 -8.97015e-11 3.91301e-16 1.70034e-15 -9.41717e-16 1 -0.000626034 -3.60304e-05 0.000107378 0.00799982 5.42094e-05 0.0194514 0.0008
1010 1 -0.000242182 0.00719607 0.0165722 0.0008 3.43146e-06 -6.45735e-14 -1.86578e-13 5.60827e-13 -6.43411e-10 3.43692e-10 -5.11854e-11 1.94939e-16 8.92454e-16 -6.92241e-16 1 7.35526e-06 -0.000112939 1.22029e-05 -0.000269086 0.00799547 0.0165722 0.0008
1011 1 -0.00493312 -0.00343632 0.0163008 0.0008 3.43146e-06 -1.39752e-12 3.52533e-13 -2.33139e-12 8.01236e-10 1.52119e-09 -3.2815e-10 4.83277e-16 -3.28272e-16 3.63908e-16 0 0 0 0 0 0 0 0
1012 1 -0.00400852 0.00395148 0.0178559 0.0008 3.43146e-06 8.37988e-13 6.18119e-13 -7.16815e-15 -4.06344e-09 -2.32142e-09 1.65524e-09 -1.68299e-15 2.59086e-15 1.44811e-15 0 0 0 0 0 0 0 0
1013 1 -0.00346087 0.00153929 0.0208911 0.0008 3.43146e-06 1.0843e-12 -6.67683e-13 -2.94405e-13 -3.64411e-09 2.35061e-09 -1.5281e-09 -5.72618e-16 4.01319e-15 7.06518e-15 0 0 0 0 0 0 0 0
1014 1 -0.00231834 0.0068166 0.0210458 0.0008 3.43146e-06 -5.85672e-13 1.46677e-12 1.61808e-12 -1.77383e-09 -1.04256e-09 -1.1362e-10 -9.82184e-16 -3.92599e-16 -1.38069e-15 1 1.03775e-05 -2.13648e-05 -9.16581e-07 -0.00257592 0.00757395 0.0210458 0.0008
1015 1 0.000426076 -0.000210633 0.0176472 0.0008 3.43146e-06 1.35347e-13 -1.95614e-13 -1.12872e-12 -9.08576e-11 -2.24352e-10 9.49991e-11 3.45887e-18 -3.47454e-16 1.06015e-15 0 0 0 0 0 0 0 0
1016 1 -0.00166382 0.00223461 0.0180955 0.0008 3.43146e-06 -5.40971e-13 -5.51113e-13 1.7426e-12 7.33556e-10 -7.80269e-10 -7.46291e-10 -1.02813e-15 9.04448e-16 -1.72871e-15 0 0 0 0 0 0 0 0
1017 1 0.00266479 0.00668938 0.0197938 0.0008 3.43146e-06 8.98819e-13 2.13318e-13 1.06164e-12 -3.84001e-10 2.65438e-09 9.51594e-10 -5.75828e-16 3.9166e-17 2.20395e-16 1 -0.00052334 -0.000897239 -2.39451e-05 0.00296062 0.00743201 0.0197938 0.0008
1018 1 -0.00181401 0.00407447 0.0178933 0.0008 3.43146e-06 5.18151e-13 -2.16484e-12 1.09031e-12 3.17476e-11 1.72208e-09 -1.63601e-09 3.29169e-17 -1.17399e-15 1.99525e-15 0 0 0 0 0 0 0 0
1019 1 0.00276152 -0.00423864 0.0196254 0.0008 3.43146e-06 4.55829e-13 8.60939e-13 2.82643e-13 1.47246e-09 1.50423e-09 1.5281e-09 1.14297e-15 -5.39662e-16 2.3142e-16 0 0 0 0 0 0 0 0
1020 1 -0.00149346 0.0055853 0.0184929 0.0008 3.43146e-06 4.3821e-13 -9.22154e-13 3.16094e-12 -4.09538e-10 3.07143e-10 2.08541e-09 5.66088e-16 -2.1094e-16 -3.49538e-15 0 0 0 0 0 0 0 0
1021 1 -0.00190083 -0.00407836 0.0195771 0.0008 3.43146e-06 -3.35436e-13 7.71905e-13 -2.77781e-12 1.07145e-09 -5.26131e-10 1.23698e-09 2.24727e-15 -1.48111e-15 9.89562e-17 0 0 0 0 0 0 0 0
1022 1 0.000335089 -0.00578606 0.020812 0.0008 3.43146e-06 -1.35508e-13 -7.84078e-13 -3.43355e-12 6.40257e-10 -2.68066e-10 -1.55248e-09 -5.38789e-16 -1.52604e-15 -1.12537e-15 0 0 0 0 0 0 0 0
1023 1 0.00177132 -0.00546662 0.0160485 0.0008 3.43146e-06 4.75658e-13 -1.98966e-12 -9.79008e-13 6.48706e-09 1.56775e-10 1.95543e-09 -8.47488e-16 6.45509e-16 -1.46037e-15 0 0 0 0 0 0 0 0
1024 1 0.00685441 0.000626402 0.0177022 0.0008 3.43146e-06 -2.16798e-12 -2.70832e-13 1.53588e-12 6.88852e-10 -3.73596e-09 1.52138e-09 -6.90162e-18 3.05889e-17 -1.86691e-16 0 0 0 0 0 0 0 0
1025 1 -0.00470636 0.00544897 0.019482 0.0008 3.43146e-06 1.74064e-12 1.25482e-15 9.55187e-13 -3.81553e-09 2.61923e-09 1.69782e-09 3.76887e-15 1.57145e-15 -1.21206e-15 1 2.82868e-05 -3.06705e-05 -1.46554e-07 -0.00522923 0.00605435 0.019482 0.0008
1026 1 0.000508396 -0.00659708 0.0158697 0.0008 3.43146e-06 2.70604e-13 8.1932e-13 -2.6319e-12 2.91708e-09 1.47894e-09 1.32627e-09 1.84971e-16 1.28316e-15 -7.75932e-16 0 0 0 0 0 0 0 0
1027 1 0.00106857 0.00549416 0.0184655 0.0008 3.43146e-06 -1.96312e-13 -1.7226e-12 1.14179e-12 -5.0351e-09 8.34897e-10 -9.37603e-10 -1.23973e-15 -2.0242e-17 6.09508e-16 0 0 0 0 0 0 0 0
1028 1 -0.00209194 0.00325645 0.0192496 0.0008 3.43146e-06 -3.61224e-13 -1.05418e-12 8.75585e-13 -7.42976e-10 2.24874e-10 1.80838e-10 -1.05738e-15 1.31959e-15 1.58347e-15 0 0 0 0 0 0 0 0
1029 1 0.00601138 -0.00396299 0.0192858 0.0008 3.43146e-06 -2.43132e-13 1.44315e-12 8.8111e-13 -8.52292e-09 6.93874e-09 -1.33816e-09 -4.92404e-16 -3.09132e-16 3.21165e-16 1 -8.86281e-05 6.20463e-05 -6.20135e-06 0.00667919 -0.00440323 0.0192858 0.0008
1030 1 0.00581601 0.000140316 0.0202904 0.0008 3.43146e-06 9.62642e-13 7.23416e-14 -2.17868e-12 -4.49452e-10 -9.12752e-10 3.79779e-10 3.43303e-16 -2.22274e-16 2.83743e-15 0 0 0 0 0 0 0 0
1031 1 -0.00110464 -0.00411759 0.0181903 0.0008 3.43146e-06 -4.58655e-13 1.10334e-12 -4.41888e-13 -1.34706e-09 -7.39626e-10 -7.32604e-11 -4.62374e-16 -7.36145e-16 1.95181e-16 0 0 0 0 0 0 0 0
1032 1 -0.00228288 -0.00148269 0.0184911 0.0008 3.43146e-06 1.25843e-13 -3.07736e-14 -1.31999e-13 -8.48809e-10 5.66725e-10 5.01798e-10 1.42826e-15 -8.15085e-16 -2.40974e-15 0 0 0 0 0 0 0 0
1033 1 -0.00563958 -0.00141623 0.0182683 0.0008 3.43146e-06 -4.49209e-13 1.25254e-13 -5.69435e-13 -1.90002e-10 9.92092e-11 -3.17453e-10 -4.26947e-16 -6.77722e-16 -9.66174e-16 0 0 0 0 0 0 0 0
1034 1 -0.000998628 -0.00713094 0.0159127 0.0008 3.43146e-06 5.41584e-13 1.67486e-13 2.25212e-13 8.05346e-10 3.60702e-09 -6.22812e-10 -2.07256e-18 -1.2395e-15 -8.2099e-16 1 0.00021663 0.000788984 1.4048e-05 -0.00110951 -0.00792269 0.0159127 0.0008
1035 1 -0.00331667 -0.00158117 0.017275 0.0008 3.43146e-06 -8.79793e-13 -2.50832e-13 -4.4895e-13 -2.32209e-10 2.11522e-11 -1.42373e-09 2.13081e-16 1.49892e-16 -5.09171e-16 0 0 0 0 0 0 0 0
1036 1 0.00182977 -0.00300308 0.0208661 0.0008 3.43146e-06 -3.11259e-15 -1.0838e-12 1.39977e-12 1.07673e-09 3.24869e-09 5.72348e-10 4.01036e-16 2.75483e-16 -1.03368e-15 0 0 0 0 0 0 0 0
1037 1 0.00126845 0.00681657 0.0169359 0.0008 3.43146e-06 -3.77579e-13 5.3248e-13 7.595e-13 2.83924e-09 -1.28456e-09 1.41405e-09 -2.85766e-16 -2.18223e-16 -1.60436e-16 0 0 0 0 0 0 0 0
1038 1 0.00209631 0.000434573 0.0173441 0.0008 3.43146e-06 -7.26152e-13 1.35359e-13 -3.08236e-13 -2.56957e-10 -1.55331e-09 2.48107e-10 -9.15876e-16 3.19489e-16 -7.64519e-16 0 0 0 0 0 0 0 0
1039 1 0.00530742 -0.00165782 0.019402 0.0008 3.43146e-06 3.00991e-13 3.84219e-13 -1.46454e-12 1.80786e-10 1.50264e-09 -2.11587e-09 -3.83283e-15 1.07693e-15 1.37003e-15 0 0 0 0 0 0 0 0
1040 1 -0.0026913 -0.00440839 0.0177315 0.0008 3.43146e-06 1.08373e-12 -1.37668e-12 -2.80482e-12 5.61096e-10 1.90917e-10 9.82393e-10 -4.45933e-17 -3.90848e-16 1.03395e-15 0 0 0 0 0 0 0 0
1041 1 -0.0010945 -0.00255273 0.0185228 0.0008 3.43146e-06 2.43804e-14 -4.01681e-13 -3.46446e-13 1.80028e-09 -1.06719e-09 -8.99308e-10 2.50133e-16 3.91877e-16 -2.30919e-15 0 0 0 0 0 0 0 0
1042 1 0.00235133 9.57877e-05 0.0204115 0.0008 3.43146e-06 -7.2284e-13 -1.01892e-13 -1.92101e-12 -1.3566e-09 -6.22496e-10 3.03786e-10 4.88583e-16 2.93534e-17 -1.67756e-15 0 0 0 0 0 0 0 0
1043 1 -0.00431748 0.000954848 0.0183546 0.0008 3.43146e-06 5.35504e-13 -2.71035e-13 -8.84669e-13 -1.51716e-10 -2.56035e-09 -5.49929e-11 1.92505e-16 -5.30291e-16 6.67516e-16 0 0 0 0 0 0 0 0
1044 1 0.00670336 0.00262796 0.0201829 0.0008 3.43146e-06 -3.51724e-13 -6.86918e-13 -1.84253e-12 -2.70638e-09 -3.52975e-09 6.38914e-10 -3.41682e-16 -2.54821e-16 -5.35685e-16 1 -4.43362e-05 -1.47673e-05 -1.72715e-06 0.00744809 0.00291992 0.0201829 0.0008
1045 1 -0.000824746 0.00266601 0.0200274 0.0008 3.43146e-06 -2.70231e-13 -9.73874e-13 3.48071e-13 1.44908e-09 2.01373e-11 1.40163e-10 2.25836e-16 -1.8584e-15 2.36437e-15 0 0 0 0 0 0 0 0
1046 1 0.00188543 0.00246172 0.0185129 0.0008 3.43146e-06 1.95379e-13 -1.08316e-12 -2.53885e-12 4.7961e-09 -1.41504e-09 -1.62734e-09 -8.51126e-17 -1.09725e-15 -3.22259e-16 0 0 0 0 0 0 0 0
1047 1 -0.00659594 -0.00288739 0.0206171 0.0008 3.43146e-06 -3.51493e-13 -1.06207e-12 5.93098e-13 1.5393e-09 -1.41214e-10 -1.02269e-09 4.89189e-16 -2.94942e-16 1.05114e-16 1 0.000253836 4.80553e-05 1.67147e-05 -0.00732858 -0.0032081 0.0206171 0.0008
1048 1 0.0022102 -0.00129316 0.0196304 0.0008 3.43146e-06 -1.08412e-12 -5.41996e-13 5.48558e-13 -1.65127e-09 -6.13064e-10 -1.62843e-09 7.28191e-16 -5.58207e-18 -1.38824e-15 0 0 0 0 0 0 0 0
1049 1 0.00121311 -0.00565352 0.0194814 0.0008 3.43146e-06 -5.41953e-13 -9.67566e-13 -1.28851e-12 1.15347e-09 -5.38093e-10 -1.12115e-09 -1.34638e-17 1.22237e-15 -1.38089e-15 0 0 0 0 0 0 0 0
1050 1 -0.00195341 0.00163714 0.0195511 0.0008 3.43146e-06 -5.59044e-13 -5.41888e-13 -3.86377e-13 4.25818e-10 5.64796e-10 -1.51487e-10 1.85956e-15 3.40393e-17 9.80543e-16 0 0 0 0 0 0 0 0
1051 1 0.00305781 0.00288599 0.0195166 0.0008 3.43146e-06 -1.81125e-13 8.26849e-13 1.33982e-12 1.24064e-09 -1.11631e-09 4.297e-10 2.13773e-15 1.81235e-15 2.49669e-16 0 0 0 0 0 0 0 0
1052 1 -0.00468536 -0.000761476 0.0171638 0.0008 3.43146e-06 -4.24669e-13 3.24495e-15 -9.72406e-13 -6.67307e-10 -2.63484e-10 8.27527e-10 -9.31282e-16 -5.58198e-16 -8.61304e-16 0 0 0 0 0 0 0 0
1053 1 0.00667761 0.00269351 0.0185847 0.0008 3.43146e-06 4.51801e-13 -4.35594e-13 9.03244e-13 3.18807e-09 2.51275e-09 7.23296e-10 4.57527e-16 -7.3069e-16 -2.25891e-16 1 -0.000463652 -0.000190784 9.93399e-06 0.00741918 0.00299262 0.0185847 0.0008
1054 1 -0.00674846 0.00250984 0.0194008 0.0008 3.43146e-06 2.05804e-12 1.08391e-12 -2.24445e-12 2.64391e-11 3.01403e-09 2.22149e-09 -4.89488e-16 5.15487e-16 -2.10892e-15 1 3.61285e-05 -1.12449e-05 -1.49645e-06 -0.00749822 0.00278868 0.0194008 0.0008
1055 1 -0.00438106 -0.00383711 0.0221284 0.0008 3.43146e-06 1.67231e-13 -1.0842e-12 -6.98887e-13 9.09544e-10 9.11296e-10 -2.67302e-09 -9.13465e-16 3.80527e-16 -3.53183e-15 0 0 0 0 0 0 0 0
1056 1 -0.00345431 -0.00631767 0.0197606 0.0008 3.43146e-06 -2.12777e-13 -1.07317e-12 -1.82909e-12 -2.87267e-09 -5.42839e-10 -3.87095e-10 -2.81674e-16 1.26538e-15 3.96752e-16 1 0.000172659 0.000428181 1.84859e-05 -0.00383793 -0.00701928 0.0197606 0.0008
1057 1 -4.39995e-05 0.00193633 0.0221997 0.0008 3.43146e-06 -8.85433e-14 -3.44383e-13 -2.98755e-13 1.85801e-09 2.27754e-09 -8.91985e-10 3.09562e-16 1.27369e-15 1.17873e-15 0 0 0 0 0 0 0 0
1058 1 -0.00473359 0.00319749 0.0210991 0.0008 3.43146e-06 -1.66143e-12 1.03902e-12 1.95853e-12 -1.83089e-09 -2.94161e-09 -2.24026e-10 9.64128e-17 -9.3346e-16 -5.33298e-16 0 0 0 0 0 0 0 0
1059 1 -0.000502997 0.00319712 0.0230706 0.0008 3.43146e-06 2.71055e-13 2.51661e-14 3.16367e-13 -1.73206e-09 -1.16847e-09 7.36862e-10 4.49381e-17 2.85697e-15 2.36229e-15 0 0 0 0 0 0 0 0
1060 1 0.000824468 0.000612303 0.020892 0.0008 3.43146e-06 -5.05667e-13 -1.91139e-13 1.54335e-13 2.62293e-10 -3.26295e-10 -2.40209e-10 -6.9249e-16 1.78142e-16 1.53449e-15 0 0 0 0 0 0 0 0
1061 1 0.00211853 0.00688133 0.021285 0.0008 3.43146e-06 9.60184e-13 6.21026e-13 1.07448e-13 -9.73566e-10 -2.7185e-09 9.11822e-10 -6.59561e-16 -8.95267e-16 -1.9385e-15 1 -6.23307e-06 -2.89852e-05 2.36378e-06 0.00235391 0.00764586 0.021285 0.0008
1062 1 -0.00657511 0.00293456 0.024538 0.0008 3.43146e-06 7.26922e-13 -3.95026e-13 2.35223e-13 -2.53013e-10 -2.12608e-10 -8.7424e-11 1.25769e-15 -6.50929e-16 2.01164e-16 1 0.000241223 -0.000161181 4.91911e-05 -0.00730542 0.00326051 0.024538 0.0008
1063 1 -0.00407685 -6.61249e-05 0.0231344 0.0008 3.43146e-06 2.16815e-12 -7.45836e-14 -1.26012e-12 7.25255e-11 5.06023e-09 1.93667e-09 2.2793e-18 -9.28413e-17 -2.28405e-15 0 0 0 0 0 0 0 0
1064 1 0.000693354 0.00581507 0.0238987 0.0008 3.43146e-06 -2.71112e-13 -7.21674e-14 -1.27709e-12 -9.5107e-10 1.70696e-09 -8.78916e-10 -6.4818e-17 -2.87586e-15 -2.7307e-15 0 0 0 0 0 0 0 0
1065 1 -0.00255567 -0.00424879 0.0216708 0.0008 3.43146e-06 1.08418e-12 -1.41598e-13 -5.70827e-13 3.02142e-11 -4.02235e-10 -1.01969e-09 1.53428e-16 6.84457e-16 -1.68485e-15 0 0 0 0 0 0 0 0
1066 1 -0.00304334 0.00429927 0.0226194 0.0008 3.43146e-06 -4.57283e-13 -3.54234e-13 1.52847e-12 4.28672e-10 8.07804e-10 9.0977e-10 -1.8322e-15 -2.08073e-16 -2.19713e-16 0 0 0 0 0 0 0 0
1067 1 0.00470757 0.000955805 0.021643 0.0008 3.43146e-06 -1.49269e-12 2.70544e-13 6.16657e-13 -4.56413e-10 -5.40609e-10 6.71489e-10 4.35858e-16 -5.74516e-16 -2.86719e-16 0 0 0 0 0 0 0 0
1068 1 0.00156058 0.00331662 0.0214636 0.0008 3.43146e-06 -5.41921e-13 -7.08601e-13 -1.06729e-12 -5.27277e-10 -8.95313e-10 -1.67585e-09 3.74709e-16 7.72057e-16 -5.6814e-16 0 0 0 0 0 0 0 0
1069 1 -0.00372966 -0.00517173 0.0186793 0.0008 3.43146e-06 1.04048e-12 -1.62753e-12 -2.40696e-12 1.37409e-09 1.53164e-09 -2.64406e-09 -5.55629e-16 1.11843e-15 1.9496e-16 0 0 0 0 0 0 0 0
1070 1 0.00056199 0.00547206 0.0212195 0.0008 3.43146e-06 -2.44223e-13 -2.16715e-12 -4.83035e-13 -9.49625e-10 2.04573e-09 -2.84509e-09 1.44159e-15 3.6453e-16 -2.27336e-15 0 0 0 0 0 0 0 0
1071 1 -0.00268298 0.001637 0.0248002 0.0008 3.43146e-06 -8.17797e-13 4.19864e-13 1.47727e-12 1.90314e-09 1.58892e-09 5.00481e-10 -6.85455e-16 -2.41403e-15 -8.03157e-15 0 0 0 0 0 0 0 0
1072 1 -0.00318247 -0.00355058 0.0203754 0.0008 3.43146e-06 -8.7131e-13 -3.93321e-13 -3.55429e-13 -7.2213e-10 3.14872e-09 9.9143e-10 1.67688e-15 -7.89408e-16 -7.93886e-16 0 0 0 0 0 0 0 0
1073 1 0.00250254 -0.00399124 0.0242925 0.0008 3.43146e-06 5.37256e-13 -7.1349e-13 5.27487e-13 -1.00926e-09 1.18303e-09 4.35151e-10 6.31178e-16 -2.58081e-15 7.05222e-16 0 0 0 0 0 0 0 0
1074 1 -0.00403981 -0.00179995 0.0186844 0.0008 3.43146e-06 8.73113e-13 -4.23314e-13 -4.04907e-13 9.69252e-10 2.11138e-09 7.82797e-10 9.42928e-16 -2.22132e-16 -1.24042e-15 0 0 0 0 0 0 0 0
1075 1 0.00335228 -0.00286473 0.0203945 0.0008 3.43146e-06 -4.99188e-13 -9.34766e-13 -3.35343e-13 3.08166e-09 -6.02472e-10 -1.61439e-09 1.21189e-15 -2.12302e-16 -1.19832e-15 0 0 0 0 0 0 0 0
1076 1 -0.00244695 -0.00529294 0.0204637 0.0008 3.43146e-06 3.98298e-14 -1.31756e-12 -3.34695e-12 1.18218e-09 1.2152e-09 -4.33428e-10 5.70189e-16 6.81637e-16 2.09212e-16 0 0 0 0 0 0 0 0
1077 1 0.00496727 0.00521284 0.0222261 0.0008 3.43146e-06 -1.39513e-12 -1.5617e-12 5.75266e-13 6.93584e-10 1.76072e-09 7.60052e-11 1.76391e-16 1.6661e-15 3.34625e-16 1 -0.000507404 -0.000614348 6.7732e-05 0.00551879 0.00579163 0.0222261 0.0008
1078 1 -0.00325677 0.00302 0.0203204 0.0008 3.43146e-06 7.55722e-13 -1.08428e-12 -3.82657e-12 -7.40756e-10 -3.95835e-09 2.45399e-09 3.51942e-15 1.70091e-16 -3.13252e-15 0 0 0 0 0 0 0 0
1079 1 -0.00100038 0.000660674 0.0223282 0.0008 3.43146e-06 -5.41173e-13 2.31693e-13 2.16501e-13 -6.10262e-10 4.02556e-10 -1.49633e-10 1.06736e-16 -4.83635e-16 -3.4376e-16 0 0 0 0 0 0 0 0
1080 1 0.00715504 -0.000806055 0.0225329 0.0008 3.43146e-06 -9.49446e-13 2.66218e-13 9.1271e-13 1.23216e-09 1.04113e-09 -2.06226e-10 -1.18427e-15 -4.41095e-17 -4.83941e-16 1 -0.000349704 5.6025e-05 1.01527e-05 0.00794971 -0.000895579 0.0225329 0.0008
1081 1 0.00431357 -0.00386916 0.01951 0.0008 3.43146e-06 -2.03222e-12 -2.74181e-13 -4.04243e-12 5.04872e-09 5.83073e-09 -2.81237e-09 2.56978e-16 -5.21698e-16 7.99572e-16 0 0 0 0 0 0 0 0
1082 1 -0.000633659 0.0012949 0.0252251 0.0008 3.43146e-06 -2.17099e-13 -5.42032e-13 -8.47626e-13 -9.27804e-10 -1.22265e-09 2.54758e-10 -3.99155e-16 -4.45337e-16 1.0584e-15 0 0 0 0 0 0 0 0
1083 1 0.00541736 0.00191898 0.0242693 0.0008 3.43146e-06 -1.78047e-12 5.42007e-13 -3.75204e-12 6.09961e-10 -1.64703e-09 -3.66615e-10 -7.49498e-16 4.26192e-16 -3.56437e-15 0 0 0 0 0 0 0 0
1084 1 -0.00306375 0.00267925 0.0234616 0.0008 3.43146e-06 -1.0842e-12 -1.12762e-13 -3.55331e-12 3.47739e-09 -1.02937e-10 -3.7975e-09 -9.67013e-18 -4.6628e-15 3.6541e-16 0 0 0 0 0 0 0 0
1085 1 -0.00305052 -0.0029924 0.0225284 0.0008 3.43146e-06 1.08205e-12 -1.02354e-12 -2.93827e-12 -1.36596e-09 -1.69309e-09 5.70895e-10 9.99038e-17 -9.52907e-16 -2.22929e-15 0 0 0 0 0 0 0 0
1086 1 0.0023056 0.00397292 0.0253997 0.0008 3.43146e-06 -2.91553e-13 -2.75035e-13 6.72306e-13 1.77462e-09 3.1253e-10 2.17576e-09 -6.33114e-16 -5.01918e-16 3.99756e-16 0 0 0 0 0 0 0 0
1087 1 0.00422561 -0.00582969 0.0174156 0.0008 3.43146e-06 1.68078e-12 -1.1675e-13 5.7952e-13 3.50234e-09 -3.6293e-09 -1.63805e-09 -4.89872e-16 4.28569e-16 -1.35458e-15 1 -2.30694e-05 3.54342e-05 1.62001e-05 0.00469507 -0.00647737 0.0174156 0.0008
1088 1 0.00432021 -0.00411261 0.0210908 0.0008 3.43146e-06 2.16776e-12 -2.15262e-12 -3.03491e-12 -2.9203e-09 -1.30623e-10 3.90751e-10 7.9091e-16 -1.36856e-15 4.21383e-16 0 0 0 0 0 0 0 0
1089 1 0.00303431 0.000907904 0.0216089 0.0008 3.43146e-06 -1.08418e-12 -2.7034e-13 -1.0815e-12 2.05955e-09 -8.78651e-11 7.35305e-11 -2.48661e-16 5.6202e-16 3.02261e-16 0 0 0 0 0 0 0 0
1090 1 0.00421328 0.00432833 0.0233252 0.0008 3.43146e-06 -1.19648e-12 -1.34879e-12 -1.58077e-13 5.90229e-11 -1.50247e-09 -6.79599e-10 9.90421e-16 -3.7758e-16 1.24941e-15 0 0 0 0 0 0 0 0
1091 1 -0.00199751 -0.00529559 0.0227436 0.0008 3.43146e-06 1.08368e-12 -2.01575e-12 -2.47615e-13 2.12307e-09 -1.32134e-09 1.81927e-09 3.50241e-16 -9.89693e-16 -1.41448e-15 0 0 0 0 0 0 0 0
1092 1 0.00406569 0.00594228 0.0195983 0.0008 3.43146e-06 -2.16653e-12 4.26342e-13 -5.12423e-13 6.30596e-10 -8.38345e-11 -2.46005e-09 1.74651e-17 -7.48004e-16 -9.24544e-17 1 -1.05349e-05 -1.57503e-05 5.7735e-06 0.00451741 0.0066025 0.0195983 0.0008
1093 1 0.00267641 0.00531285 0.0189793 0.0008 3.43146e-06 -4.26594e-14 -1.02157e-12 9.1974e-13 -2.66225e-10 2.09533e-09 5.20658e-10 -3.8242e-16 -2.51653e-15 -1.3179e-15 0 0 0 0 0 0 0 0
1094 1 -0.0053154 0.00201169 0.0249383 0.0008 3.43146e-06 -3.28744e-13 -1.08389e-12 -1.38183e-12 -1.22949e-09 -2.46156e-09 2.45772e-09 8.88296e-16 3.54744e-16 2.46274e-15 0 0 0 0 0 0 0 0
1095 1 0.00175465 -0.000268851 0.0218503 0.0008 3.43146e-06 -5.42087e-13 3.15604e-13 -1.00161e-12 9.84318e-11 9.02894e-10 8.79316e-10 5.4515e-17 -3.42469e-16 2.52401e-16 0 0 0 0 0 0 0 0
1096 1 -0.0054213 -0.00473834 0.0229439 0.0008 3.43146e-06 1.16336e-12 7.88305e-13 -8.20987e-13 6.019e-10 1.88665e-09 -1.94594e-10 -5.39099e-16 7.1378e-16 -9.69411e-16 1 0.000108457 8.87086e-05 -2.95729e-06 -0.00602352 -0.00526471 0.0229439 0.0008
1097 1 -0.000367837 -0.000413616 0.0212543 0.0008 3.43146e-06 -1.33241e-13 -1.35509e-13 -1.51245e-12 -2.61795e-10 -4.65924e-10 -2.41733e-10 2.95591e-16 8.89117e-17 -2.63947e-16 0 0 0 0 0 0 0 0
1098 1 -0.0013045 -9.41292e-05 0.024801 0.0008 3.43146e-06 -4.14551e-13 -3.78357e-14 5.00671e-13 -5.08111e-10 1.62508e-09 -8.7367e-10 -4.69655e-15 1.24594e-15 3.85091e-15 0 0 0 0 0 0 0 0
1099 1 0.00233128 0.00529043 0.0205412 0.0008 3.43146e-06 1.02109e-12 -4.52537e-13 1.23184e-12 -1.30248e-09 -7.6792e-10 3.36425e-09 1.52106e-15 -1.92438e-15 -1.76685e-15 0 0 0 0 0 0 0 0
1100 1 -0.00113168 -0.00437924 0.0209512 0.0008 3.43146e-06 -2.60353e-13 3.58026e-13 7.00761e-14 4.36605e-10 1.9312e-09 -1.79579e-09 5.86531e-16 -1.52373e-15 -1.95105e-15 0 0 0 0 0 0 0 0
1101 1 -0.00165428 -0.00315872 0.0232912 0.0008 3.43146e-06 3.16741e-13 3.31781e-14 -1.91108e-12 1.27661e-09 8.39415e-11 8.19737e-10 1.35665e-16 2.6136e-15 -2.03729e-15 0 0 0 0 0 0 0 0
1102 1 0.00211593 0.00669092 0.0182912 0.0008 3.43146e-06 -1.55024e-13 7.53093e-13 -5.53542e-15 2.59753e-09 -1.87533e-09 3.17004e-09 1.72617e-16 -4.02615e-16 -5.58266e-17 0 0 0 0 0 0 0 0
1103 1 0.00124124 0.00622937 0.0224538 0.0008 3.43146e-06 5.42086e-13 -2.16583e-12 -1.98466e-12 -1.54912e-09 -2.27966e-09 -5.35575e-10 8.39789e-17 -7.14382e-18 8.86492e-16 0 0 0 0 0 0 0 0
1104 1 0.00541503 -0.00271595 0.0237243 0.0008 3.43146e-06 8.93675e-13 -5.38335e-13 -6.10142e-13 7.30861e-10 2.45998e-09 -3.17227e-10 1.0325e-15 1.73855e-15 1.60933e-16 0 0 0 0 0 0 0 0
1105 1 0.000213706 -0.000577562 0.0246541 0.0008 3.43146e-06 6.8984e-14 -2.70797e-13 -6.99342e-14 6.85355e-10 -2.89089e-10 1.64952e-10 1.61098e-16 3.21231e-16 9.5782e-16 0 0 0 0 0 0 0 0
1106 1 -0.00461615 0.00407635 0.0224301 0.0008 3.43146e-06 -2.1676e-12 8.81499e-13 2.12426e-12 1.83938e-09 3.95539e-10 -2.43145e-09 -2.77227e-16 6.6042e-16 3.30561e-16 0 0 0 0 0 0 0 0
1107 1 -0.00465395 0.000647795 0.0203076 0.0008 3.43146e-06 -1.82621e-12 -2.71274e-13 4.42539e-13 2.62003e-09 -7.82158e-10 -1.12848e-09 -2.92885e-15 5.52912e-16 2.30444e-15 0 0 0 0 0 0 0 0
1108 1 -0.00608265 -0.00385245 0.0217855 0.0008 3.43146e-06 -4.93285e-13 -1.0839e-12 -1.9144e-12 -4.92306e-10 2.61441e-09 -9.47676e-10 8.52639e-16 1.22239e-16 -1.30885e-15 1 7.54797e-07 4.13088e-07 -4.30519e-08 -0.0067585 -0.0042805 0.0217855 0.0008
1109 1 0.000488353 -0.00293666 0.0226227 0.0008 3.43146e-06 7.65518e-13 -1.0842e-12 -3.07506e-12 1.06006e-09 -8.4771e-10 3.78114e-10 1.42521e-15 9.70895e-17 1.32696e-15 0 0 0 0 0 0 0 0
1110 1 -0.00317265 0.00553622 0.0236256 0.0008 3.43146e-06 -1.07605e-12 -6.91901e-14 -3.1353e-13 -2.46502e-09 -6.78979e-10 3.03748e-10 5.01519e-16 -2.25673e-15 -7.78217e-16 0 0 0 0 0 0 0 0
1111 1 -0.00400503 -0.00226496 0.0251564 0.0008 3.43146e-06 -6.22892e-13 2.02142e-13 -1.19988e-12 -1.09201e-09 -1.05441e-09 1.30028e-10 1.80239e-15 7.84586e-16 -1.38531e-16 0 0 0 0 0 0 0 0
1112 1 0.00180858 0.00481196 0.0219756 0.0008 3.43146e-06 3.24638e-13 -1.02569e-12 -1.04209e-13 1.24943e-09 -1.6461e-09 -2.69674e-10 2.48242e-15 -1.56203e-15 1.04831e-16 0 0 0 0 0 0 0 0
1113 1 0.00339323 0.00144148 0.0245133 0.0008 3.43146e-06 8.44169e-13 5.41996e-13 -4.76738e-12 -9.82803e-10 4.86258e-09 1.11442e-09 8.64601e-16 -1.39192e-16 -5.77003e-16 0 0 0 0 0 0 0 0
1114 1 -0.00301628 -0.00307004 0.0241261 0.0008 3.43146e-06 4.61259e-13 -5.88417e-13 -1.06716e-12 7.01189e-10 8.65336e-10 -1.02796e-09 -2.46215e-15 -1.50932e-15 -2.11954e-15 0 0 0 0 0 0 0 0
1115 1 -0.00155401 0.0049542 0.0247975 0.0008 3.43146e-06 -5.35104e-13 -1.04693e-12 -2.37823e-12 1.41456e-09 -7.65036e-10 1.60702e-10 5.34713e-16 6.4081e-16 6.42356e-17 0 0 0 0 0 0 0 0
1116 1 0.000948161 -0.00713721 0.0216348 0.0008 3.43146e-06 8.06617e-13 -1.81149e-12 -6.94227e-12 3.37151e-09 -1.33042e-09 -1.17994e-09 5.4332e-16 -7.33212e-16 -1.53074e-15 0 0 0 0 0 0 0 0
1117 1 0.00163367 0.00133692 0.0197016 0.0008 3.43146e-06 -4.36012e-13 -4.6326e-13 -1.78799e-12 1.8708e-09 -5.29157e-10 9.41932e-11 8.6907e-16 -1.13802e-15 1.81816e-16 0 0 0 0 0 0 0 0
1118 1 0.00035299 -0.00559469 0.0247809 0.0008 3.43146e-06 1.30049e-13 -1.05293e-12 -1.90442e-12 -2.53069e-10 -1.08631e-09 4.1508e-10 -4.56164e-16 -9.80632e-16 4.60421e-16 0 0 0 0 0 0 0 0
1119 1 -0.00489124 -0.000833675 0.0243141 0.0008 3.43146e-06 -9.13688e-13 -2.70603e-13 2.30274e-12 -2.15701e-09 1.00863e-09 -6.41878e-10 -9.55045e-16 7.40693e-16 1.37876e-15 0 0 0 0 0 0 0 0
1120 1 0.00431494 -0.00375881 0.0242421 0.0008 3.43146e-06 6.87105e-13 -5.87727e-13 -1.97371e-12 3.73819e-09 6.15944e-10 -5.37767e-10 2.46153e-15 -1.89014e-15 -7.0528e-16 0 0 0 0 0 0 0 0
1121 1 -0.00686782 -0.00216371 0.02261 0.0008 3.43146e-06 1.83608e-12 8.71115e-13 3.96438e-13 -1.13795e-09 -8.70492e-10 3.48638e-10 -5.16669e-16 -1.16563e-15 2.44237e-16 1 0.000959751 0.000196475 -2.16875e-05 -0.00763028 -0.00240392 0.02261 0.0008
1122 1 -0.000747786 0.00132081 0.0208933 0.0008 3.43146e-06 2.67773e-13 -5.05177e-13 -7.66535e-13 -6.17477e-10 -7.8396e-10 -1.14192e-09 6.85339e-17 -9.86275e-16 2.7257e-16 0 0 0 0 0 0 0 0
1123 1 0.00546542 0.00226824 0.0211304 0.0008 3.43146e-06 -1.54772e-12 6.25578e-13 -9.75163e-13 -1.87291e-10 3.0004e-09 -9.59422e-10 3.04971e-16 1.27933e-15 -8.9664e-16 0 0 0 0 0 0 0 0
1124 1 -0.00241263 -0.000752424 0.0199083 0.0008 3.43146e-06 -2.01844e-13 1.13727e-13 -1.51401e-12 -6.32995e-11 -1.1388e-09 -5.92914e-10 1.41871e-15 -2.24929e-16 -9.48346e-16 0 0 0 0 0 0 0 0
1125 1 0.00358553 -0.00624378 0.0233236 0.0008 3.43146e-06 3.33263e-13 2.09674e-12 -3.08244e-12 -4.66713e-09 4.02923e-10 -1.66437e-09 -1.4154e-15 -1.03748e-16 8.87825e-16 1 -1.38876e-05 2.37003e-05 9.17637e-06 0.0039839 -0.00693748 0.0233236 0.0008
1126 1 -0.00171637 -0.000755274 0.0221257 0.0008 3.43146e-06 5.4164e-13 1.97265e-13 5.7331e-13 8.68694e-10 9.31279e-10 1.53297e-09 -6.54722e-17 3.62587e-16 -1.03824e-16 0 0 0 0 0 0 0 0
1127 1 0.000370511 -0.0036634 0.0212025 0.0008 3.43146e-06 1.35523e-13 -5.52009e-13 -7.96905e-13 -1.59241e-09 1.60863e-09 -1.00188e-09 2.90838e-16 -2.15629e-15 -9.36248e-16 0 0 0 0 0 0 0 0
1128 1 0.00294161 -0.00492302 0.0210602 0.0008 3.43146e-06 1.168e-13 -1.71572e-12 -4.35416e-12 3.85943e-09 -1.12121e-09 -2.16201e-09 -2.31655e-16 1.93313e-16 -4.51073e-16 0 0 0 0 0 0 0 0
1129 1 -0.00205646 -0.00447104 0.0241129 0.0008 3.43146e-06 -8.49035e-13 -2.16674e-12 -1.82718e-13 -1.87581e-09 -9.6162e-10 -8.74241e-10 8.21403e-16 -3.94254e-16 9.09315e-16 0 0 0 0 0 0 0 0
1130 1 -0.00699642 0.0014877 0.0250746 0.0008 3.43146e-06 3.54876e-14 1.55363e-13 2.84882e-12 -2.26332e-09 3.062e-09 -1.71745e-09 -1.32451e-15 -5.25972e-16 -2.80549e-15 0 0 0 0 0 0 0 0
1131 1 0.0035341 0.00494982 0.0246921 0.0008 3.43146e-06 -2.21493e-13 -8.84392e-13 -2.27788e-12 6.43607e-10 -2.6778e-09 -1.29895e-09 -1.985e-15 9.31557e-16 -4.43337e-16 0 0 0 0 0 0 0 0
1132 1 -0.00520911 0.00497103 0.0259257 0.0008 3.43146e-06 -1.32744e-12 4.97012e-13 1.62859e-13 -5.3154e-10 2.37002e-10 -6.74679e-10 7.83198e-16 -8.21398e-16 9.71168e-16 1 0.000427103 -0.000365134 -2.70393e-06 -0.00578757 0.00552305 0.0259257 0.0008
1133 1 0.00144258 -0.00478165 0.0216003 0.0008 3.43146e-06 5.40898e-13 -1.5843e-12 -2.96354e-12 1.9489e-09 2.35303e-09 -1.86367e-10 -3.59597e-16 -1.30592e-15 -3.48952e-16 0 0 0 0 0 0 0 0
1134 1 0.00594167 0.00379241 0.0210308 0.0008 3.43146e-06 -1.31008e-12 -6.86024e-13 1.07373e-12 2.77688e-09 -2.99768e-09 1.54128e-10 -1.16073e-15 7.66956e-16 4.26101e-16 0 0 0 0 0 0 0 0
1135 1 -0.00325812 0.000711538 0.0195286 0.0008 3.43146e-06 -7.67664e-13 -2.71031e-13 2.65067e-13 -2.74313e-10 4.50256e-10 -3.07905e-10 -2.16925e-16 7.53998e-17 2.82573e-16 0 0 0 0 0 0 0 0
1136 1 -0.00279195 -0.00221039 0.021157 0.0008 3.43146e-06 3.29628e-13 -1.08356e-12 7.74231e-13 3.56339e-09 1.61052e-09 1.31637e-10 1.0158e-15 -9.02543e-17 -4.87424e-16 0 0 0 0 0 0 0 0
1137 1 -0.000567595 -0.00412233 0.022426 0.0008 3.43146e-06 2.71211e-13 8.06296e-13 -2.6919e-12 -3.22259e-09 -9.61012e-10 -2.74599e-09 -5.22152e-18 -3.05517e-15 2.93139e-15 0 0 0 0 0 0 0 0
1138 1 -0.00698782 -0.00172871 0.0241445 0.0008 3.43146e-06 2.56756e-13 -6.46306e-14 -1.92477e-12 1.35151e-09 -7.96107e-10 1.84488e-09 -5.97648e-16 -7.25488e-16 2.82193e-16 0 0 0 0 0 0 0 0
1139 1 0.000581172 0.000519074 0.0225997 0.0008 3.43146e-06 -2.70343e-13 -2.26856e-13 -1.48137e-12 -1.27644e-09 -2.96019e-10 2.59321e-10 -2.96829e-16 2.55586e-15 1.33822e-15 0 0 0 0 0 0 0 0
1140 1 0.000546801 0.00717935 0.0212759 0.0008 3.43146e-06 2.51695e-13 -2.68672e-13 -3.76411e-13 6.59389e-10 2.17329e-09 3.43606e-10 -2.75298e-16 6.93635e-16 -3.25903e-16 1 6.79405e-06 -0.000113689 8.42263e-07 0.000607545 0.0079769 0.0212759 0.0008
1141 1 -0.00557382 -0.00225892 0.0216751 0.0008 3.43146e-06 1.24912e-12 -4.2519e-13 1.76429e-12 -2.21627e-09 8.16932e-11 -2.98809e-12 4.3136e-16 -1.5818e-15 2.20062e-15 0 0 0 0 0 0 0 0
1142 1 0.00397562 -0.00216647 0.021692 0.0008 3.43146e-06 -3.26536e-13 -1.66301e-13 -8.72004e-13 -5.44991e-09 -3.85049e-10 -7.86269e-10 9.82159e-16 -1.77952e-15 -1.00558e-15 0 0 0 0 0 0 0 0
1143 1 -0.00318274 -0.00131847 0.022426 0.0008 3.43146e-06 1.0834e-12 1.38329e-13 1.96721e-12 -4.0673e-09 -1.92265e-10 -6.80458e-10 1.73275e-16 2.18793e-16 2.66403e-16 0 0 0 0 0 0 0 0
1144 1 0.00401159 0.00274321 0.0233973 0.0008 3.43146e-06 -2.11739e-12 5.98729e-13 -3.22569e-12 3.56571e-09 3.51895e-10 -7.25894e-10 6.01719e-16 2.03656e-15 8.96355e-16 0 0 0 0 0 0 0 0
1145 1 0.00710646 0.00115724 0.0206847 0.0008 3.43146e-06 4.50113e-14 -5.42062e-13 -2.0866e-12 -3.42047e-10 -2.64611e-09 6.85695e-10 1.88898e-15 1.9729e-17 -4.03661e-15 1 -3.98093e-05 -2.91819e-06 -7.93534e-06 0.00789599 0.00128582 0.0206847 0.0008
1146 1 0.00438107 0.00316525 0.0203705 0.0008 3.43146e-06 -1.45223e-12 3.17157e-13 1.9059e-12 1.14397e-09 9.18902e-11 5.53196e-10 9.0566e-16 1.57159e-15 -7.78252e-16 0 0 0 0 0 0 0 0
1147 1 -0.00131936 0.00707823 0.0179447 0.0008 3.43146e-06 -5.42023e-13 5.30794e-13 1.0909e-12 -1.35666e-09 6.35361e-11 -5.86847e-10 4.20312e-17 -3.31723e-16 -1.49133e-15 1 1.39914e-05 -0.000110729 2.59704e-05 -0.00146593 0.00786454 0.0179447 0.0008
1148 1 -0.00415521 0.00375246 0.0239269 0.0008 3.43146e-06 -1.95609e-12 8.82328e-13 -1.10384e-12 -7.80498e-10 8.97261e-10 3.24724e-09 2.29022e-16 -2.23945e-15 -1.43792e-16 0 0 0 0 0 0 0 0
1149 1 0.0034015 0.00492095 0.0220764 0.0008 3.43146e-06 1.08378e-12 -1.16732e-12 1.81113e-12 -1.26712e-09 -6.15092e-10 -2.02587e-11 -5.50688e-16 -9.96604e-16 1.6755e-15 0 0 0 0 0 0 0 0
1150 1 0.00447189 0.00373619 0.0218619 0.0008 3.43146e-06 -1.04559e-12 -8.96534e-13 9.6781e-13 -3.98387e-11 1.05311e-09 7.44967e-10 3.45376e-16 9.98933e-16 -2.99901e-17 0 0 0 0 0 0 0 0
1151 1 0.00513568 0.00504644 0.0188168 0.0008 3.43146e-06 -1.15885e-12 -1.49187e-12 -1.02417e-12 2.75936e-10 -1.56751e-09 2.9761e-10 2.85158e-16 -8.88607e-17 -6.06674e-16 1 -6.8776e-05 -6.32233e-05 1.77277e-05 0.00570621 0.00560706 0.0188168 0.0008
1152 1 -0.0024161 0.00529611 0.0215366 0.0008 3.43146e-06 -9.19625e-13 -7.90047e-13 -3.47443e-13 -3.40787e-09 -1.07283e-09 9.95294e-10 -4.79323e-16 -1.99073e-15 -4.62795e-15 0 0 0 0 0 0 0 0
1153 1 0.00249451 0.00525445 0.0233515 0.0008 3.43146e-06 1.04162e-12 -6.28553e-13 2.57816e-12 -1.6357e-10 1.42777e-09 1.3431e-09 1.74738e-15 -4.84729e-15 -2.25213e-16 0 0 0 0 0 0 0 0
1154 1 0.00255724 -0.00673081 0.0221729 0.0008 3.43146e-06 8.37388e-13 -1.50866e-12 -2.03499e-12 -1.11175e-09 -4.02345e-09 -2.68142e-10 4.16448e-17 -3.78436e-17 7.67611e-17 1 -0.000101874 0.000202925 -1.83768e-05 0.00284128 -0.00747844 0.0221729 0.0008
1155 1 0.00385104 -0.00600621 0.0189608 0.0008 3.43146e-06 1.08419e-12 -2.16703e-12 6.34137e-13 -5.07625e-10 3.18995e-09 1.47308e-11 -2.7564e-16 -3.76458e-16 -1.6914e-15 0 0 0 0 0 0 0 0
1156 1 0.0039186 -0.000101516 0.0207382 0.0008 3.43146e-06 -1.93144e-12 5.78969e-14 -8.59626e-13 1.3378e-10 -1.76096e-09 -2.39443e-09 1.54434e-15 3.7612e-16 -1.09092e-15 0 0 0 0 0 0 0 0
1157 1 0.00302615 -0.00351673 0.0218182 0.0008 3.43146e-06 1.01908e-12 -1.00781e-12 -2.26063e-12 -1.82285e-09 2.2077e-09 1.46644e-09 -1.46457e-15 9.23709e-16 -3.30702e-15 0 0 0 0 0 0 0 0
1158 1 0.000246771 -0.00549977 0.0223832 0.0008 3.43146e-06 1.32794e-13 -1.60371e-13 -1.83775e-12 -8.01961e-10 -2.67004e-11 -3.09465e-09 -1.93059e-16 -2.41642e-15 5.11268e-17 0 0 0 0 0 0 0 0
1159 1 0.0055578 -0.00457774 0.023656 0.0008 3.43146e-06 -2.16377e-13 3.98587e-13 -1.77205e-12 -1.22061e-09 -1.85874e-09 -1.03541e-10 -1.28083e-17 -1.28116e-15 5.58334e-16 1 -0.000353117 0.000218112 2.64334e-05 0.00617504 -0.00508614 0.023656 0.0008
1160 1 -0.00357755 -0.00624842 0.021354 0.0008 3.43146e-06 -4.4718e-13 -8.31682e-13 1.5947e-12 2.74877e-09 5.91874e-10 1.66354e-12 -2.97715e-16 1.05262e-15 1.06271e-15 1 4.05954e-05 6.63797e-05 1.35521e-05 -0.00397499 -0.00694258 0.021354 0.0008
1161 1 0.00423558 -0.00171571 0.0232498 0.0008 3.43146e-06 1.6935e-12 1.75265e-13 1.03585e-12 4.63563e-09 3.91171e-09 -2.64768e-09 -2.4185e-15 2.94989e-16 -5.84707e-16 0 0 0 0 0 0 0 0
1162 1 -0.00334295 0.00637717 0.0222655 0.0008 3.43146e-06 2.72857e-13 -1.19307e-12 -1.64889e-12 9.08204e-10 2.69074e-09 -4.00432e-10 1.61323e-15 -4.4709e-16 -4.02696e-15 1 0.000144094 -0.000222751 -5.52368e-05 -0.00371426 0.0070855 0.0222655 0.0008
1163 1 -0.00102035 -0.00581592 0.019963 0.0008 3.43146e-06 -5.18002e-13 -4.36991e-14 -4.25456e-12 6.28041e-10 -3.5247e-10 1.27e-09 6.33279e-16 -2.54723e-15 -1.04275e-16 0 0 0 0 0 0 0 0
1164 1 -0.00697817 0.00177457 0.0211552 0.0008 3.43146e-06 -1.2903e-12 5.39032e-13 -3.40814e-12 -1.46047e-10 4.39396e-09 2.6848e-10 -1.08857e-16 -6.80754e-16 6.1059e-16 1 0.000294627 -8.79747e-05 4.59913e-06 -0.00775323 0.00197167 0.0211552 0.0008
1165 1 -0.00626784 -0.000838586 0.0219443 0.0008 3.43146e-06 1.68269e-12 2.11663e-13 -1.06135e-12 -1.13157e-09 7.71634e-10 -8.75575e-11 1.39311e-15 -1.88524e-15 1.34484e-15 0 0 0 0 0 0 0 0
1166 1 -0.0047008 -0.000405305 0.0191044 0.0008 3.43146e-06 -5.73028e-13 1.35579e-13 -3.9218e-13 -1.61254e-09 -1.52621e-09 8.06428e-10 -1.12364e-16 -3.6646e-16 -1.35553e-15 0 0 0 0 0 0 0 0
1167 1 0.00575186 -0.000814336 0.0233017 0.0008 3.43146e-06 -1.25161e-12 -2.71044e-13 1.05496e-12 1.17377e-09 -7.43386e-10 -4.57715e-10 -1.4605e-15 9.68772e-17 1.63894e-15 0 0 0 0 0 0 0 0
1168 1 0.00152612 0.00357744 0.0230415 0.0008 3.43146e-06 -3.77283e-13 -5.56985e-13 -2.51362e-12 8.37944e-11 8.24842e-10 1.33222e-10 3.40945e-16 4.05222e-16 5.29969e-16 0 0 0 0 0 0 0 0
1169 1 -0.00395171 0.0015031 0.0224323 0.0008 3.43146e-06 -2.00396e-12 3.0502e-13 8.05511e-14 7.11323e-09 -2.47428e-09 1.08652e-09 3.11506e-15 -3.08252e-16 -4.97219e-16 0 0 0 0 0 0 0 0
1170 1 0.00613953 0.00376141 0.0241863 0.0008 3.43146e-06 -1.11464e-12 -8.46122e-13 -3.26396e-13 -4.88091e-10 -7.67128e-10 1.90899e-10 -3.04811e-16 9.31132e-16 -2.65469e-16 1 -8.31675e-05 -7.5569e-05 -1.89388e-05 0.00682156 0.00417927 0.0241863 0.0008
1171 1 0.00054323 0.00405648 0.0204753 0.0008 3.43146e-06 -2.71052e-13 -2.16561e-12 -5.16802e-13 1.0403e-09 1.55733e-10 3.91933e-09 -5.36671e-17 9.67123e-16 -1.74002e-15 0 0 0 0 0 0 0 0
1172 1 -0.000447649 -0.00718657 0.0192977 0.0008 3.43146e-06 -1.35059e-13 -1.89658e-12 -1.56219e-12 -2.1582e-09 -3.6124e-09 -1.9907e-11 3.74564e-17 2.5849e-17 -4.87126e-17 1 7.29744e-05 0.000747783 3.07524e-05 -0.000497353 -0.00798453 0.0192977 0.0008
1173 1 -0.0013163 0.00707885 0.0222789 0.0008 3.43146e-06 -2.93214e-14 4.16e-13 6.04624e-13 -4.05387e-10 -2.08776e-09 4.78422e-11 8.54487e-16 4.63555e-16 9.51737e-16 1 2.62556e-05 -0.000170433 1.06729e-05 -0.00146252 0.00786518 0.0222789 0.0008
1174 1 0.00712331 0.00069951 0.0238332 0.0008 3.43146e-06 -1.09868e-12 2.71052e-13 3.52063e-12 6.86053e-10 -1.11106e-09 4.91292e-11 3.13592e-16 2.57781e-17 8.3361e-16 0 0 0 0 0 0 0 0
1175 1 -0.00309349 9.62651e-05 0.0246725 0.0008 3.43146e-06 -1.08364e-12 2.07877e-14 2.95799e-12 -2.53031e-09 3.39958e-09 -3.38097e-10 8.65976e-17 -1.15622e-15 -4.31824e-15 0 0 0 0 0 0 0 0
1176 1 0.00064417 0.00219797 0.0207794 0.0008 3.43146e-06 -2.70931e-13 -1.44766e-13 -8.76098e-13 -1.28733e-09 -1.57287e-09 3.65336e-11 -4.6071e-16 1.02659e-15 2.39737e-15 0 0 0 0 0 0 0 0
1177 1 -0.00467047 -0.00096897 0.0219545 0.0008 3.43146e-06 9.93123e-13 -2.70693e-13 5.05528e-13 -5.50265e-11 -6.54562e-10 6.46495e-11 7.27659e-16 -3.04379e-16 1.12994e-15 0 0 0 0 0 0 0 0
1178 1 0.00281534 -0.000325324 0.0244632 0.0008 3.43146e-06 1.06639e-12 2.03425e-13 9.07233e-13 -1.05032e-09 -3.39878e-10 -7.11084e-10 -9.74435e-16 -1.72531e-16 -6.47303e-16 0 0 0 0 0 0 0 0
1179 1 -0.00199047 0.00384218 0.0237335 0.0008 3.43146e-06 3.6513e-13 1.0837e-12 -5.88203e-14 -1.39163e-09 1.29276e-09 3.32717e-10 -1.45811e-15 7.90787e-16 1.43073e-15 0 0 0 0 0 0 0 0
1180 1 -0.00541033 -0.00243479 0.0194804 0.0008 3.43146e-06 -7.66242e-13 -4.08915e-13 1.4099e-12 -1.09646e-09 2.13522e-10 -1.18086e-09 4.66713e-16 9.44114e-16 -2.68659e-16 0 0 0 0 0 0 0 0
1181 1 0.00152252 0.00167159 0.0220136 0.0008 3.43146e-06 -5.42103e-13 -4.64293e-13 -1.67847e-12 -1.0798e-10 -7.85479e-10 4.97949e-10 -7.69054e-16 -7.01358e-16 1.11733e-15 0 0 0 0 0 0 0 0
1182 1 -0.000972136 -0.00205953 0.0242323 0.0008 3.43146e-06 -2.71721e-14 -5.75266e-13 -7.60594e-13 8.22656e-10 -1.59663e-11 8.9865e-12 1.32556e-15 3.38681e-15 -4.12301e-15 0 0 0 0 0 0 0 0
1183 1 -0.00547633 -0.00109829 0.0205787 0.0008 3.43146e-06 1.57217e-12 -5.41851e-13 -6.27234e-13 -1.05302e-10 -7.59493e-10 2.6292e-10 1.61128e-15 -3.00693e-17 1.37137e-15 0 0 0 0 0 0 0 0
1184 1 0.00539965 -0.00476357 0.0220751 0.0008 3.43146e-06 1.95737e-12 -8.63098e-13 -8.96496e-13 -6.69482e-10 -8.96183e-10 -8.0702e-10 -7.88191e-16 -2.22941e-15 1.29336e-16 1 -0.000605508 0.000592789 6.94991e-05 0.00599915 -0.00529246 0.0220751 0.0008
1185 1 -0.00621206 0.00364011 0.0223879 0.0008 3.43146e-06 2.08266e-12 -1.49409e-13 8.37505e-13 -1.78258e-09 -8.22816e-11 1.1055e-09 1.70177e-15 -1.8892e-15 -4.50888e-17 1 2.04691e-06 -1.12839e-06 -4.981e-08 -0.00690228 0.00404456 0.0223879 0.0008
1186 1 0.000585025 -0.0068531 0.0231668 0.0008 3.43146e-06 8.13175e-13 -1.03042e-12 8.22518e-13 -2.66358e-09 3.60012e-09 1.49534e-09 -5.07071e-18 -1.50972e-15 7.0269e-17 0 0 0 0 0 0 0 0
1187 1 -0.000153602 0.00456325 0.0254644 0.0008 3.43146e-06 -6.14462e-14 -6.82204e-13 -2.08879e-12 -3.13779e-09 9.91188e-10 -2.66662e-10 -6.95656e-17 -3.22227e-16 1.23148e-15 0 0 0 0 0 0 0 0
1188 1 -0.00509899 -0.00508341 0.0214067 0.0008 3.43146e-06 -1.1153e-12 -1.04476e-12 -2.33281e-12 2.06266e-09 6.16879e-09 5.99653e-11 -4.25671e-16 4.04142e-16 4.06054e-16 1 1.95184e-05 1.58162e-05 -3.54257e-06 -0.00566551 -0.00564819 0.0214067 0.0008
1189 1 -0.0016269 0.00700088 0.0195128 0.0008 3.43146e-06 3.06974e-13 -8.09465e-13 1.1724e-12 3.12827e-09 1.04809e-09 2.42909e-10 3.03938e-16 1.13532e-15 1.53541e-15 0 0 0 0 0 0 0 0
1190 1 0.0038328 0.00229418 0.0215953 0.0008 3.43146e-06 -1.02209e-12 -6.81278e-13 8.43538e-13 8.77222e-10 3.81539e-10 -5.41855e-10 8.42551e-16 -2.95842e-16 4.47741e-16 0 0 0 0 0 0 0 0
1191 1 -0.00575304 -0.00432969 0.0245748 0.0008 3.43146e-06 -1.01265e-13 -1.07952e-12 1.27581e-12 5.85952e-10 -1.55735e-09 -1.00908e-09 -7.41106e-16 2.40654e-16 8.83887e-17 1 0.000238635 0.000136189 4.70112e-06 -0.00639204 -0.0048106 0.0245748 0.0008
1192 1 0.00430349 5.21571e-05 0.0191931 0.0008 3.43146e-06 -1.41208e-13 -1.18274e-14 -7.64818e-13 2.57806e-10 -3.57784e-10 3.36434e-10 -3.07322e-16 5.4486e-17 -7.41441e-16 0 0 0 0 0 0 0 0
1193 1 0.00321938 0.00115946 0.0195903 0.0008 3.43146e-06 -2.90199e-13 -5.3841e-13 -8.29541e-13 1.28209e-09 -1.07915e-09 -3.52155e-10 -4.95773e-16 1.9782e-16 -4.91155e-16 0 0 0 0 0 0 0 0
1194 1 -0.00719603 -0.000244266 0.0247038 0.0008 3.43146e-06 -1.46081e-12 1.07362e-13 -3.60231e-13 3.6354e-10 4.41311e-10 1.53312e-10 -1.01257e-16 -4.63441e-17 4.49167e-16 1 0.000159032 -1.15574e-05 1.80264e-05 -0.0079954 -0.0002714 0.0247038 0.0008
1195 1 0.000114279 -0.00208868 0.0213186 0.0008 3.43146e-06 1.96687e-13 -1.08214e-12 -1.29594e-12 4.37529e-10 1.24701e-09 1.19911e-09 8.12278e-16 -3.90477e-16 6.16453e-16 0 0 0 0 0 0 0 0
1196 1 -0.00152719 -0.00302363 0.0217023 0.0008 3.43146e-06 5.41964e-13 -5.91586e-14 -9.53421e-13 -1.55117e-09 -7.01801e-10 1.62275e-09 -3.64955e-16 1.55374e-16 1.06354e-16 0 0 0 0 0 0 0 0
1197 1 -0.000870886 0.00614269 0.0239728 0.0008 3.43146e-06 -1.17166e-13 -6.07789e-16 -9.30142e-13 3.51072e-11 -1.04156e-09 8.14016e-10 3.6609e-16 1.4654e-15 3.11685e-15 0 0 0 0 0 0 0 0
1198 1 0.00436196 -0.000494187 0.0222244 0.0008 3.43146e-06 -4.02344e-13 -2.56907e-13 3.63847e-12 -1.96154e-09 2.55317e-09 3.54341e-10 1.32343e-16 -5.22007e-16 -1.72148e-16 0 0 0 0 0 0 0 0
1199 1 0.000573654 -0.00191139 0.0238477 0.0008 3.43146e-06 2.70932e-13 -5.41998e-13 -9.20072e-13 8.91139e-11 5.52906e-11 -2.08738e-10 5.34896e-16 1.40095e-16 -2.44229e-15 0 0 0 0 0 0 0 0
1200 1 -0.000806133 -0.00715496 0.0255139 0.0008 3.43146e-06 -1.24307e-13 -1.01435e-12 5.62987e-14 4.40449e-11 1.78044e-10 3.56592e-11 -1.85292e-15 1.35155e-15 -2.12172e-17 1 3.99225e-05 0.000234319 1.50641e-05 -0.000895674 -0.0079497 0.0255139 0.0008
1201 1 0.00369915 -0.00617778 0.0253637 0.0008 3.43146e-06 3.08194e-13 -4.43984e-13 -6.24914e-14 -6.34781e-11 -6.11069e-11 -2.25311e-11 1.2064e-16 -2.10232e-15 3.69402e-16 1 -0.000512875 0.000861717 -6.9867e-05 0.00410983 -0.00686362 0.0253637 0.0008
1202 1 0.0003185 0.00436289 0.0223462 0.0008 3.43146e-06 -9.77519e-14 -6.85516e-13 -5.19734e-13 3.07603e-10 1.36862e-09 -5.97499e-10 1.0394e-15 8.57574e-16 -1.03125e-15 0 0 0 0 0 0 0 0
1203 1 0.000591044 -0.00717591 0.0247338 0.0008 3.43146e-06 1.48422e-14 1.75752e-12 -6.09749e-13 -3.69191e-10 -4.87952e-09 -2.05378e-10 -6.6334e-16 -1.05936e-15 -2.43027e-16 1 -9.00169e-06 0.000200668 2.74264e-06 0.000656696 -0.007973 0.0247338 0.0008
1204 1 0.00718417 -0.000415709 0.020982 0.0008 3.43146e-06 -1.6581e-12 1.5759e-13 2.53927e-12 -8.75722e-10 -6.91382e-10 2.18644e-09 -2.20457e-15 1.83624e-15 3.50405e-15 0 0 0 0 0 0 0 0
1205 1 0.00604606 -0.00390968 0.0208845 0.0008 3.43146e-06 2.11039e-12 1.15433e-12 1.05651e-12 8.81234e-09 -4.13015e-09 -2.64553e-09 1.40658e-15 2.35715e-15 7.36214e-17 1 -8.52239e-06 6.35043e-06 -2.17219e-07 0.00671781 -0.00434407 0.0208845 0.0008
1206 1 -0.00714326 0.00090488 0.0235921 0.0008 3.43146e-06 8.62603e-14 2.48352e-13 2.66358e-12 2.33072e-09 -3.70061e-09 3.26352e-10 -1.60387e-16 -4.19486e-16 -2.59779e-16 1 0.000426945 -0.000128737 1.95482e-06 -0.00793658 0.00100537 0.0235921 0.0008
1207 1 0.00326856 -0.00298892 0.0233087 0.0008 3.43146e-06 9.80252e-13 9.87695e-13 -1.05553e-12 2.88794e-10 -1.72113e-09 1.16678e-09 -7.43392e-16 3.64759e-16 6.05965e-16 0 0 0 0 0 0 0 0
1208 1 -0.00299415 0.00448691 0.0197301 0.0008 3.43146e-06 -1.08291e-12 -2.11861e-12 8.44488e-13 4.72744e-10 2.99545e-10 1.52652e-09 -3.77054e-16 1.88352e-15 1.8432e-15 0 0 0 0 0 0 0 0
1209 1 -0.00472986 0.0054292 0.0232755 0.0008 3.43146e-06 4.56177e-13 -8.13377e-13 7.03063e-13 -2.20066e-09 1.18566e-09 -2.45422e-10 1.47725e-15 1.56671e-16 1.05142e-15 1 0.000431274 -0.000748582 0.000102113 -0.00525501 0.00603199 0.0232755 0.0008
1210 1 -0.00405376 0.00595085 0.020897 0.0008 3.43146e-06 1.08924e-13 3.92728e-13 3.60214e-14 7.34724e-10 -1.19242e-09 3.95346e-10 -6.09674e-17 1.22378e-15 -1.93211e-16 1 0.000178164 -0.000487446 1.81525e-05 -0.00450394 0.0066117 0.020897 0.0008
1211 1 0.00285589 0.0037249 0.0239183 0.0008 3.43146e-06 9.86761e-13 4.00974e-13 -2.21682e-12 -1.17613e-09 -2.31965e-10 3.85797e-10 1.24588e-16 7.88414e-16 2.33964e-15 0 0 0 0 0 0 0 0
1212 1 -0.006309 -0.00346952 0.0233459 0.0008 3.43146e-06 1.51559e-12 7.0769e-13 9.05446e-13 1.19104e-09 -6.46088e-10 -1.33039e-10 -9.66022e-16 -7.2926e-16 -2.91062e-16 1 3.65489e-05 1.16469e-05 2.94548e-06 -0.00700993 -0.00385498 0.0233459 0.0008
1213 1 -0.00582074 -0.00423906 0.0202552 0.0008 3.43146e-06 -1.09099e-12 -1.78674e-12 1.48126e-12 -1.0472e-09 -3.05401e-09 -9.93914e-10 -2.37518e-16 4.42559e-16 -7.59854e-16 1 0.00102981 0.000872849 -0.000104896 -0.00646683 -0.00470958 0.0202552 0.0008
1214 1 -0.00576503 0.00431375 0.0237684 0.0008 3.43146e-06 1.09447e-13 -2.82191e-13 4.76073e-13 1.68523e-09 -2.00716e-09 -2.18805e-10 1.08927e-15 -1.32266e-15 6.60151e-16 1 0.000244767 -0.000190521 3.38178e-05 -0.00640534 0.00479287 0.0237684 0.0008
1215 1 -0.00186665 0.00328444 0.0222388 0.0008 3.43146e-06 5.41531e-13 -1.00719e-12 1.68164e-13 -3.40946e-10 9.11675e-10 -4.65949e-10 -2.07218e-16 1.96211e-15 2.54661e-15 0 0 0 0 0 0 0 0
1216 1 -0.00312855 0.00648525 0.0197066 0.0008 3.43146e-06 8.63087e-14 -8.9348e-13 1.51036e-12 -1.98642e-09 -2.57798e-10 -3.96287e-10 -2.69156e-16 1.66636e-15 -2.50675e-16 1 0.000234716 -0.000563561 -4.07414e-05 -0.00347596 0.0072054 0.0197066 0.0008
1217 1 0.00672271 -0.00257903 0.0214689 0.0008 3.43146e-06 1.30614e-12 -7.5307e-13 2.29051e-13 2.31726e-09 -5.83876e-10 2.97392e-10 -2.33378e-16 5.64075e-16 3.26033e-16 1 -0.000551834 0.000232494 4.03308e-05 0.00746923 -0.00286542 0.0214689 0.0008
1218 1 0.00299995 0.00385773 0.0207863 0.0008 3.43146e-06 8.90381e-13 1.08343e-12 2.38726e-12 -6.35199e-10 9.61641e-10 -2.83967e-09 2.70097e-15 -2.97043e-17 -1.8932e-15 0 0 0 0 0 0 0 0
1219 1 -0.00425694 -0.00372296 0.0191069 0.0008 3.43146e-06 1.33796e-12 -1.08406e-12 -1.27567e-12 -5.41824e-10 -3.38166e-10 2.26846e-09 -1.29766e-15 -4.04187e-17 -9.97838e-16 0 0 0 0 0 0 0 0
1220 1 -0.000483623 -0.00718412 0.0208969 0.0008 3.43146e-06 -4.85315e-14 -2.30947e-13 -2.77406e-13 -3.30772e-12 3.80273e-09 9.68934e-11 1.92507e-16 -2.6172e-16 9.54057e-16 1 -7.78896e-05 0.00050902 5.62405e-05 -0.000537331 -0.00798193 0.0208969 0.0008
1221 1 0.00378932 -0.0014254 0.0198497 0.0008 3.43146e-06 -1.0839e-12 5.42032e-13 6.19067e-13 -1.38379e-09 7.13679e-10 2.67287e-09 3.97546e-16 6.62792e-17 -2.55448e-15 0 0 0 0 0 0 0 0
1222 1 0.00369299 0.00618114 0.0211353 0.0008 3.43146e-06 1.22843e-13 -2.65421e-13 5.27173e-13 9.05731e-10 2.82802e-09 2.83117e-10 -1.29484e-15 -1.94831e-15 -9.73292e-16 1 -0.000201475 -0.000337612 7.91994e-07 0.00410314 0.00686762 0.0211353 0.0008
1223 1 0.000533349 -0.00411793 0.0237171 0.0008 3.43146e-06 2.68216e-13 -3.04724e-13 -9.51356e-13 6.31919e-11 3.04616e-09 -1.5168e-09 1.86698e-17 -1.15147e-15 -3.42017e-15 0 0 0 0 0 0 0 0
1224 1 -0.00421868 -0.00577364 0.0227404 0.0008 3.43146e-06 -1.58214e-12 -1.85131e-13 1.00943e-12 -2.27013e-09 -3.14189e-09 -2.97657e-09 4.69296e-17 5.16611e-16 -1.73693e-15 0 0 0 0 0 0 0 0
1225 1 0.00262269 -0.00152749 0.0233861 0.0008 3.43146e-06 6.77509e-13 -4.62938e-13 -1.3098e-12 -1.62041e-09 4.17321e-09 5.0101e-11 -2.13788e-15 -4.39191e-16 1.8052e-15 0 0 0 0 0 0 0 0
1226 1 0.00303284 0.00653004 0.0225497 0.0008 3.43146e-06 5.6404e-13 -1.12499e-12 4.31627e-12 1.91395e-09 -8.39652e-10 -1.73506e-09 -2.41562e-15 -7.83215e-16 -2.19941e-15 0 0 0 0 0 0 0 0
1227 1 -0.00554283 0.0019672 0.0204759 0.0008 3.43146e-06 -3.25468e-13 -2.60581e-13 -1.52955e-12 -9.32238e-11 -7.00497e-09 -1.2604e-09 7.81203e-16 -3.21139e-15 2.03015e-15 0 0 0 0 0 0 0 0
1228 1 -0.00215726 -0.00687018 0.0209597 0.0008 3.43146e-06 1.91619e-13 -7.71029e-13 9.69113e-13 7.74546e-10 -1.52625e-09 -5.14581e-10 1.46273e-15 -4.62982e-16 -3.73304e-18 1 0.000951328 0.00165751 0.000305282 -0.00239665 -0.00763257 0.0209597 0.0008
1229 1 -0.000350987 0.00128352 0.0236508 0.0008 3.43146e-06 -1.34898e-13 -3.70001e-13 -1.11652e-12 1.00548e-09 1.17697e-09 4.92827e-10 7.53193e-16 1.41199e-15 1.60832e-15 0 0 0 0 0 0 0 0
1230 1 -0.00225983 -0.00683654 0.0230832 0.0008 3.43146e-06 1.03096e-12 -8.41752e-13 -1.07808e-12 -1.87962e-09 -1.38985e-09 -1.5454e-09 -5.25074e-16 1.11336e-15 -9.40211e-16 1 0.00013522 0.00042114 2.32271e-05 -0.0025108 -0.00759578 0.0230832 0.0008
1231 1 0.00410432 -0.00476229 0.0230138 0.0008 3.43146e-06 2.00661e-12 2.26326e-13 -5.6713e-12 -2.09346e-10 -3.91462e-09 -2.18555e-10 -5.79959e-17 -9.18563e-16 2.38848e-15 0 0 0 0 0 0 0 0
1232 1 1.22373e-05 0.00720042 0.0247851 0.0008 3.43146e-06 5.87919e-14 -1.94118e-14 -9.39343e-13 1.1739e-09 2.5769e-09 8.555e-11 3.78616e-16 -3.03365e-15 7.48332e-16 1 -4.67156e-05 -0.000597761 1.87846e-05 1.35962e-05 0.00799999 0.0247851 0.0008
1233 1 0.000527219 -0.00107522 0.0224847 0.0008 3.43146e-06 2.69495e-13 -5.36246e-13 -6.15066e-13 1.25607e-10 -8.57909e-11 3.96683e-10 4.28116e-16 6.6673e-16 4.78329e-16 0 0 0 0 0 0 0 0
1234 1 0.00511114 0.00107266 0.0182626 0.0008 3.43146e-06 7.88561e-14 5.41699e-13 -1.73172e-12 -8.95699e-10 5.60674e-10 1.81193e-10 4.33582e-16 -2.42389e-16 3.49355e-18 0 0 0 0 0 0 0 0
1235 1 -0.000706365 3.85913e-05 0.0197574 0.0008 3.43146e-06 2.70819e-13 -9.79175e-14 -1.35402e-12 2.50422e-10 2.45586e-10 -5.26846e-10 5.92021e-17 4.27891e-16 -9.92327e-16 0 0 0 0 0 0 0 0
1236 1 -0.00340018 -0.00132732 0.0240105 0.0008 3.43146e-06 -6.78211e-13 5.33767e-13 2.67702e-12 3.46598e-09 -1.89817e-09 1.47192e-09 1.10797e-15 -9.22738e-16 -1.48349e-15 0 0 0 0 0 0 0 0
1237 1 -0.00615392 -0.000345489 0.0234619 0.0008 3.43146e-06 9.54773e-13 3.80486e-14 2.43586e-12 2.61608e-09 -2.18136e-09 -2.69731e-10 1.91783e-16 -6.55478e-16 2.63441e-15 0 0 0 0 0 0 0 0
1238 1 -0.0020378 0.00225757 0.021024 0.0008 3.43146e-06 1.03307e-12 -1.08061e-12 -1.70584e-12 1.79785e-09 -1.34446e-09 1.04921e-09 -2.36993e-15 6.43659e-16 6.2733e-15 0 0 0 0 0 0 0 0
1239 1 0.00473685 0.001317 0.020071 0.0008 3.43146e-06 -2.1376e-12 4.01533e-13 -7.29069e-15 4.64228e-10 -4.27251e-10 2.33488e-09 -2.6412e-16 1.46141e-15 -4.52824e-16 0 0 0 0 0 0 0 0
1240 1 -0.00288601 0.000344339 0.0221479 0.0008 3.43146e-06 -8.52585e-13 1.35499e-13 -3.0534e-12 7.52961e-10 -7.11392e-10 -1.58736e-09 7.3796e-16 -4.96656e-16 -5.81654e-15 0 0 0 0 0 0 0 0
1241 1 0.00587482 -0.000114413 0.0218684 0.0008 3.43146e-06 -1.66411e-13 3.41523e-14 1.93196e-12 -2.72482e-10 -8.25235e-10 3.30598e-10 -5.29572e-16 2.24321e-16 1.96411e-15 0 0 0 0 0 0 0 0
1242 1 -0.000788019 0.00635957 0.0209512 0.0008 3.43146e-06 -1.18168e-13 4.28526e-13 1.74611e-12 9.49566e-11 1.30511e-09 -8.55617e-10 -1.35453e-15 1.4412e-16 -2.38689e-15 0 0 0 0 0 0 0 0
1243 1 -0.00216758 0.00173591 0.0225308 0.0008 3.43146e-06 -1.08414e-12 -5.42078e-13 -2.73216e-12 -2.42476e-09 -2.53699e-09 1.44575e-09 2.51294e-16 -3.08786e-16 1.56985e-15 0 0 0 0 0 0 0 0
1244 1 0.0068209 0.00230775 0.021978 0.0008 3.43146e-06 -5.07716e-13 2.84638e-13 -1.24182e-12 -1.34704e-09 -2.0918e-09 -5.40203e-10 3.73554e-16 8.15031e-16 -7.70169e-16 1 -0.00124813 -0.000415168 7.57231e-05 0.00757802 0.00256391 0.021978 0.0008
1245 1 -0.000210286 0.00532071 0.0194112 0.0008 3.43146e-06 -6.69097e-14 -2.16721e-12 1.50594e-12 6.9262e-09 -1.38451e-10 2.78849e-10 -1.82708e-16 1.96756e-16 -1.44007e-15 0 0 0 0 0 0 0 0
1246 1 0.00437185 -0.000169238 0.0237909 0.0008 3.43146e-06 -2.16792e-12 -4.00695e-14 -2.5999e-12 7.59771e-12 -4.81971e-09 -3.20448e-10 -1.57741e-16 1.08802e-15 6.29241e-16 0 0 0 0 0 0 0 0
1247 1 -0.00200015 -0.00543872 0.0187413 0.0008 3.43146e-06 -6.37933e-13 -4.62896e-13 -4.6424e-12 4.84362e-11 -3.6521e-10 -2.05725e-09 1.082e-15 -3.81831e-16 6.68962e-16 0 0 0 0 0 0 0 0
1248 1 -0.00333053 -0.00450258 0.0231344 0.0008 3.43146e-06 -6.1054e-13 -2.16127e-12 -8.60312e-13 -2.18933e-09 6.50242e-12 -7.30657e-10 2.47536e-16 8.27911e-17 -1.65254e-16 0 0 0 0 0 0 0 0
1249 1 -0.0033861 0.0029059 0.021911 0.0008 3.43146e-06 -9.94884e-13 8.12141e-13 3.41814e-12 -2.39982e-09 2.64287e-09 -2.59583e-09 3.29822e-15 2.60192e-16 4.30102e-16 0 0 0 0 0 0 0 0
1250 1 -0.000891045 0.00483062 0.0214097 0.0008 3.43146e-06 -2.50271e-13 -3.55056e-14 9.83659e-13 1.05715e-09 6.12935e-11 2.96687e-10 9.38911e-16 -2.48445e-15 -3.54019e-15 0 0 0 0 0 0 0 0
1251 1 0.000311857 -0.00303493 0.0191127 0.0008 3.43146e-06 -1.35082e-13 -1.08334e-12 3.79578e-14 3.15966e-11 -2.12104e-11 7.68952e-10 -9.95888e-17 -2.26597e-16 -8.18869e-16 0 0 0 0 0 0 0 0
1252 1 -0.00107767 -0.00585606 0.0215614 0.0008 3.43146e-06 5.41537e-13 4.94628e-13 7.85901e-13 -1.49186e-09 1.86621e-09 1.31779e-09 -1.81579e-16 -2.66012e-15 -1.53718e-15 0 0 0 0 0 0 0 0
1253 1 -0.00468212 -0.00547011 0.024241 0.0008 3.43146e-06 -1.05674e-12 3.53787e-13 -5.09984e-13 1.69729e-09 2.94433e-09 1.28603e-09 3.11478e-16 6.91525e-16 -1.89192e-16 1 0.000262016 0.000230676 -1.08817e-05 -0.00520214 -0.00607764 0.024241 0.0008
1254 1 0.00100328 0.00418289 0.0244269 0.0008 3.43146e-06 -4.92475e-13 -1.4964e-12 -1.75753e-12 1.22558e-09 -5.59342e-10 4.31182e-10 1.5689e-15 -2.48142e-15 4.44899e-16 0 0 0 0 0 0 0 0
1255 1 -0.00642704 0.00324601 0.0208524 0.0008 3.43146e-06 2.4093e-13 -5.40743e-13 -2.3702e-12 2.45951e-09 2.04684e-09 -4.81427e-10 2.81097e-15 -1.89967e-15 1.16078e-15 1 0.000225307 -0.000107059 7.71573e-06 -0.00714092 0.00360656 0.0208524 0.0008
1256 1 -0.00216282 0.000589815 0.0207422 0.0008 3.43146e-06 -4.34351e-13 -4.46615e-14 -1.42467e-12 1.71925e-11 -4.16959e-10 3.27037e-11 -2.28678e-15 -1.09959e-16 -1.89622e-15 0 0 0 0 0 0 0 0
1257 1 -0.000317083 0.00584937 0.0225014 0.0008 3.43146e-06 -1.05612e-13 5.59372e-13 2.26701e-12 -4.10251e-10 -2.35397e-10 1.68072e-10 2.94299e-16 1.32225e-15 -3.12417e-16 0 0 0 0 0 0 0 0
1258 1 -0.00063593 0.00384835 0.018952 0.0008 3.43146e-06 2.70348e-13 -1.07595e-12 -1.06822e-12 -3.25205e-09 5.86249e-10 1.8587e-10 -5.0094e-16 -1.84526e-16 1.20302e-15 0 0 0 0 0 0 0 0
1259 1 -0.00081896 -0.00715348 0.0224608 0.0008 3.43146e-06 7.31042e-13 -1.55955e-12 1.88807e-12 2.00835e-09 -2.38092e-09 -1.14501e-09 -4.52669e-16 -7.69683e-16 -2.92158e-16 1 7.75376e-06 0.000197682 3.79756e-06 -0.00090993 -0.00794808 0.0224608 0.0008
1260 1 -0.00713864 0.000945421 0.0197962 0.0008 3.43146e-06 1.24052e-12 -2.71098e-13 -7.26519e-14 2.24352e-09 -2.74561e-10 -1.54686e-10 3.17789e-16 -3.51475e-16 -6.92495e-16 1 0.00198635 -0.000502156 -0.000125684 -0.00793075 0.00105033 0.0197962 0.0008
1261 1 0.00423887 -0.00581998 0.0217648 0.0008 3.43146e-06 9.72591e-13 1.91917e-12 1.1294e-12 -3.78968e-10 2.94573e-09 -2.48612e-09 2.14187e-15 -2.29825e-15 1.26987e-15 1 -2.3749e-06 3.45538e-06 4.11647e-07 0.00470985 -0.00646663 0.0217648 0.0008
1262 1 0.00586865 0.00395137 0.022621 0.0008 3.43146e-06 -1.93993e-12 -1.98199e-12 -7.6431e-13 -1.31368e-09 1.92483e-09 -1.81584e-09 -1.11426e-15 9.00916e-16 -1.66173e-16 0 0 0 0 0 0 0 0
1263 1 0.00311259 0.00649257 0.0247381 0.0008 3.43146e-06 3.53383e-13 3.00893e-13 5.85267e-13 2.11713e-09 6.09472e-09 2.53243e-10 -2.66809e-16 -2.74167e-16 -1.39689e-15 1 -5.15096e-05 -6.46586e-05 1.20858e-05 0.00345837 0.00721385 0.0247381 0.0008
1264 1 0.00589457 -0.00135446 0.0208584 0.0008 3.43146e-06 1.56207e-12 -2.30349e-13 1.26864e-12 7.51975e-10 -1.56712e-09 4.81405e-10 -1.5114e-15 2.88615e-15 1.92952e-15 0 0 0 0 0 0 0 0
1265 1 0.00411481 0.0059088 0.0235508 0.0008 3.43146e-06 -9.16994e-13 -2.02436e-12 5.93033e-13 9.16461e-10 2.64478e-09 5.23109e-10 1.25322e-16 -3.60794e-17 1.11111e-15 1 -0.000293083 -0.000410826 -6.84679e-05 0.00457176 0.00656498 0.0235508 0.0008
1266 1 0.00468358 -0.00337615 0.0224638 0.0008 3.43146e-06 3.78225e-13 -3.46603e-13 -2.05162e-12 2.16629e-09 -9.77176e-10 3.28709e-09 -1.01115e-15 -2.45388e-15 -2.02136e-16 0 0 0 0 0 0 0 0
1267 1 -0.00171138 0.00522076 0.022971 0.0008 3.43146e-06 -5.41888e-13 -9.21259e-14 1.66219e-12 2.75638e-09 2.96211e-10 -2.98436e-10 9.98807e-17 3.20207e-15 -3.26445e-15 0 0 0 0 0 0 0 0
1268 1 -0.00369856 -0.00617752 0.0252856 0.0008 3.43146e-06 9.94178e-13 8.08498e-13 -1.57027e-12 -2.22305e-09 7.88598e-11 -5.67469e-10 1.89549e-15 -2.55551e-16 -2.01947e-15 1 2.76406e-05 3.14677e-05 -1.00456e-06 -0.00410947 -0.00686384 0.0252856 0.0008
1269 1 0.00546137 -0.00199311 0.0222597 0.0008 3.43146e-06 -1.01323e-12 -1.17434e-14 1.73727e-13 -6.59632e-10 -1.86677e-09 -1.30979e-09 -1.27016e-15 6.34031e-16 7.96321e-16 0 0 0 0 0 0 0 0
1270 1 0.00396455 0.00118426 0.0230412 0.0008 3.43146e-06 -9.62844e-13 -2.35201e-13 -5.26576e-12 -1.32218e-09 -1.87895e-09 1.88984e-09 -1.84087e-15 1.07183e-15 3.33346e-16 0 0 0 0 0 0 0 0
1271 1 0.00176834 -0.00201888 0.0221259 0.0008 3.43146e-06 5.42044e-13 -1.08413e-12 1.50559e-12 -9.84011e-10 -2.68669e-09 -9.84531e-10 -4.39222e-17 -7.05562e-17 -1.73123e-15 0 0 0 0 0 0 0 0
1272 1 -0.00233552 -0.00681076 0.0258335 0.0008 3.43146e-06 1.0822e-12 -1.12136e-13 -2.71688e-13 -4.8365e-10 -2.82651e-10 -1.3537e-09 9.17072e-17 -4.51332e-16 -2.42552e-15 1 1.59152e-05 3.97533e-05 1.01726e-05 -0.002595 -0.00756743 0.0258335 0.0008
1273 1 0.000464919 -0.00442697 0.0181791 0.0008 3.43146e-06 -1.35232e-13 1.2133e-13 9.8848e-13 -7.99913e-10 -7.26788e-10 -1.07369e-09 3.3639e-16 -4.74447e-17 -1.04597e-15 0 0 0 0 0 0 0 0
1274 1 0.00294724 0.00340773 0.0223266 0.0008 3.43146e-06 -8.57368e-13 -9.03677e-13 4.02492e-13 1.73321e-09 -4.11473e-09 -1.75628e-09 1.77589e-15 -4.43198e-16 2.73893e-15 0 0 0 0 0 0 0 0
1275 1 0.000995051 0.0021257 0.0234541 0.0008 3.43146e-06 -3.95529e-13 -4.99599e-13 -2.07139e-12 -2.8693e-11 8.26871e-10 -6.26724e-10 1.49799e-15 3.14052e-15 2.00794e-15 0 0 0 0 0 0 0 0
1276 1 0.00626633 0.0013424 0.0193358 0.0008 3.43146e-06 1.68937e-12 -1.26408e-14 -2.01226e-12 7.40289e-10 9.24889e-10 -1.57416e-09 3.8958e-15 8.79574e-16 -2.17643e-15 0 0 0 0 0 0 0 0
1277 1 0.00287415 -0.00660161 0.0178423 0.0008 3.43146e-06 1.07812e-12 1.61185e-12 2.36673e-12 3.86781e-09 -1.45819e-09 -2.01239e-09 6.88597e-17 -3.95418e-16 -6.04597e-16 1 -5.77718e-05 9.53215e-05 -1.91443e-05 0.00319344 -0.00733498 0.0178423 0.0008
1278 1 -0.0035991 -0.000388853 0.0209178 0.0008 3.43146e-06 -6.10711e-13 1.03734e-13 -7.34884e-13 -1.69712e-09 2.16958e-09 2.44046e-09 7.4214e-16 -8.68786e-16 -3.34382e-16 0 0 0 0 0 0 0 0
1279 1 0.00344046 -0.00632525 0.0204737 0.0008 3.43146e-06 -3.67209e-14 1.72681e-13 -3.41947e-12 -1.56266e-09 -6.03292e-09 -3.67848e-11 1.27598e-15 -1.42381e-15 1.4507e-16 1 -0.000312415 0.000403624 3.91275e-05 0.00382253 -0.00702768 0.0204737 0.0008
1280 1 -0.00522287 0.000514806 0.022181 0.0008 3.43146e-06 -8.71768e-15 -2.70816e-13 1.64969e-12 2.51155e-09 -1.93733e-09 6.90009e-10 3.14129e-15 -1.6535e-16 6.65805e-16 0 0 0 0 0 0 0 0
1281 1 0.00493577 -0.00524231 0.0249713 0.0008 3.43146e-06 -1.48413e-12 -2.95849e-13 9.20003e-14 3.07307e-12 3.76851e-10 1.54273e-09 6.16268e-16 -7.87091e-16 3.55893e-16 1 -0.000243758 0.000144977 -1.11384e-05 0.00548399 -0.00582459 0.0249713 0.0008
1282 1 -0.00693079 -0.00195073 0.0193642 0.0008 3.43146e-06 6.98515e-13 1.04056e-13 6.21826e-13 -3.59088e-10 -8.69973e-10 -7.75337e-11 -5.04827e-16 -3.08367e-16 -5.93165e-16 1 5.26133e-05 1.1252e-05 5.09466e-06 -0.00770079 -0.00216745 0.0193642 0.0008
1283 1 0.00137261 0.00242869 0.026688 0.0008 3.43146e-06 -5.41961e-13 -1.08357e-12 -1.35169e-12 1.69707e-09 4.77299e-09 -2.96852e-10 1.46752e-17 -9.50512e-16 1.95972e-15 0 0 0 0 0 0 0 0
1284 1 0.00223671 -0.00467746 0.0276701 0.0008 3.43146e-06 1.08317e-12 -1.52416e-12 -4.35086e-14 5.92455e-10 -1.86815e-09 1.33918e-09 -3.18902e-16 -1.44311e-15 -2.69562e-15 0 0 0 0 0 0 0 0
1285 1 -0.0044601 -0.00229585 0.022823 0.0008 3.43146e-06 1.42858e-12 -9.58446e-13 -1.61056e-12 2.40338e-09 3.05812e-09 -8.83587e-10 1.99288e-15 -2.00753e-15 1.0742e-15 0 0 0 0 0 0 0 0
1286 1 0.00136496 -0.00239133 0.0261727 0.0008 3.43146e-06 5.41803e-13 -6.24818e-13 1.19242e-12 3.48925e-10 6.63037e-10 6.49945e-11 7.99734e-17 -4.31625e-15 -5.04208e-15 0 0 0 0 0 0 0 0
1287 1 -0.00578836 0.0042822 0.028376 0.0008 3.43146e-06 -1.86672e-12 9.07043e-14 -1.97352e-12 -1.38493e-09 4.00636e-09 -1.31702e-09 -1.31315e-16 -9.2271e-17 -2.09097e-15 1 0.000111117 -8.99576e-05 2.70605e-05 -0.00643136 0.00475789 0.028376 0.0008
1288 1 -0.00673416 -0.00254802 0.0268605 0.0008 3.43146e-06 -3.27012e-13 1.08324e-12 -8.93715e-13 1.16964e-09 1.65319e-09 1.41505e-09 -1.32449e-15 -4.98306e-17 -7.03718e-16 1 5.786e-05 8.64529e-06 -7.74085e-07 -0.00748231 -0.0028311 0.0268605 0.0008
1289 1 -0.00458028 0.0036913 0.0275098 0.0008 3.43146e-06 -3.20075e-13 -1.08394e-12 -4.23928e-12 -5.12901e-10 -1.85543e-09 2.45752e-09 1.32283e-15 -1.75581e-16 3.38029e-16 0 0 0 0 0 0 0 0
1290 1 -0.00422325 -0.00583179 0.027215 0.0008 3.43146e-06 -2.16828e-12 4.35175e-13 4.47815e-13 7.83627e-11 -8.49648e-10 2.52733e-09 1.6965e-15 -1.05156e-16 -2.914e-15 1 0.000194958 0.000495056 -3.58663e-05 -0.00469225 -0.00647942 0.027215 0.0008
1291 1 -0.00654119 -0.00300991 0.0250179 0.0008 3.43146e-06 -2.16752e-12 -3.63078e-13 4.25171e-12 5.73259e-09 -3.1984e-09 7.16891e-10 -6.76767e-16 -4.30439e-16 -4.5616e-15 1 0.000605658 0.000313325 -1.45781e-05 -0.00726752 -0.00334412 0.0250179 0.0008
1292 1 -0.00147017 0.00642138 0.0254295 0.0008 3.43146e-06 -4.26276e-13 -5.77619e-13 -4.01937e-13 6.61189e-10 8.31245e-10 -4.18052e-10 5.41651e-16 -1.1212e-15 1.8305e-15 0 0 0 0 0 0 0 0
1293 1 0.00353133 -0.0045856 0.0253654 0.0008 3.43146e-06 1.3291e-13 -6.53533e-13 -9.23874e-13 -3.45063e-09 4.83582e-10 -1.15749e-09 4.3057e-16 -4.13901e-16 -8.6947e-17 0 0 0 0 0 0 0 0
1294 1 0.00669036 -0.00266174 0.0278763 0.0008 3.43146e-06 2.16094e-12 -9.76016e-13 1.60214e-13 1.55874e-09 -3.89058e-10 1.95121e-10 -1.49575e-16 6.20792e-17 1.22246e-16 1 -0.000509348 0.000187108 1.37019e-05 0.00743332 -0.00295732 0.0278763 0.0008
1295 1 -0.000378917 0.00463544 0.0237598 0.0008 3.43146e-06 -1.28082e-13 -6.36103e-13 -7.29933e-13 6.26174e-10 -1.78976e-09 -1.5697e-09 4.31125e-16 3.21042e-15 4.81417e-16 0 0 0 0 0 0 0 0
1296 1 -0.00130979 -0.00175925 0.0285573 0.0008 3.43146e-06 5.42674e-13 5.42124e-13 -6.83548e-13 -1.17767e-09 9.78605e-10 -1.31535e-09 1.8898e-16 -1.58359e-16 -1.70008e-14 0 0 0 0 0 0 0 0
1297 1 -0.00353648 -0.00446167 0.02472 0.0008 3.43146e-06 -8.18925e-13 -1.26853e-13 -1.34686e-12 -1.6354e-10 -3.56791e-10 -1.09655e-09 9.33417e-16 6.02763e-16 -1.76507e-15 0 0 0 0 0 0 0 0
1298 1 0.00487101 0.00530226 0.0272774 0.0008 3.43146e-06 -1.61218e-12 8.80802e-13 -1.53054e-12 -8.93208e-10 -3.80075e-09 -2.24497e-09 1.66111e-16 1.45349e-15 2.79238e-16 1 -1.44408e-05 -1.70782e-05 -3.06502e-06 0.0054122 0.00589136 0.0272774 0.0008
1299 1 0.00566141 -0.00142059 0.0247794 0.0008 3.43146e-06 -1.23675e-12 5.4213e-13 -1.07981e-12 -1.1909e-09 6.24706e-10 2.74208e-10 -1.86465e-15 2.54681e-16 9.03151e-16 0 0 0 0 0 0 0 0
1300 1 6.01626e-05 0.00285508 0.0245282 0.0008 3.43146e-06 1.28099e-13 7.89475e-13 3.96066e-13 6.63392e-10 1.15964e-09 -9.30165e-10 1.41979e-17 2.86275e-15 1.6314e-15 0 0 0 0 0 0 0 0
1301 1 -0.000153426 -0.00267545 0.0265888 0.0008 3.43146e-06 2.19544e-13 -1.53943e-13 1.74189e-12 -1.77754e-09 -3.81389e-10 -4.62528e-10 -1.98619e-15 -2.25775e-15 -7.31882e-15 0 0 0 0 0 0 0 0
1302 1 0.000437654 0.00495077 0.0289618 0.0008 3.43146e-06 -1.35756e-13 -1.70309e-12 8.85497e-14 6.44674e-10 1.49366e-10 2.68314e-10 -4.94053e-17 -1.23701e-15 3.42971e-15 0 0 0 0 0 0 0 0
1303 1 0.00411147 0.00180971 0.0283696 0.0008 3.43146e-06 1.53915e-12 3.96372e-13 -3.29565e-12 -7.18722e-10 -7.52497e-10 2.56447e-10 -6.67972e-15 6.75413e-16 1.1661e-14 0 0 0 0 0 0 0 0
1304 1 -0.00719124 0.000360809 0.0261932 0.0008 3.43146e-06 -8.31425e-13 1.34871e-13 2.33035e-12 2.86668e-09 -3.05014e-09 1.06925e-10 -6.62472e-16 4.52268e-17 -1.13078e-15 1 0.000317268 -7.0755e-05 8.96217e-07 -0.00798995 0.000400883 0.0261932 0.0008
1305 1 0.00384145 0.00569128 0.026076 0.0008 3.43146e-06 -1.06577e-12 -1.20999e-13 -3.52294e-12 -2.53292e-09 1.26225e-09 4.78771e-10 -1.4774e-15 5.7763e-16 1.78e-15 0 0 0 0 0 0 0 0
1306 1 0.00298731 -9.49566e-05 0.0275113 0.0008 3.43146e-06 3.33121e-13 -4.13808e-14 -2.74913e-12 -1.51635e-09 -1.05406e-09 1.46683e-09 3.29245e-16 -1.69585e-17 7.97772e-15 0 0 0 0 0 0 0 0
1307 1 -0.000757844 -0.00561146 0.0259316 0.0008 3.43146e-06 2.69669e-13 -2.20228e-13 -1.0282e-12 -1.59768e-09 1.973e-09 2.93652e-11 -2.75184e-16 -7.27723e-16 2.11745e-15 0 0 0 0 0 0 0 0
1308 1 0.00530102 0.0023196 0.0268696 0.0008 3.43146e-06 1.06203e-12 -1.10728e-13 1.06656e-12 5.36737e-09 -1.87977e-09 1.05766e-09 1.0867e-15 -1.1449e-16 -1.89207e-15 0 0 0 0 0 0 0 0
1309 1 -0.00224887 0.0068402 0.0235565 0.0008 3.43146e-06 -5.74252e-13 2.86283e-13 -1.04682e-12 1.22535e-09 4.33097e-10 -5.3774e-10 3.03265e-15 -3.0382e-16 1.73866e-15 1 0.000163061 -0.000514921 4.98885e-07 -0.00249861 0.0075998 0.0235565 0.0008
1310 1 0.00661835 -0.0012199 0.0271872 0.0008 3.43146e-06 -4.27009e-13 -1.054e-13 -5.06292e-13 -2.01149e-09 2.1957e-09 2.3184e-09 7.89351e-16 8.43625e-16 8.00919e-16 0 0 0 0 0 0 0 0
1311 1 0.00669952 -0.00263789 0.0247964 0.0008 3.43146e-06 -7.08223e-13 3.55647e-13 3.2503e-14 -2.02982e-09 9.35414e-10 -4.31556e-11 -1.76599e-15 3.2949e-16 -8.38775e-16 1 -0.000116997 1.10639e-05 1.01078e-05 0.00744377 -0.00293093 0.0247964 0.0008
1312 1 -0.00322842 -0.000125321 0.0269387 0.0008 3.43146e-06 1.08267e-12 6.20687e-14 -2.76161e-12 -2.56649e-09 -9.7518e-10 2.09607e-10 -1.281e-16 -9.29965e-17 -2.02577e-15 0 0 0 0 0 0 0 0
1313 1 -0.00402493 0.00112507 0.0289467 0.0008 3.43146e-06 7.68964e-13 -5.33282e-13 -2.64423e-12 3.27148e-09 1.05892e-09 3.90854e-10 1.06232e-15 1.14651e-15 2.40474e-15 0 0 0 0 0 0 0 0
1314 1 0.000909523 0.00171494 0.0252616 0.0008 3.43146e-06 2.18922e-13 -2.70597e-13 2.53992e-13 -3.84225e-10 -4.20883e-10 -6.84883e-11 1.45046e-15 -3.96811e-15 2.63515e-15 0 0 0 0 0 0 0 0
1315 1 -0.00289157 -0.00659421 0.0276672 0.0008 3.43146e-06 8.88604e-13 -6.06096e-13 3.51558e-13 1.20121e-09 1.54616e-09 -1.46945e-09 -5.11848e-16 5.32303e-16 -6.40807e-16 1 0.000136808 0.000386772 9.67079e-06 -0.0032127 -0.00732656 0.0276672 0.0008
1316 1 0.00719678 0.000222719 0.0253587 0.0008 3.43146e-06 -1.06135e-12 5.03201e-14 9.56152e-13 5.25993e-10 1.22148e-09 -1.09737e-10 -1.38432e-15 4.37731e-16 3.71559e-16 1 -0.000227618 -4.64845e-06 3.11379e-06 0.00799617 0.000247458 0.0253587 0.0008
1317 1 -0.00415625 -0.000816182 0.0282634 0.0008 3.43146e-06 2.16826e-12 -2.72705e-13 -2.41675e-12 -1.88055e-09 1.76535e-09 5.08813e-10 1.17327e-15 -5.98845e-16 4.02424e-15 0 0 0 0 0 0 0 0
1318 1 0.00263205 0.00670219 0.0263489 0.0008 3.43146e-06 -1.37475e-13 -9.95083e-13 -3.88399e-13 2.23529e-09 4.37013e-09 2.91364e-10 -1.22125e-15 7.38993e-16 3.45856e-15 1 -0.000219534 -0.00070545 1.20654e-05 0.0029243 0.00744637 0.0263489 0.0008
1319 1 0.00718873 -0.000407712 0.0284416 0.0008 3.43146e-06 1.17321e-12 -1.22214e-13 9.43308e-13 4.51642e-09 9.22249e-10 1.34773e-11 -3.19999e-16 -2.57255e-16 -2.59956e-15 1 -0.000327216 -5.7348e-06 -5.42051e-05 0.00798716 -0.000452996 0.0284416 0.0008
1320 1 0.00182462 0.00395346 0.0277441 0.0008 3.43146e-06 -4.10157e-13 -8.28484e-13 3.12098e-13 8.41029e-10 -8.23051e-10 1.17811e-09 1.55461e-15 1.53004e-16 -4.60242e-15 0 0 0 0 0 0 0 0
1321 1 -0.00569536 -0.000684585 0.0278481 0.0008 3.43146e-06 2.07452e-12 1.38678e-13 -4.80054e-13 -3.46906e-10 8.22469e-10 -1.57183e-09 2.3157e-15 5.41515e-17 6.76094e-15 0 0 0 0 0 0 0 0
1322 1 -0.00191756 -0.00487006 0.0283314 0.0008 3.43146e-06 -3.57681e-13 1.32397e-12 -2.94448e-12 -1.59664e-09 1.48604e-09 -1.18245e-09 -5.82464e-15 6.42425e-16 8.24573e-15 0 0 0 0 0 0 0 0
1323 1 -0.0011115 0.00265489 0.0273744 0.0008 3.43146e-06 -1.23713e-13 -9.04515e-13 -3.32658e-12 -2.11523e-09 2.95311e-10 -1.19432e-09 -1.27486e-15 -1.53752e-15 2.41733e-15 0 0 0 0 0 0 0 0
1324 1 0.000468757 -0.00306119 0.0293966 0.0008 3.43146e-06 1.07077e-13 -8.10386e-13 -2.39433e-12 4.61017e-10 1.21622e-09 1.04962e-09 -5.57059e-16 1.81044e-15 1.85997e-15 0 0 0 0 0 0 0 0
1325 1 -0.00443503 -0.00488408 0.0297391 0.0008 3.43146e-06 1.91353e-13 2.05725e-12 -1.10084e-12 1.3453e-10 3.58375e-10 5.49696e-10 -2.99879e-15 5.78208e-16 3.02846e-15 0 0 0 0 0 0 0 0
1326 1 -0.00490928 0.00526679 0.0274692 0.0008 3.43146e-06 -1.55259e-12 -6.2191e-13 -3.01887e-13 1.31231e-09 -8.13802e-10 -1.89863e-09 -8.82852e-16 8.04685e-16 -2.39004e-18 1 5.76627e-07 -6.21593e-07 -7.00694e-08 -0.00545475 0.00585199 0.0274692 0.0008
1327 1 -0.000948065 -0.00669565 0.0239882 0.0008 3.43146e-06 2.54768e-13 -2.13334e-12 -9.3952e-13 -1.96476e-09 1.74392e-10 -3.05919e-09 -7.5736e-16 8.27454e-16 1.31259e-16 0 0 0 0 0 0 0 0
1328 1 -0.00134355 0.00108583 0.0271619 0.0008 3.43146e-06 -1.14194e-14 -5.42035e-13 -1.62766e-12 -8.78134e-10 -4.16861e-10 -6.03232e-10 -1.40818e-15 -3.87321e-17 -8.28514e-16 0 0 0 0 0 0 0 0
1329 1 0.00261405 0.00137898 0.0280086 0.0008 3.43146e-06 -2.01576e-13 1.46579e-13 -3.25808e-12 5.42901e-10 1.28042e-09 -6.07234e-10 -1.84587e-15 -4.26557e-15 9.18472e-15 0 0 0 0 0 0 0 0
1330 1 0.000727357 -0.000930329 0.0263086 0.0008 3.43146e-06 2.70698e-13 -3.3053e-15 2.62905e-13 -1.21032e-09 -1.81199e-09 -2.22776e-10 -7.01858e-16 2.28674e-15 -1.44505e-15 0 0 0 0 0 0 0 0
1331 1 0.00236114 -0.00091026 0.0262856 0.0008 3.43146e-06 8.16499e-13 -5.63126e-14 -4.42456e-13 2.23282e-10 1.89975e-09 -1.09485e-09 -8.54084e-16 -1.46255e-15 7.90983e-16 0 0 0 0 0 0 0 0
1332 1 0.000756944 -0.00662781 0.0293288 0.0008 3.43146e-06 -2.70446e-13 8.5089e-13 5.20136e-13 -2.938e-09 -2.55812e-09 -1.11028e-09 -1.20442e-16 -4.21853e-15 1.2952e-14 0 0 0 0 0 0 0 0
1333 1 0.00157364 -0.00135971 0.0249678 0.0008 3.43146e-06 4.27835e-13 3.18705e-13 4.59189e-13 -6.73277e-11 -8.65382e-10 9.77514e-10 -3.41846e-16 -9.5635e-16 -6.07649e-16 0 0 0 0 0 0 0 0
1334 1 -0.0046512 -0.00333178 0.0290709 0.0008 3.43146e-06 -2.1681e-12 1.08405e-12 4.2012e-13 -1.53859e-09 -1.77875e-09 2.64107e-09 1.3162e-16 -1.97485e-16 3.72669e-15 0 0 0 0 0 0 0 0
1335 1 -0.00573831 0.000371859 0.0249375 0.0008 3.43146e-06 2.37371e-13 -1.3514e-13 1.68449e-12 2.16473e-09 -1.91342e-09 -1.03685e-09 3.94562e-16 -1.20255e-16 2.3866e-15 0 0 0 0 0 0 0 0
1336 1 -0.00536078 0.00278826 0.023507 0.0008 3.43146e-06 1.03823e-12 -1.08347e-12 9.21744e-13 -1.85668e-09 -4.7496e-10 6.9583e-10 1.37358e-15 1.62618e-16 8.40855e-16 0 0 0 0 0 0 0 0
1337 1 0.00551511 0.000799868 0.0231305 0.0008 3.43146e-06 -7.65885e-13 2.70203e-13 -1.87026e-12 -2.32663e-09 -1.68163e-09 -1.16166e-09 -3.25367e-16 -6.32642e-16 -9.41318e-16 0 0 0 0 0 0 0 0
1338 1 -0.00175638 0.00211893 0.0260121 0.0008 3.43146e-06 -5.40517e-13 -1.08387e-12 -8.5293e-13 7.05065e-10 1.38763e-09 8.49512e-10 -7.60495e-17 -1.06542e-15 1.5593e-15 0 0 0 0 0 0 0 0
1339 1 -0.000164316 0.00291393 0.0261111 0.0008 3.43146e-06 1.21739e-13 1.08416e-12 -2.14196e-13 -8.68119e-10 -1.36488e-09 -3.39967e-10 -2.03702e-15 -2.63563e-16 5.75838e-17 0 0 0 0 0 0 0 0
1340 1 0.00257672 0.00208343 0.0231439 0.0008 3.43146e-06 -1.02037e-12 6.43428e-13 -2.7338e-12 9.21915e-11 1.76632e-09 1.96146e-09 8.59134e-16 7.24921e-16 1.58441e-15 0 0 0 0 0 0 0 0
1341 1 0.00225473 -0.00182744 0.027592 0.0008 3.43146e-06 1.08351e-12 -5.40647e-13 -1.07736e-12 7.25379e-10 -9.9447e-10 1.38386e-10 4.00721e-16 -7.4243e-16 7.69926e-17 0 0 0 0 0 0 0 0
1342 1 0.00378855 -0.000956587 0.0255646 0.0008 3.43146e-06 -7.47974e-13 2.70985e-13 -2.07628e-12 2.81348e-09 7.09927e-10 2.47388e-10 -8.91724e-16 -3.83206e-16 2.55183e-15 0 0 0 0 0 0 0 0
1343 1 0.00360557 -0.00446644 0.0284706 0.0008 3.43146e-06 -5.02147e-13 -1.60365e-12 1.65515e-12 1.25259e-09 -8.20812e-10 -2.53934e-10 -4.534e-16 -4.80122e-15 5.28119e-16 0 0 0 0 0 0 0 0
1344 1 0.00714656 -0.000875693 0.024131 0.0008 3.43146e-06 -1.28353e-13 1.62104e-13 4.11887e-14 -1.05343e-09 1.0103e-11 -2.18813e-10 -1.96554e-15 1.89779e-16 -1.10673e-15 1 -1.10175e-06 1.61946e-08 -9.42471e-08 0.00794061 -0.000972991 0.024131 0.0008
1345 1 0.00100427 -0.0062574 0.0277698 0.0008 3.43146e-06 6.55756e-14 -1.56845e-12 -4.51858e-13 9.20189e-10 2.09377e-09 1.3275e-09 -2.68625e-15 -7.25569e-15 5.95704e-15 0 0 0 0 0 0 0 0
1346 1 0.00429048 -0.00224528 0.0247603 0.0008 3.43146e-06 2.04535e-13 1.00078e-12 -8.10633e-13 -3.16875e-09 -2.75012e-09 2.87362e-10 9.56395e-16 4.00696e-16 2.38597e-15 0 0 0 0 0 0 0 0
1347 1 -0.00412035 -0.00299111 0.0268838 0.0008 3.43146e-06 8.75163e-13 -1.08289e-12 -1.53872e-12 -7.72131e-10 -2.65687e-09 -6.54422e-10 -6.95479e-16 -4.6447e-17 6.84379e-16 0 0 0 0 0 0 0 0
1348 1 -0.00155882 -0.0027682 0.0256091 0.0008 3.43146e-06 -8.99809e-14 -1.08414e-12 -1.43044e-12 3.08154e-09 3.4303e-10 -9.08157e-12 4.61945e-15 -3.70089e-16 -3.83635e-15 0 0 0 0 0 0 0 0
1349 1 0.000405601 0.00602502 0.0257962 0.0008 3.43146e-06 1.35517e-13 -1.37313e-12 -3.08864e-12 1.83254e-09 -1.77676e-09 -4.66564e-10 -2.78338e-16 -1.99977e-15 6.76058e-16 0 0 0 0 0 0 0 0
1350 1 -0.00205166 -0.00549455 0.0268648 0.0008 3.43146e-06 -7.59278e-14 -3.43365e-13 -5.3585e-14 -1.6183e-09 -9.4859e-10 2.61095e-09 -1.63257e-15 -2.12433e-15 1.24981e-15 0 0 0 0 0 0 0 0
1351 1 -0.00119756 0.00404891 0.0265621 0.0008 3.43146e-06 -2.96645e-13 1.30491e-14 -2.05773e-12 1.00356e-09 -1.71338e-09 1.0377e-09 -1.53251e-15 -2.76038e-15 1.75949e-15 0 0 0 0 0 0 0 0
1352 1 0.00149118 0.00248461 0.0282833 0.0008 3.43146e-06 5.19571e-13 1.92251e-13 -1.79063e-12 9.38491e-10 -5.78354e-11 -7.26341e-11 -3.66565e-17 -2.95064e-15 3.09843e-15 0 0 0 0 0 0 0 0
1353 1 0.00135282 -0.00548014 0.0235376 0.0008 3.43146e-06 5.39706e-13 9.89435e-14 -2.37821e-12 -2.59919e-10 8.59254e-10 2.43432e-09 3.79801e-16 -1.76791e-15 3.73712e-16 0 0 0 0 0 0 0 0
1354 1 -0.00148834 -0.000256199 0.0280353 0.0008 3.43146e-06 5.38311e-13 -1.05579e-13 -1.68673e-12 -1.36156e-10 -2.43997e-09 -5.4749e-11 -3.82455e-16 8.53344e-16 -5.21153e-15 0 0 0 0 0 0 0 0
1355 1 0.00139986 0.000197976 0.0253953 0.0008 3.43146e-06 5.4196e-13 -1.84848e-13 -6.0961e-14 4.05385e-10 1.25549e-09 3.02875e-10 -6.78546e-17 1.32419e-15 -7.71578e-16 0 0 0 0 0 0 0 0
1356 1 0.00483059 0.00533932 0.0289623 0.0008 3.43146e-06 -1.67491e-12 8.36949e-13 8.28774e-13 1.34771e-09 3.06186e-09 -2.26773e-09 -1.1324e-15 2.60073e-15 -7.3401e-16 1 -0.000116965 -0.000159195 -3.0341e-05 0.00536717 0.00593241 0.0289623 0.0008
1357 1 0.00593948 -0.00406977 0.0277656 0.0008 3.43146e-06 1.6297e-12 3.9958e-13 7.7916e-14 -1.08624e-09 8.92864e-10 -1.55317e-09 3.25824e-16 8.13928e-16 2.37621e-15 1 -1.01245e-05 6.67117e-06 -1.27237e-06 0.0065994 -0.00452194 0.0277656 0.0008
1358 1 0.00261896 -0.00519138 0.0226039 0.0008 3.43146e-06 1.03263e-12 -4.22918e-13 -6.38704e-12 -4.40315e-09 2.05825e-09 -6.3526e-10 -9.34384e-16 -2.09848e-16 1.77032e-15 0 0 0 0 0 0 0 0
1359 1 -0.0018679 -0.000851383 0.0265137 0.0008 3.43146e-06 5.14449e-13 1.73711e-13 -3.58987e-13 -2.39215e-09 5.62102e-10 7.12801e-10 2.48483e-15 -3.79231e-15 -6.10535e-15 0 0 0 0 0 0 0 0
1360 1 -0.00308965 0.00450923 0.0248493 0.0008 3.43146e-06 -9.08196e-13 2.75706e-13 -2.06648e-12 3.33331e-09 2.55662e-09 -2.02276e-09 1.74652e-15 1.3954e-16 1.76187e-16 0 0 0 0 0 0 0 0
1361 1 -0.00298911 0.00655052 0.024945 0.0008 3.43146e-06 -8.47556e-13 3.23223e-13 5.66402e-13 -1.00048e-09 5.27312e-10 -8.201e-10 8.00565e-16 -1.08877e-15 4.95575e-16 1 0.000163842 -0.00026905 3.61635e-05 -0.0033211 0.00727807 0.024945 0.0008
1362 1 0.0060914 0.00383911 0.0267212 0.0008 3.43146e-06 1.0506e-12 -1.44728e-13 -2.59455e-13 -8.9617e-10 -9.65809e-10 8.66219e-10 1.11486e-15 1.32153e-15 -4.08377e-17 1 -0.000222538 -0.000202682 5.78202e-05 0.00676797 0.00426552 0.0267212 0.0008
1363 1 0.00580317 -0.000451918 0.0260449 0.0008 3.43146e-06 -1.6392e-12 -1.35273e-13 -6.36718e-13 2.43407e-09 -1.67906e-09 -8.18641e-10 -1.63175e-16 -3.58415e-16 2.66444e-15 0 0 0 0 0 0 0 0
1364 1 0.00462613 0.00352706 0.0246491 0.0008 3.43146e-06 2.24511e-13 -7.3603e-13 -1.92227e-13 2.45642e-10 1.3594e-09 5.59832e-13 2.244e-15 2.29766e-16 -3.66475e-16 0 0 0 0 0 0 0 0
1365 1 0.00596846 -0.00402759 0.025101 0.0008 3.43146e-06 -7.98743e-13 1.182e-12 7.56933e-13 1.30447e-09 1.01065e-10 -7.07595e-10 -4.4159e-16 3.64553e-17 -7.75894e-16 1 -0.000277552 0.000133704 -6.45997e-07 0.00663136 -0.00447493 0.025101 0.0008
1366 1 -0.00303066 -0.00337208 0.0257763 0.0008 3.43146e-06 7.85938e-13 -1.08291e-12 -1.11157e-12 1.42784e-09 2.08393e-09 -1.10144e-10 2.2795e-15 -5.19635e-17 -1.22715e-15 0 0 0 0 0 0 0 0
1367 1 0.00715939 0.000765628 0.022235 0.0008 3.43146e-06 -9.91832e-13 -3.50577e-14 9.73335e-13 -1.19398e-09 1.04962e-09 -8.8451e-11 -4.34655e-16 4.82421e-16 5.65679e-16 1 -0.000205929 -4.64572e-05 1.93633e-06 0.00795464 0.000850672 0.022235 0.0008
1368 1 -0.00589639 0.00261163 0.0277164 0.0008 3.43146e-06 1.04958e-14 -1.08279e-12 2.47182e-12 3.05367e-09 2.00277e-10 -1.21475e-09 2.16127e-15 -3.78165e-16 1.77043e-15 0 0 0 0 0 0 0 0
1369 1 0.00560341 -0.000340523 0.0286462 0.0008 3.43146e-06 -1.91571e-12 -1.35202e-13 -2.23822e-12 -3.33806e-09 -5.53709e-09 -9.80946e-11 5.66922e-15 -2.373e-16 4.84199e-15 0 0 0 0 0 0 0 0
1370 1 -0.00232776 0.00516788 0.0261813 0.0008 3.43146e-06 -1.03513e-12 1.7139e-13 7.15098e-13 -2.60612e-09 2.20793e-09 -1.052e-10 1.95624e-15 -1.06095e-15 7.74812e-16 0 0 0 0 0 0 0 0
1371 1 0.00305574 0.00300863 0.0273552 0.0008 3.43146e-06 -1.03337e-12 8.61142e-13 8.06995e-13 -1.70237e-09 1.33356e-09 2.00492e-10 1.63403e-15 4.55239e-15 -9.11711e-16 0 0 0 0 0 0 0 0
1372 1 0.00141813 -0.00046693 0.0276762 0.0008 3.43146e-06 5.42121e-13 -1.19561e-13 -1.0666e-12 -3.70134e-10 2.87216e-10 1.16698e-10 3.77645e-16 1.64156e-15 -4.34219e-15 0 0 0 0 0 0 0 0
1373 1 -0.00386703 0.00267677 0.0250751 0.0008 3.43146e-06 -1.08306e-12 4.30562e-13 1.63412e-12 -6.1333e-10 -2.58252e-09 -6.10684e-10 4.17674e-17 -2.54604e-15 -3.79671e-15 0 0 0 0 0 0 0 0
1374 1 -0.000153654 -0.00413026 0.0259235 0.0008 3.43146e-06 -2.69512e-14 -2.93507e-13 -1.17276e-13 3.88372e-09 6.11248e-10 2.36896e-10 -2.99895e-15 -3.66858e-15 -3.11157e-15 0 0 0 0 0 0 0 0
1375 1 -0.0048663 -0.00436723 0.0272131 0.0008 3.43146e-06 -1.65558e-12 1.93415e-13 5.83472e-13 -1.34163e-09 4.16096e-09 -3.02804e-09 9.32549e-16 1.11674e-15 1.66489e-15 0 0 0 0 0 0 0 0
1376 1 0.00132375 -0.00450669 0.0254388 0.0008 3.43146e-06 5.42054e-13 -1.92455e-13 -1.40642e-12 -7.37561e-10 -5.96905e-11 -7.22622e-10 1.65127e-16 -1.56079e-15 9.96519e-16 0 0 0 0 0 0 0 0
1377 1 -0.0055719 0.00120429 0.0235814 0.0008 3.43146e-06 5.51402e-13 -5.41187e-13 3.48668e-12 -1.12475e-09 2.8172e-09 -1.45005e-09 2.01462e-15 2.54283e-17 2.12952e-15 0 0 0 0 0 0 0 0
1378 1 0.00697928 0.00177008 0.025016 0.0008 3.43146e-06 -1.28111e-12 -5.07383e-13 2.15281e-13 -1.74014e-09 -1.62167e-10 2.21687e-10 -1.05243e-15 2.14457e-16 1.16088e-15 1 -0.000256092 -5.95127e-05 1.09401e-05 0.00775449 0.00196669 0.025016 0.0008
1379 1 0.0045921 -0.00300785 0.0273123 0.0008 3.43146e-06 6.3252e-13 -3.59608e-13 -5.69523e-12 3.51066e-09 -9.66515e-10 -8.34058e-10 3.39003e-15 -1.97871e-16 -3.49361e-15 0 0 0 0 0 0 0 0
1380 1 -0.00455716 -0.00362734 0.0237048 0.0008 3.43146e-06 1.56304e-12 -1.08391e-12 -2.76251e-12 -8.53033e-10 8.40032e-11 -1.08738e-09 6.07228e-15 -2.90158e-17 -3.10791e-15 0 0 0 0 0 0 0 0
1381 1 0.00290864 0.000518828 0.025819 0.0008 3.43146e-06 1.08421e-12 2.09788e-13 -1.22425e-12 -3.21627e-10 4.36722e-10 2.14099e-10 1.12374e-15 2.11077e-15 -1.89529e-16 0 0 0 0 0 0 0 0
1382 1 0.00649036 -0.00311693 0.0263086 0.0008 3.43146e-06 1.66774e-12 -6.68668e-13 2.71e-12 2.45661e-09 2.66367e-09 -1.67565e-10 -2.01086e-15 3.37802e-16 -9.80091e-16 1 -1.01881e-06 2.36737e-07 -4.80411e-08 0.00721151 -0.00346326 0.0263086 0.0008
1383 1 -0.00262381 0.00332568 0.0266039 0.0008 3.43146e-06 -1.80781e-13 -1.08384e-12 -9.74538e-13 -3.14715e-09 2.01425e-09 3.4206e-10 7.54872e-16 6.59274e-16 7.21253e-16 0 0 0 0 0 0 0 0
1384 1 0.00445254 0.00206855 0.0255366 0.0008 3.43146e-06 -1.6666e-12 6.26418e-13 4.50233e-13 -1.67351e-09 5.16332e-09 2.33619e-09 7.03781e-16 5.64832e-16 1.42456e-15 0 0 0 0 0 0 0 0
1385 1 -0.00580367 0.00126266 0.0262648 0.0008 3.43146e-06 -1.01068e-12 -5.41558e-13 8.95532e-13 -2.2705e-09 2.30456e-10 1.1769e-09 -7.55203e-17 1.11103e-16 1.7423e-15 0 0 0 0 0 0 0 0
1386 1 0.00397353 -0.00600487 0.0269302 0.0008 3.43146e-06 2.86685e-14 -4.31872e-13 -6.72286e-14 9.57938e-11 -3.40108e-10 1.82112e-10 2.02289e-16 -1.33285e-15 -1.12203e-15 1 -0.000364454 0.000693866 -5.23769e-05 0.00441472 -0.0066716 0.0269302 0.0008
1387 1 0.00328744 0.00305756 0.0289374 0.0008 3.43146e-06 5.99541e-14 -9.93187e-13 -9.64251e-13 4.29752e-09 3.68284e-10 1.50347e-09 -6.8788e-15 2.07511e-15 2.62007e-15 0 0 0 0 0 0 0 0
1388 1 0.00248151 -0.00350465 0.0259026 0.0008 3.43146e-06 1.08319e-12 -2.90953e-13 -1.15818e-12 1.95304e-09 9.85178e-10 6.79842e-10 -1.37135e-16 6.44697e-16 -1.99283e-15 0 0 0 0 0 0 0 0
1389 1 -0.00606642 -0.00387856 0.026275 0.0008 3.43146e-06 9.59678e-13 -3.69592e-13 1.01346e-12 -3.55171e-09 -3.7658e-09 -1.05401e-09 -3.04307e-16 3.80115e-16 8.38495e-16 1 0.00034254 0.000200695 3.79331e-05 -0.00674016 -0.00430932 0.026275 0.0008
1390 1 0.00144928 -0.000471036 0.0236435 0.0008 3.43146e-06 5.38297e-13 1.29346e-13 2.07636e-13 -1.60614e-10 -1.98142e-10 1.48449e-10 -2.74527e-17 -2.25081e-16 -1.09873e-15 0 0 0 0 0 0 0 0
1391 1 0.00578462 0.00428719 0.0282259 0.0008 3.43146e-06 -1.41968e-12 -1.04428e-12 -2.13893e-12 1.30761e-09 -2.42344e-09 4.01328e-11 6.01435e-16 -7.31507e-16 -1.50467e-15 1 -7.64446e-05 -5.28493e-05 1.35028e-05 0.00642724 0.00476346 0.0282259 0.0008
1392 1 -0.00547978 -0.00229864 0.0240555 0.0008 3.43146e-06 -1.69249e-12 3.68099e-13 6.98503e-12 -3.28865e-09 7.96775e-10 -6.78943e-10 -1.88215e-15 -6.63719e-15 -2.38399e-15 0 0 0 0 0 0 0 0
1393 1 0.00247135 -0.00676276 0.0273799 0.0008 3.43146e-06 -8.10943e-14 2.27557e-13 1.18003e-13 1.43809e-09 -3.46234e-09 2.14356e-11 -3.2245e-15 -2.36122e-15 1.50562e-15 1 -4.20867e-05 0.000150373 -3.14551e-05 0.00274588 -0.007514 0.0273799 0.0008
1394 1 0.00200188 -0.00691623 0.0254422 0.0008 3.43146e-06 9.27503e-13 1.49073e-12 -6.54453e-13 -2.2767e-09 4.92982e-09 -1.6432e-09 -3.84673e-16 1.35795e-16 -1.91341e-16 1 -1.65087e-05 8.75119e-05 -1.14532e-05 0.00222428 -0.00768457 0.0254422 0.0008
1395 1 6.68287e-05 -0.00505757 0.0272086 0.0008 3.43146e-06 -1.01672e-13 -1.16559e-12 -1.3954e-12 -2.3625e-09 -2.09212e-10 -1.05715e-09 -2.0843e-16 -4.496e-15 -2.7394e-15 0 0 0 0 0 0 0 0
1396 1 -0.00133408 0.00337526 0.0251159 0.0008 3.43146e-06 -2.63361e-13 8.42963e-13 3.61075e-13 1.75403e-09 -2.35946e-09 -1.09896e-10 2.9518e-15 2.12151e-15 1.61571e-15 0 0 0 0 0 0 0 0
1397 1 -0.00191878 -0.00693981 0.0288893 0.0008 3.43146e-06 -5.419e-13 -2.24058e-13 -1.34251e-12 -1.94827e-09 -1.28854e-09 6.17577e-10 -6.36315e-17 1.04816e-15 3.70044e-15 1 2.58377e-05 0.000176452 2.38835e-05 -0.00213192 -0.0077107 0.0288893 0.0008
1398 1 0.00230713 -0.00682045 0.0289836 0.0008 3.43146e-06 8.73779e-13 -7.37178e-13 2.15631e-12 2.75611e-09 1.97934e-10 -8.05842e-10 -2.61024e-15 -4.82093e-15 5.97356e-15 1 -1.79724e-05 6.12759e-05 4.59507e-06 0.00256344 -0.00757818 0.0289836 0.0008
1399 1 0.00294284 -0.00326213 0.0274317 0.0008 3.43146e-06 1.08415e-12 4.73053e-13 3.64615e-13 -1.32451e-09 -1.39713e-09 2.24901e-10 -6.43432e-16 -1.88637e-15 2.9222e-15 0 0 0 0 0 0 0 0
1400 1 -0.000734538 -0.000526053 0.0233673 0.0008 3.43146e-06 2.70977e-13 2.18477e-13 -2.07121e-13 1.11952e-09 -8.61368e-11 1.25825e-09 -2.90201e-17 8.36104e-16 1.90738e-15 0 0 0 0 0 0 0 0
1401 1 -0.00182153 -0.00442819 0.0256945 0.0008 3.43146e-06 -2.36957e-13 -4.64066e-13 -3.28539e-12 -9.78776e-10 2.17744e-09 -3.10818e-09 -1.6665e-15 -3.64957e-15 2.85351e-15 0 0 0 0 0 0 0 0
1402 1 -0.00475948 0.000327682 0.0270362 0.0008 3.43146e-06 8.17836e-13 -3.82134e-14 -1.03226e-12 2.49801e-09 3.20099e-09 9.31712e-11 1.86837e-16 -2.34699e-15 5.8954e-16 0 0 0 0 0 0 0 0
1403 1 0.00589365 0.00284965 0.02548 0.0008 3.43146e-06 3.39652e-13 9.08902e-13 2.98619e-13 1.29978e-09 7.98169e-10 -2.7846e-09 -4.51903e-17 3.84942e-15 1.29532e-15 0 0 0 0 0 0 0 0
1404 1 -0.000680579 -0.00515703 0.023641 0.0008 3.43146e-06 2.71002e-13 -1.43672e-12 -1.24264e-13 3.31812e-09 1.2124e-09 2.86798e-09 -3.67879e-16 -9.97731e-16 -2.28489e-15 0 0 0 0 0 0 0 0
1405 1 -0.00405521 -0.000701009 0.0256715 0.0008 3.43146e-06 1.65182e-13 -2.70768e-13 4.18193e-12 2.52931e-09 -1.07594e-09 8.13768e-10 -4.69885e-15 2.95115e-17 -8.22839e-17 0 0 0 0 0 0 0 0
1406 1 -0.00550383 -0.00195114 0.0256191 0.0008 3.43146e-06 -1.35572e-12 3.53428e-14 4.28707e-12 -1.49536e-09 8.03176e-09 1.48103e-09 -2.07881e-15 2.91331e-15 -1.5099e-15 0 0 0 0 0 0 0 0
1407 1 -0.00692284 -0.00197867 0.0283436 0.0008 3.43146e-06 -2.47287e-13 1.08347e-12 -8.83303e-14 -1.15371e-09 -3.31933e-10 1.39414e-09 -1.7282e-15 6.47614e-17 -3.29065e-16 1 3.15204e-05 4.75839e-06 -9.8193e-07 -0.00769198 -0.0021985 0.0283436 0.0008
1408 1 -0.000868526 0.00561073 0.0266705 0.0008 3.43146e-06 2.71024e-13 -2.39363e-13 -2.53762e-12 -1.16957e-09 2.90825e-09 -1.8148e-09 -3.58204e-16 -5.3928e-16 2.03597e-15 0 0 0 0 0 0 0 0
1409 1 -0.00538861 0.00210139 0.0220626 0.0008 3.43146e-06 -1.44362e-12 -3.71554e-13 4.55223e-12 8.18854e-10 4.80379e-09 9.02083e-10 2.41854e-15 -1.02653e-15 2.48175e-15 0 0 0 0 0 0 0 0
1410 1 0.00100258 -0.00588949 0.0262127 0.0008 3.43146e-06 -4.84582e-13 -1.27278e-12 1.68284e-12 3.10193e-10 -1.75631e-09 7.51059e-10 -2.87045e-15 3.4164e-15 -2.85071e-15 0 0 0 0 0 0 0 0
1411 1 0.00488692 0.00449379 0.0258969 0.0008 3.43146e-06 4.46905e-13 -1.2612e-12 -2.10992e-12 -1.01798e-09 -2.62903e-10 3.49406e-10 4.47354e-16 1.73468e-15 7.69956e-16 0 0 0 0 0 0 0 0
1412 1 0.0027059 -0.00246019 0.0247099 0.0008 3.43146e-06 1.08377e-12 7.2101e-13 -4.90025e-13 -1.7811e-10 2.58505e-09 9.99864e-11 3.38443e-16 -1.89621e-15 6.91514e-16 0 0 0 0 0 0 0 0
1413 1 -0.00398942 0.003943 0.0260447 0.0008 3.43146e-06 -9.86369e-13 -1.36619e-12 -1.82384e-13 4.00009e-10 5.15806e-10 -8.6863e-10 4.07925e-15 -1.02493e-15 1.37248e-15 0 0 0 0 0 0 0 0
1414 1 0.00512647 -0.002023 0.0261617 0.0008 3.43146e-06 -1.51614e-12 8.17179e-13 -3.11271e-12 1.26187e-09 -2.39851e-09 9.74561e-10 3.39535e-15 -1.66861e-15 -3.11731e-15 0 0 0 0 0 0 0 0
1415 1 -0.000558861 0.000688564 0.0291439 0.0008 3.43146e-06 2.71035e-13 -2.66051e-13 -1.53941e-12 -7.12902e-10 -1.34182e-09 -2.93977e-10 -8.52377e-17 6.22977e-16 -2.23661e-15 0 0 0 0 0 0 0 0
1416 1 0.00677766 0.00242904 0.0235724 0.0008 3.43146e-06 -1.62872e-12 1.82714e-14 -8.39145e-13 1.74072e-09 6.10344e-10 -5.96956e-10 -1.67028e-15 2.03122e-15 7.1993e-16 0 0 0 0 0 0 0 0
1417 1 0.00357059 -0.00238543 0.02625 0.0008 3.43146e-06 1.02024e-12 2.64121e-13 -2.95153e-12 -1.48688e-09 2.68452e-09 4.10547e-10 -1.52354e-15 1.32904e-15 -1.6092e-15 0 0 0 0 0 0 0 0
1418 1 -0.00702502 0.00157901 0.0272483 0.0008 3.43146e-06 -1.25979e-12 -5.57686e-16 3.89242e-13 1.37251e-10 -5.40325e-10 -3.33002e-10 -7.26006e-16 1.23787e-15 4.89247e-17 1 0.000301246 -0.000144574 8.03635e-05 -0.00780526 0.00175438 0.0272483 0.0008
1419 1 -0.000645603 -0.00145645 0.0256777 0.0008 3.43146e-06 2.70246e-13 -5.42083e-13 -5.53275e-14 -4.91808e-10 4.21895e-10 9.29617e-11 -8.79285e-16 -3.923e-16 -4.67916e-15 0 0 0 0 0 0 0 0
1420 1 0.000302887 0.00334919 0.0276511 0.0008 3.43146e-06 -1.35284e-13 7.57853e-14 -2.42074e-12 1.06833e-09 -1.91033e-09 2.02461e-09 -1.68768e-16 -1.18787e-15 1.07226e-15 0 0 0 0 0 0 0 0
1421 1 0.00577005 0.00113565 0.0258493 0.0008 3.43146e-06 -9.54206e-13 -5.4193e-13 2.03424e-12 6.24199e-10 1.96067e-09 1.28385e-10 -1.17015e-15 8.10634e-17 1.86024e-15 0 0 0 0 0 0 0 0
1422 1 0.00424037 -0.0016582 0.029134 0.0008 3.43146e-06 -8.62034e-13 5.41713e-13 -1.55953e-12 -1.36477e-09 4.43036e-10 -1.25376e-09 -1.08274e-15 -7.34922e-16 -2.01034e-15 0 0 0 0 0 0 0 0
1423 1 0.00685723 -0.0021955 0.0232673 0.0008 3.43146e-06 -6.245e-13 -3.23487e-13 -7.21316e-13 8.97995e-10 -1.18491e-09 6.42651e-10 -8.03706e-16 -2.84819e-16 -8.41777e-16 1 -8.64125e-05 2.44294e-05 1.55106e-05 0.00761901 -0.0024394 0.0232673 0.0008
1424 1 -0.00718518 0.000467477 0.022054 0.0008 3.43146e-06 1.72039e-12 1.35534e-13 -1.35503e-12 -1.0706e-09 1.708e-09 3.40231e-10 -2.67353e-16 6.11777e-16 1.14031e-15 1 0.000478536 7.54857e-06 -1.00983e-05 -0.00798312 0.000519392 0.022054 0.0008
1425 1 -0.00366655 0.00474669 0.0303193 0.0008 3.43146e-06 1.08394e-12 -2.16714e-12 -5.58471e-13 -2.85803e-09 1.5596e-09 2.2208e-09 9.65705e-17 -1.72436e-15 5.38551e-15 0 0 0 0 0 0 0 0
1426 1 0.00707385 -0.00134377 0.0256589 0.0008 3.43146e-06 -1.02236e-12 2.54734e-14 -6.93342e-13 1.4771e-09 -1.17805e-09 1.73568e-10 -1.84945e-15 1.26384e-15 1.29418e-15 1 -0.000441563 8.31683e-05 4.78015e-05 0.00785945 -0.00149301 0.0256589 0.0008
1427 1 -0.00315074 -0.0018032 0.0264276 0.0008 3.43146e-06 9.62557e-13 -5.41826e-13 6.23761e-13 3.66922e-09 1.96671e-09 5.54319e-10 1.80418e-15 5.6068e-16 9.72093e-16 0 0 0 0 0 0 0 0
1428 1 -0.00218452 -0.00140725 0.0250473 0.0008 3.43146e-06 -8.16923e-13 -5.40985e-13 2.11984e-12 7.63976e-10 2.12259e-09 3.12788e-10 -1.48647e-15 4.47367e-16 -1.51186e-15 0 0 0 0 0 0 0 0
1429 1 -0.00426343 0.00559512 0.0247964 0.0008 3.43146e-06 -6.73824e-14 7.5002e-13 2.7195e-13 2.67011e-10 -1.68664e-09 8.57374e-10 1.59227e-15 -3.1358e-16 1.71243e-15 0 0 0 0 0 0 0 0
1430 1 -0.00402696 0.00596861 0.0263339 0.0008 3.43146e-06 -4.42451e-13 -1.01593e-13 -8.70003e-13 4.61223e-10 1.45013e-09 -4.64303e-10 -3.53703e-16 -2.01024e-15 2.0978e-15 1 1.49316e-05 -1.7553e-05 2.39259e-06 -0.00447437 0.00663175 0.0263339 0.0008
1431 1 -0.00338833 -0.00485328 0.0262639 0.0008 3.43146e-06 -1.01579e-12 3.58498e-13 -1.1136e-12 -9.88471e-10 1.40295e-09 -3.86049e-09 -1.41852e-15 -2.23797e-15 -3.07648e-15 0 0 0 0 0 0 0 0
1432 1 -0.00523374 0.00360181 0.0250988 0.0008 3.43146e-06 -1.46015e-12 -9.88779e-13 -3.69882e-13 2.31594e-10 -1.34532e-10 6.38697e-10 5.45516e-16 -2.31985e-15 -1.72704e-16 0 0 0 0 0 0 0 0
1433 1 0.000712328 -0.00199291 0.0279817 0.0008 3.43146e-06 2.55547e-13 5.69851e-14 -1.47943e-12 -2.6785e-09 1.68956e-10 -5.02647e-10 -1.89395e-15 1.67463e-15 -3.15086e-15 0 0 0 0 0 0 0 0
1434 1 -0.00586275 -0.000528139 0.0262556 0.0008 3.43146e-06 3.67803e-13 2.7013e-13 2.85519e-12 -2.67298e-09 2.1682e-09 9.07435e-10 -3.62841e-15 -6.04091e-16 -4.3031e-16 0 0 0 0 0 0 0 0
1435 1 0.00198237 0.0069221 0.0236903 0.0008 3.43146e-06 -1.08048e-12 9.70581e-13 1.22296e-12 -2.70196e-09 -3.89075e-09 -1.64566e-09 6.46833e-17 7.84944e-17 4.78952e-16 1 -0.000122694 -0.000453296 -6.43354e-05 0.00220252 0.00769083 0.0236903 0.0008
1436 1 0.00123187 -0.00308223 0.0247166 0.0008 3.43146e-06 5.41947e-13 -1.08333e-12 -6.3399e-13 1.29353e-09 -2.19145e-09 1.79835e-09 -5.06873e-17 9.02092e-17 -2.01914e-15 0 0 0 0 0 0 0 0
1437 1 0.003702 0.00341932 0.0259504 0.0008 3.43146e-06 -6.48852e-13 -5.59252e-13 7.63137e-13 5.66018e-10 -1.43872e-09 -1.74484e-09 3.27448e-16 3.6102e-16 1.72825e-16 0 0 0 0 0 0 0 0
1438 1 -0.00403117 0.00127022 0.0240131 0.0008 3.43146e-06 -8.074e-13 -1.89192e-13 -7.0709e-12 -5.64405e-09 2.31883e-09 7.24374e-09 -1.58776e-15 -1.56064e-15 -7.09912e-16 0 0 0 0 0 0 0 0
1439 1 0.00657852 0.00292724 0.027942 0.0008 3.43146e-06 2.08341e-12 3.93951e-13 8.59054e-13 -1.72736e-10 1.10603e-09 6.11993e-10 5.8807e-16 -6.72236e-16 -2.14984e-15 1 -0.000436002 -0.000331314 7.61708e-05 0.00730907 0.00325231 0.027942 0.0008
1440 1 -0.000757418 -0.00363306 0.024528 0.0008 3.43146e-06 2.70715e-13 9.26187e-13 -2.47817e-13 -1.80929e-09 -1.78277e-09 1.0594e-09 5.1098e-17 -1.31513e-15 -4.86783e-15 0 0 0 0 0 0 0 0
1441 1 0.00237187 -0.00551269 0.0247694 0.0008 3.43146e-06 7.76735e-13 1.62267e-13 -8.14144e-13 2.14958e-09 -2.01796e-09 8.68068e-11 -1.07434e-15 -2.95874e-16 3.22864e-16 0 0 0 0 0 0 0 0
1442 1 -0.00174762 -0.00238264 0.0271503 0.0008 3.43146e-06 1.04402e-13 -6.67288e-13 3.28521e-12 -2.30937e-09 7.45816e-10 8.15896e-10 5.67924e-15 2.40505e-15 -6.35785e-15 0 0 0 0 0 0 0 0
1443 1 0.00686389 0.00217438 0.0265595 0.0008 3.43146e-06 -9.94047e-14 8.57515e-13 1.09072e-12 3.9759e-10 1.58122e-09 -1.07813e-09 1.82867e-15 -5.55586e-16 1.7527e-15 1 -3.2586e-05 -6.68195e-06 4.04015e-06 0.00762648 0.00241596 0.0265595 0.0008
1444 1 -0.00153797 0.0070341 0.0276401 0.0008 3.43146e-06 5.41223e-13 -1.64954e-12 -2.82893e-13 1.17623e-10 1.30067e-09 2.39437e-10 1.96815e-16 -1.18935e-15 -1.6017e-15 1 0.000116891 -0.00028741 2.95921e-05 -0.00170879 0.00781537 0.0276401 0.0008
1445 1 0.00107617 0.00711944 0.0267514 0.0008 3.43146e-06 2.42581e-13 -1.18531e-12 -2.18467e-13 3.97256e-10 5.05441e-10 5.24366e-10 -3.44392e-16 -1.23455e-15 1.3197e-15 1 -5.47694e-05 -0.000367662 5.23007e-05 0.00119569 0.00791014 0.0267514 0.0008
1446 1 -0.00502788 0.00265767 0.0263736 0.0008 3.43146e-06 -2.10594e-13 -2.99825e-13 -2.19736e-12 -9.23583e-12 3.29825e-09 -1.80305e-09 1.19764e-15 -3.30769e-15 3.03642e-16 0 0 0 0 0 0 0 0
1447 1 -0.00433767 0.000867393 0.0255307 0.0008 3.43146e-06 -1.79467e-12 -2.35586e-13 5.45863e-12 -1.53737e-10 -2.99926e-09 1.96385e-09 -4.28393e-15 -3.52513e-15 -3.17011e-15 0 0 0 0 0 0 0 0
1448 1 -0.00234472 -0.00600839 0.0244494 0.0008 3.43146e-06 4.38627e-13 4.17683e-13 -1.63936e-13 1.11418e-09 8.7881e-10 1.93702e-09 -9.44606e-16 -1.60078e-15 -1.9833e-15 0 0 0 0 0 0 0 0
1449 1 -0.00261832 0.00670721 0.0265063 0.0008 3.43146e-06 -6.44948e-14 -9.72868e-13 -5.79005e-13 1.08272e-09 -9.73567e-10 -5.40247e-10 1.45786e-15 -7.77596e-16 5.80983e-16 1 5.40368e-05 -0.000117842 -7.30294e-06 -0.00290918 0.00745229 0.0265063 0.0008
1450 1 -0.0071573 -0.000784917 0.0293823 0.0008 3.43146e-06 -9.10718e-14 -1.42979e-13 -1.31394e-12 7.89005e-10 1.70353e-09 -1.24732e-10 7.14028e-16 -2.53831e-15 3.49291e-17 1 0.000209326 1.73928e-05 -1.41241e-05 -0.00795232 -0.000872104 0.0293823 0.0008
1451 1 0.00102511 0.00395482 0.0263585 0.0008 3.43146e-06 5.40704e-13 -6.54771e-13 -1.86459e-13 -1.13864e-09 -5.28286e-10 -2.03146e-09 4.3259e-16 -1.72111e-15 1.10887e-15 0 0 0 0 0 0 0 0
1452 1 -8.94603e-06 0.000254865 0.0277057 0.0008 3.43146e-06 1.48176e-13 -1.36301e-13 -2.58101e-13 3.92072e-10 8.37669e-10 2.00016e-10 -8.61025e-17 1.76435e-16 -7.5084e-15 0 0 0 0 0 0 0 0
1453 1 0.00626457 -0.00354936 0.0226551 0.0008 3.43146e-06 8.66827e-13 -1.0816e-12 -1.42317e-12 -1.20554e-09 -1.37561e-09 6.31747e-10 -6.14827e-16 -3.12953e-17 4.07096e-16 1 -0.000175413 7.25536e-05 5.00646e-05 0.00696045 -0.00394363 0.0226551 0.0008
1454 1 0.0015408 0.00702592 0.0252239 0.0008 3.43146e-06 -4.41159e-13 9.73546e-13 -5.50884e-12 2.06523e-09 2.34864e-09 1.87409e-09 1.92402e-15 -1.57531e-15 2.15001e-15 0 0 0 0 0 0 0 0
1455 1 0.00217595 0.00247165 0.0246432 0.0008 3.43146e-06 1.08394e-12 5.41977e-14 -1.02269e-12 6.69813e-10 1.73112e-09 -5.64528e-10 2.6874e-16 -1.76356e-15 5.63927e-15 0 0 0 0 0 0 0 0
1456 1 0.00167102 0.0008631 0.0268243 0.0008 3.43146e-06 8.21555e-14 -2.64758e-13 -2.3569e-12 -1.28088e-09 -8.21907e-10 9.96161e-10 1.74238e-15 7.31672e-16 1.69223e-15 0 0 0 0 0 0 0 0
1457 1 0.00191442 0.000988578 0.0241035 0.0008 3.43146e-06 7.06576e-14 -4.78034e-13 -8.274e-13 -1.0729e-09 -3.57233e-10 -1.60055e-10 6.42582e-16 -3.41167e-16 5.22954e-16 0 0 0 0 0 0 0 0
1458 1 0.00209451 -0.00688875 0.0236963 0.0008 3.43146e-06 6.90833e-13 2.16451e-12 -1.71293e-12 -3.35051e-09 3.91151e-09 -1.59882e-09 -1.23521e-16 3.35951e-16 1.22972e-15 1 -2.58893e-05 9.22681e-05 -1.71147e-05 0.00232719 -0.00765403 0.0236963 0.0008
1459 1 0.0056846 0.000599919 0.0273544 0.0008 3.43146e-06 1.59341e-12 -2.70971e-13 -3.81117e-12 1.70414e-09 1.36074e-09 -1.11021e-09 -2.4009e-15 -5.12027e-16 5.617e-15 0 0 0 0 0 0 0 0
1460 1 0.00492835 0.00309442 0.0288612 0.0008 3.43146e-06 5.46434e-13 1.08309e-12 -4.50521e-12 -1.03249e-09 6.33501e-10 9.81314e-10 -7.45181e-15 2.20878e-16 5.90591e-16 0 0 0 0 0 0 0 0
1461 1 0.00516853 0.00501309 0.0244102 0.0008 3.43146e-06 -1.19612e-12 -1.93523e-12 2.59339e-13 1.06781e-09 1.47261e-09 7.07794e-10 8.19344e-16 1.2199e-16 5.88269e-16 1 -0.000267341 -0.00030426 -1.8596e-05 0.00574255 0.00556984 0.0244102 0.0008
1462 1 -0.00330074 0.00181406 0.0262974 0.0008 3.43146e-06 -1.08397e-12 3.54928e-13 3.79127e-12 -2.31198e-09 3.97528e-09 -2.69284e-09 -3.71128e-17 -7.58e-16 -3.65244e-15 0 0 0 0 0 0 0 0
1463 1 -0.00704854 -0.00146946 0.0257217 0.0008 3.43146e-06 -1.3805e-12 -5.74729e-14 4.60207e-13 -9.46077e-10 -8.24672e-10 2.38558e-10 4.1904e-17 -6.51572e-16 -1.09011e-16 1 5.40859e-05 4.20263e-06 -9.18691e-06 -0.00783162 -0.00163271 0.0257217 0.0008
1464 1 0.00183507 -0.00376813 0.0228558 0.0008 3.43146e-06 5.42029e-13 -1.08418e-12 -1.66036e-12 2.93799e-10 -2.27298e-09 -1.21026e-10 -1.03099e-15 3.5561e-16 -5.67885e-15 0 0 0 0 0 0 0 0
1465 1 0.00360203 0.00623427 0.0275618 0.0008 3.43146e-06 9.47711e-13 -8.7356e-13 -1.56493e-12 3.75453e-09 2.5011e-09 1.58472e-09 1.21268e-15 9.62828e-16 4.37826e-16 1 -1.29594e-05 -1.94648e-05 -4.16364e-06 0.00400223 0.00692692 0.0275618 0.0008
1466 1 0.00719564 0.000254558 0.0269582 0.0008 3.43146e-06 -2.16047e-12 -4.6236e-14 -2.10917e-12 -4.41362e-10 -2.62265e-09 -5.53683e-11 2.46754e-16 1.08067e-15 2.75747e-15 1 -0.00011092 -1.13625e-05 6.8384e-06 0.007995 0.000282837 0.0269582 0.0008
1467 1 -0.000797453 -0.00195743 0.0226454 0.0008 3.43146e-06 2.25348e-13 5.13318e-13 -1.08289e-12 6.46689e-10 -6.25915e-11 -1.56061e-09 -8.54621e-16 -1.11186e-16 4.14652e-16 0 0 0 0 0 0 0 0
1468 1 -0.00027218 -0.00719514 0.0282434 0.0008 3.43146e-06 1.35375e-13 -6.38423e-13 -4.06518e-13 -5.73265e-10 1.03575e-10 -3.10197e-10 4.6409e-16 1.88317e-15 1.21297e-15 1 2.16874e-05 0.000320203 3.90081e-05 -0.00030241 -0.00799428 0.0282434 0.0008
1469 1 -0.00162103 0.0017493 0.0285909 0.0008 3.43146e-06 3.09632e-13 -5.41743e-13 -1.64217e-12 8.5866e-10 9.44461e-10 8.05688e-10 -2.01604e-15 -7.44348e-16 2.31451e-16 0 0 0 0 0 0 0 0
1470 1 0.00192747 0.00542248 0.0248381 0.0008 3.43146e-06 -5.36238e-13 -5.07242e-13 1.08385e-12 -4.61674e-10 -3.8375e-09 -4.06575e-10 6.48309e-17 -1.79684e-15 -9.28133e-16 0 0 0 0 0 0 0 0
1471 1 -0.00466019 -0.00367268 0.0255408 0.0008 3.43146e-06 9.74051e-13 -9.81829e-13 4.07149e-13 3.74441e-10 4.00089e-09 1.80619e-09 -1.50083e-16 7.71275e-16 1.66987e-15 0 0 0 0 0 0 0 0
1472 1 -0.00685587 0.00219958 0.0226928 0.0008 3.43146e-06 -1.99199e-12 -1.0856e-12 3.79479e-12 4.32329e-09 -6.34918e-09 -2.06902e-09 -9.93252e-15 6.51544e-16 5.13695e-15 1 3.99754e-05 -9.78785e-06 -1.00173e-06 -0.00761755 0.00244395 0.0226928 0.0008
1473 1 0.00490724 -0.00526897 0.0280006 0.0008 3.43146e-06 -3.56671e-14 -7.09377e-13 8.65652e-13 1.35313e-09 2.99582e-10 6.98475e-10 -9.32159e-17 -3.15647e-16 2.13847e-15 1 -0.000118873 0.000178434 -2.8724e-06 0.00545233 -0.00585424 0.0280006 0.0008
1474 1 -0.00132661 -0.00707682 0.0270461 0.0008 3.43146e-06 4.74594e-13 -6.58524e-13 -1.02929e-13 -2.11454e-10 -9.77173e-11 -6.65945e-10 -5.35493e-16 1.67043e-15 -7.48382e-17 1 1.65331e-05 5.18647e-05 2.42865e-06 -0.00147399 -0.00786304 0.0270461 0.0008
1475 1 0.00580751 0.000161995 0.0245678 0.0008 3.43146e-06 -8.59603e-13 2.02717e-13 3.00297e-12 -2.45731e-10 9.02269e-10 6.30949e-11 -1.12484e-15 1.60463e-16 1.58069e-15 0 0 0 0 0 0 0 0
1476 1 -0.00155195 0.0023121 0.0238925 0.0008 3.43146e-06 -5.26899e-13 1.08393e-12 5.57843e-13 1.23106e-10 2.34571e-10 -1.60264e-09 -3.04505e-15 -1.49888e-15 1.58406e-15 0 0 0 0 0 0 0 0
1477 1 0.00540808 0.00234419 0.0227272 0.0008 3.43146e-06 1.9143e-13 9.32634e-13 -4.45059e-12 -3.9334e-10 -9.87631e-10 5.16765e-10 1.09406e-15 5.53159e-16 -1.62238e-15 0 0 0 0 0 0 0 0
1478 1 -0.00359354 0.00623944 0.0278498 0.0008 3.43146e-06 -3.3144e-13 4.00153e-13 1.45111e-12 -8.00776e-10 -2.2149e-09 -1.35819e-10 7.8938e-16 -2.59979e-16 -9.53094e-16 1 0.000226376 -0.00025183 4.23299e-05 -0.00399267 0.00693243 0.0278498 0.0008
1479 1 -0.000571722 4.57626e-05 0.0262227 0.0008 3.43146e-06 -2.706e-13 -1.0244e-13 -2.32173e-13 9.92349e-11 -2.20524e-10 6.99932e-10 -2.43587e-15 2.81205e-16 -1.33945e-15 0 0 0 0 0 0 0 0
1480 1 -0.00288573 1.66104e-05 0.0287646 0.0008 3.43146e-06 1.08261e-12 -1.72985e-13 -4.60623e-12 -2.63479e-10 -4.67972e-10 1.35319e-11 -7.90311e-16 -2.59002e-15 -9.03977e-16 0 0 0 0 0 0 0 0
1481 1 0.000236448 -0.00719637 0.0267266 0.0008 3.43146e-06 -2.906e-15 -1.07305e-12 2.06885e-13 2.37547e-10 -1.84689e-10 7.08287e-11 -1.46424e-15 3.5261e-15 7.67626e-16 1 -2.02521e-05 0.000269191 3.2902e-05 0.000262711 -0.00799569 0.0267266 0.0008
1482 1 0.00120778 0.000850466 0.0285591 0.0008 3.43146e-06 5.28615e-13 -1.30761e-13 -1.5779e-12 -2.79207e-10 8.50416e-10 6.68641e-10 1.70451e-16 -1.57361e-15 1.50923e-15 0 0 0 0 0 0 0 0
1483 1 0.00462564 -0.00349618 0.0257892 0.0008 3.43146e-06 1.40948e-12 3.75703e-13 -1.07973e-12 -4.41966e-09 2.63576e-10 2.04484e-09 2.00166e-15 -2.02759e-16 -2.69533e-15 0 0 0 0 0 0 0 0
1484 1 0.00441811 0.000488254 0.0252904 0.0008 3.43146e-06 -4.86305e-13 1.35366e-13 1.22779e-12 6.64258e-10 -2.75986e-09 -4.77112e-10 -7.59165e-16 1.4974e-16 8.92638e-16 0 0 0 0 0 0 0 0
1485 1 -0.00342754 -0.00266174 0.0282877 0.0008 3.43146e-06 -1.08419e-12 3.40116e-13 1.76634e-12 -1.7589e-09 -2.17618e-09 -1.7848e-09 -2.02803e-16 -6.62882e-16 -1.41307e-15 0 0 0 0 0 0 0 0
1486 1 -0.0054689 -0.00296938 0.0277444 0.0008 3.43146e-06 -1.84108e-12 6.92798e-13 -3.0791e-12 5.59952e-10 -8.20634e-10 -1.83748e-09 -7.22482e-15 3.3676e-15 2.23864e-15 0 0 0 0 0 0 0 0
1487 1 -0.00668796 0.0026667 0.0261113 0.0008 3.43146e-06 2.06273e-12 7.22213e-13 -8.05874e-13 -1.01976e-09 1.5084e-09 1.78942e-09 -1.11e-15 -2.47844e-15 -2.7776e-17 1 7.66161e-07 -4.50345e-07 -3.77134e-08 -0.00743106 0.002963 0.0261113 0.0008
1488 1 -0.00137891 0.00540122 0.0296442 0.0008 3.43146e-06 5.4063e-13 5.51533e-13 -7.2394e-13 -2.70059e-09 5.61514e-09 -3.81194e-09 -5.31106e-16 5.24584e-15 -8.46123e-16 0 0 0 0 0 0 0 0
1489 1 0.00302368 0.00455479 0.0268502 0.0008 3.43146e-06 -1.18417e-13 1.3459e-14 2.41683e-13 -1.21966e-09 1.13857e-09 6.50542e-10 1.98575e-15 -3.1808e-15 2.94604e-16 0 0 0 0 0 0 0 0
1490 1 -0.00602865 0.00393663 0.0268298 0.0008 3.43146e-06 -5.05093e-13 1.80472e-12 1.24037e-12 -2.30708e-09 -2.86932e-10 1.60669e-09 2.48833e-15 -5.32116e-17 9.4183e-16 1 7.72381e-05 -2.92703e-05 -1.31301e-06 -0.00669839 0.00437396 0.0268298 0.0008
1491 1 -0.000491456 0.00718349 0.0264393 0.0008 3.43146e-06 -8.83446e-14 -1.36513e-12 -2.74298e-13 3.24507e-10 -5.44887e-10 -1.74166e-10 -7.73611e-16 -1.33172e-15 2.02722e-15 1 2.67792e-06 -0.00031814 -1.20985e-05 -0.000546041 0.00798134 0.0264393 0.0008
1492 1 0.00280843 0.00209707 0.0260639 0.0008 3.43146e-06 5.42279e-13 -1.08356e-12 -3.0397e-12 2.75345e-09 -2.26817e-09 3.39512e-09 4.67908e-15 2.17575e-16 8.52952e-15 0 0 0 0 0 0 0 0
1493 1 -0.00495488 -0.00522401 0.0257981 0.0008 3.43146e-06 1.18381e-12 -1.22527e-12 3.46664e-13 4.88409e-10 -1.36105e-10 -2.12691e-09 5.15331e-16 9.18683e-16 6.50165e-17 1 2.43599e-05 3.89402e-05 -3.91684e-06 -0.00550536 -0.0058044 0.0257981 0.0008
1494 1 0.00410824 0.000227408 0.0286064 0.0008 3.43146e-06 1.05866e-12 -1.25084e-13 -4.3033e-12 1.96755e-09 3.21553e-09 -1.17581e-09 1.40248e-15 -1.78219e-15 1.447e-14 0 0 0 0 0 0 0 0
1495 1 -0.00100264 0.00713006 0.0291781 0.0008 3.43146e-06 2.27672e-13 3.78734e-14 3.83985e-13 -3.6689e-10 -1.83006e-10 2.30728e-10 -1.17311e-15 3.37318e-15 -1.6545e-16 1 3.58088e-05 -0.000202967 -2.1454e-05 -0.00111401 0.00792206 0.0291781 0.0008
1496 1 -0.00206052 0.000476643 0.0235118 0.0008 3.43146e-06 -1.08343e-12 -2.65976e-13 -1.18106e-13 9.01544e-11 -1.3929e-09 1.5442e-09 4.9364e-17 -3.44563e-16 -7.28276e-15 0 0 0 0 0 0 0 0
1497 1 0.00255562 -0.00553477 0.026358 0.0008 3.43146e-06 1.00024e-12 -8.32331e-13 1.47039e-12 -1.02108e-09 1.99635e-09 -6.52896e-10 -1.68198e-15 1.12685e-15 -2.52279e-15 0 0 0 0 0 0 0 0
1498 1 -0.00222183 0.000591084 0.0259194 0.0008 3.43146e-06 -9.02917e-14 -1.38916e-13 -1.46019e-12 7.67385e-10 4.42464e-10 -4.42319e-10 -9.57999e-16 -4.10678e-15 -6.38999e-15 0 0 0 0 0 0 0 0
1499 1 -0.000700737 0.0029641 0.0290771 0.0008 3.43146e-06 -1.61558e-13 -1.08228e-12 -1.92942e-12 2.02745e-10 5.69325e-10 -9.41917e-11 1.96597e-15 4.53401e-16 5.42449e-15 0 0 0 0 0 0 0 0
1500 1 0.000201433 0.00719728 0.0231898 0.0008 3.43146e-06 4.86386e-13 -7.67741e-13 -7.73923e-14 2.52595e-10 5.57166e-09 7.10205e-10 -3.52428e-16 -2.63665e-15 -7.61506e-16 1 -1.06279e-07 -6.48684e-05 -1.64688e-06 0.000223811 0.00799687 0.0231898 0.0008
1501 1 0.00294467 -3.95411e-05 0.0228946 0.0008 3.43146e-06 6.58915e-14 -3.69184e-15 -4.00719e-12 -1.02337e-10 2.4292e-09 -1.10435e-09 -5.42982e-16 4.74002e-16 9.66407e-16 0 0 0 0 0 0 0 0
1502 1 -0.00237414 0.00483246 0.0285171 0.0008 3.43146e-06 -3.43772e-13 3.3046e-13 1.05176e-13 2.93175e-09 2.49851e-10 1.64861e-10 1.42953e-15 1.04686e-15 2.42925e-15 0 0 0 0 0 0 0 0
1503 1 0.00508242 -0.0031201 0.028831 0.0008 3.43146e-06 9.82265e-13 -1.08416e-12 1.92452e-13 -2.32763e-09 -1.10158e-09 2.89436e-09 4.61191e-15 -4.62155e-16 -3.64259e-15 0 0 0 0 0 0 0 0
1504 1 0.00110192 -0.00381234 0.0268627 0.0008 3.43146e-06 4.83072e-13 -1.08415e-12 1.50756e-13 2.25817e-09 1.08602e-09 2.84622e-09 -3.02751e-15 2.45023e-17 -2.14807e-15 0 0 0 0 0 0 0 0
1505 1 0.00226849 0.00534878 0.0283886 0.0008 3.43146e-06 -1.08361e-12 -1.07646e-13 6.49641e-13 -8.34414e-11 2.39699e-09 7.74319e-10 -1.82727e-16 -3.08177e-15 -5.00775e-15 0 0 0 0 0 0 0 0
1506 1 -0.00354178 0.00262947 0.0333686 0.0008 3.43146e-06 3.25292e-13 1.07966e-12 -1.35295e-12 -1.70111e-09 3.44247e-09 -5.26874e-10 -3.60265e-15 -2.14786e-15 1.77824e-14 0 0 0 0 0 0 0 0
1507 1 -0.00235031 0.00326879 0.0281793 0.0008 3.43146e-06 5.75685e-14 -4.14844e-14 -3.87778e-12 1.90528e-09 -1.00593e-09 -1.65614e-11 1.44605e-16 -4.34955e-16 1.94933e-15 0 0 0 0 0 0 0 0
1508 1 -0.00316784 -0.00344055 0.0296608 0.0008 3.43146e-06 -5.3056e-13 1.08417e-12 1.32443e-12 8.68864e-10 3.97868e-09 4.66039e-10 -1.44865e-15 1.25655e-15 -3.05244e-15 0 0 0 0 0 0 0 0
1509 1 -0.000770208 -0.00582639 0.0289048 0.0008 3.43146e-06 -2.70942e-13 5.95883e-13 -1.09393e-12 -5.08287e-10 -1.49095e-09 1.44563e-11 -2.95255e-16 2.00122e-15 3.83099e-15 0 0 0 0 0 0 0 0
1510 1 -0.00113958 0.000880241 0.0327768 0.0008 3.43146e-06 -5.41388e-13 -2.69811e-13 -9.59228e-13 -2.80926e-09 1.77139e-09 -1.08825e-09 -1.17037e-16 2.42458e-16 9.28676e-15 0 0 0 0 0 0 0 0
1511 1 0.00574043 0.00196896 0.0321205 0.0008 3.43146e-06 -2.04347e-13 1.0839e-12 -1.65813e-12 7.50264e-10 -2.58494e-09 -4.89546e-10 -6.58227e-15 -7.68658e-16 6.78178e-15 0 0 0 0 0 0 0 0
1512 1 -0.0022473 -0.00327079 0.0309583 0.0008 3.43146e-06 4.60059e-13 6.90978e-13 -1.14164e-12 2.0358e-10 -1.24534e-09 2.67429e-10 6.20351e-15 -3.16439e-15 8.51115e-15 0 0 0 0 0 0 0 0
1513 1 0.00115576 0.00438432 0.0306042 0.0008 3.43146e-06 -4.87221e-13 -1.93557e-12 -5.89156e-13 4.87414e-10 7.76141e-11 -1.13104e-09 2.37172e-15 4.67722e-15 -3.1124e-16 0 0 0 0 0 0 0 0
1514 1 0.00148626 -0.00704512 0.0306902 0.0008 3.43146e-06 5.42154e-13 2.16724e-12 1.52162e-13 -5.38767e-10 4.69576e-09 -1.123e-09 -9.91157e-17 4.73728e-16 -7.01354e-16 1 -4.74903e-05 0.000164341 -1.56533e-05 0.00165136 -0.00782771 0.0306902 0.0008
1515 1 -0.00129437 0.00348056 0.0312141 0.0008 3.43146e-06 -5.04044e-14 -1.08415e-12 -3.14969e-12 1.48997e-10 8.24014e-10 -1.53478e-09 -1.05074e-15 2.00878e-16 7.85728e-16 0 0 0 0 0 0 0 0
1516 1 -0.000848857 0.00184498 0.0302106 0.0008 3.43146e-06 -6.15974e-14 -5.42034e-13 -2.68267e-12 8.76699e-11 -2.26185e-10 -3.66479e-10 -3.07124e-15 3.03191e-16 2.66927e-15 0 0 0 0 0 0 0 0
1517 1 0.00460182 -0.00216265 0.0318959 0.0008 3.43146e-06 -1.03058e-12 1.08381e-12 -8.48679e-12 -6.93098e-10 -4.4649e-10 -1.0918e-09 1.28961e-15 -3.41403e-16 -8.479e-15 0 0 0 0 0 0 0 0
1518 1 0.00342849 0.00562837 0.0319881 0.0008 3.43146e-06 1.00468e-12 3.8596e-13 -2.34708e-12 -1.94266e-09 2.41124e-09 -2.09694e-09 -5.83496e-15 8.16635e-15 -5.67316e-15 0 0 0 0 0 0 0 0
1519 1 0.00195302 -0.00184032 0.033347 0.0008 3.43146e-06 -1.5583e-12 -5.42144e-13 6.70893e-12 -3.51342e-09 7.3065e-09 -1.08957e-09 -1.14746e-14 -1.93461e-16 -1.47383e-14 0 0 0 0 0 0 0 0
1520 1 -0.000656705 -0.00717016 0.0298451 0.0008 3.43146e-06 -2.71411e-13 1.99221e-12 -3.39238e-13 -3.55941e-10 4.81091e-10 8.93888e-10 2.8769e-16 1.03176e-15 3.20012e-16 1 4.33949e-05 0.00014695 -2.92274e-06 -0.000729655 -0.00796666 0.0298451 0.0008
1521 1 2.54762e-05 0.00185396 0.0281654 0.0008 3.43146e-06 -1.50212e-13 -5.41938e-13 -1.95919e-12 -9.15646e-10 -1.87689e-10 1.92147e-10 7.4175e-16 -4.48406e-17 6.06074e-15 0 0 0 0 0 0 0 0
1522 1 -0.00523943 -0.00493852 0.0315556 0.0008 3.43146e-06 1.28898e-12 1.60024e-12 -2.38996e-13 -1.78921e-09 -6.41715e-10 -1.71715e-10 -5.2379e-15 -4.34784e-15 3.06207e-15 1 1.32559e-05 1.37938e-05 -3.18992e-06 -0.00582155 -0.00548722 0.0315556 0.0008
1523 1 -0.00120451 -0.00408945 0.0271309 0.0008 3.43146e-06 5.11515e-13 -3.57792e-13 -4.18173e-12 -8.14444e-10 -1.64928e-09 -2.7517e-10 -9.79245e-16 -1.35357e-15 -1.54944e-16 0 0 0 0 0 0 0 0
1524 1 0.00400555 -0.00374012 0.0298387 0.0008 3.43146e-06 -1.44198e-12 8.75899e-13 2.01749e-12 -4.68604e-09 -1.9598e-09 -1.49554e-09 2.8618e-15 -1.30894e-15 -3.8332e-15 0 0 0 0 0 0 0 0
1525 1 2.41662e-05 0.00720002 0.0279536 0.0008 3.43146e-06 -8.30803e-14 -8.49463e-13 8.43445e-13 -1.11565e-09 9.22407e-11 -2.17965e-10 -3.38418e-16 8.10877e-16 1.11247e-15 1 -3.98342e-06 -3.47247e-05 -1.52882e-06 2.68511e-05 0.00799995 0.0279536 0.0008
1526 1 0.00494217 0.000665044 0.0325916 0.0008 3.43146e-06 -1.86523e-12 2.71129e-13 -3.88087e-12 6.5707e-10 -1.63147e-09 7.16319e-12 -7.843e-15 8.43775e-16 9.0696e-15 0 0 0 0 0 0 0 0
1527 1 -0.00644739 -0.00320538 0.031273 0.0008 3.43146e-06 1.42683e-12 -3.53115e-13 1.58177e-13 1.02765e-09 2.62174e-10 -1.08328e-09 2.512e-15 6.28507e-16 -1.99562e-15 1 0.000200111 0.000112293 2.87741e-05 -0.00716354 -0.00356143 0.031273 0.0008
1528 1 -0.00532961 0.00484108 0.0326502 0.0008 3.43146e-06 8.39349e-13 -7.69326e-13 2.11901e-12 -9.82437e-10 -2.69229e-09 1.62928e-10 4.10086e-15 -2.34803e-15 -1.33365e-15 1 2.53141e-05 -1.44382e-05 -6.59713e-06 -0.00592175 0.00537893 0.0326502 0.0008
1529 1 0.00215454 -0.00291503 0.0305074 0.0008 3.43146e-06 -1.08312e-12 -1.0841e-12 -4.40523e-12 -1.31759e-09 1.28315e-09 -3.75423e-10 -4.86465e-16 -4.93136e-16 1.3765e-15 0 0 0 0 0 0 0 0
1530 1 -0.00305649 0.00334392 0.030788 0.0008 3.43146e-06 1.06008e-12 -1.07248e-12 -1.59383e-12 3.27228e-09 -3.38852e-10 -2.03156e-09 -3.86424e-15 1.72484e-15 3.72027e-15 0 0 0 0 0 0 0 0
1531 1 -0.00544855 -0.000479111 0.0323654 0.0008 3.43146e-06 -1.11256e-12 8.62034e-14 1.89905e-12 1.75903e-09 1.2144e-09 8.79432e-10 -2.89274e-15 -5.34748e-16 2.80508e-15 0 0 0 0 0 0 0 0
1532 1 0.00711472 0.00110794 0.0289476 0.0008 3.43146e-06 1.75508e-12 2.19629e-13 1.7163e-12 -3.7892e-09 1.53141e-09 4.24806e-11 -1.33269e-15 -2.44296e-16 -9.79268e-16 1 -0.000690727 -5.02495e-05 -6.26399e-06 0.00790473 0.00123097 0.0289476 0.0008
1533 1 -0.00642366 0.00094808 0.0295072 0.0008 3.43146e-06 7.95475e-14 -2.70902e-13 -4.63113e-13 9.68042e-10 1.9239e-09 6.9145e-10 4.22022e-15 -6.55319e-16 2.88271e-15 0 0 0 0 0 0 0 0
1534 1 -0.00284374 -0.00500682 0.0296285 0.0008 3.43146e-06 -1.08409e-12 2.16729e-12 -9.44421e-13 1.31529e-09 -6.16522e-10 -9.02232e-10 -2.1649e-16 -1.9028e-16 2.33428e-15 0 0 0 0 0 0 0 0
1535 1 0.0013733 0.00145551 0.032591 0.0008 3.43146e-06 -5.42323e-13 8.00463e-14 -9.91691e-13 -2.48522e-10 2.32695e-09 1.40885e-09 -3.51986e-16 -5.70984e-16 8.95194e-15 0 0 0 0 0 0 0 0
1536 1 0.000198197 -0.00719743 0.0316268 0.0008 3.43146e-06 7.695e-13 2.16804e-12 2.29982e-12 2.91052e-09 -2.06539e-09 -1.12496e-09 8.07351e-16 -9.11904e-17 5.2216e-15 1 -8.14915e-06 0.000133953 1.25133e-05 0.000220214 -0.00799697 0.0316268 0.0008
1537 1 -0.00412403 -0.00590207 0.0309335 0.0008 3.43146e-06 8.25533e-13 -3.70271e-13 2.81045e-13 9.12117e-10 3.96867e-10 -1.64785e-09 -2.73955e-15 -2.05702e-15 4.73317e-15 1 7.09929e-05 9.11174e-05 -4.32552e-06 -0.00458216 -0.00655773 0.0309335 0.0008
1538 1 -0.00391056 -0.00604554 0.0287718 0.0008 3.43146e-06 1.10957e-12 9.30594e-13 -2.26254e-14 -1.58042e-09 -2.1855e-09 -6.48508e-10 -3.7498e-15 -8.18205e-16 3.88176e-17 1 2.17396e-05 3.61988e-05 5.34188e-06 -0.00434502 -0.0067172 0.0287718 0.0008
1539 1 0.00069478 0.000336147 0.030073 0.0008 3.43146e-06 2.70776e-13 -1.35242e-13 -1.21382e-12 -9.42861e-10 1.55111e-09 -7.73274e-10 6.83774e-16 -3.80534e-16 4.81041e-15 0 0 0 0 0 0 0 0
1540 1 0.00560982 -0.00133973 0.0298972 0.0008 3.43146e-06 -8.86895e-13 5.4158e-13 -1.43978e-12 -2.49001e-10 -9.67356e-10 5.15996e-10 -6.79796e-15 -8.21883e-16 2.07724e-15 0 0 0 0 0 0 0 0
1541 1 -0.00221877 0.000408465 0.0313894 0.0008 3.43146e-06 -7.71486e-13 -2.50854e-13 -4.81706e-12 -2.12403e-09 -1.26909e-09 -8.64872e-10 2.07014e-15 -3.83918e-15 5.01217e-15 0 0 0 0 0 0 0 0
1542 1 -0.00540213 -0.00185899 0.0288943 0.0008 3.43146e-06 1.08725e-12 5.42092e-13 -1.8244e-12 5.14257e-10 1.93754e-09 -2.05898e-09 -4.66936e-15 -1.51313e-16 1.62884e-15 0 0 0 0 0 0 0 0
1543 1 0.000126305 0.00142766 0.0266266 0.0008 3.43146e-06 -3.44933e-13 -1.72184e-13 6.74631e-13 4.94855e-10 1.55856e-10 -3.20434e-10 1.90088e-16 -6.29162e-15 -1.06997e-15 0 0 0 0 0 0 0 0
1544 1 0.000638782 -0.00309448 0.0309869 0.0008 3.43146e-06 2.70893e-13 7.99174e-13 -4.22372e-12 -2.51881e-09 -6.45467e-10 -6.84369e-10 8.12282e-16 2.44719e-15 3.59224e-15 0 0 0 0 0 0 0 0
1545 1 0.00183245 -3.1029e-07 0.0321118 0.0008 3.43146e-06 -5.42097e-13 -1.13646e-13 -4.29108e-13 -5.56816e-10 -1.33563e-09 -1.44846e-09 -8.78155e-16 4.3412e-15 -9.33243e-16 0 0 0 0 0 0 0 0
1546 1 0.0001992 0.00290491 0.030792 0.0008 3.43146e-06 -6.48016e-13 -1.08365e-12 -2.49748e-12 2.32124e-10 3.58303e-11 8.33421e-10 8.49629e-16 5.42249e-16 9.88042e-15 0 0 0 0 0 0 0 0
1547 1 0.000354197 -0.00335617 0.0325393 0.0008 3.43146e-06 -1.03924e-12 1.08413e-12 3.0308e-12 9.4964e-10 7.53504e-10 -3.78136e-10 6.59004e-15 -1.62102e-16 6.02685e-15 0 0 0 0 0 0 0 0
1548 1 0.00282588 0.00386704 0.0317034 0.0008 3.43146e-06 -8.28841e-13 1.08426e-12 -2.99235e-12 3.49619e-09 6.77912e-10 5.39512e-10 8.59924e-15 -6.16376e-16 1.96105e-15 0 0 0 0 0 0 0 0
1549 1 -0.00311038 -0.00453903 0.032697 0.0008 3.43146e-06 3.066e-11 5.26201e-11 -1.73422e-11 -7.41351e-08 3.49073e-08 -1.01592e-07 -4.92405e-14 -6.95873e-14 -7.20903e-15 0 0 0 0 0 0 0 0
1550 1 -0.00382281 0.00283177 0.0286264 0.0008 3.43146e-06 6.09541e-13 1.08848e-14 -3.8093e-12 -3.03037e-10 1.7489e-09 -3.66504e-10 9.5964e-16 -3.07588e-15 2.88738e-15 0 0 0 0 0 0 0 0
1551 1 -0.00374326 0.00106681 0.0336467 0.0008 3.43146e-06 -3.44251e-14 3.84999e-13 1.81123e-12 -2.1941e-09 2.55656e-10 1.44502e-10 3.23747e-15 1.08866e-14 2.33719e-14 0 0 0 0 0 0 0 0
1552 1 -0.00520991 0.00218931 0.0290983 0.0008 3.43146e-06 -6.62203e-13 -1.08419e-12 -7.28308e-13 -1.86735e-09 6.98709e-10 1.34207e-09 6.00475e-15 1.95801e-16 4.54009e-15 0 0 0 0 0 0 0 0
1553 1 -0.000699813 0.00558434 0.0327186 0.0008 3.43146e-06 1.12504e-13 -1.37928e-12 -2.06129e-12 -2.7613e-09 6.13646e-09 4.10915e-09 3.01653e-16 6.01336e-15 -1.04297e-15 0 0 0 0 0 0 0 0
1554 1 -0.00674816 0.00251089 0.029398 0.0008 3.43146e-06 4.19019e-13 -1.08402e-12 -2.14836e-13 -1.21126e-09 7.76122e-10 -1.08618e-09 3.60227e-15 1.12097e-16 3.22705e-15 1 0.000117181 -5.5348e-05 1.17367e-05 -0.00749779 0.00278982 0.029398 0.0008
1555 1 0.00461356 -0.00543245 0.0295648 0.0008 3.43146e-06 -4.12933e-13 2.16835e-12 -1.4306e-12 -5.43805e-09 -1.74752e-09 3.17983e-09 6.73275e-16 1.33696e-16 -3.79281e-15 0 0 0 0 0 0 0 0
1556 1 -0.00285812 -0.00660847 0.0316105 0.0008 3.43146e-06 -1.08424e-12 -1.98056e-13 3.62086e-13 1.18235e-09 -1.84701e-09 2.57697e-09 -7.38658e-16 -7.22394e-16 4.07389e-15 1 7.31051e-06 2.55182e-05 -3.24851e-07 -0.00317567 -0.00734269 0.0316105 0.0008
1557 1 -0.00516619 1.21716e-05 0.0291872 0.0008 3.43146e-06 2.16852e-12 -5.88442e-14 -2.35929e-12 -4.57636e-10 1.36301e-10 1.33514e-09 -5.37361e-16 -4.96433e-17 5.15434e-15 0 0 0 0 0 0 0 0
1558 1 0.00305203 -0.000288722 0.0311176 0.0008 3.43146e-06 -1.08417e-12 4.68899e-13 -3.60352e-13 1.49897e-09 1.60308e-09 1.23961e-09 9.90522e-16 -1.34183e-15 -1.35452e-14 0 0 0 0 0 0 0 0
1559 1 0.00664341 0.00277613 0.0310753 0.0008 3.43146e-06 1.33383e-12 1.00242e-12 9.16487e-14 1.69413e-10 1.83329e-10 -5.76386e-10 -1.60979e-15 -4.89997e-16 -6.31341e-16 1 -8.05188e-05 -4.58011e-05 2.86472e-06 0.00738144 0.00308454 0.0310753 0.0008
1560 1 -0.00525093 0.00267433 0.0327733 0.0008 3.43146e-06 -5.63741e-14 4.33363e-13 -1.116e-12 -1.09329e-09 9.20255e-10 1.05269e-11 -7.27612e-15 1.15702e-17 1.02064e-15 0 0 0 0 0 0 0 0
1561 1 0.00316686 0.000963687 0.0321065 0.0008 3.43146e-06 7.74011e-14 2.70093e-13 -1.0418e-12 -1.71412e-09 2.97138e-09 -5.83121e-11 -2.88972e-15 -6.31973e-16 -3.09581e-16 0 0 0 0 0 0 0 0
1562 1 0.00354019 -0.00317827 0.0312626 0.0008 3.43146e-06 4.09052e-13 1.07166e-12 -6.6776e-12 4.22194e-11 1.9261e-09 2.7055e-09 8.53489e-15 -1.58087e-15 4.7735e-15 0 0 0 0 0 0 0 0
1563 1 -0.00452468 0.00345664 0.0299211 0.0008 3.43146e-06 2.16832e-12 -9.52673e-13 5.79043e-13 4.01651e-09 1.7023e-09 -1.00656e-09 5.06121e-16 -6.57007e-16 4.99368e-15 0 0 0 0 0 0 0 0
1564 1 0.000748008 -0.000773208 0.0312245 0.0008 3.43146e-06 2.71029e-13 -2.71192e-13 -2.41501e-12 2.16942e-09 -3.00547e-10 -6.22956e-10 1.03073e-16 -3.47938e-16 6.70538e-15 0 0 0 0 0 0 0 0
1565 1 -0.00508442 0.00106649 0.0327714 0.0008 3.43146e-06 -2.0277e-12 2.43389e-13 7.78406e-14 4.18389e-10 -8.86031e-10 -2.22556e-09 3.22871e-15 -1.00772e-15 7.58064e-15 0 0 0 0 0 0 0 0
1566 1 0.00310334 -0.00276742 0.0289446 0.0008 3.43146e-06 -9.11465e-13 1.8641e-14 -1.5559e-12 1.12704e-09 -5.60638e-10 1.6601e-09 4.14175e-15 -4.33955e-16 -6.31994e-16 0 0 0 0 0 0 0 0
1567 1 0.00535947 -0.00178269 0.0279978 0.0008 3.43146e-06 8.40561e-13 -5.41853e-13 -8.71019e-13 5.75904e-10 -2.64507e-09 2.8122e-11 -1.15163e-15 6.30407e-16 9.0835e-17 0 0 0 0 0 0 0 0
1568 1 -0.00336419 0.00124814 0.0306528 0.0008 3.43146e-06 2.54684e-13 -5.422e-13 -3.1055e-12 2.18755e-09 2.77439e-09 -3.11412e-11 -1.34471e-15 -7.136e-16 4.98328e-15 0 0 0 0 0 0 0 0
1569 1 -0.00491715 0.00115258 0.030281 0.0008 3.43146e-06 8.38149e-13 -5.19058e-13 -1.19971e-12 2.09584e-09 -1.93972e-10 1.14237e-09 1.64998e-15 8.36792e-16 9.7591e-15 0 0 0 0 0 0 0 0
1570 1 0.00656048 0.000627568 0.0326178 0.0008 3.43146e-06 1.18338e-12 -7.79094e-14 -1.27479e-12 -1.12231e-09 -2.61398e-09 6.98692e-10 -1.0433e-15 1.74983e-15 1.35954e-15 0 0 0 0 0 0 0 0
1571 1 0.00344328 -0.00453218 0.0321096 0.0008 3.43146e-06 1.58994e-12 7.05082e-13 -3.14367e-12 -3.16277e-09 6.34476e-09 -5.79912e-09 4.94887e-15 1.46807e-16 5.71063e-16 0 0 0 0 0 0 0 0
1572 1 0.000532614 0.00718042 0.0321148 0.0008 3.43146e-06 2.70504e-13 -2.64429e-13 2.5915e-13 -2.95198e-10 1.4561e-09 5.08586e-10 -2.92177e-16 4.17012e-18 -4.62721e-15 1 -3.66008e-05 -0.000114815 -3.91167e-06 0.000591781 0.00797808 0.0321148 0.0008
1573 1 -0.00094266 0.00423121 0.0281309 0.0008 3.43146e-06 -2.70886e-13 -5.28931e-13 -2.36463e-12 -6.23165e-10 1.7474e-09 -1.45503e-09 -1.15536e-16 -8.06808e-16 -3.93517e-16 0 0 0 0 0 0 0 0
1574 1 0.00386447 -0.00607504 0.0321561 0.0008 3.43146e-06 -1.08411e-12 -7.80104e-13 -1.38646e-12 -1.02502e-09 -1.2802e-09 1.8537e-09 -3.65013e-16 -1.39961e-15 2.65998e-15 1 -1.94071e-06 3.71667e-06 4.73487e-07 0.00429385 -0.00675003 0.0321561 0.0008
1575 1 -0.00698741 0.00173753 0.0307793 0.0008 3.43146e-06 1.48941e-13 2.7345e-13 5.65859e-13 -1.47578e-09 -4.88924e-10 3.34823e-10 7.44671e-16 -1.23509e-15 5.02222e-16 1 0.000183321 -9.01916e-05 1.60539e-07 -0.00776357 0.00193053 0.0307793 0.0008
1576 1 0.00392827 -0.00440626 0.0269048 0.0008 3.43146e-06 8.41497e-13 4.38304e-13 1.30285e-12 1.70909e-09 -6.4956e-10 -1.15244e-09 1.07382e-15 -4.15136e-15 -5.19933e-16 0 0 0 0 0 0 0 0
1577 1 0.00315628 -0.0016832 0.0303103 0.0008 3.43146e-06 -2.43782e-13 -1.30089e-12 -1.44877e-12 7.57229e-09 3.24238e-10 -1.5398e-09 4.75513e-15 2.08014e-15 -4.86328e-15 0 0 0 0 0 0 0 0
1578 1 -0.00590939 -0.000748238 0.0303827 0.0008 3.43146e-06 1.63298e-12 2.717e-13 -6.21741e-13 -1.96027e-09 -8.98982e-10 -4.91068e-11 -3.7732e-15 -4.28463e-16 1.2582e-15 0 0 0 0 0 0 0 0
1579 1 0.00189148 -0.000724809 0.0301066 0.0008 3.43146e-06 4.30822e-13 -2.712e-13 3.76159e-13 -1.6594e-09 -1.96101e-09 6.30887e-10 1.86962e-15 6.64867e-16 -3.77338e-15 0 0 0 0 0 0 0 0
1580 1 0.00223943 0.00205509 0.0296307 0.0008 3.43146e-06 4.74806e-13 -2.12936e-13 -1.35565e-12 -5.68475e-10 -3.58091e-10 -5.92178e-11 -2.03445e-15 3.44746e-15 1.10815e-14 0 0 0 0 0 0 0 0
1581 1 0.00541242 -0.00474878 0.0264164 0.0008 3.43146e-06 -3.15915e-13 2.49591e-13 8.50318e-13 2.45123e-10 1.20481e-09 -1.13273e-12 -1.2443e-15 -1.64203e-15 6.30678e-16 1 -0.000390191 0.000244149 -1.34618e-05 0.0060135 -0.00527616 0.0264164 0.0008
1582 1 -0.00158087 -0.00583453 0.0302839 0.0008 3.43146e-06 -5.41918e-13 2.16835e-12 -3.02049e-12 -2.29795e-09 -2.09663e-10 5.50648e-10 -1.25952e-16 5.6152e-16 9.6628e-15 0 0 0 0 0 0 0 0
1583 1 -0.000668545 -0.00227904 0.0314181 0.0008 3.43146e-06 8.55424e-13 1.08405e-12 -2.33878e-12 -1.32004e-09 4.66091e-10 1.99504e-11 -3.54961e-16 -2.3778e-16 1.02593e-14 0 0 0 0 0 0 0 0
1584 1 0.0060112 0.00396283 0.0297761 0.0008 3.43146e-06 6.33533e-13 1.54185e-12 -2.33866e-12 -4.16856e-09 4.67918e-09 2.29375e-09 -3.33706e-15 -2.17884e-15 6.92912e-16 0 0 0 0 0 0 0 0
1585 1 0.00377131 0.00260718 0.0322191 0.0008 3.43146e-06 1.23706e-13 2.04365e-13 -3.06126e-12 1.02488e-09 3.80631e-09 -1.12876e-09 -1.71523e-15 -1.98508e-15 8.16744e-15 0 0 0 0 0 0 0 0
1586 1 -0.00349367 0.00629583 0.0306791 0.0008 3.43146e-06 3.70524e-13 -1.84035e-12 -1.6094e-12 1.77447e-09 9.43766e-10 -7.31155e-10 9.40465e-16 2.69464e-16 -6.29068e-17 1 0.000139841 -0.000176747 -9.67244e-06 -0.00388174 0.00699515 0.0306791 0.0008
1587 1 0.00172009 0.00539231 0.0264523 0.0008 3.43146e-06 5.42139e-13 -2.16691e-12 -4.68079e-13 -2.94969e-10 -1.84814e-09 1.04162e-09 -2.16954e-16 -6.6739e-16 4.55546e-15 0 0 0 0 0 0 0 0
1588 1 0.00507038 -0.00273028 0.0304754 0.0008 3.43146e-06 -2.16831e-12 1.08131e-12 -8.51635e-14 -2.53284e-09 -1.91314e-09 -9.84233e-10 -2.4948e-16 5.83498e-16 -6.43677e-15 0 0 0 0 0 0 0 0
1589 1 0.00440802 0.00378097 0.0313379 0.0008 3.43146e-06 1.34498e-12 1.08417e-12 -3.9651e-12 6.71133e-10 -9.06767e-10 -2.14622e-09 -1.09413e-14 -1.62908e-16 3.75741e-15 0 0 0 0 0 0 0 0
1590 1 -0.0056107 0.00254348 0.0306599 0.0008 3.43146e-06 1.51695e-12 -6.50012e-13 -7.08147e-14 -4.03663e-10 2.07638e-10 -2.02701e-09 1.37972e-15 1.42534e-15 3.63299e-15 0 0 0 0 0 0 0 0
1591 1 0.00338257 -0.00501102 0.0305842 0.0008 3.43146e-06 -1.08387e-12 1.36446e-12 1.59102e-12 2.439e-09 -3.05379e-09 4.33919e-09 6.70155e-16 1.29888e-15 3.75331e-15 0 0 0 0 0 0 0 0
1592 1 -0.00100932 0.00369228 0.0327773 0.0008 3.43146e-06 -5.4154e-13 -1.0789e-12 2.78001e-12 -6.73956e-09 3.41823e-09 1.00086e-09 -6.53631e-16 -6.29819e-17 1.35728e-15 0 0 0 0 0 0 0 0
1593 1 -0.00285056 0.00122229 0.0277138 0.0008 3.43146e-06 4.31207e-13 5.41897e-13 -1.51751e-12 3.71826e-09 7.07157e-10 8.23845e-10 -2.44021e-15 -1.00017e-16 -5.27756e-17 0 0 0 0 0 0 0 0
1594 1 0.00658736 -7.34761e-05 0.0298884 0.0008 3.43146e-06 -8.24194e-13 9.67151e-14 2.66588e-12 2.16491e-09 -4.95279e-09 -8.72859e-10 -4.45463e-15 -5.7183e-16 3.0497e-15 0 0 0 0 0 0 0 0
1595 1 0.00369033 -0.00618243 0.0284947 0.0008 3.43146e-06 1.07735e-12 -9.16791e-13 1.44512e-12 5.53326e-10 2.21407e-09 -6.79688e-10 -8.85642e-16 2.46185e-15 -6.56147e-15 1 -1.90316e-05 3.31551e-05 -3.36886e-06 0.00410032 -0.0068693 0.0284947 0.0008
1596 1 0.00700651 -0.00161472 0.0307841 0.0008 3.43146e-06 -3.1822e-13 -3.7762e-13 3.08452e-12 2.89909e-09 -1.61499e-09 2.41099e-09 3.59461e-16 1.61806e-15 6.9775e-16 0 0 0 0 0 0 0 0
1597 1 0.00400363 0.00598444 0.0301704 0.0008 3.43146e-06 9.35479e-13 -4.57408e-13 -5.74841e-13 -4.62038e-10 -1.79045e-09 1.29928e-09 -3.04311e-15 2.61585e-15 -4.52545e-15 1 -0.000104413 -0.000115853 -1.56866e-05 0.00444837 0.00664921 0.0301704 0.0008
1598 1 0.000853528 0.00586987 0.0329744 0.0008 3.43146e-06 -7.44628e-13 1.02965e-12 -4.75244e-12 4.90647e-09 -2.57553e-09 -4.76199e-10 -4.53788e-15 1.22486e-14 -1.92519e-16 0 0 0 0 0 0 0 0
1599 1 -0.00607056 0.0038719 0.0298963 0.0008 3.43146e-06 1.26421e-12 5.72594e-13 -4.74721e-13 5.39442e-10 3.32346e-10 1.45795e-09 8.56856e-16 -1.95719e-15 -2.49484e-15 1 0.00020133 -0.000127869 1.20621e-05 -0.00674485 0.00430197 0.0298963 0.0008
1600 1 -0.000577488 -0.00587501 0.0320838 0.0008 3.43146e-06 -2.5935e-13 9.21548e-13 -3.03267e-13 -2.2976e-09 -4.4926e-09 1.65678e-09 -1.71505e-15 5.13284e-16 1.92512e-15 0 0 0 0 0 0 0 0
1601 1 0.00698361 -0.00175197 0.032378 0.0008 3.43146e-06 -7.78039e-13 4.98893e-13 -1.57672e-13 -3.68072e-09 7.85238e-10 -3.03121e-10 4.89271e-15 9.19741e-17 2.21127e-15 1 -3.99035e-06 1.14199e-06 -1.59248e-07 0.00775955 -0.00194663 0.032378 0.0008
1602 1 -0.00530117 -0.00223435 0.030456 0.0008 3.43146e-06 8.75334e-13 1.07695e-12 -3.41949e-13 -5.30367e-09 -1.55342e-09 -3.69583e-10 8.65392e-16 -1.688e-16 2.49891e-15 0 0 0 0 0 0 0 0
1603 1 -0.00705502 0.00143839 0.0323494 0.0008 3.43146e-06 4.84016e-13 6.28367e-14 -1.11216e-12 2.22066e-09 8.25478e-10 2.98864e-10 -3.96014e-15 2.09743e-15 2.48036e-16 1 0.000129474 -5.11172e-05 -1.6861e-05 -0.00783874 0.00159817 0.0323494 0.0008
1604 1 -0.00714679 -0.000877778 0.0272047 0.0008 3.43146e-06 -1.59454e-12 2.70996e-13 -6.55098e-13 6.41201e-12 7.99972e-10 6.01427e-10 -6.65318e-16 -4.02144e-16 1.87859e-15 1 0.00072532 8.78594e-05 9.45676e-05 -0.00794033 -0.000975243 0.0272047 0.0008
1605 1 0.00484868 -0.00532282 0.0311435 0.0008 3.43146e-06 -2.16787e-12 2.13529e-12 3.16925e-12 6.401e-09 -1.1108e-09 1.90716e-10 -4.03563e-16 -1.28036e-16 -2.34867e-15 1 -7.91956e-05 8.05248e-05 1.12957e-05 0.00538731 -0.00591412 0.0311435 0.0008
1606 1 0.00443596 -0.000266163 0.0268543 0.0008 3.43146e-06 1.55721e-13 -7.29654e-14 -2.34714e-12 -2.08738e-09 9.37262e-10 8.86773e-11 -8.04276e-16 -3.53457e-17 4.53487e-15 0 0 0 0 0 0 0 0
1607 1 0.0065184 -0.00305788 0.0312729 0.0008 3.43146e-06 2.11906e-12 -8.68504e-13 2.70377e-12 -1.56632e-09 4.46213e-09 -1.58327e-10 1.05439e-15 1.11862e-15 -1.38404e-15 1 -3.00469e-06 2.02098e-06 -5.60466e-07 0.00724266 -0.00339764 0.0312729 0.0008
1608 1 0.0030141 -0.00653896 0.0308827 0.0008 3.43146e-06 1.03184e-12 -2.16725e-12 -3.57597e-13 -2.9218e-10 -2.63327e-10 1.58494e-11 -3.77236e-16 9.72457e-17 2.49099e-15 1 -6.44809e-05 0.000171356 7.7803e-06 0.00334891 -0.00726531 0.0308827 0.0008
1609 1 0.000708109 -0.00445621 0.0301422 0.0008 3.43146e-06 2.70988e-13 1.28866e-12 -2.16358e-12 -2.26522e-09 1.57252e-10 -1.28054e-09 5.64538e-17 -1.37365e-15 4.8771e-15 0 0 0 0 0 0 0 0
1610 1 -0.00136294 -0.00706986 0.0312771 0.0008 3.43146e-06 -3.28043e-13 2.16816e-12 9.44642e-13 -4.47047e-10 3.34129e-10 2.52897e-10 5.15168e-15 1.30266e-15 -9.65003e-16 1 2.92799e-06 1.62562e-05 1.03598e-06 -0.00151437 -0.00785536 0.0312771 0.0008
1611 1 2.08573e-05 -0.00445166 0.0286975 0.0008 3.43146e-06 -7.77155e-14 -6.04901e-13 -1.97214e-12 -1.51409e-09 4.19887e-10 -9.87779e-10 -2.83022e-16 -6.9307e-15 1.92124e-15 0 0 0 0 0 0 0 0
1612 1 -0.00698227 -0.00175752 0.0330702 0.0008 3.43146e-06 1.99139e-13 4.67945e-13 3.6798e-13 -6.36789e-10 -4.03629e-10 6.23317e-10 -1.63892e-15 -1.72746e-15 -4.09166e-15 1 3.51501e-05 1.20609e-05 7.55791e-07 -0.007758 -0.00195279 0.0330702 0.0008
1613 1 -0.00195672 0.00377676 0.0296445 0.0008 3.43146e-06 -5.35504e-13 -8.98065e-13 -1.71797e-12 -8.31653e-11 -4.67801e-10 3.29777e-11 1.30511e-15 3.45121e-15 4.11043e-15 0 0 0 0 0 0 0 0
1614 1 -0.00211186 0.00210647 0.031157 0.0008 3.43146e-06 -8.26977e-13 -1.08366e-12 -3.50176e-12 2.07992e-10 -1.10507e-09 9.41564e-10 -2.6969e-15 2.28033e-16 -2.94407e-15 0 0 0 0 0 0 0 0
1615 1 -0.00246933 1.77419e-06 0.0329173 0.0008 3.43146e-06 -3.14526e-13 -2.91359e-13 -2.1996e-13 1.20211e-09 -1.83532e-09 1.37536e-09 -2.56363e-16 4.08138e-15 1.83583e-14 0 0 0 0 0 0 0 0
1616 1 -0.00204667 0.00690317 0.0303686 0.0008 3.43146e-06 9.23123e-13 -1.01327e-12 -1.09691e-12 1.53574e-09 -4.82558e-10 8.16413e-10 5.4991e-18 3.60146e-15 -3.79943e-15 1 6.6019e-05 -0.000151337 -1.61087e-05 -0.00227402 0.00767 0.0303686 0.0008
1617 1 -0.00229996 0.00612383 0.0317425 0.0008 3.43146e-06 1.07958e-12 -1.97107e-12 2.55614e-12 -2.63878e-09 1.86327e-09 -1.33635e-09 1.84263e-15 9.33926e-15 1.0868e-14 0 0 0 0 0 0 0 0
1618 1 -0.00268407 -0.00130661 0.0278749 0.0008 3.43146e-06 1.08407e-12 -5.42112e-13 -1.38875e-12 -4.09085e-09 -7.49499e-10 2.43175e-10 1.79305e-16 -5.7349e-17 -4.30538e-15 0 0 0 0 0 0 0 0
1619 1 0.00383015 -0.00155084 0.0275903 0.0008 3.43146e-06 1.0815e-12 -2.82732e-13 -1.2719e-12 1.82429e-09 1.68364e-09 1.7619e-10 3.7975e-16 -7.29953e-16 -1.37066e-15 0 0 0 0 0 0 0 0
1620 1 0.00413633 -0.000669061 0.0322307 0.0008 3.43146e-06 -1.04724e-12 2.71072e-13 -6.2426e-12 3.20714e-09 2.22362e-09 1.50306e-09 -7.08618e-15 5.44244e-16 -6.30505e-15 0 0 0 0 0 0 0 0
1621 1 0.00618171 -0.00369178 0.029843 0.0008 3.43146e-06 -3.27907e-13 1.02477e-13 5.63165e-13 4.0414e-09 -1.66093e-09 1.08789e-10 3.03403e-15 3.26959e-15 -2.80626e-15 1 -0.000142655 9.69694e-05 1.18103e-05 0.00686838 -0.00410187 0.029843 0.0008
1622 1 -0.00719216 0.00033793 0.0282436 0.0008 3.43146e-06 -1.36553e-12 1.34988e-13 -2.74314e-13 3.93863e-10 4.40732e-10 1.35228e-10 3.26003e-16 3.14809e-16 -8.51459e-16 1 5.99854e-05 -2.26832e-05 -3.32941e-06 -0.00799118 0.000375472 0.0282436 0.0008
1623 1 0.000775394 0.00572958 0.0313822 0.0008 3.43146e-06 1.94502e-13 -5.27804e-13 1.2606e-12 5.2211e-10 1.21709e-09 2.38639e-10 -2.19064e-15 3.97597e-15 3.6665e-17 0 0 0 0 0 0 0 0
1624 1 -0.00372712 0.00468068 0.0329899 0.0008 3.43146e-06 -6.50405e-13 -1.91256e-12 -4.22951e-12 -1.37021e-09 -1.13344e-11 -1.21456e-09 2.46933e-15 6.06869e-15 -1.10823e-14 0 0 0 0 0 0 0 0
1625 1 0.000317054 0.00719308 0.0337 0.0008 3.43146e-06 6.4853e-13 2.14289e-12 2.2519e-12 -2.86582e-09 -3.37034e-10 2.40893e-10 -9.58938e-16 -2.01273e-15 7.91309e-15 1 2.64952e-07 -3.48829e-05 5.7528e-06 0.000352279 0.00799224 0.0337 0.0008
1626 1 -0.000709126 0.00580933 0.0282499 0.0008 3.43146e-06 -1.28322e-13 -9.09254e-13 -1.15533e-12 2.07051e-09 -3.73446e-09 9.20801e-10 -2.82888e-15 -1.60433e-15 -2.29185e-15 0 0 0 0 0 0 0 0
1627 1 0.0045877 0.00369946 0.0272531 0.0008 3.43146e-06 -9.31503e-14 4.95329e-13 2.12212e-12 -3.5093e-09 4.12851e-10 -6.74702e-10 3.94587e-15 2.9954e-15 -1.51398e-15 0 0 0 0 0 0 0 0
1628 1 0.00697116 -0.00180178 0.0291956 0.0008 3.43146e-06 1.41875e-12 -5.3341e-13 -6.88507e-13 -2.50653e-09 -3.65586e-10 1.45333e-10 -6.43943e-16 3.95224e-16 -5.62065e-16 1 -0.000246306 7.58524e-05 7.8103e-06 0.00774547 -0.00200191 0.0291956 0.0008
1629 1 0.0041457 0.00412849 0.0297982 0.0008 3.43146e-06 5.42311e-13 2.06037e-12 -6.6302e-14 1.94055e-09 4.69365e-09 8.23716e-10 -4.88949e-15 4.09642e-15 2.37032e-15 0 0 0 0 0 0 0 0
1630 1 0.00241202 -0.00410938 0.0294745 0.0008 3.43146e-06 -9.36246e-13 -1.65365e-12 -1.68928e-12 -1.67244e-09 -2.48679e-09 1.39017e-10 -1.14671e-15 2.65683e-16 -3.96335e-15 0 0 0 0 0 0 0 0
1631 1 -0.00125716 -0.000824402 0.0317303 0.0008 3.43146e-06 3.96365e-13 -2.71373e-13 -3.70828e-12 7.75819e-10 -1.2346e-09 6.62216e-10 1.69681e-14 1.33735e-16 1.74771e-14 0 0 0 0 0 0 0 0
1632 1 -0.00686531 -0.00217043 0.0301268 0.0008 3.43146e-06 8.60875e-13 2.16132e-13 -1.03825e-12 -1.87175e-09 9.15038e-10 -7.36545e-12 3.56395e-16 1.62117e-16 -2.59676e-15 1 0.00021826 7.77239e-05 2.10865e-05 -0.00762788 -0.00241151 0.0301268 0.0008
1633 1 0.00276957 0.00664609 0.0309442 0.0008 3.43146e-06 3.25072e-14 -1.09188e-12 2.44295e-13 6.51376e-10 2.56385e-09 4.04625e-10 -2.56547e-16 1.87203e-15 -3.73996e-15 1 -4.03555e-06 -3.92891e-05 9.18524e-07 0.00307727 0.00738447 0.0309442 0.0008
1634 1 0.00187312 -0.00551592 0.0304234 0.0008 3.43146e-06 5.41795e-13 -1.07165e-12 -9.15531e-13 -9.39372e-11 3.36472e-10 -8.03045e-10 -8.85377e-16 6.39482e-15 1.9344e-15 0 0 0 0 0 0 0 0
1635 1 0.00371527 0.00149286 0.0298867 0.0008 3.43146e-06 3.24688e-13 -5.41858e-13 -1.35993e-12 1.57231e-09 3.24622e-11 -2.60594e-10 -4.32766e-15 3.3079e-16 1.30902e-14 0 0 0 0 0 0 0 0
1636 1 -0.00193959 -0.0017399 0.0306097 0.0008 3.43146e-06 5.45068e-13 2.61541e-13 -1.82397e-12 -1.39196e-09 1.9919e-09 -6.71358e-10 -1.50873e-16 -1.51655e-15 1.09407e-14 0 0 0 0 0 0 0 0
1637 1 0.00158371 0.00569534 0.0297934 0.0008 3.43146e-06 8.43273e-14 -2.13824e-12 9.91038e-13 1.3267e-09 -2.075e-11 -6.44909e-11 -7.01996e-16 4.62686e-16 -4.04615e-15 0 0 0 0 0 0 0 0
1638 1 -0.000765014 -0.00384909 0.0311258 0.0008 3.43146e-06 2.71183e-13 1.0776e-12 -2.49171e-12 1.37508e-09 2.37152e-09 2.5881e-10 -2.45689e-16 2.54335e-16 1.05175e-14 0 0 0 0 0 0 0 0
1639 1 0.00707521 0.00133497 0.0305308 0.0008 3.43146e-06 1.37882e-12 5.40674e-13 -1.92655e-12 2.66222e-09 -2.04044e-09 -4.31349e-10 -6.24279e-15 1.96441e-16 -1.24998e-15 1 -2.25957e-05 -6.73146e-06 -3.11979e-06 0.00786129 0.00148329 0.0305308 0.0008
1640 1 0.00532454 0.00237939 0.0302366 0.0008 3.43146e-06 9.06505e-13 1.08409e-12 -2.34901e-12 -7.40856e-11 -1.10317e-09 -3.32339e-10 -3.49781e-15 3.82899e-16 1.12292e-14 0 0 0 0 0 0 0 0
1641 1 -0.00574959 0.00105593 0.0280603 0.0008 3.43146e-06 -1.44597e-12 3.07154e-13 2.74037e-12 -6.52214e-10 -2.06113e-09 9.64406e-10 5.26894e-15 -1.51274e-15 2.15669e-15 0 0 0 0 0 0 0 0
1642 1 -0.00217103 0.00477818 0.0308867 0.0008 3.43146e-06 1.08134e-12 -6.41032e-13 2.69063e-13 5.92231e-09 -2.45138e-09 9.52067e-10 -4.95333e-16 -2.31592e-15 1.25087e-14 0 0 0 0 0 0 0 0
1643 1 0.00432069 -0.00042764 0.0301532 0.0008 3.43146e-06 8.36493e-13 3.79275e-13 -2.88811e-12 3.15283e-11 -7.2426e-10 -1.89587e-09 -5.60957e-15 -1.55747e-15 1.95994e-15 0 0 0 0 0 0 0 0
1644 1 -0.00354521 -0.0062668 0.0330143 0.0008 3.43146e-06 -1.08321e-12 2.16612e-12 -8.77773e-12 -1.10998e-08 -1.12834e-09 2.13642e-09 -9.02443e-16 -1.64946e-15 7.3295e-15 1 1.57607e-05 5.75981e-05 1.12707e-05 -0.00393907 -0.00696303 0.0330143 0.0008
1645 1 0.00323363 0.00178175 0.0334798 0.0008 3.43146e-06 -7.46294e-13 -4.83415e-13 -3.58149e-12 8.11771e-10 -4.22864e-09 -6.91357e-10 7.13671e-15 -1.31344e-14 2.59678e-14 0 0 0 0 0 0 0 0
1646 1 0.00278459 0.00506002 0.0306382 0.0008 3.43146e-06 -1.08319e-12 -1.47248e-12 5.54463e-13 -2.59874e-09 2.06959e-10 -7.15868e-10 4.87148e-16 2.50943e-15 -1.30575e-14 0 0 0 0 0 0 0 0
1647 1 0.00279822 0.00663427 0.0293436 0.0008 3.43146e-06 -2.88245e-13 -1.24044e-12 1.96918e-13 9.10608e-10 2.93451e-09 3.2007e-10 2.71769e-15 1.63612e-15 -5.38669e-15 1 -0.000123485 -0.000226703 5.84046e-06 0.00310903 0.00737116 0.0293436 0.0008
1648 1 -0.0037445 -0.0045127 0.0283445 0.0008 3.43146e-06 -2.85052e-13 2.16754e-12 -2.82981e-12 -1.93054e-09 2.67307e-10 3.0389e-09 -2.14177e-15 -1.04961e-16 1.52774e-15 0 0 0 0 0 0 0 0
1649 1 -0.00276975 -0.00379882 0.0272958 0.0008 3.43146e-06 -1.94472e-13 1.07009e-12 -3.46225e-12 -3.28265e-09 -2.79961e-09 3.78181e-10 2.62326e-15 -5.26939e-16 6.53626e-16 0 0 0 0 0 0 0 0
1650 1 -0.00326835 -0.00456121 0.0311051 0.0008 3.43146e-06 2.61072e-13 1.04417e-12 -7.35366e-13 -6.86748e-10 3.13191e-09 3.93133e-09 -1.22263e-15 6.20212e-15 6.49232e-15 0 0 0 0 0 0 0 0
1651 1 -0.00137327 -0.00059221 0.0296496 0.0008 3.43146e-06 2.86632e-13 -5.31919e-14 -2.51568e-12 2.04878e-10 -1.79741e-09 1.09543e-09 5.24417e-15 1.18854e-14 -2.6498e-15 0 0 0 0 0 0 0 0
1652 1 0.000882982 0.00586861 0.0277297 0.0008 3.43146e-06 3.66605e-14 -1.39086e-12 -2.63669e-13 8.52463e-11 1.18163e-09 -2.1317e-09 -1.48213e-15 -3.44138e-15 2.84281e-15 0 0 0 0 0 0 0 0
1653 1 -0.00340082 0.00475228 0.0272927 0.0008 3.43146e-06 1.08323e-12 1.05136e-12 2.81161e-12 -4.03407e-10 7.81364e-10 1.68098e-09 1.10863e-16 -7.74241e-16 2.35007e-15 0 0 0 0 0 0 0 0
1654 1 0.002576 0.000506855 0.0293491 0.0008 3.43146e-06 6.46094e-13 -2.72295e-13 -1.15248e-12 -1.4063e-09 2.20956e-10 4.01192e-10 -6.05545e-15 -4.09037e-16 2.90288e-15 0 0 0 0 0 0 0 0
1655 1 0.00170165 -0.00205411 0.0292374 0.0008 3.43146e-06 2.9102e-13 -1.08424e-12 -1.31084e-12 2.65943e-09 -4.02302e-10 -1.89542e-09 1.41737e-15 -7.44068e-16 -5.61988e-16 0 0 0 0 0 0 0 0
1656 1 -0.00214358 -0.00217003 0.032137 0.0008 3.43146e-06 -6.08818e-13 -3.83508e-13 -3.14051e-12 2.47657e-09 -3.97515e-09 6.02111e-10 -4.24832e-16 -1.71199e-15 5.63746e-15 0 0 0 0 0 0 0 0
1657 1 5.33339e-05 -0.00169382 0.0301158 0.0008 3.43146e-06 -2.35252e-13 -5.41803e-13 -3.03331e-12 -1.71298e-09 5.28745e-10 4.91376e-10 -3.5714e-15 -1.06209e-15 4.16419e-15 0 0 0 0 0 0 0 0
1658 1 -0.00239075 0.00638727 0.0288939 0.0008 3.43146e-06 5.75251e-13 7.33023e-13 2.18279e-12 -5.87657e-10 2.10443e-09 -6.8186e-10 2.55618e-15 4.54551e-15 -2.22256e-15 0 0 0 0 0 0 0 0
1659 1 0.00647059 0.00315827 0.0329026 0.0008 3.43146e-06 -3.54952e-13 6.25706e-13 -1.62085e-13 -2.58034e-10 -3.33625e-10 -8.53665e-10 -1.58414e-15 2.18103e-15 3.1174e-16 1 -0.000190151 -0.000120387 -5.30741e-06 0.00718932 0.00350908 0.0329026 0.0008
1660 1 0.00041821 -0.000717825 0.0289018 0.0008 3.43146e-06 -2.1339e-13 -2.71036e-13 -2.54672e-12 1.95536e-09 -1.36876e-09 5.5874e-10 -2.28005e-16 -3.87799e-16 4.3594e-15 0 0 0 0 0 0 0 0
1661 1 0.00517922 0.000861326 0.0297526 0.0008 3.43146e-06 1.35919e-12 2.71045e-13 -2.80109e-12 3.38001e-10 1.03327e-09 1.14421e-09 -2.03051e-15 -7.23353e-16 1.38994e-14 0 0 0 0 0 0 0 0
1662 1 0.00114266 0.00710878 0.0290937 0.0008 3.43146e-06 -3.91008e-13 -1.28103e-12 -1.1925e-12 1.71584e-09 1.37389e-09 -1.4473e-10 1.44216e-15 7.63596e-16 7.61999e-16 1 -1.64528e-06 -1.06626e-05 6.33093e-07 0.00126961 0.00789861 0.0290937 0.0008
1663 1 -0.0010571 -0.00280195 0.0298017 0.0008 3.43146e-06 -2.10028e-13 -1.08419e-12 -1.51242e-12 -7.15441e-10 -3.70854e-10 -2.62594e-10 4.5027e-15 9.99041e-17 -1.66153e-15 0 0 0 0 0 0 0 0
1664 1 0.00515579 -0.00383103 0.0316332 0.0008 3.43146e-06 -2.89525e-15 1.08306e-12 5.16991e-12 -2.35971e-09 7.29458e-09 -1.09067e-09 5.19075e-15 2.58065e-16 -2.61736e-15 0 0 0 0 0 0 0 0
1665 1 0.00160576 -0.00335402 0.0283101 0.0008 3.43146e-06 -5.41905e-13 -1.08407e-12 -1.85966e-12 -2.20456e-09 -7.65829e-10 -2.46165e-10 -2.17264e-16 -6.67583e-16 6.71766e-15 0 0 0 0 0 0 0 0
1666 1 -0.000717519 0.00217587 0.0319384 0.0008 3.43146e-06 -3.2465e-13 -1.08162e-12 -4.10431e-12 -2.87803e-10 2.02762e-09 -6.7883e-10 3.61178e-15 6.21172e-16 8.80595e-16 0 0 0 0 0 0 0 0
1667 1 -0.00468082 -0.00149321 0.0269123 0.0008 3.43146e-06 1.44141e-12 -5.40975e-13 -1.7519e-12 1.58722e-09 -3.32322e-10 -2.59442e-10 -3.4034e-15 -2.92566e-16 2.58775e-15 0 0 0 0 0 0 0 0
1668 1 0.00125382 0.00709011 0.0306896 0.0008 3.43146e-06 -1.91737e-13 -1.45656e-12 9.49865e-13 -1.52996e-09 -1.32344e-09 -6.90402e-13 -3.42634e-16 3.12397e-15 3.26987e-15 1 -6.26957e-06 -8.31146e-05 1.32626e-05 0.00139311 0.00787777 0.0306896 0.0008
1669 1 -0.00290698 -0.000510326 0.030275 0.0008 3.43146e-06 8.24557e-13 -2.71164e-13 -2.16392e-12 -7.53211e-10 -2.27895e-11 2.99931e-10 3.63129e-15 2.38188e-16 3.96483e-15 0 0 0 0 0 0 0 0
1670 1 -0.00298543 -0.00655221 0.0300168 0.0008 3.43146e-06 -1.08152e-12 1.32599e-13 -9.84291e-13 -4.15092e-10 1.88504e-09 1.19072e-09 2.15962e-16 -1.99656e-15 5.36023e-15 1 0.000162028 0.000302768 2.6259e-05 -0.00331701 -0.00727993 0.0300168 0.0008
1671 1 -0.00183833 -0.00539831 0.0331482 0.0008 3.43146e-06 -2.78629e-12 2.16853e-12 8.844e-13 -3.70183e-09 -2.82015e-09 -3.01782e-09 2.94748e-15 2.58305e-16 -9.76331e-15 0 0 0 0 0 0 0 0
1672 1 -0.00456724 -0.000200515 0.0310595 0.0008 3.43146e-06 3.54419e-13 -3.66162e-14 -1.57266e-12 -1.95432e-09 -2.17431e-10 -1.55836e-09 -5.07227e-15 5.19724e-16 4.4105e-15 0 0 0 0 0 0 0 0
1673 1 -0.00184551 -0.00695954 0.0327984 0.0008 3.43146e-06 -1.67459e-12 2.16809e-12 2.17968e-12 7.23983e-10 -1.49659e-09 2.70766e-09 4.6837e-15 2.80952e-15 -4.40618e-15 1 1.3806e-05 4.33964e-05 -1.23195e-06 -0.00205055 -0.00773274 0.0327984 0.0008
1674 1 0.00517436 0.00500687 0.0306528 0.0008 3.43146e-06 1.48644e-12 5.42087e-13 -1.13505e-12 2.72286e-09 5.51892e-10 8.92679e-10 -4.61545e-15 -1.58228e-15 2.90495e-15 1 -0.000126232 -0.000121715 -6.92322e-06 0.00574914 0.00556304 0.0306528 0.0008
1675 1 -0.00429154 -0.00117029 0.0298174 0.0008 3.43146e-06 1.71866e-12 -3.0954e-13 -3.27683e-13 1.11405e-09 -2.5712e-09 9.66729e-10 -2.02786e-15 1.00806e-15 1.35433e-14 0 0 0 0 0 0 0 0
1676 1 -0.00508174 0.00510068 0.0296277 0.0008 3.43146e-06 -4.01308e-13 -9.9691e-13 3.11661e-13 -7.66967e-11 -4.86253e-10 -1.2032e-09 1.71171e-15 -2.4684e-15 1.51342e-15 1 2.45812e-05 -3.15377e-05 6.29284e-06 -0.00564632 0.00566737 0.0296277 0.0008
1677 1 0.00200997 0.000891096 0.0307953 0.0008 3.43146e-06 6.70272e-13 2.71155e-13 -2.3442e-12 -2.24852e-10 -2.22243e-10 1.14426e-09 -7.44265e-15 -1.55364e-16 6.74266e-15 0 0 0 0 0 0 0 0
1678 1 -0.00433416 0.00179037 0.0275249 0.0008 3.43146e-06 8.50319e-13 -2.84862e-13 -1.23673e-12 -2.07005e-09 -1.16731e-09 3.22171e-10 1.42922e-16 -3.66748e-15 1.64548e-15 0 0 0 0 0 0 0 0
1679 1 -0.00581571 -0.00424509 0.030234 0.0008 3.43146e-06 5.43237e-13 9.83794e-13 -4.0474e-13 6.00285e-10 9.35e-10 6.95698e-10 -4.0961e-16 -4.40695e-16 7.1e-16 1 0.00017235 0.000162732 8.20642e-06 -0.0064617 -0.00471662 0.030234 0.0008
1680 1 -0.00640172 -0.00329533 0.0290878 0.0008 3.43146e-06 6.94801e-13 8.39979e-13 1.02067e-12 7.47551e-10 -1.20336e-09 4.11229e-10 -1.1603e-15 -1.21169e-15 -1.00177e-15 1 4.32787e-05 2.84438e-05 6.16769e-06 -0.00711294 -0.00366143 0.0290878 0.0008
1681 1 -0.00555713 -0.0045783 0.0286405 0.0008 3.43146e-06 1.54238e-12 1.65325e-12 5.99751e-13 8.78645e-10 -2.51561e-10 3.91539e-10 -1.87892e-15 -2.38622e-16 2.49077e-15 1 0.000117892 9.76898e-05 6.51406e-06 -0.00617444 -0.00508688 0.0286405 0.0008
1682 1 0.0012826 0.0034009 0.0318596 0.0008 3.43146e-06 -5.4218e-13 -3.3231e-13 -3.03754e-12 -4.84378e-10 7.68089e-10 2.11535e-10 -2.6288e-16 9.6705e-15 1.57392e-14 0 0 0 0 0 0 0 0
1683 1 0.000685043 -0.00558551 0.033023 0.0008 3.43146e-06 -2.70231e-13 6.07152e-13 5.02457e-13 1.47874e-09 3.3062e-09 -3.00299e-09 -1.56466e-15 3.342e-15 1.56419e-15 0 0 0 0 0 0 0 0
1684 1 0.00362326 0.00449987 0.0283323 0.0008 3.43146e-06 -1.08208e-12 2.1433e-12 1.306e-12 -7.82691e-10 -2.76406e-09 1.57551e-09 2.48395e-16 -7.42282e-16 3.6029e-16 0 0 0 0 0 0 0 0
1685 1 -0.00442733 -0.00356167 0.0306395 0.0008 3.43146e-06 4.67714e-14 -6.62326e-13 2.03529e-12 4.38756e-09 -2.33601e-09 -1.48283e-09 3.46571e-16 1.51201e-15 -3.58937e-17 0 0 0 0 0 0 0 0
1686 1 0.000798837 0.00344421 0.0293599 0.0008 3.43146e-06 -2.04079e-13 -9.39931e-13 -1.2648e-12 9.52639e-10 -1.09481e-09 3.25984e-10 3.03875e-15 1.95096e-15 5.60674e-15 0 0 0 0 0 0 0 0
1687 1 0.00223291 0.00414813 0.0294451 0.0008 3.43146e-06 -9.76437e-13 -1.96675e-12 1.35842e-12 8.46195e-10 -1.6812e-09 -1.06635e-09 1.09071e-15 9.65269e-16 -6.51822e-15 0 0 0 0 0 0 0 0
1688 1 0.00282085 -0.000986214 0.0288294 0.0008 3.43146e-06 1.0826e-12 -5.3807e-13 -3.81681e-13 1.55636e-10 1.20167e-09 8.57962e-10 -2.03434e-16 -3.86989e-16 -1.35687e-15 0 0 0 0 0 0 0 0
1689 1 -0.00345931 -0.00223597 0.0306725 0.0008 3.43146e-06 1.08416e-12 1.08427e-12 1.00365e-12 -2.18407e-09 2.85847e-10 2.73513e-10 3.42682e-16 5.75131e-17 9.91865e-15 0 0 0 0 0 0 0 0
1690 1 -0.00270458 0.00229195 0.0296353 0.0008 3.43146e-06 7.17961e-13 -6.83161e-13 -2.87059e-12 -8.99543e-10 -1.88777e-09 -1.37943e-09 -3.24372e-15 -2.71697e-15 -1.74258e-15 0 0 0 0 0 0 0 0
1691 1 0.000502146 0.0014023 0.0312501 0.0008 3.43146e-06 -5.47125e-13 -5.41666e-13 -2.58788e-12 3.64518e-10 -3.50522e-09 5.20257e-10 1.01425e-15 -4.40153e-16 6.71601e-15 0 0 0 0 0 0 0 0
1692 1 0.00550289 -0.00091885 0.031437 0.0008 3.43146e-06 -1.93771e-12 -4.4093e-13 -6.28073e-12 1.78924e-10 -1.97341e-09 -4.61364e-09 -8.25276e-15 -4.63933e-15 5.0188e-15 0 0 0 0 0 0 0 0
1693 1 -0.000514587 -0.00126218 0.027261 0.0008 3.43146e-06 2.78648e-13 5.53989e-13 -1.39101e-12 1.93937e-09 5.47438e-10 -7.29431e-10 9.3924e-16 -2.8116e-17 -5.73121e-15 0 0 0 0 0 0 0 0
1694 1 -0.00592831 0.000743077 0.0314512 0.0008 3.43146e-06 -1.26751e-12 -2.60182e-13 4.49651e-13 -3.65019e-09 -7.51529e-10 -1.19024e-09 3.14087e-16 1.30447e-15 5.48996e-15 0 0 0 0 0 0 0 0
1695 1 0.00333807 0.00290859 0.0305294 0.0008 3.43146e-06 1.91202e-13 -3.85308e-13 -3.69943e-12 -4.65209e-09 -2.02908e-10 6.6894e-10 -6.36058e-15 3.19054e-15 1.92637e-14 0 0 0 0 0 0 0 0
1696 1 6.56164e-05 0.00618747 0.0299059 0.0008 3.43146e-06 4.20634e-14 -1.05033e-12 1.1732e-12 2.59603e-10 -4.4675e-10 -1.29062e-09 -2.82256e-15 5.2081e-15 2.46754e-16 0 0 0 0 0 0 0 0
1697 1 0.000649382 0.00187833 0.0296505 0.0008 3.43146e-06 2.39492e-13 -5.41305e-13 -2.06052e-12 -2.2806e-10 -5.98933e-10 5.03367e-10 2.51026e-15 -1.64492e-16 8.58379e-15 0 0 0 0 0 0 0 0
1698 1 0.00190003 -0.00606136 0.031927 0.0008 3.43146e-06 -4.64049e-13 -1.97572e-12 -2.75268e-14 6.87033e-10 -1.04269e-09 -5.89067e-10 3.81736e-15 2.30558e-16 5.37213e-15 0 0 0 0 0 0 0 0
1699 1 -0.000427424 0.00418794 0.0300705 0.0008 3.43146e-06 -1.51077e-13 -2.10733e-12 -1.45245e-12 8.76224e-10 -1.0002e-09 -3.06872e-10 -2.49017e-16 1.78217e-15 3.10375e-15 0 0 0 0 0 0 0 0
1700 1 -0.000480134 -0.00305134 0.0281088 0.0008 3.43146e-06 1.35437e-13 1.64935e-13 -1.5612e-12 2.28841e-09 -6.15216e-10 4.84427e-10 2.99122e-16 1.0864e-15 -1.0535e-14 0 0 0 0 0 0 0 0
1701 1 -0.00391223 0.00442249 0.0287721 0.0008 3.43146e-06 1.51285e-12 -1.34647e-12 -8.87233e-13 4.13622e-09 -1.7856e-09 -7.03125e-10 1.11618e-15 5.18382e-16 3.34304e-15 0 0 0 0 0 0 0 0
1702 1 0.00216937 0.00686576 0.0278911 0.0008 3.43146e-06 -1.07743e-12 -1.02736e-12 1.67867e-13 -8.63177e-10 -1.97694e-09 -8.73541e-10 6.52311e-16 1.5499e-15 5.87364e-16 1 -0.000141414 -0.000388839 5.38997e-05 0.0024103 0.00762827 0.0278911 0.0008
1703 1 0.00672902 0.00256171 0.0294922 0.0008 3.43146e-06 2.03453e-12 9.31374e-13 -9.4479e-13 1.10694e-10 -1.11182e-09 -1.44914e-10 -1.43556e-15 -9.43479e-17 6.16214e-16 1 -9.89376e-05 -5.62376e-05 -2.81326e-06 0.00747654 0.00284628 0.0294922 0.0008
1704 1 -0.000797517 0.00559563 0.0311218 0.0008 3.43146e-06 1.02057e-14 -1.08581e-12 -2.77729e-12 3.40687e-09 -5.76194e-09 1.02027e-09 2.05607e-15 3.73851e-15 -5.2384e-15 0 0 0 0 0 0 0 0
1705 1 -0.00180457 -0.00496542 0.0316083 0.0008 3.43146e-06 3.66833e-13 2.16793e-12 -3.52489e-12 2.22455e-09 4.81585e-11 -2.5096e-09 6.75912e-15 -1.94386e-15 4.05913e-15 0 0 0 0 0 0 0 0
1706 1 0.00194985 -0.00423817 0.0313831 0.0008 3.43146e-06 6.04405e-13 -2.16601e-12 -1.97466e-12 -5.10891e-11 1.12429e-09 1.6679e-09 -2.10813e-15 -4.98885e-16 2.19563e-15 0 0 0 0 0 0 0 0
1707 1 0.00580531 0.000635412 0.0312074 0.0008 3.43146e-06 1.55978e-12 -2.72304e-13 -4.97465e-12 1.41419e-09 5.68964e-11 4.7995e-10 -2.74454e-15 7.72397e-16 4.44638e-15 0 0 0 0 0 0 0 0
1708 1 -0.000742019 0.000352281 0.0307765 0.0008 3.43146e-06 2.70942e-13 -3.87078e-13 -2.02949e-12 -6.34567e-10 -2.38617e-09 1.83652e-09 2.65181e-16 -2.38982e-15 8.95016e-15 0 0 0 0 0 0 0 0
1709 1 0.0057022 0.00171275 0.0285035 0.0008 3.43146e-06 1.61947e-12 1.66613e-13 -3.79992e-13 8.4325e-10 -2.91795e-09 -5.16349e-10 1.95973e-16 2.80867e-15 4.13531e-15 0 0 0 0 0 0 0 0
1710 1 -0.000592784 0.00717578 0.0309778 0.0008 3.43146e-06 -6.63251e-15 -8.82556e-13 2.52166e-13 -3.2531e-10 -1.25246e-09 -1.25296e-10 2.77055e-16 3.1932e-15 -2.80725e-15 1 -7.27503e-06 -0.000218256 -2.12807e-05 -0.000658629 0.00797284 0.0309778 0.0008
1711 1 -0.00204426 0.000847215 0.0298426 0.0008 3.43146e-06 -2.99053e-13 -2.36146e-13 -3.66328e-12 -2.49201e-12 -2.37e-09 -8.23695e-10 3.34161e-15 1.50431e-15 -3.78163e-15 0 0 0 0 0 0 0 0
1712 1 -0.00402433 0.00341333 0.03206 0.0008 3.43146e-06 -5.52399e-13 -1.07755e-12 -1.48143e-12 -1.23434e-09 -1.27219e-09 -4.50089e-10 -1.51862e-15 2.21625e-15 9.0459e-16 0 0 0 0 0 0 0 0
1713 1 0.00445176 0.00148271 0.0313068 0.0008 3.43146e-06 -1.09576e-12 -3.26909e-13 -4.47302e-12 -1.34727e-09 1.11316e-10 1.13955e-09 -9.20526e-15 -2.25252e-15 1.03849e-14 0 0 0 0 0 0 0 0
1714 1 -0.00719842 0.000155089 0.0306761 0.0008 3.43146e-06 3.97172e-13 -5.29119e-14 8.85192e-13 7.8511e-10 -1.05659e-09 -4.06161e-11 8.46964e-16 -1.85835e-15 2.61732e-15 1 5.81718e-05 7.45548e-07 -1.62231e-06 -0.00799814 0.000172319 0.0306761 0.0008
1715 1 -0.00122962 -0.00438961 0.0296935 0.0008 3.43146e-06 -2.2257e-13 1.62703e-12 -3.80755e-12 -6.56599e-11 -2.03841e-09 -6.57838e-10 -3.45727e-15 -4.32775e-16 7.56428e-15 0 0 0 0 0 0 0 0
1716 1 0.00384999 0.00122152 0.0269051 0.0008 3.43146e-06 9.98902e-13 -5.41674e-13 -3.58066e-12 -3.68129e-10 1.11843e-09 -7.85237e-10 -1.46904e-17 -1.35386e-16 1.22314e-14 0 0 0 0 0 0 0 0
1717 1 0.00140434 -0.00522259 0.0289224 0.0008 3.43146e-06 4.3561e-13 -1.62565e-12 -1.17442e-12 -1.00941e-09 -1.04573e-10 -8.44222e-11 2.61263e-16 -1.58386e-15 5.93713e-15 0 0 0 0 0 0 0 0
1718 1 -0.00198595 -0.00328873 0.0285936 0.0008 3.43146e-06 -9.99856e-13 1.08392e-12 -2.28435e-12 1.8442e-09 3.99745e-11 -3.18824e-09 -1.40035e-15 7.49987e-17 -5.81539e-15 0 0 0 0 0 0 0 0
1719 1 -0.0010449 0.00101912 0.0343754 0.0008 3.43146e-06 -5.3822e-13 -5.44391e-13 8.46615e-13 -5.42579e-09 -2.87381e-09 2.01689e-09 -3.84195e-15 -2.27733e-15 -7.07097e-16 0 0 0 0 0 0 0 0
1720 1 -0.00446435 -0.00071658 0.0348989 0.0008 3.43146e-06 1.90813e-12 6.94492e-13 -2.16656e-12 3.00246e-09 3.65853e-09 5.22599e-09 -3.06726e-15 4.10717e-15 1.36097e-14 0 0 0 0 0 0 0 0
1721 1 -0.00254644 0.00162554 0.0326196 0.0008 3.43146e-06 -1.08418e-12 -1.44835e-13 -9.97559e-13 -2.70956e-09 8.58766e-10 8.07088e-10 -7.73442e-16 4.23247e-15 1.18295e-14 0 0 0 0 0 0 0 0
1722 1 0.0029428 -0.00168219 0.0318959 0.0008 3.43146e-06 -5.31176e-13 5.42931e-13 7.49113e-12 -9.89748e-09 9.23008e-10 -1.19946e-09 -6.66397e-15 6.38953e-16 -4.24893e-15 0 0 0 0 0 0 0 0
1723 1 -0.00297937 -0.000454664 0.0343641 0.0008 3.43146e-06 1.043e-12 7.12539e-13 -1.78618e-12 -7.65906e-09 -4.39055e-09 -3.38349e-09 1.26017e-14 8.12039e-16 2.02131e-14 0 0 0 0 0 0 0 0
1724 1 -0.00419886 -0.00501919 0.033773 0.0008 3.43146e-06 -2.33045e-12 -4.32469e-13 -1.73445e-11 8.64018e-09 -1.09248e-08 -3.37739e-09 3.19227e-14 -5.10769e-15 1.06472e-15 0 0 0 0 0 0 0 0
1725 1 0.0013798 0.00545974 0.0344286 0.0008 3.43146e-06 -2.44945e-12 2.16823e-12 1.69579e-11 -1.31545e-08 -8.45796e-09 1.45053e-09 8.54343e-15 1.80791e-15 -1.18935e-15 0 0 0 0 0 0 0 0
1726 1 -0.00399005 -0.00389909 0.0348962 0.0008 3.43146e-06 -7.10522e-12 -5.12567e-12 -7.88645e-12 4.97132e-10 -6.8644e-09 -7.65613e-09 3.90642e-14 -9.52135e-15 3.03264e-15 0 0 0 0 0 0 0 0
1727 1 -0.00110998 0.00711396 0.0324905 0.0008 3.43146e-06 1.39788e-12 -1.74248e-12 -9.00568e-13 1.03231e-09 2.32592e-09 1.55883e-09 1.05034e-15 6.73778e-15 5.25692e-15 1 2.51802e-06 -1.11577e-05 -9.73408e-07 -0.00123331 0.00790436 0.0324905 0.0008
1728 1 -0.00625238 -0.00166284 0.0316497 0.0008 3.43146e-06 9.01238e-13 5.40891e-13 1.18019e-12 -1.40698e-10 -1.11846e-09 1.64304e-09 -3.15359e-15 1.09626e-16 -3.92747e-15 0 0 0 0 0 0 0 0
1729 1 0.000415086 0.00149919 0.0339307 0.0008 3.43146e-06 -1.40806e-13 3.0665e-13 1.28694e-13 -1.08006e-09 1.37721e-09 9.74923e-10 -7.63336e-17 -7.42026e-15 -8.29272e-15 0 0 0 0 0 0 0 0
1730 1 0.0028909 0.00221066 0.0351183 0.0008 3.43146e-06 -8.9106e-13 -1.07326e-12 -1.09363e-11 -6.48575e-09 -1.00673e-08 -2.61253e-09 5.72388e-16 -2.14438e-15 -1.31375e-14 0 0 0 0 0 0 0 0
1731 1 0.000794536 -0.0045619 0.0342477 0.0008 3.43146e-06 -2.6223e-12 -2.14357e-12 -3.99291e-12 -2.94332e-09 -1.00014e-08 -8.30113e-10 -1.48649e-15 1.77703e-15 6.98233e-15 0 0 0 0 0 0 0 0
1732 1 0.00234718 0.00223731 0.031591 0.0008 3.43146e-06 -1.08284e-12 1.08369e-12 -1.87348e-12 1.61913e-11 -1.60882e-09 3.5283e-10 -2.33052e-16 1.02614e-15 2.16313e-14 0 0 0 0 0 0 0 0
1733 1 -0.00248556 0.00376027 0.0337751 0.0008 3.43146e-06 1.84387e-12 -1.08359e-12 -8.81718e-12 1.41965e-09 8.75638e-09 -6.24628e-10 -2.51565e-14 -4.75493e-15 1.02693e-14 0 0 0 0 0 0 0 0
1734 1 -0.000343195 -0.0068428 0.0333361 0.0008 3.43146e-06 -2.038e-12 -3.2471e-14 1.38328e-12 1.88242e-09 2.51282e-09 -4.30262e-09 2.41378e-16 6.85029e-16 -1.78001e-15 0 0 0 0 0 0 0 0
1735 1 0.00415423 -0.00177873 0.0333831 0.0008 3.43146e-06 -1.68255e-12 3.5461e-13 -1.20512e-11 1.68933e-09 -2.58012e-09 -2.09867e-09 -9.23978e-15 -1.80891e-15 -1.24208e-14 0 0 0 0 0 0 0 0
1736 1 -0.00345153 -0.00312655 0.0320017 0.0008 3.43146e-06 5.24119e-13 -1.08413e-12 -1.55427e-12 6.50373e-09 4.72349e-10 -2.97232e-09 2.86836e-15 -1.32893e-16 1.16211e-14 0 0 0 0 0 0 0 0
1737 1 0.000455366 -0.00471485 0.0317006 0.0008 3.43146e-06 -7.60984e-13 2.16722e-12 1.98451e-12 7.3948e-10 -8.64327e-10 8.62946e-10 2.4319e-15 1.06849e-15 2.23249e-15 0 0 0 0 0 0 0 0
1738 1 -0.00207023 0.0061442 0.0333256 0.0008 3.43146e-06 8.40877e-13 2.16832e-12 -3.28699e-13 -3.71807e-09 -1.7748e-09 -5.47973e-09 3.96806e-15 -1.33437e-16 4.66039e-15 0 0 0 0 0 0 0 0
1739 1 -0.00445573 0.00194559 0.0315917 0.0008 3.43146e-06 -3.40889e-14 -5.40897e-13 -1.62981e-13 -1.00945e-09 -5.75965e-10 4.03134e-10 3.18069e-15 2.38614e-16 1.1315e-14 0 0 0 0 0 0 0 0
1740 1 -0.00685754 -0.00219416 0.0346044 0.0008 3.43146e-06 -1.46731e-13 8.17602e-13 8.17667e-13 1.35393e-10 -8.13554e-10 1.28582e-09 -3.90142e-15 -4.67476e-15 4.67188e-16 1 2.55694e-06 1.68771e-07 -4.66645e-07 -0.00761948 -0.00243795 0.0346044 0.0008
1741 1 0.0017828 -0.00277211 0.0320577 0.0008 3.43146e-06 -2.95692e-13 8.64215e-13 5.46274e-12 5.74086e-09 -8.49059e-09 1.69476e-09 -1.4437e-15 -1.27846e-15 -1.20458e-14 0 0 0 0 0 0 0 0
1742 1 0.00207109 -0.000805452 0.0345615 0.0008 3.43146e-06 -1.09691e-12 -7.91567e-13 -9.88078e-14 -1.36629e-09 -3.61759e-09 3.77099e-09 3.70823e-15 2.91124e-15 -1.56903e-14 0 0 0 0 0 0 0 0
1743 1 0.00161442 -0.0033939 0.0335242 0.0008 3.43146e-06 -5.42081e-13 -1.08423e-12 4.58357e-12 7.14885e-09 -2.3067e-09 2.59908e-09 -7.17954e-16 -4.06965e-16 1.39868e-15 0 0 0 0 0 0 0 0
1744 1 0.00126891 0.000187855 0.0335973 0.0008 3.43146e-06 -5.42068e-13 -5.69099e-13 -1.50982e-12 2.39813e-09 5.8897e-13 -2.10837e-09 -4.21029e-16 5.93931e-15 -1.33427e-15 0 0 0 0 0 0 0 0
1745 1 -0.00218973 0.00474847 0.0325521 0.0008 3.43146e-06 -1.08392e-12 -2.1647e-12 6.27535e-13 5.1157e-09 -5.68862e-09 3.05747e-10 -1.83577e-16 1.48238e-15 7.85835e-15 0 0 0 0 0 0 0 0
1746 1 -0.00159908 -0.00363608 0.0324743 0.0008 3.43146e-06 -1.48135e-13 -3.58658e-13 -2.69959e-12 -2.00766e-10 -2.81745e-09 1.35326e-09 9.97055e-15 -4.88937e-15 4.16546e-15 0 0 0 0 0 0 0 0
1747 1 0.00268486 0.00581251 0.0333926 0.0008 3.43146e-06 1.07196e-12 -1.4149e-12 1.72473e-12 6.93821e-09 -4.40891e-10 -1.0724e-09 1.70648e-15 3.50476e-15 7.5686e-15 0 0 0 0 0 0 0 0
1748 1 0.00192687 0.0039743 0.0341965 0.0008 3.43146e-06 -1.62888e-12 2.16732e-12 1.68611e-11 1.81923e-08 -5.38116e-09 -2.66097e-09 4.41503e-15 1.14274e-15 -1.0851e-14 0 0 0 0 0 0 0 0
1749 1 -0.00644005 0.000329972 0.0333254 0.0008 3.43146e-06 1.43812e-12 1.58744e-13 4.26489e-13 -4.61159e-09 7.70034e-10 -1.01371e-09 -1.93715e-15 -3.41032e-16 3.06401e-15 0 0 0 0 0 0 0 0
1750 1 -0.00718508 -0.00046356 0.0321515 0.0008 3.43146e-06 -1.72128e-13 -9.84076e-14 -7.94586e-14 -2.77413e-10 2.12543e-10 3.61865e-12 -2.06865e-15 -1.80728e-15 -8.42127e-16 1 5.82467e-06 5.89894e-07 -1.5689e-06 -0.0079834 -0.000515066 0.0321515 0.0008
1751 1 8.3919e-05 -0.00313597 0.0341007 0.0008 3.43146e-06 -1.49934e-12 -5.63156e-13 -1.25544e-11 -1.04779e-09 -5.16392e-09 -2.26275e-11 -2.07961e-15 -1.66582e-16 8.84262e-15 0 0 0 0 0 0 0 0
1752 1 0.00378618 -0.0061242 0.0342433 0.0008 3.43146e-06 6.8362e-13 -8.29701e-13 2.24771e-12 4.54756e-09 -2.22938e-09 -3.36546e-10 4.8301e-15 -8.20502e-15 9.53265e-15 1 -2.5122e-05 3.27055e-05 4.57385e-06 0.00420682 -0.0068046 0.0342433 0.0008
1753 1 0.00314572 -0.00292624 0.0328812 0.0008 3.43146e-06 -9.45635e-14 1.08469e-12 1.73387e-11 3.9449e-10 -4.67014e-09 3.5281e-09 2.20888e-15 -3.62384e-16 1.33116e-15 0 0 0 0 0 0 0 0
1754 1 -0.00137507 0.00230009 0.0334755 0.0008 3.43146e-06 5.63776e-13 -1.08413e-12 2.46079e-12 7.56342e-09 -1.3292e-09 -5.61596e-10 -9.82794e-15 1.55095e-15 -4.79722e-15 0 0 0 0 0 0 0 0
1755 1 -0.00431664 -0.00221406 0.0343554 0.0008 3.43146e-06 -1.14212e-13 1.08469e-12 9.51294e-13 -6.79584e-09 -3.12614e-10 -6.48296e-09 1.67032e-14 -1.41539e-15 1.99258e-14 0 0 0 0 0 0 0 0
1756 1 0.000326146 0.0027871 0.0329857 0.0008 3.43146e-06 -8.32367e-13 1.06993e-12 -4.29956e-12 -2.64309e-09 -3.30417e-09 1.35225e-09 4.48083e-15 -1.66802e-15 1.0719e-14 0 0 0 0 0 0 0 0
1757 1 -0.00259713 0.00187513 0.0344167 0.0008 3.43146e-06 1.08074e-12 -1.67791e-13 -9.78048e-13 -2.0568e-09 2.70582e-10 -4.0278e-09 -4.0584e-15 -8.21502e-15 -9.5157e-15 0 0 0 0 0 0 0 0
1758 1 -0.00358233 0.00624571 0.0326912 0.0008 3.43146e-06 1.08203e-12 -2.00916e-12 -1.07583e-12 4.7098e-09 -5.62617e-09 -1.02556e-10 -5.14205e-15 1.6333e-14 3.55626e-15 1 6.97435e-05 -9.31871e-05 -8.39219e-06 -0.00398029 0.00693954 0.0326912 0.0008
1759 1 -0.00160435 -0.000259044 0.0351583 0.0008 3.43146e-06 5.50342e-13 -9.58424e-13 -2.98382e-13 6.27579e-09 2.09646e-09 2.37391e-10 -1.90058e-15 -4.15873e-15 1.09621e-14 0 0 0 0 0 0 0 0
1760 1 -0.00265579 -0.00316883 0.0335809 0.0008 3.43146e-06 -4.2895e-13 -1.08438e-12 -6.31607e-13 6.14942e-09 1.70594e-09 -5.62169e-09 8.37085e-15 2.69272e-16 -7.97323e-18 0 0 0 0 0 0 0 0
1761 1 -0.000170342 0.00585588 0.0344308 0.0008 3.43146e-06 -2.12056e-12 2.16841e-12 4.85545e-12 -5.43382e-10 -3.3727e-09 -1.88078e-09 -2.56186e-15 6.67041e-16 9.17855e-15 0 0 0 0 0 0 0 0
1762 1 -0.00610725 0.0027796 0.0348732 0.0008 3.43146e-06 -2.12589e-12 9.93413e-13 -2.44508e-12 -9.43209e-11 -2.30629e-09 -1.15828e-09 3.94568e-15 -6.97392e-15 4.54742e-15 0 0 0 0 0 0 0 0
1763 1 0.00287196 -0.000538719 0.0332023 0.0008 3.43146e-06 -5.9487e-13 -9.02175e-13 -1.04477e-12 -7.28091e-10 3.09258e-09 -1.09843e-09 -1.48813e-14 3.59764e-16 -9.2325e-15 0 0 0 0 0 0 0 0
1764 1 0.00236003 0.0030265 0.0329826 0.0008 3.43146e-06 1.41946e-12 1.08431e-12 -3.77626e-12 -1.35177e-09 3.99024e-09 -2.69366e-09 6.06587e-15 -4.17044e-16 3.37127e-14 0 0 0 0 0 0 0 0
1765 1 -0.0050507 -0.0031358 0.0320499 0.0008 3.43146e-06 -7.11631e-13 9.39858e-13 -1.30125e-12 -6.73488e-09 -3.43994e-10 1.39424e-10 -5.39454e-15 -2.91886e-15 1.1884e-15 0 0 0 0 0 0 0 0
1766 1 -0.00402462 0.00116222 0.0352188 0.0008 3.43146e-06 1.05707e-12 5.59736e-13 2.48581e-12 1.51335e-09 1.56345e-09 1.16624e-09 -1.51996e-14 2.03492e-15 1.83812e-14 0 0 0 0 0 0 0 0
1767 1 0.00053614 -0.00160208 0.0340509 0.0008 3.43146e-06 -5.31243e-13 -5.4238e-13 -3.07397e-12 5.55333e-09 -1.83817e-08 -1.30048e-09 -7.65449e-15 -1.58625e-16 7.27669e-16 0 0 0 0 0 0 0 0
1768 1 -0.000592491 -0.00564142 0.034363 0.0008 3.43146e-06 -4.33101e-12 2.16781e-12 2.71473e-12 -1.28932e-09 -8.32735e-09 2.01895e-09 -5.30064e-17 -1.86083e-16 -1.33874e-16 0 0 0 0 0 0 0 0
1769 1 -0.00600807 0.00396794 0.0338065 0.0008 3.43146e-06 -2.40059e-13 -1.56795e-13 -2.75428e-13 1.33012e-09 -3.15851e-10 -3.97707e-10 1.86187e-15 -7.03118e-15 2.46221e-15 1 6.10785e-05 -3.44939e-05 1.32461e-05 -0.00667554 0.00440876 0.0338065 0.0008
1770 1 0.00359113 0.000829746 0.034715 0.0008 3.43146e-06 -1.74673e-12 -1.35559e-12 -4.03859e-12 6.24505e-10 3.08571e-09 5.14912e-10 -9.53643e-15 -3.78093e-18 -1.80056e-15 0 0 0 0 0 0 0 0
1771 1 -0.00176903 0.00589361 0.0351188 0.0008 3.43146e-06 -5.98402e-13 -4.92778e-13 -1.30091e-12 6.10358e-09 1.02264e-08 -7.52747e-09 -2.50708e-15 9.94742e-15 5.25915e-15 0 0 0 0 0 0 0 0
1772 1 0.00603499 0.00283981 0.0344088 0.0008 3.43146e-06 -1.26851e-12 -8.99131e-13 1.15721e-12 1.98476e-09 9.43278e-11 -4.7674e-10 -6.58073e-15 2.9703e-15 5.09188e-15 0 0 0 0 0 0 0 0
1773 1 -0.00277816 -0.00212242 0.034785 0.0008 3.43146e-06 1.06002e-12 -9.23226e-13 3.87463e-12 -2.33488e-09 -3.33057e-09 9.15035e-10 -1.1059e-14 7.11653e-15 4.59394e-15 0 0 0 0 0 0 0 0
1774 1 0.00378846 0.00612279 0.0345086 0.0008 3.43146e-06 1.08233e-12 -2.16791e-12 2.54095e-12 -3.72288e-09 2.41781e-10 2.65027e-09 7.64055e-16 1.99209e-15 6.01155e-15 1 -2.6657e-05 -3.27652e-05 -3.40306e-06 0.00420936 0.00680304 0.0345086 0.0008
1775 1 -0.0038543 -0.00608153 0.0349186 0.0008 3.43146e-06 -5.21608e-12 2.17082e-12 -9.55074e-12 -1.50052e-08 -1.61182e-09 8.70479e-09 8.031e-15 -1.0619e-15 9.30696e-16 1 9.08987e-06 1.6423e-05 -8.71894e-07 -0.00428253 -0.00675721 0.0349186 0.0008
1776 1 -0.00518757 0.000574291 0.0342904 0.0008 3.43146e-06 -9.47738e-13 6.79041e-13 -7.59253e-14 1.2588e-10 -2.8057e-09 -1.3838e-09 2.71513e-15 1.02407e-15 2.92126e-15 0 0 0 0 0 0 0 0
1777 1 -1.76455e-05 0.00431931 0.0316897 0.0008 3.43146e-06 -1.5327e-13 -2.16752e-12 -2.42878e-12 6.58579e-10 -1.319e-09 7.96836e-10 1.52036e-15 1.90692e-16 -4.53759e-16 0 0 0 0 0 0 0 0
1778 1 -0.00706964 0.00136417 0.0343712 0.0008 3.43146e-06 2.16768e-12 5.41836e-13 -7.17219e-13 2.41836e-09 3.95479e-10 1.19851e-09 -1.8698e-15 1.48362e-16 -2.51321e-15 1 2.69692e-05 -3.56173e-06 -4.82165e-06 -0.0078551 0.00151573 0.0343712 0.0008
1779 1 0.00719878 -0.000136651 0.0313655 0.0008 3.43146e-06 -1.34287e-12 4.69705e-14 3.25688e-12 -2.50259e-09 4.11077e-09 -1.39882e-11 6.46661e-16 1.78389e-15 7.84904e-16 1 -4.54196e-05 -3.30991e-06 -2.37844e-06 0.00799856 -0.000151832 0.0313655 0.0008
1780 1 -0.00469785 0.00545639 0.0313154 0.0008 3.43146e-06 1.87695e-12 -1.39795e-12 -2.43546e-13 -1.47719e-09 2.07876e-09 5.68657e-10 7.38912e-16 -2.38825e-15 -3.28313e-16 1 5.88841e-05 -9.29728e-05 3.23027e-07 -0.00521973 0.00606254 0.0313154 0.0008
1781 1 0.00261197 -0.00670956 0.035159 0.0008 3.43146e-06 -6.76363e-14 -2.16433e-12 -9.53256e-13 -1.12147e-09 -6.07759e-10 9.60798e-10 -3.88512e-16 4.88052e-16 -1.1555e-16 1 -7.77101e-06 1.9348e-05 3.94387e-06 0.00290217 -0.00745502 0.035159 0.0008
1782 1 0.00511404 -0.0050682 0.0327006 0.0008 3.43146e-06 -8.80246e-13 -6.46567e-13 3.27344e-13 -3.14523e-09 3.66754e-09 1.46767e-09 -2.76893e-16 5.07463e-15 -2.52092e-15 1 -7.86202e-07 8.53117e-07 1.98525e-08 0.00568226 -0.00563133 0.0327006 0.0008
1783 1 0.0056617 -0.000699992 0.0330139 0.0008 3.43146e-06 -2.16815e-12 2.70933e-13 -3.02591e-12 -1.19798e-09 3.70173e-10 -1.71908e-10 7.531e-16 -1.11312e-15 -1.84182e-16 0 0 0 0 0 0 0 0
1784 1 0.00565861 -0.00229803 0.0330894 0.0008 3.43146e-06 -1.22648e-12 1.08428e-12 -2.27244e-12 2.65898e-10 -4.90019e-09 1.50894e-09 -4.70129e-16 4.13817e-16 -6.75566e-15 0 0 0 0 0 0 0 0
1785 1 -0.00295501 0.00521782 0.0342842 0.0008 3.43146e-06 -3.2524e-12 2.53247e-12 3.5045e-13 -6.17539e-10 -4.70872e-09 6.26123e-09 4.60165e-16 2.48756e-15 -1.16123e-14 0 0 0 0 0 0 0 0
1786 1 -0.000498395 -0.00452684 0.0332191 0.0008 3.43146e-06 -2.71007e-13 1.60267e-12 1.50512e-12 -1.06809e-09 -2.39689e-09 1.61755e-09 5.62571e-16 -4.99922e-15 -4.27112e-16 0 0 0 0 0 0 0 0
1787 1 0.00492329 0.002976 0.0332662 0.0008 3.43146e-06 -1.64187e-12 -4.11161e-13 -3.67956e-12 2.16281e-10 -4.32779e-09 2.26247e-09 -4.39003e-15 5.6482e-15 -3.83056e-15 0 0 0 0 0 0 0 0
1788 1 -0.000802568 -0.00235637 0.0330106 0.0008 3.43146e-06 -1.84001e-12 1.08414e-12 1.71313e-12 1.37362e-09 -4.21177e-09 -1.87307e-10 1.05737e-14 -2.18153e-16 5.63762e-15 0 0 0 0 0 0 0 0
1789 1 0.00347985 0.00328989 0.0340945 0.0008 3.43146e-06 3.56497e-12 -2.14162e-12 -1.24744e-11 3.40024e-09 5.30127e-09 2.31326e-11 2.59504e-15 -1.81851e-14 2.89092e-15 0 0 0 0 0 0 0 0
1790 1 -0.00346617 -0.00190303 0.0330325 0.0008 3.43146e-06 1.28101e-12 -5.03269e-13 1.20872e-12 -4.64572e-09 3.98021e-10 2.67524e-09 1.21719e-14 5.39409e-15 6.51759e-15 0 0 0 0 0 0 0 0
1791 1 -0.00118269 0.00710227 0.0342498 0.0008 3.43146e-06 5.42478e-13 1.62162e-12 7.50815e-15 5.72606e-10 -2.76068e-09 1.18592e-09 -5.68541e-17 2.16022e-15 1.27363e-14 1 5.72475e-06 -3.50002e-05 4.12907e-06 -0.00131409 0.00789134 0.0342498 0.0008
1792 1 -0.00444595 0.00374645 0.0340718 0.0008 3.43146e-06 2.16225e-12 1.08552e-12 -1.72747e-12 -3.24736e-09 2.93074e-09 2.29041e-09 1.0354e-15 -1.55888e-15 5.39511e-15 0 0 0 0 0 0 0 0
1793 1 0.00433874 0.00463593 0.0342935 0.0008 3.43146e-06 1.24367e-12 -2.16858e-12 4.84764e-12 2.49949e-11 1.69566e-09 -2.10075e-09 3.63076e-15 -1.18074e-15 1.65873e-14 0 0 0 0 0 0 0 0
1794 1 -0.00257539 -0.00672276 0.0342023 0.0008 3.43146e-06 -3.25444e-12 1.01882e-12 -1.35848e-12 4.25955e-09 -3.62728e-09 -6.88342e-09 -8.85818e-15 8.32325e-15 1.78341e-14 0 0 0 0 0 0 0 0
1795 1 0.00577659 0.00429781 0.0350149 0.0008 3.43146e-06 -1.26674e-12 3.42905e-13 -7.72572e-13 -4.04474e-09 -4.57232e-09 -1.39377e-09 -3.42914e-15 1.18776e-14 -4.53697e-15 1 -1.55001e-06 -1.07871e-06 -9.76229e-08 0.00641842 0.00477534 0.0350149 0.0008
1796 1 0.00609871 -0.00382739 0.0329257 0.0008 3.43146e-06 -1.83622e-13 1.08255e-12 -1.41281e-12 7.92481e-10 -2.60394e-09 -9.77985e-10 -1.33888e-15 2.38837e-16 -6.83935e-15 1 -0.000192294 0.000123157 1.1187e-05 0.00677614 -0.00425252 0.0329257 0.0008
1797 1 0.00433429 -0.000227651 0.033772 0.0008 3.43146e-06 -2.16742e-12 -9.38869e-14 -4.12067e-12 -1.32579e-09 -4.97182e-10 1.9993e-09 3.04551e-17 -5.40962e-15 1.54171e-15 0 0 0 0 0 0 0 0
1798 1 -0.00650833 0.00307955 0.0318708 0.0008 3.43146e-06 1.32378e-12 -2.69056e-13 1.91192e-13 1.22937e-09 -8.13271e-10 4.0564e-10 4.35604e-17 -1.33244e-15 -3.9156e-15 1 9.65672e-05 -4.70534e-05 -1.25679e-05 -0.00723134 0.00342166 0.0318708 0.0008
1799 1 3.75626e-06 -0.00584638 0.0305043 0.0008 3.43146e-06 -8.96587e-13 2.16503e-12 -2.23423e-12 1.44436e-09 -8.59611e-10 -6.71682e-10 3.71571e-15 -2.74557e-16 7.71156e-15 0 0 0 0 0 0 0 0
1800 1 0.00495773 0.00522137 0.0322232 0.0008 3.43146e-06 -9.87942e-13 -7.44752e-13 -1.10356e-12 -1.24521e-09 -3.44102e-09 -3.02427e-10 -1.29447e-15 6.1601e-15 4.34467e-15 1 -6.41688e-05 -7.3209e-05 -1.02724e-05 0.0055085 0.00580142 0.0322232 0.0008
1801 1 0.00341658 -0.00465564 0.0337272 0.0008 3.43146e-06 1.13009e-12 -9.29236e-13 3.46382e-12 -1.53419e-09 -4.49289e-09 2.27636e-09 3.7215e-15 5.62583e-15 1.51644e-14 0 0 0 0 0 0 0 0
1802 1 -0.0047086 0.00544701 0.0339945 0.0008 3.43146e-06 7.89167e-13 4.27538e-13 -1.72859e-12 -1.53439e-09 4.99095e-09 1.15809e-09 1.07259e-14 4.52866e-15 -5.18118e-15 1 1.93959e-05 -2.15253e-05 9.53532e-07 -0.00523173 0.00605219 0.0339945 0.0008
1803 1 -0.00254924 -0.00376223 0.0355783 0.0008 3.43146e-06 -1.18895e-11 2.03826e-11 1.30565e-11 -7.31391e-08 -2.51878e-08 9.61048e-09 2.07015e-15 -3.37283e-14 5.22877e-15 0 0 0 0 0 0 0 0
1804 1 0.00573409 0.00085908 0.0339681 0.0008 3.43146e-06 6.78949e-13 -6.11683e-14 -7.05758e-13 6.90293e-10 2.53979e-09 2.79512e-10 -2.42431e-15 -3.24655e-16 4.8575e-15 0 0 0 0 0 0 0 0
1805 1 -0.000604129 -0.000779024 0.0331902 0.0008 3.43146e-06 -1.60285e-12 9.4801e-13 1.11805e-12 -3.27277e-09 -3.55137e-09 -1.20944e-09 1.14719e-14 -5.9839e-15 3.22421e-15 0 0 0 0 0 0 0 0
1806 1 0.000585882 -0.0017751 0.0324612 0.0008 3.43146e-06 3.84012e-12 5.41104e-13 3.28631e-14 -3.59704e-09 1.18687e-08 -6.39641e-09 -6.24349e-15 4.89114e-17 9.99647e-15 0 0 0 0 0 0 0 0
1807 1 0.00307985 -0.00240227 0.0343915 0.0008 3.43146e-06 -1.08427e-12 2.37198e-12 -5.82959e-12 -1.1648e-08 5.2982e-09 5.51074e-09 -4.26071e-18 2.13028e-15 -1.58245e-14 0 0 0 0 0 0 0 0
1808 1 0.00117348 -0.00710393 0.0328989 0.0008 3.43146e-06 -9.69312e-13 -2.11351e-12 -7.50289e-13 -8.19111e-10 -8.3461e-10 1.46519e-09 3.07909e-15 1.31753e-15 1.52092e-15 1 -2.30229e-05 0.000191788 -9.13735e-06 0.00130383 -0.00789304 0.0328989 0.0008
1809 1 0.0020651 -0.00478782 0.0328812 0.0008 3.43146e-06 1.18724e-12 -2.16668e-12 -4.53004e-13 -1.02289e-09 -3.34967e-11 -2.64608e-09 4.05372e-15 -4.43883e-16 2.83205e-15 0 0 0 0 0 0 0 0
1810 1 0.0045394 -0.00363232 0.0332255 0.0008 3.43146e-06 -1.48065e-12 1.35327e-12 7.01801e-12 1.42794e-08 1.08126e-08 -1.91187e-09 1.7893e-14 6.49441e-15 -1.4688e-15 0 0 0 0 0 0 0 0
1811 1 -0.0024546 0.00319457 0.0322786 0.0008 3.43146e-06 -2.30311e-13 -1.08144e-12 -3.14504e-12 -4.71088e-10 3.58118e-09 3.16765e-10 1.05615e-14 1.07797e-15 -7.34268e-15 0 0 0 0 0 0 0 0
1812 1 -0.00201393 -0.00144141 0.0335554 0.0008 3.43146e-06 -1.08411e-12 -1.94032e-13 2.90621e-12 9.31502e-10 4.80184e-09 3.25897e-09 -7.72363e-16 1.23261e-14 -7.40189e-15 0 0 0 0 0 0 0 0
1813 1 -0.00133148 0.00484718 0.0339904 0.0008 3.43146e-06 -4.2136e-13 -2.8023e-13 -5.59416e-12 -3.27018e-10 -1.33619e-08 2.92678e-09 1.98959e-15 1.59788e-14 9.32023e-15 0 0 0 0 0 0 0 0
1814 1 0.000765903 -0.00715916 0.034445 0.0008 3.43146e-06 -1.77769e-12 -1.40882e-12 -1.04904e-12 -1.11288e-09 -2.35301e-10 2.3406e-09 -2.08267e-15 1.72204e-15 -2.2108e-15 1 -1.07708e-06 4.54165e-06 -1.00293e-06 0.000851002 -0.00795461 0.034445 0.0008
1815 1 -0.00111063 -0.00711391 0.0347136 0.0008 3.43146e-06 -2.89182e-12 -1.45464e-12 1.08344e-12 7.07623e-10 -2.22869e-09 3.71062e-09 7.9129e-15 -1.67377e-16 3.5309e-15 1 1.29032e-05 5.13921e-05 7.66637e-06 -0.00123402 -0.00790425 0.0347136 0.0008
1816 1 -0.00455121 -0.00164756 0.0317416 0.0008 3.43146e-06 -6.00469e-13 2.78374e-13 -3.67732e-12 4.0085e-09 1.69984e-09 -5.7193e-10 -5.64115e-15 -1.76785e-16 5.09726e-15 0 0 0 0 0 0 0 0
1817 1 -0.00531405 0.00398002 0.0313017 0.0008 3.43146e-06 2.16651e-12 -1.12545e-12 -1.89664e-13 2.53531e-09 6.57075e-10 -3.01732e-10 -2.43626e-16 -1.35814e-15 -7.41067e-15 0 0 0 0 0 0 0 0
1818 1 0.0056681 0.00443995 0.033425 0.0008 3.43146e-06 4.02041e-13 -1.71678e-12 9.40311e-13 1.63566e-09 2.68721e-09 2.01526e-09 2.93152e-15 3.1951e-15 3.5791e-15 1 -1.0248e-05 -8.29987e-06 1.93715e-06 0.00629786 0.00493325 0.033425 0.0008
1819 1 1.84934e-05 -0.000166163 0.0345305 0.0008 3.43146e-06 -6.3485e-13 -9.72983e-13 8.8877e-13 4.36525e-09 4.08247e-09 -2.85458e-09 -5.26888e-15 2.14686e-15 -2.51508e-15 0 0 0 0 0 0 0 0
1820 1 -0.00718257 -0.000501705 0.0344729 0.0008 3.43146e-06 -2.07293e-12 9.62612e-13 3.54413e-12 9.49263e-11 -4.32984e-09 1.60469e-09 4.99824e-16 -6.18577e-15 -4.2101e-15 1 3.98302e-05 1.1984e-05 -2.89026e-06 -0.00798055 -0.000557444 0.0344729 0.0008
1821 1 -0.000921931 -0.00163453 0.0347087 0.0008 3.43146e-06 -1.01437e-12 -1.79082e-12 -1.27661e-11 5.58488e-09 7.6893e-09 -1.7836e-09 1.32453e-15 7.00516e-15 1.80922e-14 0 0 0 0 0 0 0 0
1822 1 -0.00621835 -0.00362937 0.034302 0.0008 3.43146e-06 4.49197e-13 -1.08427e-12 7.56734e-13 2.60622e-10 -9.32559e-10 -1.94683e-09 -1.33865e-14 -4.20074e-16 4.51369e-15 1 4.54421e-06 1.17236e-06 1.82364e-07 -0.00690927 -0.00403262 0.034302 0.0008
1823 1 -0.00271475 -0.00463042 0.0342446 0.0008 3.43146e-06 3.76475e-12 1.61241e-11 -2.43256e-12 6.67302e-08 -6.11746e-08 -1.05804e-07 -1.37783e-14 -5.75141e-14 -1.76757e-14 0 0 0 0 0 0 0 0
1824 1 -0.00143222 -0.00314781 0.0346115 0.0008 3.43146e-06 4.6281e-13 -2.93465e-12 -1.02222e-11 -3.56122e-09 8.71802e-09 5.09957e-09 -4.62903e-15 -1.60591e-14 1.85627e-14 0 0 0 0 0 0 0 0
1825 1 0.000272031 0.000261524 0.032348 0.0008 3.43146e-06 -4.72628e-13 -4.00392e-13 -1.3668e-12 -2.07158e-09 7.701e-10 2.28222e-09 6.65685e-15 -2.92459e-16 6.68308e-15 0 0 0 0 0 0 0 0
1826 1 0.00184255 0.00696035 0.0341224 0.0008 3.43146e-06 -8.34783e-14 2.16798e-12 4.12603e-12 -5.50979e-09 -7.11019e-10 -1.47554e-09 1.205e-15 -1.50638e-15 1.30768e-14 1 -2.19648e-05 -6.89628e-05 5.97038e-07 0.00204724 0.00773361 0.0341224 0.0008
1827 1 0.000362693 0.00437091 0.0332429 0.0008 3.43146e-06 -8.73644e-13 2.16843e-12 -4.68363e-12 -5.7748e-09 9.39561e-10 4.23768e-10 -4.5549e-16 1.06625e-15 8.59794e-15 0 0 0 0 0 0 0 0
1828 1 0.00593942 0.00406995 0.0316999 0.0008 3.43146e-06 1.19228e-12 1.25969e-13 -1.40562e-12 -6.33946e-10 -2.39962e-09 7.34067e-10 -9.61122e-16 -2.20464e-15 2.93851e-15 1 -3.81438e-05 -2.936e-05 3.6813e-06 0.00659928 0.00452212 0.0316999 0.0008
1829 1 0.00155703 -0.00252526 0.0348666 0.0008 3.43146e-06 -5.79101e-13 -1.08417e-12 5.73524e-12 -6.79367e-09 7.07236e-09 4.56336e-09 1.761e-15 1.2313e-16 -1.05394e-14 0 0 0 0 0 0 0 0
1830 1 0.00717593 0.000588393 0.03462 0.0008 3.43146e-06 -1.58036e-12 5.63847e-14 -3.52425e-13 -1.85256e-09 -5.18636e-10 -3.12487e-10 -3.89587e-15 7.46048e-16 3.30796e-15 1 -4.25769e-06 -1.27722e-07 -7.058e-07 0.00797324 0.000653769 0.03462 0.0008
1831 1 0.00274931 -0.00665451 0.0331463 0.0008 3.43146e-06 -5.4428e-13 -6.36509e-13 -7.24263e-13 -1.89559e-09 1.46869e-09 8.4751e-10 4.0436e-15 -1.40804e-16 1.0863e-15 1 -1.8082e-05 4.4323e-05 5.99324e-06 0.00305475 -0.00739381 0.0331463 0.0008
1832 1 -0.00409485 -0.000443425 0.0332173 0.0008 3.43146e-06 1.79537e-12 -9.40726e-13 -1.31102e-12 -4.5657e-10 4.10202e-09 -1.96288e-09 -1.87561e-15 -1.70356e-15 1.35742e-14 0 0 0 0 0 0 0 0
1833 1 0.00199707 0.000917473 0.0348208 0.0008 3.43146e-06 -1.46194e-12 1.80129e-12 -5.01574e-12 -1.14692e-08 -3.75996e-09 -4.04998e-09 -9.09297e-15 5.04936e-15 -1.07281e-14 0 0 0 0 0 0 0 0
1834 1 -0.00573751 -0.000959379 0.0339608 0.0008 3.43146e-06 7.01399e-13 -1.48015e-13 3.47323e-12 -1.36518e-09 3.31947e-09 -2.37817e-09 -1.39191e-15 -1.96991e-15 -7.52139e-15 0 0 0 0 0 0 0 0
1835 1 -0.00533731 -0.00483261 0.0348815 0.0008 3.43146e-06 6.94193e-13 -2.16701e-12 -9.59605e-12 2.31108e-09 1.87166e-08 -3.10197e-09 -1.63923e-14 -6.24394e-16 3.22591e-14 1 3.40788e-05 1.64225e-05 -8.85819e-06 -0.00593029 -0.00536952 0.0348815 0.0008
1836 1 -0.00421279 -0.00347081 0.0333708 0.0008 3.43146e-06 -9.22669e-13 1.08377e-12 -2.07543e-12 9.82229e-09 -2.94004e-10 4.74257e-09 2.42706e-14 1.29399e-15 -1.88388e-15 0 0 0 0 0 0 0 0
1837 1 0.00183452 -0.00577399 0.0341198 0.0008 3.43146e-06 -4.63659e-13 -2.15572e-12 -1.80068e-12 1.89819e-09 -1.45806e-09 1.10232e-09 6.3953e-15 1.06646e-15 -5.8631e-16 0 0 0 0 0 0 0 0
1838 1 -0.00111526 0.00339092 0.0346167 0.0008 3.43146e-06 -2.54089e-12 -7.90072e-13 3.81611e-12 -7.59884e-09 -4.55963e-09 9.47354e-10 1.27361e-15 6.96896e-15 6.92328e-15 0 0 0 0 0 0 0 0
1839 1 0.0039316 0.0041511 0.0328242 0.0008 3.43146e-06 -2.16772e-12 -2.15829e-12 -3.74569e-12 3.26953e-09 -3.55823e-10 1.07126e-09 5.81175e-16 8.32396e-16 -6.80998e-16 0 0 0 0 0 0 0 0
1840 1 -0.00557564 -0.00244718 0.0333952 0.0008 3.43146e-06 -1.83353e-12 9.06211e-13 -1.10428e-12 7.06884e-09 -1.10671e-09 -1.01182e-10 -3.70945e-15 -4.12022e-15 -8.672e-15 0 0 0 0 0 0 0 0
1841 1 0.000477897 0.00335501 0.0344737 0.0008 3.43146e-06 -1.58624e-12 7.65256e-13 6.20449e-12 7.7833e-09 1.84533e-09 6.28294e-10 -1.23918e-14 1.17887e-14 -1.72342e-14 0 0 0 0 0 0 0 0
1842 1 0.00696802 0.00181318 0.0336117 0.0008 3.43146e-06 -9.31952e-13 -2.39302e-13 -6.4421e-13 1.40101e-09 -4.7142e-10 1.0557e-10 -3.97033e-15 -5.57143e-17 1.44664e-15 1 -3.72899e-05 -3.09392e-06 1.15389e-07 0.00774218 0.00201462 0.0336117 0.0008
1843 1 -0.00480661 0.00212604 0.0342091 0.0008 3.43146e-06 -7.28207e-13 1.08355e-12 1.04927e-12 -4.22485e-10 -2.67144e-09 1.29344e-09 -1.06493e-14 -3.45401e-16 1.4236e-14 0 0 0 0 0 0 0 0
1844 1 0.00184239 0.00464284 0.0326986 0.0008 3.43146e-06 -5.42349e-13 -3.16395e-13 -4.13236e-12 -1.4499e-09 -2.81905e-09 -1.44455e-09 2.14132e-16 1.45495e-14 1.06887e-14 0 0 0 0 0 0 0 0
1845 1 -0.00311537 -0.000944435 0.0318006 0.0008 3.43146e-06 6.91667e-13 -2.61479e-13 -3.00674e-12 1.04034e-09 -2.15014e-10 -5.4479e-10 -6.22287e-15 1.47742e-15 6.35338e-15 0 0 0 0 0 0 0 0
1846 1 0.00717875 -0.000554833 0.0335007 0.0008 3.43146e-06 -5.4535e-13 6.55346e-15 -1.22464e-12 2.61209e-09 -1.73053e-09 3.73425e-11 -4.39834e-15 2.21688e-16 -4.26521e-15 1 -0.000129069 2.15083e-05 -3.45217e-06 0.00797621 -0.000616468 0.0335007 0.0008
1847 1 0.00208548 0.00689137 0.0323695 0.0008 3.43146e-06 -9.24144e-14 1.681e-13 1.08372e-12 -2.14496e-09 -2.1464e-09 -3.38027e-10 -4.55612e-16 5.53624e-16 1.28843e-15 1 -8.38021e-07 -2.71703e-06 -1.79234e-07 0.0023172 0.00765706 0.0323695 0.0008
1848 1 -0.00369416 0.000636203 0.0321066 0.0008 3.43146e-06 5.45288e-13 -2.7102e-13 -3.66542e-13 2.39422e-09 -8.14738e-10 7.97972e-10 -2.88964e-15 -3.05808e-16 1.25191e-14 0 0 0 0 0 0 0 0
1849 1 -0.00579822 -0.00426872 0.0328968 0.0008 3.43146e-06 1.67406e-13 1.57027e-12 1.20174e-12 2.70569e-09 3.69644e-10 1.49811e-09 -6.70697e-15 -5.69798e-15 -2.21426e-15 1 4.78635e-05 3.38746e-05 6.40293e-07 -0.00644239 -0.00474296 0.0328968 0.0008
1850 1 -0.00671779 0.00259101 0.0334064 0.0008 3.43146e-06 4.90708e-13 6.22041e-13 -3.56157e-15 -1.36869e-09 3.9235e-10 8.58528e-10 -3.36963e-15 -3.56676e-15 -7.36864e-15 1 0.000100752 -3.74224e-05 -1.28906e-05 -0.00746407 0.00287884 0.0334064 0.0008
