LAMMPS data file via write_data, version 22 Jul 2025, timestep = 4000001, units = si

1850 atoms
1 atom types

-0.008 0.008 xlo xhi
-0.008 0.008 ylo yhi
0 0.07 zlo zhi

Atoms # sphere

1 1 0.0016 1600 0.0021380271283079487 -0.006875435726265567 0.00231463400640397 0 0 0
2 1 0.0016 1600 0.005744948618396337 0.001733574624254622 0.0018373276794889553 0 0 0
3 1 0.0016 1600 0.0022345920926647115 0.0034301561975828483 0.0007996311062134155 0 0 0
4 1 0.0016 1600 0.0026743779032621083 4.009459130992864e-06 0.0033974158432997542 0 0 0
5 1 0.0016 1600 0.0031100071380442255 0.0028023454448509403 0.0019819619868392535 0 0 0
6 1 0.0016 1600 -0.000874988064728074 0.005642848756266906 0.002392266067474942 0 0 0
7 1 0.0016 1600 0.0004504068267705 -0.005613793739517941 0.0007995567869957447 0 0 0
8 1 0.0016 1600 0.004547981197465475 0.0015187898800581325 0.0007991068733668955 0 0 0
9 1 0.0016 1600 0.00021853027367074273 -0.0031736897659410995 0.0021431361303219923 0 0 0
10 1 0.0016 1600 -0.005052827866676517 -0.0029348331008618644 0.0035956566982237384 0 0 0
11 1 0.0016 1600 -0.0006440320125703223 -0.0008619251176878368 0.0007995082746527434 0 0 0
12 1 0.0016 1600 0.0013109085308024397 5.9760724067687315e-05 0.0042323686604491826 0 0 0
13 1 0.0016 1600 0.0028584586464107846 -0.00483681778326065 0.002144414635947447 0 0 0
14 1 0.0016 1600 -0.007155221894833054 0.0008109802262287036 0.0018930888570006055 0 0 0
15 1 0.0016 1600 0.004827502239384463 -0.005342129346623169 0.0018589029838205159 0 0 0
16 1 0.0016 1600 -0.006813867827697881 0.0022024685009682395 0.0038999624111489364 0 0 0
17 1 0.0016 1600 0.006112122848982286 0.003804653284336133 0.000799863382693 0 0 0
18 1 0.0016 1600 -0.0011613239331941486 0.007104843658555044 0.005142520582343314 0 0 0
19 1 0.0016 1600 -0.0043648908440186325 -0.00572609033894956 0.0007998975348338499 0 0 0
20 1 0.0016 1600 -0.0009086062846110319 0.005452510810121212 0.003979285793003166 0 0 0
21 1 0.0016 1600 -0.0019258045622469252 0.004636714663010514 0.0013773676838720564 0 0 0
22 1 0.0016 1600 -0.0014222005480157634 -0.00705809834163944 0.0007996394434248014 0 0 0
23 1 0.0016 1600 -0.0002401738117611621 -0.0029424788451028576 0.004160235046260418 0 0 0
24 1 0.0016 1600 0.0035808440293845023 0.0044278629587337 0.0007995334216866866 0 0 0
25 1 0.0016 1600 0.0014177573784562693 0.004382846991219227 0.0017919560368907426 0 0 0
26 1 0.0016 1600 -0.0035549483051645495 0.006261818162403272 0.0019642454809300925 0 0 0
27 1 0.0016 1600 0.006801958803633905 0.00236111246228975 0.0007996884365389302 0 0 0
28 1 0.0016 1600 -0.0036111515637238306 -0.00499680043576906 0.00204671102991038 0 0 0
29 1 0.0016 1600 -0.004729921206847097 0.0033414185760481667 0.0007995480921986085 0 0 0
30 1 0.0016 1600 -0.007182083080512001 -0.0005076922451299461 0.0007999354413489775 0 0 0
31 1 0.0016 1600 0.00649911514261802 0.0031004019388097014 0.0021854428526010784 0 0 0
32 1 0.0016 1600 -0.004014242560002843 0.005266485884635995 0.0007994640818855829 0 0 0
33 1 0.0016 1600 -0.005869732830841116 -0.0011326491128164783 0.0014686270062883105 0 0 0
34 1 0.0016 1600 0.003602536751593106 -0.0062344517789918 0.002370873123213364 0 0 0
35 1 0.0016 1600 0.0021438053578655965 -0.0006216634767456767 0.0020243649945134784 0 0 0
36 1 0.0016 1600 0.0014421948677958145 0.0019952481787418276 0.001216793433423421 0 0 0
37 1 0.0016 1600 0.0006390345031137355 0.0033145982260944333 0.0007994701699976259 0 0 0
38 1 0.0016 1600 0.0057186227390725024 -0.004375407223621248 0.0027701395359433115 0 0 0
39 1 0.0016 1600 0.006494039615552029 -0.003109522268716386 0.0007996434540916519 0 0 0
40 1 0.0016 1600 -0.0032223663743836876 0.0038767249434691563 0.0007996184061468247 0 0 0
41 1 0.0016 1600 0.00030615806342999764 0.00719358176922227 0.0007997482811806945 0 0 0
42 1 0.0016 1600 -0.000465055727639652 -0.005579364461130966 0.0033151953292843814 0 0 0
43 1 0.0016 1600 -0.006196453298329381 -0.003667049609518952 0.0007996826885055413 0 0 0
44 1 0.0016 1600 0.0038776262840927783 -0.006067052112182788 0.003937857206823786 0 0 0
45 1 0.0016 1600 0.0032791596873473746 -0.006410300768056098 0.0008000765228140398 0 0 0
46 1 0.0016 1600 -0.003491905457929942 -0.006297294810479696 0.0029696208691942535 0 0 0
47 1 0.0016 1600 -0.000495736819239783 0.007183065681401157 0.0021839724881468248 0 0 0
48 1 0.0016 1600 0.006817334046827768 -0.0014819421057035878 0.0007994127701216245 0 0 0
49 1 0.0016 1600 0.0007242385188273669 -0.0017277976955026944 0.004650270641144826 0 0 0
50 1 0.0016 1600 0.002963482102203032 0.001734977284780273 0.0007992617088060185 0 0 0
51 1 0.0016 1600 -0.001525755479456266 0.0022745518425994257 0.0029861250697156686 0 0 0
52 1 0.0016 1600 -0.00416019422687216 -0.004133031059613602 0.0007995145185355774 0 0 0
53 1 0.0016 1600 -0.006540748098610066 -0.000400150280621005 0.002736635103050561 0 0 0
54 1 0.0016 1600 0.005760297021550468 0.00023343480394844682 0.0023925989229473137 0 0 0
55 1 0.0016 1600 0.00044794657670239223 0.00033902214575126866 0.0007999358558857982 0 0 0
56 1 0.0016 1600 0.005095156627177879 0.005087290096336709 0.000799649366335522 0 0 0
57 1 0.0016 1600 0.002524930668145911 -0.0013228414520760723 0.004278081431247717 0 0 0
58 1 0.0016 1600 -0.0044470880473120485 -0.004373758409988804 0.0048522710390448654 0 0 0
59 1 0.0016 1600 0.00021058558954428343 -5.029328646731843e-05 0.0030728730158718215 0 0 0
60 1 0.0016 1600 0.0031673804959301255 -0.0018174246800934787 0.0007999358558857982 0 0 0
61 1 0.0016 1600 0.007077728607536285 -0.0013214086676590958 0.00496045612550042 0 0 0
62 1 0.0016 1600 -0.006030695897937084 0.003933419474526997 0.003615749494624358 0 0 0
63 1 0.0016 1600 -0.00498861971186937 0.00011574946112637585 0.00208159500745901 0 0 0
64 1 0.0016 1600 -0.001998178678527303 0.0010426710264176738 0.0020821478356914725 0 0 0
65 1 0.0016 1600 0.005172962529017629 -0.0016591724192030006 0.004995148257725674 0 0 0
66 1 0.0016 1600 -0.0035355076356675024 0.0022863078276665707 0.0009403207149321616 0 0 0
67 1 0.0016 1600 0.002315417864220718 0.005406779421425101 0.0007999086959623307 0 0 0
68 1 0.0016 1600 0.002866280309331881 -0.003523517686485296 0.0007992418783509676 0 0 0
69 1 0.0016 1600 0.002862994463728577 0.006606338928094931 0.004711947393105219 0 0 0
70 1 0.0016 1600 0.003902311595137791 5.506273923297319e-05 0.0007995646498886796 0 0 0
71 1 0.0016 1600 0.0056400857714043046 0.004475478175909024 0.002173448908325062 0 0 0
72 1 0.0016 1600 -0.0059559530176740375 -0.004046183455515536 0.004434268770478924 0 0 0
73 1 0.0016 1600 0.00411398328020526 -0.002589353929170123 0.0034595759599564593 0 0 0
74 1 0.0016 1600 -0.0005363348153977456 -0.006270276686181389 0.0018741243631765793 0 0 0
75 1 0.0016 1600 0.0002548045637900762 -0.0012967961909606796 0.0020489651177093933 0 0 0
76 1 0.0016 1600 0.0019247315666031041 0.0046760999514977065 0.004273505423493356 0 0 0
77 1 0.0016 1600 0.004594482267620827 0.003176227083618581 0.0007999358558857982 0 0 0
78 1 0.0016 1600 0.0020493983907402236 0.00040327943454488005 0.0007993881609910391 0 0 0
79 1 0.0016 1600 -0.0007555473133454757 0.0010785605121741738 0.003716802891463691 0 0 0
80 1 0.0016 1600 -0.003381768356576502 0.0017554808672182406 0.0024511143425653874 0 0 0
81 1 0.0016 1600 -0.0017289445288466345 -0.0032234854776142705 0.002101578837022263 0 0 0
82 1 0.0016 1600 0.0024433502114505528 -0.006772990506323303 0.0038813345630968037 0 0 0
83 1 0.0016 1600 0.004230707646212265 0.001722808309008111 0.002353425247806622 0 0 0
84 1 0.0016 1600 -0.0017613007010629938 -0.001044890253351397 0.004161904489550251 0 0 0
85 1 0.0016 1600 -0.002992597673147016 -0.006548610466663928 0.0007998945132789927 0 0 0
86 1 0.0016 1600 -0.00037002193508945725 -0.0014876202336269286 0.0035084963307171926 0 0 0
87 1 0.0016 1600 0.004136668917084052 -0.004406687359248292 0.003004451383110143 0 0 0
88 1 0.0016 1600 -0.002891264174894323 0.0007064246366289152 0.0007991861903893849 0 0 0
89 1 0.0016 1600 0.003061992796000305 0.0006880351954436673 0.0020044782276329044 0 0 0
90 1 0.0016 1600 0.0026662939569250164 -0.0032130374782332292 0.0038482048654441044 0 0 0
91 1 0.0016 1600 -0.004350706358249047 0.004148735058178347 0.0034278634392414103 0 0 0
92 1 0.0016 1600 0.00543151107258671 0.001535329451409295 0.0033934776344336833 0 0 0
93 1 0.0016 1600 0.0044974668415654825 0.005623031041738324 0.0021849134546672905 0 0 0
94 1 0.0016 1600 -0.0017126176053921208 -0.0022951891520758693 0.0007991246648130241 0 0 0
95 1 0.0016 1600 -0.004519033744686254 -0.0025733548919210465 0.000799384938190865 0 0 0
96 1 0.0016 1600 -0.005407712158259036 -0.0015030941963005784 0.0029759784741880367 0 0 0
97 1 0.0016 1600 -0.006929489427528663 0.0019558521643857126 0.0007995308866313337 0 0 0
98 1 0.0016 1600 0.0037239286465657563 -0.004873797050701058 0.000799608042012986 0 0 0
99 1 0.0016 1600 0.004395559766414867 -0.00349966591308922 0.0012689316649658897 0 0 0
100 1 0.0016 1600 -0.0020600342485873257 -0.0004964986103597144 0.0014476192785105432 0 0 0
101 1 0.0016 1600 -9.789217312396508e-05 0.0018948217221702456 0.0007987501142651962 0 0 0
102 1 0.0016 1600 -0.0013671878074603763 -0.0002045221567484127 0.002859528261821083 0 0 0
103 1 0.0016 1600 0.0019935317187202398 -0.004864029274343127 0.0007993048654400612 0 0 0
104 1 0.0016 1600 -0.0024848518339732565 0.006020011515983636 0.0007998153436281321 0 0 0
105 1 0.0016 1600 0.003862391832106468 0.006076578314266868 0.003581173995772564 0 0 0
106 1 0.0016 1600 0.00027739190049688316 0.007195157038985407 0.0035840951254492116 0 0 0
107 1 0.0016 1600 0.007102445834203393 0.0011847475130653173 0.002480451683119382 0 0 0
108 1 0.0016 1600 -0.0022439003196791708 0.0028446880106930703 0.004296115586933024 0 0 0
109 1 0.0016 1600 0.0002009363228315939 -0.007197508982264694 0.0007995889242915904 0 0 0
110 1 0.0016 1600 -0.0029305108207185876 -0.002509695766282873 0.004514721291822088 0 0 0
111 1 0.0016 1600 0.0013124375999020092 -0.005423709083997186 0.0021339532872340582 0 0 0
112 1 0.0016 1600 -0.00273414068508991 -0.00121028216658257 0.002710534134132993 0 0 0
113 1 0.0016 1600 0.0008544058964346813 0.0014253959043240168 0.003535978078018415 0 0 0
114 1 0.0016 1600 -0.0011208108767778624 0.0006648938870460419 0.00079946343277908 0 0 0
115 1 0.0016 1600 -0.0071711753990942265 0.000648559128325425 0.003767234628917029 0 0 0
116 1 0.0016 1600 -0.002721256505393043 -0.006666157261461549 0.0043228407011987515 0 0 0
117 1 0.0016 1600 0.00562082191504075 0.0003223097019920755 0.0007999358558857968 0 0 0
118 1 0.0016 1600 0.005108547888708238 0.005073874774552195 0.0035585862288482054 0 0 0
119 1 0.0016 1600 0.004054875967120913 -0.0008683743118227781 0.0041685829917384384 0 0 0
120 1 0.0016 1600 -0.0044837208845071655 -0.0006964947418155779 0.0007995227050189692 0 0 0
121 1 0.0016 1600 -0.00040196464220503957 0.0011099683275106736 0.0021578882058604833 0 0 0
122 1 0.0016 1600 -0.0026700774373659025 0.004210226041120853 0.003580080293982571 0 0 0
123 1 0.0016 1600 -0.0026594168978014755 -0.004688610817183025 0.0007992309127283831 0 0 0
124 1 0.0016 1600 0.005116960427197352 -0.00506617467892318 0.004082441287642793 0 0 0
125 1 0.0016 1600 -0.005526186190022266 0.0034271674875038754 0.002184403944171153 0 0 0
126 1 0.0016 1600 0.0013024800027896294 -0.0012050446213123754 0.0032536436551727685 0 0 0
127 1 0.0016 1600 -0.0029947546313134617 0.00654804937776307 0.0034350915565688612 0 0 0
128 1 0.0016 1600 -0.004119668291649941 -0.0016422542317020572 0.0020374226868329296 0 0 0
129 1 0.0016 1600 -0.0012899994211524853 0.007083989582092567 0.0007992214236196383 0 0 0
130 1 0.0016 1600 -0.0009127390651614594 -0.004038685557658197 0.003209366177379858 0 0 0
131 1 0.0016 1600 -0.0019633697153225993 0.002024961896115939 0.0007998126923486653 0 0 0
132 1 0.0016 1600 -0.003109475184983222 -0.0015154169167271004 0.0007998221427548378 0 0 0
133 1 0.0016 1600 -0.006855958177537715 -0.0021999568008453352 0.000799545409681495 0 0 0
134 1 0.0016 1600 -0.0009251039866277803 -0.003688464664935933 0.0007995138317891866 0 0 0
135 1 0.0016 1600 0.0017034520618047608 -0.003744245251174012 0.0019676380557380373 0 0 0
136 1 0.0016 1600 -0.004464857965100475 0.0009916097860974233 0.0007995520700134976 0 0 0
137 1 0.0016 1600 -0.006326739314438746 0.003437479360703747 0.0007996285430970555 0 0 0
138 1 0.0016 1600 -0.0020357507240631512 0.006720174059615236 0.0021664544764916347 0 0 0
139 1 0.0016 1600 0.007168814595254297 -0.0006696091404468749 0.003502188176070707 0 0 0
140 1 0.0016 1600 0.0012304273014110815 -0.0010921892287502973 0.0007988923009788079 0 0 0
141 1 0.0016 1600 0.0015155705125102549 -0.0026664337875234156 0.0007996936637334578 0 0 0
142 1 0.0016 1600 -0.004172113244050662 -0.005868778724061458 0.004352501385752385 0 0 0
143 1 0.0016 1600 -0.0033002292195814477 0.004699409994651624 0.0021935076409374263 0 0 0
144 1 0.0016 1600 0.00042100286857075776 -0.004414914369275866 0.004007860421163225 0 0 0
145 1 0.0016 1600 -0.00305400619503261 -0.003057667397332393 0.0012213692819122255 0 0 0
146 1 0.0016 1600 0.001831471792254621 -0.005222786652588284 0.004875462595215329 0 0 0
147 1 0.0016 1600 0.005646972085050245 -0.0044667867171978405 0.0007998331238730621 0 0 0
148 1 0.0016 1600 -0.00222160032972179 -0.006848805254529097 0.0021692311387289235 0 0 0
149 1 0.0016 1600 0.00289904239927149 0.006591020631978433 0.001986153853194446 0 0 0
150 1 0.0016 1600 -5.21765594779108e-05 -0.002347978026501461 0.0007998134064134146 0 0 0
151 1 0.0016 1600 0.0006426056123615062 -0.004007086413070588 0.000799495712402615 0 0 0
152 1 0.0016 1600 0.001887170081453928 0.006948326619973126 0.0007997518264097 0 0 0
153 1 0.0016 1600 -0.0011689193601929642 -0.005269265104118749 0.0007993549168552811 0 0 0
154 1 0.0016 1600 -0.002365166484785147 0.0031061885194803313 0.0019083592675998124 0 0 0
155 1 0.0016 1600 0.0011034860120344055 0.007114944109378241 0.002184635570496796 0 0 0
156 1 0.0016 1600 -0.006944817091033132 -0.001902911759488252 0.0023686254728298587 0 0 0
157 1 0.0016 1600 0.003547141967328637 0.002784057693297215 0.0035205319477916897 0 0 0
158 1 0.0016 1600 -0.0007649513271947915 0.005573236765623613 0.0007988058163259694 0 0 0
159 1 0.0016 1600 0.001166250381160295 -0.0028841213815623823 0.003399217303964525 0 0 0
160 1 0.0016 1600 0.005184940607375252 -0.0021896503407403145 0.0007995702793009644 0 0 0
161 1 0.0016 1600 -0.006011045466473225 0.0005825625886094531 0.0007994160790315247 0 0 0
162 1 0.0016 1600 0.0038451374636163547 0.006085690143647233 0.0007995091765654932 0 0 0
163 1 0.0016 1600 0.001693216104709708 -0.006620910521484841 0.00079950625050661 0 0 0
164 1 0.0016 1600 0.007155435453001283 0.0008009671654372777 0.0007996881654081864 0 0 0
165 1 0.0016 1600 -0.0033142736571372343 -0.00020092141602576078 0.0038074925834467696 0 0 0
166 1 0.0016 1600 0.0005868459689864788 -0.007176408397078827 0.0025639004215138937 0 0 0
167 1 0.0016 1600 0.0056619890359502515 -0.0029021696092250394 0.0021499112656244617 0 0 0
168 1 0.0016 1600 -0.001021361998325809 0.002695911046069257 0.007115402947002279 0 0 0
169 1 0.0016 1600 -0.0007244409109846197 -0.0018068611680887676 0.008136044634636994 0 0 0
170 1 0.0016 1600 0.004242536760124457 1.607620992449458e-05 0.0028490903347708997 0 0 0
171 1 0.0016 1600 -0.00707427075051623 0.0013402091688406218 0.006138709775387012 0 0 0
172 1 0.0016 1600 0.006705308871118605 -0.0005982994665013452 0.008352887905459211 0 0 0
173 1 0.0016 1600 -0.006611717588257556 -0.00285116246104591 0.005271483055215048 0 0 0
174 1 0.0016 1600 -0.0003316843944541169 0.00283215141454986 0.0020799913714856597 0 0 0
175 1 0.0016 1600 -0.0001780296288264599 0.004372782402321185 0.0016771777111030902 0 0 0
176 1 0.0016 1600 0.00017577067275528457 0.0013607784475633297 0.0049858166485393755 0 0 0
177 1 0.0016 1600 -0.007112718128757079 -0.0011197162490701454 0.004046055592687654 0 0 0
178 1 0.0016 1600 -0.002382485587205167 -0.003726959488582765 0.005733546970009797 0 0 0
179 1 0.0016 1600 0.00597483029112939 -0.0013332739813742118 0.0021506253949268852 0 0 0
180 1 0.0016 1600 0.00595130440431659 -0.001442905117190581 0.007223104603744707 0 0 0
181 1 0.0016 1600 -0.0039594259563713406 -0.00165499407504417 0.0036374685034192404 0 0 0
182 1 0.0016 1600 0.002307354091942278 -0.006820540618832212 0.007885986628769865 0 0 0
183 1 0.0016 1600 -0.003990583321922541 -0.005993127402230766 0.007334075412685118 0 0 0
184 1 0.0016 1600 -0.0031739745021780942 -0.004854346251613956 0.006559289576473179 0 0 0
185 1 0.0016 1600 0.002091352630053488 0.001829404254103549 0.004466935860090887 0 0 0
186 1 0.0016 1600 0.0040621399342844755 -0.0037308107157498715 0.005262122347396433 0 0 0
187 1 0.0016 1600 -0.0037912820669857507 0.0003633321840295124 0.00899915793448218 0 0 0
188 1 0.0016 1600 -0.002016869377088442 -0.005393486328031633 0.003657047656592877 0 0 0
189 1 0.0016 1600 -0.003936847841651683 0.0032318363123118262 0.0021843580951887522 0 0 0
190 1 0.0016 1600 0.005568630035349061 -0.0005056999316538993 0.0037985377610273664 0 0 0
191 1 0.0016 1600 0.00016023541607092755 0.006246240456722343 0.004866127754957647 0 0 0
192 1 0.0016 1600 0.0008117250695391657 0.003256967301538483 0.007118090316740641 0 0 0
193 1 0.0016 1600 0.0005750752519716563 -0.004542259336797254 0.005594816470825872 0 0 0
194 1 0.0016 1600 -0.0014595923879620028 -0.007050616987131304 0.006305872768009912 0 0 0
195 1 0.0016 1600 -0.005712250500965059 -0.0005027028973097453 0.005562178095495543 0 0 0
196 1 0.0016 1600 0.0015769645886432183 -0.0006673944688578739 0.006794362221152633 0 0 0
197 1 0.0016 1600 0.0068103853722195455 0.002333115868111119 0.0035548722174310737 0 0 0
198 1 0.0016 1600 0.004972743614224554 0.0031056016938007082 0.002662847753675194 0 0 0
199 1 0.0016 1600 0.0003644982547953895 0.004678174746483658 0.004625860595327508 0 0 0
200 1 0.0016 1600 -0.0037199489108103246 0.0027029061703939044 0.0036951758552581145 0 0 0
201 1 0.0016 1600 0.0019979516267687823 -0.002559007123803525 0.005146219959429352 0 0 0
202 1 0.0016 1600 0.0037137194684061757 0.00022487605450037963 0.00850399309565455 0 0 0
203 1 0.0016 1600 0.00031150296641629835 0.00564200715280798 0.007760393844263731 0 0 0
204 1 0.0016 1600 0.0006773361758535712 0.005471399481626938 0.002739936809612488 0 0 0
205 1 0.0016 1600 -0.007174580690780343 -0.0006049279266456163 0.008340315722954567 0 0 0
206 1 0.0016 1600 -0.005288271552320441 -0.00217323535115953 0.008113031720912928 0 0 0
207 1 0.0016 1600 -0.0035577887372689088 0.00207674537147995 0.007196852721435098 0 0 0
208 1 0.0016 1600 -0.0007817475114500565 0.0023270036519898066 0.008685313021993468 0 0 0
209 1 0.0016 1600 0.0007911133553967544 0.00715703813703712 0.007579520795512124 0 0 0
210 1 0.0016 1600 -0.0024017367399497627 -0.006105944404748598 0.007187885180524862 0 0 0
211 1 0.0016 1600 -0.0009649553818577611 -0.00048641898872884117 0.00900591965744163 0 0 0
212 1 0.0016 1600 0.003862521636319051 0.0030203160546096374 0.006730284801640323 0 0 0
213 1 0.0016 1600 -0.0007724739225574641 0.006772282001464344 0.007433157360645264 0 0 0
214 1 0.0016 1600 0.005546843047396111 -0.003044489124729447 0.005701684683611985 0 0 0
215 1 0.0016 1600 0.00039960047154594754 -0.0029528681358573262 0.005626029276239961 0 0 0
216 1 0.0016 1600 0.0049593808527462835 0.002946546921932323 0.004254342989633792 0 0 0
217 1 0.0016 1600 -0.0035825552410058744 -0.004344860973392951 0.0035069089260287355 0 0 0
218 1 0.0016 1600 0.0038404247243663476 -0.0008954154758078501 0.007320181836834401 0 0 0
219 1 0.0016 1600 -0.004396521182868867 0.0011728520039152154 0.00617859727738892 0 0 0
220 1 0.0016 1600 0.0020543349040206917 -0.005715413871584016 0.006381223834344987 0 0 0
221 1 0.0016 1600 0.006634053415317982 -0.0027992468240248575 0.0045379601138261175 0 0 0
222 1 0.0016 1600 -0.006775312727994549 0.0024363998804553463 0.0023177083274783126 0 0 0
223 1 0.0016 1600 0.0047044966114129635 0.0004796677198772326 0.004734060212879839 0 0 0
224 1 0.0016 1600 0.0041450962878012785 -0.0006250020325296882 0.005747314052093813 0 0 0
225 1 0.0016 1600 0.006185480592622463 0.0008883227618924716 0.008634116523101334 0 0 0
226 1 0.0016 1600 -0.0010179515922763747 0.0038867690326999547 0.004289593914281485 0 0 0
227 1 0.0016 1600 0.0023072654633914773 -0.003993877426059109 0.005782279719567108 0 0 0
228 1 0.0016 1600 -0.00019771942052104782 0.00259651093505499 0.003818180747805578 0 0 0
229 1 0.0016 1600 0.0007870672285765642 0.0057113413683339154 0.001161925712621494 0 0 0
230 1 0.0016 1600 0.005696387118913693 0.001714063243955878 0.0049607997941951195 0 0 0
231 1 0.0016 1600 0.0013540805690889987 0.0031946144469492477 0.004076316824056882 0 0 0
232 1 0.0016 1600 -0.0034143891151450405 -0.0025433459599856195 0.006039138672589158 0 0 0
233 1 0.0016 1600 -0.003448828948850014 0.003147692597914755 0.005303252923116433 0 0 0
234 1 0.0016 1600 0.006845378338150539 0.002233419407776357 0.0062292187069413075 0 0 0
235 1 0.0016 1600 -0.0035184896040311646 0.003673560844271201 0.008281503471255747 0 0 0
236 1 0.0016 1600 0.00375080457297577 0.002210693065961381 0.00499972149351102 0 0 0
237 1 0.0016 1600 -0.001114343554384284 0.0033850998668685326 0.0007994794728985223 0 0 0
238 1 0.0016 1600 0.003010776984586766 -0.006540443672388986 0.005358868944415687 0 0 0
239 1 0.0016 1600 0.002422236022011805 0.0038078691579381822 0.0030255571040441243 0 0 0
240 1 0.0016 1600 0.00027080888194810454 -0.007195515725571899 0.004131863682047486 0 0 0
241 1 0.0016 1600 -0.001447574212284033 -0.0025116178152440115 0.005117156088113857 0 0 0
242 1 0.0016 1600 -0.003394966903984198 0.00016034266767726626 0.0022161270785250493 0 0 0
243 1 0.0016 1600 -0.006643056069003174 -0.002776933553867302 0.00367392323650914 0 0 0
244 1 0.0016 1600 -0.005277559342554543 -0.004898663608104348 0.007122066766830773 0 0 0
245 1 0.0016 1600 -0.006000623260801998 -0.003979282478112782 0.002836593784090232 0 0 0
246 1 0.0016 1600 -0.005184117285434863 0.004996715100843822 0.006855156002724702 0 0 0
247 1 0.0016 1600 -0.003070440063857541 0.0016334656734335628 0.004953959582065005 0 0 0
248 1 0.0016 1600 0.0067205134525084925 0.0007944524932385935 0.003984186741134246 0 0 0
249 1 0.0016 1600 -0.003096378996358224 -0.0027663517702612357 0.0027950310982845505 0 0 0
250 1 0.0016 1600 -0.007051158229247521 -0.0014574589651330445 0.005921881976393281 0 0 0
251 1 0.0016 1600 -0.0013316450789052651 0.004013558435219597 0.002725855567000522 0 0 0
252 1 0.0016 1600 -0.005580016705451824 -0.00011320782455476603 0.003982103487510329 0 0 0
253 1 0.0016 1600 -0.0061145748578533 0.0010961193442206815 0.004882149074338441 0 0 0
254 1 0.0016 1600 -0.003605539953996482 0.004941508826109901 0.0071082299942392835 0 0 0
255 1 0.0016 1600 -0.0019714556538775224 0.003773288762066907 0.00556938042910144 0 0 0
256 1 0.0016 1600 0.005862865715756945 0.0009794627309436883 0.006371772155778336 0 0 0
257 1 0.0016 1600 0.002819982578389287 -0.0039447489573709565 0.007395366094306893 0 0 0
258 1 0.0016 1600 0.0011017557398880894 0.0036383016085969454 0.005591898410436562 0 0 0
259 1 0.0016 1600 -0.0001685886836653945 -0.004633168880003255 0.007459679034591101 0 0 0
260 1 0.0016 1600 0.006103118964120104 0.0038209038591762996 0.0035575908647545217 0 0 0
261 1 0.0016 1600 0.0036070548759325953 0.004897769063246202 0.006828749807810749 0 0 0
262 1 0.0016 1600 -0.0009863681409569495 0.0024436604831001127 0.005201243410808916 0 0 0
263 1 0.0016 1600 -0.0052307647388153255 0.004948689323588621 0.004558688327497343 0 0 0
264 1 0.0016 1600 0.004063830493771357 0.00414051538361175 0.005368337708550206 0 0 0
265 1 0.0016 1600 -0.0018513277535940975 -0.004817247652481289 0.002173871367326869 0 0 0
266 1 0.0016 1600 0.00021494135533271563 0.0040051575284641185 0.003182933190996318 0 0 0
267 1 0.0016 1600 -0.00320409547351585 0.00644870841336763 0.007461196181519244 0 0 0
268 1 0.0016 1600 -0.003299394870642073 -0.0049580884989632165 0.008966691936017285 0 0 0
269 1 0.0016 1600 -0.0016150756794252536 0.000978135468296504 0.00506225228127524 0 0 0
270 1 0.0016 1600 -0.002462737851816774 -0.0013480209889538488 0.00556660551510898 0 0 0
271 1 0.0016 1600 0.004312110266304994 -0.003793368205350899 0.00684064232981502 0 0 0
272 1 0.0016 1600 -0.0031901937395815384 -0.006454674535839125 0.005837797448000694 0 0 0
273 1 0.0016 1600 -0.0053804470907911 -0.004785152167973963 0.0016017517528279844 0 0 0
274 1 0.0016 1600 0.0036658489521008493 0.0012063071902407277 0.0037578738467760196 0 0 0
275 1 0.0016 1600 0.0014886310298085086 0.006223509016064683 0.003968301527141458 0 0 0
276 1 0.0016 1600 0.006607896946746896 -0.0028612036966033363 0.006884253999433301 0 0 0
277 1 0.0016 1600 -0.0028904552364033055 0.00019209786216147414 0.005623822003617379 0 0 0
278 1 0.0016 1600 -0.007199242124177555 -0.00013575309294183333 0.006811048301392895 0 0 0
279 1 0.0016 1600 -0.002039017869439732 0.00690542425037324 0.006464870178375138 0 0 0
280 1 0.0016 1600 0.002196400314242596 -0.00016641531597690415 0.00818151240958559 0 0 0
281 1 0.0016 1600 -0.003722085796112981 0.005373867756773664 0.004241554862147389 0 0 0
282 1 0.0016 1600 0.0005843456456205824 -0.0032712264193075044 0.007830058869803997 0 0 0
283 1 0.0016 1600 0.00437413643774704 0.0015610310096289383 0.0063212206729564395 0 0 0
284 1 0.0016 1600 0.006829351675858423 -0.002281340398539943 0.008358521226219742 0 0 0
285 1 0.0016 1600 -0.0015426804829032218 -0.0070335874412138025 0.008167255482315896 0 0 0
286 1 0.0016 1600 -0.0009854194979400735 -0.00713273597367541 0.00314373806418123 0 0 0
287 1 0.0016 1600 0.0014416657111586274 -0.00675358490601428 0.005128107736191478 0 0 0
288 1 0.0016 1600 -0.002323434567852325 -0.0014383879766163698 0.008406826220092856 0 0 0
289 1 0.0016 1600 0.005883329447149869 -0.0005480183625315734 0.005899166275105584 0 0 0
290 1 0.0016 1600 -0.0012888235131700992 -0.0016817497442958484 0.0022137671811897665 0 0 0
291 1 0.0016 1600 -0.005767649445027606 0.000574133404634404 0.006743521128771889 0 0 0
292 1 0.0016 1600 0.003173773335955607 -0.002778929020046618 0.006358674318101365 0 0 0
293 1 0.0016 1600 -0.004778138848984089 0.005386249846824134 0.0025087636080412343 0 0 0
294 1 0.0016 1600 -0.0002071872209353906 -0.0071622304784917865 0.0072949863909666 0 0 0
295 1 0.0016 1600 0.00027943396267337905 -0.002001647768292555 0.006906279737636262 0 0 0
296 1 0.0016 1600 -0.004065705831571467 0.004594173411970196 0.005595955805722991 0 0 0
297 1 0.0016 1600 2.0707809953887376e-05 -0.007200409918490981 0.005711839898048918 0 0 0
298 1 0.0016 1600 -0.002194172953505142 -0.003882925570493353 0.0041530406729835085 0 0 0
299 1 0.0016 1600 -0.006639049536395501 0.002786515722638455 0.00848052905787792 0 0 0
300 1 0.0016 1600 0.001607437666315139 -0.0028614105820238 0.006670666768331567 0 0 0
301 1 0.0016 1600 -0.002961255035317617 -0.0009349420379073258 0.007029172484310598 0 0 0
302 1 0.0016 1600 0.0010398462950156077 -0.0013344947367768913 0.008145078483683963 0 0 0
303 1 0.0016 1600 0.003549181970520046 0.004539187654402485 0.003894482785197359 0 0 0
304 1 0.0016 1600 0.004193228579720541 0.0024649966693904247 0.008193767525919356 0 0 0
305 1 0.0016 1600 0.0014595807613486005 0.007051250900136571 0.005336931084931591 0 0 0
306 1 0.0016 1600 0.0031812509897210938 0.0064595172259191945 0.006467153687321233 0 0 0
307 1 0.0016 1600 0.005584968177467846 0.0023781297585399575 0.007203704929260664 0 0 0
308 1 0.0016 1600 -0.004342951301130148 -0.0037648219610695774 0.0064905727527405956 0 0 0
309 1 0.0016 1600 -0.002697551352600997 0.006675826740649917 0.00500192611471338 0 0 0
310 1 0.0016 1600 -0.0008795879432184827 0.0009283373323877421 0.007903991408120765 0 0 0
311 1 0.0016 1600 0.0016118069375713688 -0.0047424941106734295 0.008531428814216542 0 0 0
312 1 0.0016 1600 0.004444253190205044 -0.0011240258559468426 0.0017349654022537169 0 0 0
313 1 0.0016 1600 -0.001319719220646018 0.007078147356046193 0.003551202070039363 0 0 0
314 1 0.0016 1600 -0.006173069294121252 -0.0037012326385886165 0.006553692250009196 0 0 0
315 1 0.0016 1600 0.0011003329844598562 0.0020788812105672285 0.006075472638221956 0 0 0
316 1 0.0016 1600 -0.005929567272908223 -0.0010348395880070433 0.007183471782622869 0 0 0
317 1 0.0016 1600 0.0027179666423978394 0.0034263812657161882 0.0048800701352011925 0 0 0
318 1 0.0016 1600 0.0027096288267225107 0.005237739437570493 0.005548876741304843 0 0 0
319 1 0.0016 1600 -0.0010118643931777713 -0.003370871813220093 0.007963072963147393 0 0 0
320 1 0.0016 1600 -0.004646849010839927 0.0017116622153809378 0.00469377439949418 0 0 0
321 1 0.0016 1600 0.001343498280597179 -0.004406300823730817 0.006990652384711286 0 0 0
322 1 0.0016 1600 0.002930901377801758 0.00013105956557067308 0.006497523848343835 0 0 0
323 1 0.0016 1600 -0.004353276304693184 0.00011104389441934606 0.004982931375177988 0 0 0
324 1 0.0016 1600 -0.0008295440854889164 0.0051959128137887625 0.005555495708289132 0 0 0
325 1 0.0016 1600 0.0036727503893428984 -0.0022111951908632185 0.0049496035128009375 0 0 0
326 1 0.0016 1600 -0.005302607853426699 0.002482350883297726 0.003455275229784853 0 0 0
327 1 0.0016 1600 0.0017335222362607021 0.0010231282523272746 0.007217086715938828 0 0 0
328 1 0.0016 1600 -0.0043881282361394065 0.0008911278818546255 0.003345263368941298 0 0 0
329 1 0.0016 1600 -0.00043815981725086304 0.0037047815441573566 0.006019118396211691 0 0 0
330 1 0.0016 1600 0.002624327236685275 0.0016061905169179834 0.005961031889435206 0 0 0
331 1 0.0016 1600 -0.004367157933618268 -0.003614169487467798 0.0023196933767716927 0 0 0
332 1 0.0016 1600 0.005629178855406202 -0.002080336885205402 0.0035216070390385063 0 0 0
333 1 0.0016 1600 0.004853400629892521 0.0010716527427466506 0.007766636657378518 0 0 0
334 1 0.0016 1600 0.00188662556519411 -0.004542941097845441 0.003380318745021422 0 0 0
335 1 0.0016 1600 -0.0019069811228677137 0.005662044433641748 0.007967197360854111 0 0 0
336 1 0.0016 1600 -0.007039236766415804 0.001515129912624017 0.009365108027873303 0 0 0
337 1 0.0016 1600 -0.007115389446078868 0.0011016249905502012 0.007821612305688204 0 0 0
338 1 0.0016 1600 -0.005934751253572141 0.001132371080347528 0.002875552495027189 0 0 0
339 1 0.0016 1600 0.0033095969088121372 -0.0013539191060302816 0.0028388760080144413 0 0 0
340 1 0.0016 1600 0.0012849064564922326 -0.007084930003002037 0.0066849345316930325 0 0 0
341 1 0.0016 1600 0.006501317937563001 0.0030957798849856884 0.004926475796644531 0 0 0
342 1 0.0016 1600 0.005641083720605708 0.004474195804082883 0.004943022546991435 0 0 0
343 1 0.0016 1600 -0.0029733174171759367 0.0035080957837511253 0.006787290485965659 0 0 0
344 1 0.0016 1600 0.004416137325934668 -0.005687336572832007 0.008294186351859911 0 0 0
345 1 0.0016 1600 -0.0048575474858926744 -0.005314761316002488 0.0030176422608715354 0 0 0
346 1 0.0016 1600 7.907609671585638e-05 0.007199853458023388 0.0061479681842383635 0 0 0
347 1 0.0016 1600 0.0003113197045490477 0.0003162279375984203 0.007023679350676568 0 0 0
348 1 0.0016 1600 -0.002096313149105402 0.0007924945155250009 0.006875118911070148 0 0 0
349 1 0.0016 1600 0.0029037360677873704 0.00042025747646889716 0.0049245631071262235 0 0 0
350 1 0.0016 1600 -0.0054500640200145925 0.004705749342785202 0.0012264112378634862 0 0 0
351 1 0.0016 1600 0.0020338473181692514 -0.002202954335181337 0.002240292830035953 0 0 0
352 1 0.0016 1600 -0.002232213928366768 0.0022270016924825827 0.0061806267848300185 0 0 0
353 1 0.0016 1600 -0.005628018926869496 -0.0027049941190746244 0.0019441993493388367 0 0 0
354 1 0.0016 1600 -0.00012335177619541147 -0.004730343622246785 0.002003005230492683 0 0 0
355 1 0.0016 1600 0.0058234705316334194 -0.004235645579842283 0.007116532464756648 0 0 0
356 1 0.0016 1600 0.006055904070038811 0.0038945768230034122 0.006907276342562071 0 0 0
357 1 0.0016 1600 0.005507257787813016 -0.001721617898007156 0.009063554721044914 0 0 0
358 1 0.0016 1600 -0.004792878908789317 -0.005373238191935643 0.008571294432913037 0 0 0
359 1 0.0016 1600 -0.0022897759427992687 -0.002921557998655027 0.007112043199976106 0 0 0
360 1 0.0016 1600 -0.004889225911631324 0.002962389002142489 0.007865022345064882 0 0 0
361 1 0.0016 1600 0.0012068486794993716 0.0029050296159181446 0.0025104721556748377 0 0 0
362 1 0.0016 1600 0.007193340041634802 -0.00031860897112780784 0.001941498731448577 0 0 0
363 1 0.0016 1600 -0.004917221249012676 0.0033879604225817922 0.004716018466590644 0 0 0
364 1 0.0016 1600 0.001281275015983293 0.0007181308517304431 0.002166409490421556 0 0 0
365 1 0.0016 1600 0.0034480516147056307 -0.006320892457512504 0.006882026030084772 0 0 0
366 1 0.0016 1600 0.0023806392947326098 0.005403623137084354 0.002923889984424498 0 0 0
367 1 0.0016 1600 0.002275673560364517 0.0017729376124976724 0.002878670085552651 0 0 0
368 1 0.0016 1600 0.005225283714015054 -0.0034742659297013387 0.004194559784051292 0 0 0
369 1 0.0016 1600 -0.004898547729073498 0.001968579756025342 0.001989328182207781 0 0 0
370 1 0.0016 1600 -0.0012700581420361258 -0.0018246612822000177 0.006550457687463675 0 0 0
371 1 0.0016 1600 0.005120947496098553 0.005061250094024654 0.006337523650800042 0 0 0
372 1 0.0016 1600 -0.0012324000640665683 -0.007094242926960858 0.004723340213218109 0 0 0
373 1 0.0016 1600 0.0038281144852529056 0.004180978046476932 0.002360321507836129 0 0 0
374 1 0.0016 1600 -0.0008659754943041894 -0.0042844721826908955 0.004949402682639995 0 0 0
375 1 0.0016 1600 -0.0015734965270573142 -0.005662975507701973 0.0053505622432401725 0 0 0
376 1 0.0016 1600 0.004657988332147775 0.004037325870581337 0.007673899463385036 0 0 0
377 1 0.0016 1600 0.0032052739209266793 -0.003286880414690808 0.0023438004282459314 0 0 0
378 1 0.0016 1600 -0.002243270094583429 0.005154161247800641 0.004809112319312889 0 0 0
379 1 0.0016 1600 0.0032042364993559408 -0.0046570529595155825 0.004280083501904886 0 0 0
380 1 0.0016 1600 -6.189900847030707e-05 -0.005804212744521969 0.004846850673581936 0 0 0
381 1 0.0016 1600 0.002922961129563441 0.0037053653441246294 0.007829265153865263 0 0 0
382 1 0.0016 1600 0.0010719707244882498 -0.005900757942842035 0.0036416153253339273 0 0 0
383 1 0.0016 1600 -0.003811516338397185 0.002093782991039274 0.008776424635271955 0 0 0
384 1 0.0016 1600 -0.00426673204431827 -0.0014720557594102446 0.005196627552469209 0 0 0
385 1 0.0016 1600 -0.005713323302758983 -0.0017247436830680452 0.004530211651613229 0 0 0
386 1 0.0016 1600 0.0005305415469317825 0.0016689645935200651 0.008050182231864574 0 0 0
387 1 0.0016 1600 0.004575260329093307 -0.002008351645800281 0.006437252769935926 0 0 0
388 1 0.0016 1600 -0.005014988899633888 -0.002944990589672343 0.005292681046743223 0 0 0
389 1 0.0016 1600 -0.0023008383672468817 0.0004009378134484845 0.008419836026489555 0 0 0
390 1 0.0016 1600 0.0012942450195558514 0.000522037330358853 0.0057631663791643025 0 0 0
391 1 0.0016 1600 -0.002353299769271959 0.0010670836770268705 0.003641359360960794 0 0 0
392 1 0.0016 1600 -0.005936401710687109 0.002518844381672619 0.005590950518422962 0 0 0
393 1 0.0016 1600 -0.0004185692329336382 -0.0002569150001290138 0.004528878713913339 0 0 0
394 1 0.0016 1600 -0.001655977194089657 -0.0025109738197022216 0.0035314464145112866 0 0 0
395 1 0.0016 1600 -0.0029821223311315877 -0.0050033042933750075 0.004978566802268964 0 0 0
396 1 0.0016 1600 0.0034687535749367182 -0.00509140642466758 0.005858599684455141 0 0 0
397 1 0.0016 1600 -0.006796013410254099 -0.0023791584808012015 0.007204043112418367 0 0 0
398 1 0.0016 1600 -0.006067991386937591 0.0005137333069311803 0.012336245514371937 0 0 0
399 1 0.0016 1600 -0.001583813610720883 -0.004807202017713247 0.006728380528202064 0 0 0
400 1 0.0016 1600 0.0010681107614552683 0.0014840638855068919 0.0095452924717611 0 0 0
401 1 0.0016 1600 -0.0014019810034976816 0.0058449372230799344 0.011531719267581885 0 0 0
402 1 0.0016 1600 0.004723716110912468 -0.00543434126647349 0.013133892935916916 0 0 0
403 1 0.0016 1600 0.0024928771531740153 0.0012532608809551595 0.008856632874111068 0 0 0
404 1 0.0016 1600 -0.002379445545835634 0.0040933803330573115 0.01033280311804447 0 0 0
405 1 0.0016 1600 0.004364691502505778 0.003716159452890622 0.011563689101938326 0 0 0
406 1 0.0016 1600 -0.004842789307761217 -0.005048264883697343 0.011719403808219994 0 0 0
407 1 0.0016 1600 0.0008611406274358874 -0.007148428983970327 0.008485703717127611 0 0 0
408 1 0.0016 1600 -0.002847285249746689 0.00661353874772618 0.011622576906085296 0 0 0
409 1 0.0016 1600 0.002047640267155909 -0.0029732169479248925 0.008404252561581145 0 0 0
410 1 0.0016 1600 0.0017447496706488317 0.005396816550885828 0.01100695754183986 0 0 0
411 1 0.0016 1600 -0.005739046180080274 0.00011759810040729533 0.008275975390559659 0 0 0
412 1 0.0016 1600 -0.0014662363311657466 0.004490809753801117 0.008963042984627374 0 0 0
413 1 0.0016 1600 -0.004934080621405617 -0.0037323197379884225 0.008161163234956654 0 0 0
414 1 0.0016 1600 0.005122936290095363 -0.00045317047585197135 0.008167839398907306 0 0 0
415 1 0.0016 1600 0.007152797472677712 0.0008245891844580053 0.012285550354637766 0 0 0
416 1 0.0016 1600 0.003012559051057495 -0.00031807435260787785 0.00983520920288398 0 0 0
417 1 0.0016 1600 -0.004853968982085663 0.0013643876097462313 0.007806280566684366 0 0 0
418 1 0.0016 1600 0.004132364921579576 -0.0004325196891218731 0.011869511394721786 0 0 0
419 1 0.0016 1600 -0.006423948788871177 -0.0032525430500478514 0.008491334220626381 0 0 0
420 1 0.0016 1600 0.005455151431110967 0.001480982345736457 0.013632687675456409 0 0 0
421 1 0.0016 1600 -0.00046897989087219124 0.003506248529159253 0.009733905410984713 0 0 0
422 1 0.0016 1600 0.001944475470022807 0.003964254948297053 0.009544650357268002 0 0 0
423 1 0.0016 1600 -0.0012579895309557262 -0.00034522191312295235 0.00588700880614297 0 0 0
424 1 0.0016 1600 0.003254567644409987 -0.006422898523183497 0.009111623732177106 0 0 0
425 1 0.0016 1600 -0.003725724642442767 -0.0013376045822447926 0.00935133653212739 0 0 0
426 1 0.0016 1600 -2.8188718804159706e-05 -5.689486915031768e-05 0.010605314190908896 0 0 0
427 1 0.0016 1600 0.005226517447401429 -0.0027910504507341343 0.0076883989392612625 0 0 0
428 1 0.0016 1600 0.0008334135638474756 0.0029616828232064637 0.008980202514390677 0 0 0
429 1 0.0016 1600 -0.004443567180840059 -0.0038677912880047674 0.010369842696735939 0 0 0
430 1 0.0016 1600 0.0029364000711113386 0.002778361692225796 0.009132803356980228 0 0 0
431 1 0.0016 1600 -0.0026108857029829187 0.002419629790733649 0.010844211934121275 0 0 0
432 1 0.0016 1600 -0.002834525029343126 -0.002174786138049671 0.012312704891786768 0 0 0
433 1 0.0016 1600 0.0043871652783406545 0.0002936786810263563 0.010467133999531824 0 0 0
434 1 0.0016 1600 0.001528557799495726 0.0055100221200027315 0.009425753331899307 0 0 0
435 1 0.0016 1600 -0.00221752704662259 0.005316734553826155 0.006400540870416126 0 0 0
436 1 0.0016 1600 0.004405436623534147 0.002828290554683702 0.00976352681824155 0 0 0
437 1 0.0016 1600 -0.002255046047971109 0.003104672690242768 0.009080590293439595 0 0 0
438 1 0.0016 1600 0.0065695417498258125 -0.001795338139301654 0.01115661917303066 0 0 0
439 1 0.0016 1600 -0.001158632833474507 0.0021507502990652638 0.010229933200241676 0 0 0
440 1 0.0016 1600 -0.0038013451862823153 0.006115063195247363 0.006015183017882916 0 0 0
441 1 0.0016 1600 -0.0018882660817705645 -0.00641935548792571 0.009603592927956695 0 0 0
442 1 0.0016 1600 0.002988408300145027 0.0004838456657761093 0.011218898421985118 0 0 0
443 1 0.0016 1600 0.0013524180584156681 -0.00270026233207542 0.010818844294262634 0 0 0
444 1 0.0016 1600 0.0005473489445133745 -0.005835437768390733 0.012696089221817097 0 0 0
445 1 0.0016 1600 0.007128721873170906 0.001014967489448254 0.007348660691458341 0 0 0
446 1 0.0016 1600 -0.0008116919277355235 -0.0025659549076630884 0.009541290963363883 0 0 0
447 1 0.0016 1600 -0.006170601333974913 0.002086318248400719 0.010580698773624856 0 0 0
448 1 0.0016 1600 -0.002163574040496229 0.001955968517302484 0.007970796206013082 0 0 0
449 1 0.0016 1600 0.0028733464956640516 -0.0035563196423040425 0.011346238618103863 0 0 0
450 1 0.0016 1600 -0.00017418980012869935 0.007198465298120504 0.008854428648451929 0 0 0
451 1 0.0016 1600 -0.0023681727932488962 -0.0021160646762356495 0.010033176881583008 0 0 0
452 1 0.0016 1600 0.005141041103568657 -0.0050413922941881665 0.009565480012228225 0 0 0
453 1 0.0016 1600 0.006379589559867113 -0.003338967304013182 0.01153041034525158 0 0 0
454 1 0.0016 1600 0.0005107825119969505 0.0025746407460473684 0.010587891705747742 0 0 0
455 1 0.0016 1600 0.00031230597506510936 -0.0015229622020798994 0.011146860412713535 0 0 0
456 1 0.0016 1600 -0.001406219038791616 -0.0005226566318743289 0.0074691845933486534 0 0 0
457 1 0.0016 1600 -0.0003196995258042658 0.007192726339437076 0.011735984243500528 0 0 0
458 1 0.0016 1600 0.0016961208134715008 -0.0011922437836413523 0.010412035261526224 0 0 0
459 1 0.0016 1600 -0.0009528011576433656 -0.003382842996245205 0.006364386933768654 0 0 0
460 1 0.0016 1600 0.006816997621877893 0.002317909166640586 0.008222507150329739 0 0 0
461 1 0.0016 1600 5.195140256967122e-06 -0.004427221499530725 0.012166790172266576 0 0 0
462 1 0.0016 1600 5.20314066736085e-05 0.004946727206213564 0.009177125772497172 0 0 0
463 1 0.0016 1600 -0.007200450347532811 -3.0504116691863842e-05 0.005214915888376866 0 0 0
464 1 0.0016 1600 -0.0011713635203562235 -0.00030187031359836064 0.011697389306415527 0 0 0
465 1 0.0016 1600 0.0024005791563269955 0.0067882096628162705 0.00782425258599852 0 0 0
466 1 0.0016 1600 -0.0025309352413719127 -0.006741061081003259 0.011402574662893501 0 0 0
467 1 0.0016 1600 0.0034386572002116627 0.001547431075431894 0.010112453664340462 0 0 0
468 1 0.0016 1600 -0.0004814428335542549 -0.007184097520438353 0.00935461232402697 0 0 0
469 1 0.0016 1600 -0.004530244324124697 0.002117348111247728 0.013303181867297498 0 0 0
470 1 0.0016 1600 0.005218937058085716 -0.003754084264542881 0.010511420741008833 0 0 0
471 1 0.0016 1600 0.002656262800469461 -0.0004354415478400475 0.012484625736709012 0 0 0
472 1 0.0016 1600 -0.003494303696250907 0.004340827504578795 0.012874007877091649 0 0 0
473 1 0.0016 1600 0.0014787814013273919 -0.0058200110747072 0.01139628826880669 0 0 0
474 1 0.0016 1600 0.005317568829689969 -0.002260422683787716 0.012048181922906024 0 0 0
475 1 0.0016 1600 0.00565886054858786 -0.00024538497074742534 0.00966065805728487 0 0 0
476 1 0.0016 1600 0.0011899983167169832 0.004377597860147308 0.008195530578914907 0 0 0
477 1 0.0016 1600 0.0027121569120168868 -0.0013256039239249015 0.005873061947548692 0 0 0
478 1 0.0016 1600 0.004461756407960505 -0.002883560481859496 0.009403406784501458 0 0 0
479 1 0.0016 1600 -0.0008770268193802463 0.004797028397133969 0.007102649621501731 0 0 0
480 1 0.0016 1600 0.006194557407281012 0.002099509272770548 0.009679651278730394 0 0 0
481 1 0.0016 1600 0.006580273741088225 -0.002922361481950304 0.009914367710053397 0 0 0
482 1 0.0016 1600 0.002519617621194868 -0.0017907325522664819 0.007432613438068838 0 0 0
483 1 0.0016 1600 -0.006528723711507907 2.9185106410426964e-05 0.009663962980956042 0 0 0
484 1 0.0016 1600 0.00033305148018886253 -0.0012271784306847279 0.009575515658738756 0 0 0
485 1 0.0016 1600 -0.00352288561402632 -0.002705377848731134 0.010970086678332774 0 0 0
486 1 0.0016 1600 0.00447500766378732 0.005640496245790759 0.004993275422795113 0 0 0
487 1 0.0016 1600 -0.002876984184536167 0.0003389067324292291 0.012049691938077258 0 0 0
488 1 0.0016 1600 0.007198311993781431 0.00018818379619172163 0.00965540874301065 0 0 0
489 1 0.0016 1600 -0.005903462966610816 -0.0019997515700741356 0.012459523277715146 0 0 0
490 1 0.0016 1600 0.003960343434223003 -0.001381267792422312 0.008839197053590089 0 0 0
491 1 0.0016 1600 0.005543703184418065 0.0031691138187079104 0.008683831071741914 0 0 0
492 1 0.0016 1600 0.0036632542608618463 -0.002739618831514224 0.008024767702510274 0 0 0
493 1 0.0016 1600 -0.006663760103116374 -0.0027268474314394355 0.010666046583281786 0 0 0
494 1 0.0016 1600 0.0030362515409744295 0.0038116909146780915 0.012774506201930921 0 0 0
495 1 0.0016 1600 0.00013152303508169456 0.00363672309033976 0.011841050569145768 0 0 0
496 1 0.0016 1600 -0.001340452927837162 0.007074238304253891 0.010509578604194996 0 0 0
497 1 0.0016 1600 0.0022795274134213748 0.003067882813184203 0.006510768243920137 0 0 0
498 1 0.0016 1600 0.0020895972356859732 0.002349659602920119 0.01042031998827547 0 0 0
499 1 0.0016 1600 -0.00393036721485774 -0.0029027858616104494 0.009090373333238921 0 0 0
500 1 0.0016 1600 0.00462294753940791 -0.004101859665210991 0.008379091313548375 0 0 0
501 1 0.0016 1600 -8.667367112828374e-07 -0.0036103361587137926 0.010442236978796916 0 0 0
502 1 0.0016 1600 0.007162895607136584 -0.0007300862778103164 0.012718036088703626 0 0 0
503 1 0.0016 1600 -0.007100997434199344 -0.0011949090460647948 0.010519437325329738 0 0 0
504 1 0.0016 1600 -0.000344630570826059 0.0001833926648162254 0.012978235090009182 0 0 0
505 1 0.0016 1600 -0.002925573977739215 -0.0010977478477010869 0.011133692446320117 0 0 0
506 1 0.0016 1600 0.002032864348220558 0.00461005280842463 0.006855624536380918 0 0 0
507 1 0.0016 1600 0.004754858262221366 -0.005406758830174628 0.006756399082547503 0 0 0
508 1 0.0016 1600 -0.0010836838812412093 -0.007118544133961029 0.010835135302329392 0 0 0
509 1 0.0016 1600 -0.0035344878267759188 0.003560983312579263 0.011478075797833257 0 0 0
510 1 0.0016 1600 0.0008829684150161303 -0.005198347048262313 0.010048512570635751 0 0 0
511 1 0.0016 1600 0.00408879704300424 -0.005926606072809375 0.010382869681058286 0 0 0
512 1 0.0016 1600 -0.002889543285585016 -0.0038049010541824006 0.009996466989158154 0 0 0
513 1 0.0016 1600 0.0029766713879341316 0.002603526818696418 0.011727325016120695 0 0 0
514 1 0.0016 1600 -0.0031069487460209776 -0.006495569204062224 0.008569769930117047 0 0 0
515 1 0.0016 1600 0.003144017667914312 -0.0019590363706701412 0.012512665865775398 0 0 0
516 1 0.0016 1600 -0.0034314839182488384 -0.004951979222836708 0.010972011568677111 0 0 0
517 1 0.0016 1600 -0.0032109204450997517 0.000588066864289687 0.010505199561088863 0 0 0
518 1 0.0016 1600 0.005071595618429903 -0.005111070070976313 0.011345696649120938 0 0 0
519 1 0.0016 1600 0.0001230036389245137 -0.004270846853276896 0.008990286328811369 0 0 0
520 1 0.0016 1600 -0.002388950175433715 -0.0005450851782373565 0.009731761082423988 0 0 0
521 1 0.0016 1600 -0.006179078282412596 -0.001473726405726379 0.009242328091370986 0 0 0
522 1 0.0016 1600 0.0024739239496384224 -0.005358125769814855 0.01001416200836947 0 0 0
523 1 0.0016 1600 -0.0012474530457976113 -0.0034634373803819323 0.012410572851601631 0 0 0
524 1 0.0016 1600 -0.004457526322194114 -0.0008083361451450502 0.008030722192648778 0 0 0
525 1 0.0016 1600 -0.004536561155052049 -0.0055915981778764745 0.005885267316420587 0 0 0
526 1 0.0016 1600 0.0006791827399868313 0.00016428639895238795 0.008573324977976502 0 0 0
527 1 0.0016 1600 -0.0033816739729192946 -0.0038667160828350037 0.007800073128338611 0 0 0
528 1 0.0016 1600 0.0017171471965155036 -0.0031406931590056853 0.012370102963742522 0 0 0
529 1 0.0016 1600 -0.0006981896082811302 0.0013425266542737657 0.006325616481993864 0 0 0
530 1 0.0016 1600 -0.0036406596665205506 -0.0022475721346365642 0.007641804292165562 0 0 0
531 1 0.0016 1600 0.0016876410388083469 -0.0015950238706815337 0.011960108290165507 0 0 0
532 1 0.0016 1600 -0.004980871089389355 0.00310982091808974 0.010966073743186219 0 0 0
533 1 0.0016 1600 0.0070767763352186696 0.0013295297172639376 0.010769268796123539 0 0 0
534 1 0.0016 1600 -0.005146827553055646 0.0011316935644714746 0.009361630081315176 0 0 0
535 1 0.0016 1600 -0.00469536177090054 0.0032376870351290303 0.006301442476871549 0 0 0
536 1 0.0016 1600 0.0007637870066433701 -0.002748689747082161 0.009331930190773621 0 0 0
537 1 0.0016 1600 -0.006970606636961611 0.0018046966958082315 0.012058733739663943 0 0 0
538 1 0.0016 1600 -0.004572619252618243 0.005562112866326411 0.008221119296420934 0 0 0
539 1 0.0016 1600 0.0023757654115501865 -0.0015269841510258803 0.009003581027332001 0 0 0
540 1 0.0016 1600 0.0009017275937458774 -0.005822352618751297 0.007588736480627563 0 0 0
541 1 0.0016 1600 -0.0061667045324633055 0.0037171318074984147 0.007268130128021781 0 0 0
542 1 0.0016 1600 -0.0011320732425782255 0.006010633718884652 0.009332768313457439 0 0 0
543 1 0.0016 1600 0.0015630129240389804 0.006122722873657304 0.006634836441594355 0 0 0
544 1 0.0016 1600 -0.0004648712702036393 -0.0058791565349125665 0.008417598243864328 0 0 0
545 1 0.0016 1600 -0.0016493597900671454 0.007008932121745396 0.012605957841077967 0 0 0
546 1 0.0016 1600 -0.0023811829953905394 -0.0030084251128885144 0.008706145255153553 0 0 0
547 1 0.0016 1600 -0.005723517166418122 -0.004368807168777227 0.00939829543163322 0 0 0
548 1 0.0016 1600 0.0002804135704281773 -0.0007872543206832968 0.005865654447887458 0 0 0
549 1 0.0016 1600 -0.0043299420614322055 -0.001625457608045018 0.012163581014265375 0 0 0
550 1 0.0016 1600 -0.0037378960259258553 0.002035061640651963 0.011912453339570842 0 0 0
551 1 0.0016 1600 0.0032767135148511583 0.0013617009077397928 0.007466965876950931 0 0 0
552 1 0.0016 1600 0.0010075966202079119 0.007129211976525759 0.012626941517148958 0 0 0
553 1 0.0016 1600 -0.004390849528009002 -0.0004929432016998055 0.006463678521173407 0 0 0
554 1 0.0016 1600 -0.000699116364993582 -0.005398197112659781 0.00992448483660933 0 0 0
555 1 0.0016 1600 -0.0059116315598571985 0.0041112200808344325 0.00573911585354947 0 0 0
556 1 0.0016 1600 -0.005422541750714622 -0.002819825042587234 0.009660963844499909 0 0 0
557 1 0.0016 1600 -0.0016387595075127831 0.004393233791141212 0.01239401616329344 0 0 0
558 1 0.0016 1600 0.0038317834360444667 0.004149809330442257 0.00906835987944389 0 0 0
559 1 0.0016 1600 -0.0025869189219882398 0.00672010753618737 0.008954797937155626 0 0 0
560 1 0.0016 1600 -0.001857918810858198 -0.005073165269827019 0.008281976516392148 0 0 0
561 1 0.0016 1600 -0.0013118492442064323 0.0029987527012018894 0.01157750326889925 0 0 0
562 1 0.0016 1600 0.006162847783024448 -0.0037228418224442257 0.008593499319148296 0 0 0
563 1 0.0016 1600 0.0013160728577856265 -0.004233899022141201 0.011270979457948636 0 0 0
564 1 0.0016 1600 -0.0002894099746438468 0.0037566420976155846 0.008164698192012432 0 0 0
565 1 0.0016 1600 -0.0035699592143997746 0.0004920485877920646 0.007420045976883733 0 0 0
566 1 0.0016 1600 0.0019286499376224577 0.0024377643134081803 0.007938331113530865 0 0 0
567 1 0.0016 1600 -0.0003880974122855561 -0.005822083465893736 0.0064127925798178834 0 0 0
568 1 0.0016 1600 -0.004982730448622041 -0.0029610090779505086 0.01157233080130038 0 0 0
569 1 0.0016 1600 -0.004995289253509637 -0.0004248147724900812 0.00969756073094851 0 0 0
570 1 0.0016 1600 -0.006092427433777381 0.00212030142927316 0.007132335515692952 0 0 0
571 1 0.0016 1600 0.0001796707185852227 -0.002842483747014248 0.012040630862884474 0 0 0
572 1 0.0016 1600 0.002555217964409284 0.0012869792236926835 0.012532439233221322 0 0 0
573 1 0.0016 1600 -0.004825108002497005 -0.002027428688568139 0.006589015241605719 0 0 0
574 1 0.0016 1600 -0.004376381332693882 0.0045494809086591825 0.010516139484357064 0 0 0
575 1 0.0016 1600 0.001678073749431142 0.003497051690926986 0.011455648939028115 0 0 0
576 1 0.0016 1600 -0.0055458045394846806 0.004592146871628299 0.01160687580659748 0 0 0
577 1 0.0016 1600 0.004935738526160897 0.005242915917124646 0.008687439123365356 0 0 0
578 1 0.0016 1600 0.007183267247817853 -0.0004973447837087866 0.006829734827262133 0 0 0
579 1 0.0016 1600 0.0005361315781450904 0.00493084528687513 0.006345441275090584 0 0 0
580 1 0.0016 1600 -0.0004662483446225634 -0.005781922982738702 0.011459578056880556 0 0 0
581 1 0.0016 1600 0.0038472158641681582 0.006086053644396703 0.007872915378909431 0 0 0
582 1 0.0016 1600 -0.0071734958910022375 0.0006196143553362643 0.011003588115086166 0 0 0
583 1 0.0016 1600 -0.0024576530823506295 0.0015736269930423992 0.009495754666684326 0 0 0
584 1 0.0016 1600 0.002451758964629871 0.0067701747790604155 0.012039537336856717 0 0 0
585 1 0.0016 1600 0.003509824259447855 0.006287071657418512 0.010941259664536056 0 0 0
586 1 0.0016 1600 -0.0059059604485374685 -0.004118939087744369 0.010967541335102473 0 0 0
587 1 0.0016 1600 0.007197219420748307 0.00021323537042996336 0.005396350404463893 0 0 0
588 1 0.0016 1600 0.0031995328780158225 -0.004743950189644954 0.008727748568221932 0 0 0
589 1 0.0016 1600 -0.004833277374111521 0.004202865500131464 0.00902282918925215 0 0 0
590 1 0.0016 1600 0.0005303813156383804 0.007181104885255305 0.010381061242569881 0 0 0
591 1 0.0016 1600 0.002561635268891494 0.005208290567637421 0.008242038206042985 0 0 0
592 1 0.0016 1600 0.005507628046080914 -0.004638006335972019 0.0055730123431475525 0 0 0
593 1 0.0016 1600 -0.00299588629726208 0.004932727172154925 0.00911826459610076 0 0 0
594 1 0.0016 1600 -0.0004390087051944576 0.000959804393897044 0.009441163838656157 0 0 0
595 1 0.0016 1600 0.0037139711391505643 -0.00411194471762778 0.010104099415141876 0 0 0
596 1 0.0016 1600 -0.0014008236282662628 -0.004049285117968214 0.009423035085940487 0 0 0
597 1 0.0016 1600 0.004161734013157348 -0.002666318053413972 0.011019284244938352 0 0 0
598 1 0.0016 1600 -0.004114375593436558 0.005908895477337566 0.009714308677425296 0 0 0
599 1 0.0016 1600 -0.0021399864664721924 -0.0008298024995607063 0.012856010568582401 0 0 0
600 1 0.0016 1600 -0.00599948518817715 0.003982328812146779 0.010095243718831354 0 0 0
601 1 0.0016 1600 0.005738539158782449 0.004349301634853834 0.009745824032224636 0 0 0
602 1 0.0016 1600 0.0027887368000104633 -0.006638842928504506 0.010983634603702854 0 0 0
603 1 0.0016 1600 -0.003667932795502339 0.0032914487523972246 0.009827544497476937 0 0 0
604 1 0.0016 1600 0.005182823032549913 0.0030949152155912243 0.005831291905981022 0 0 0
605 1 0.0016 1600 0.0029622089027691143 0.005106968966818381 0.010010115506471786 0 0 0
606 1 0.0016 1600 0.0014103899795275628 0.007060740451048724 0.009050832284136317 0 0 0
607 1 0.0016 1600 -0.0010799063608887514 -0.0012459161800359054 0.010409066028701662 0 0 0
608 1 0.0016 1600 0.007060029386231751 -0.001413744528300656 0.009682644970418222 0 0 0
609 1 0.0016 1600 0.002998197123407545 -0.005142672554761041 0.011509653515823025 0 0 0
610 1 0.0016 1600 0.004825733163410459 0.0013433274711358665 0.00934267149391249 0 0 0
611 1 0.0016 1600 -0.00531501123674466 0.0027218355392526023 0.009387701432100784 0 0 0
612 1 0.0016 1600 -0.0016231449800313046 -0.007015225128776618 0.012693904846404157 0 0 0
613 1 0.0016 1600 0.004424422268585661 0.002156235708987031 0.011215013236099252 0 0 0
614 1 0.0016 1600 -0.0020475632008540227 -0.003668860306010305 0.014765125427474417 0 0 0
615 1 0.0016 1600 0.005426721445457006 -0.004120840941298275 0.012550386234391359 0 0 0
616 1 0.0016 1600 -0.0013308822033894522 -0.004482753997324464 0.015941001802277685 0 0 0
617 1 0.0016 1600 0.0018695962493432265 -0.006952891378959011 0.009712261455321348 0 0 0
618 1 0.0016 1600 -0.006915226344444924 0.00047016413745737314 0.014953884816551903 0 0 0
619 1 0.0016 1600 -0.007130773012439047 0.0009966060996931749 0.013430326896252535 0 0 0
620 1 0.0016 1600 0.0068675132485118634 0.002162838165637711 0.016443549268702895 0 0 0
621 1 0.0016 1600 0.0016349822485012598 -0.0013185094506258264 0.014828524804676115 0 0 0
622 1 0.0016 1600 0.00010912940105638804 0.0014194348752366085 0.01686433774047248 0 0 0
623 1 0.0016 1600 -0.0024330335266356216 0.005660563867837361 0.012962916581412439 0 0 0
624 1 0.0016 1600 -0.0035736858792539436 -0.004662143259049624 0.012803124611938829 0 0 0
625 1 0.0016 1600 0.0018211729999339965 -0.004869389703676598 0.012649465399341224 0 0 0
626 1 0.0016 1600 -0.0065283693995761855 -0.00049515363941412 0.016169040862287588 0 0 0
627 1 0.0016 1600 -0.004032568102879703 0.001927987752978735 0.015129108451451673 0 0 0
628 1 0.0016 1600 0.0007193309613298734 -0.0021586979287012537 0.013820805409578234 0 0 0
629 1 0.0016 1600 -0.005403884078156656 0.002070328383380764 0.015946600587991893 0 0 0
630 1 0.0016 1600 0.004466193546244856 0.005219169385490227 0.017000367285228603 0 0 0
631 1 0.0016 1600 0.0050178966040167194 0.0051637410512155955 0.011756478526676517 0 0 0
632 1 0.0016 1600 0.004220351392163811 -0.0018697134897379744 0.01537397918079198 0 0 0
633 1 0.0016 1600 -0.0037727305120408418 -0.006132946685182934 0.012207091638195463 0 0 0
634 1 0.0016 1600 0.004765405029500027 0.004158021747552202 0.013048249404116448 0 0 0
635 1 0.0016 1600 -0.00039432222368799695 -0.007189453962675985 0.014735055872778815 0 0 0
636 1 0.0016 1600 0.0023055656698957 -0.003695576970196358 0.013750543285666977 0 0 0
637 1 0.0016 1600 0.0001693187731171295 0.0022085962468240323 0.012587585277900213 0 0 0
638 1 0.0016 1600 0.0017029699711708587 0.002616054000660251 0.012790544123716071 0 0 0
639 1 0.0016 1600 0.001078397799806498 0.0009132801307922603 0.01302152359156858 0 0 0
640 1 0.0016 1600 -0.0048155075691936125 0.0031629832757718596 0.014480019398972678 0 0 0
641 1 0.0016 1600 0.006825445088842538 -0.002292798882526623 0.012655250814091475 0 0 0
642 1 0.0016 1600 0.005580470215576684 0.0011866422753670758 0.015263712754606338 0 0 0
643 1 0.0016 1600 0.0034743584658579836 0.006306811299883649 0.014680466947321107 0 0 0
644 1 0.0016 1600 -0.0016706879253194419 0.006479348304223803 0.014114984264420732 0 0 0
645 1 0.0016 1600 -0.0009433201472630317 0.00442517138671084 0.0109540917496752 0 0 0
646 1 0.0016 1600 -0.002113627170686169 0.0019462207041969315 0.014493502451488973 0 0 0
647 1 0.0016 1600 0.007174598450896989 0.0006061244984259928 0.013870342629417474 0 0 0
648 1 0.0016 1600 -0.006259487848851981 -0.0035586777937797343 0.012423310798125827 0 0 0
649 1 0.0016 1600 0.00545986899745575 -0.002243622448085548 0.016313592097259973 0 0 0
650 1 0.0016 1600 0.0006668176296932383 -0.003709497953779338 0.01343358669123222 0 0 0
651 1 0.0016 1600 -0.0017663725201442447 0.00148279467629091 0.011827741224188665 0 0 0
652 1 0.0016 1600 -0.002640276424541164 0.0013644048677227552 0.01588740459056206 0 0 0
653 1 0.0016 1600 0.004777333241204724 -0.003466485361769949 0.015541084665270292 0 0 0
654 1 0.0016 1600 -0.0009208334749277936 0.0005674169723016313 0.01454942353447239 0 0 0
655 1 0.0016 1600 0.005776128580461889 -0.0008208531443813567 0.015653766861807576 0 0 0
656 1 0.0016 1600 0.0036082246206353133 -0.004812355569728851 0.01590427855496858 0 0 0
657 1 0.0016 1600 0.0009767414253487629 0.0020035404168853546 0.014187607657897935 0 0 0
658 1 0.0016 1600 -0.0016484231498321994 -0.0022582120173581482 0.013382257849263638 0 0 0
659 1 0.0016 1600 0.0010852342086697109 0.005666737358125458 0.013583811997725175 0 0 0
660 1 0.0016 1600 -0.00415711671925903 0.0018713217922624282 0.010377377193183882 0 0 0
661 1 0.0016 1600 -0.001776974094581117 -0.004549949976541594 0.013458407179525643 0 0 0
662 1 0.0016 1600 0.003227850938344539 0.004841175112408119 0.011564882281851038 0 0 0
663 1 0.0016 1600 -0.004582759940328983 -0.00040643850198573923 0.016168689388015366 0 0 0
664 1 0.0016 1600 0.0013410067767412011 0.004295899065013048 0.012799415011779077 0 0 0
665 1 0.0016 1600 -0.0015646238051897094 0.005523026832821804 0.015393002497677723 0 0 0
666 1 0.0016 1600 -0.004231354828264088 0.005826356357128554 0.01146868064311373 0 0 0
667 1 0.0016 1600 -0.005000454970830493 -0.005180737040522222 0.01330809598992918 0 0 0
668 1 0.0016 1600 0.004591697624718132 0.005546027127947144 0.01382483975765706 0 0 0
669 1 0.0016 1600 0.0013551882911549463 -0.0007678133544782604 0.013352904814848948 0 0 0
670 1 0.0016 1600 -0.0023884750865215687 0.00028079358318853484 0.013980370964806402 0 0 0
671 1 0.0016 1600 0.005609278265995575 -0.0005204046774567798 0.011262632863218052 0 0 0
672 1 0.0016 1600 -0.002845736246438038 -0.0033618700091000288 0.013384815165598994 0 0 0
673 1 0.0016 1600 -0.0011350714461423588 0.0015372720575894021 0.013296014749059845 0 0 0
674 1 0.0016 1600 -0.0005435079128104223 0.003025906749096695 0.016226110011294436 0 0 0
675 1 0.0016 1600 0.0007673241982666962 0.0031856089647505238 0.015322905679199625 0 0 0
676 1 0.0016 1600 0.002047482389582013 -0.006902807729219441 0.012427698868462934 0 0 0
677 1 0.0016 1600 -0.0010176719697098425 0.003125135276719087 0.013144701653642232 0 0 0
678 1 0.0016 1600 0.002099567808929042 0.006887269428178422 0.010483642819465863 0 0 0
679 1 0.0016 1600 4.906066315588658e-05 -0.003792561924241022 0.015517425846432882 0 0 0
680 1 0.0016 1600 -0.0005470599430811391 -0.0030438130455128156 0.01423575763040755 0 0 0
681 1 0.0016 1600 0.004322257453074774 -0.0009434290712413371 0.016674439966843545 0 0 0
682 1 0.0016 1600 -0.0029101097354520605 -0.002052541861657271 0.01718761503600995 0 0 0
683 1 0.0016 1600 -0.0040764837908782055 -0.0043082383184117005 0.014280199058793448 0 0 0
684 1 0.0016 1600 0.004536050312863332 0.005283432661967436 0.010235685778663342 0 0 0
685 1 0.0016 1600 0.0012124221778089576 -0.004523217264324073 0.014697699257583968 0 0 0
686 1 0.0016 1600 0.003104015636781808 0.006496845046932279 0.009231190348712308 0 0 0
687 1 0.0016 1600 0.002721174501513391 -0.001719021848128834 0.015932533487181218 0 0 0
688 1 0.0016 1600 -0.0034150856464422404 -0.006338530952175932 0.010131629227629762 0 0 0
689 1 0.0016 1600 0.0014700377311632343 -0.0012413036843176625 0.016807619255884854 0 0 0
690 1 0.0016 1600 0.0050082399166643116 0.0026127437480736575 0.015708709500425556 0 0 0
691 1 0.0016 1600 0.006016809966920749 0.003954900302547734 0.012072256202100153 0 0 0
692 1 0.0016 1600 -0.002526562539569498 0.003063845462467595 0.012616470470258696 0 0 0
693 1 0.0016 1600 0.00717383835754283 -0.000615881326141853 0.014902785302773124 0 0 0
694 1 0.0016 1600 -0.00377033421321888 0.006133953653413808 0.013702673673720522 0 0 0
695 1 0.0016 1600 -0.0028408107948854973 0.0029128786604167684 0.015540465735509086 0 0 0
696 1 0.0016 1600 -0.0007271828262342577 -0.0060783100168603915 0.013631045775908979 0 0 0
697 1 0.0016 1600 0.004230031936974647 0.0011522330201179077 0.01612663601235447 0 0 0
698 1 0.0016 1600 -0.005378188673331524 0.0019218241916548753 0.011960716742298434 0 0 0
699 1 0.0016 1600 0.004146967673729054 0.001347611513712105 0.01454195026550683 0 0 0
700 1 0.0016 1600 -0.006422680172236178 0.0032546136396343303 0.011643846062387768 0 0 0
701 1 0.0016 1600 0.0067358107695702305 0.002545048053209155 0.011751312239708489 0 0 0
702 1 0.0016 1600 -0.0044076793642024315 -0.002205724407258475 0.013652572972097266 0 0 0
703 1 0.0016 1600 0.0002827819947100066 -0.007194612872073964 0.016184248352625528 0 0 0
704 1 0.0016 1600 -0.004726339576713167 -0.0017223432769889976 0.010593048600359091 0 0 0
705 1 0.0016 1600 -0.0014912656879702794 -0.0031699667320621862 0.010857304267837287 0 0 0
706 1 0.0016 1600 -0.0055937624572902234 -0.00278134254324904 0.017141509376750644 0 0 0
707 1 0.0016 1600 0.005718309164767506 0.00022516744646607534 0.01267754683004658 0 0 0
708 1 0.0016 1600 -0.002783458903206207 -0.005897728001560467 0.013442110584666052 0 0 0
709 1 0.0016 1600 0.007167431310740973 0.0006873211905274394 0.015830039582458873 0 0 0
710 1 0.0016 1600 0.002893431664928961 -0.0026252173512795888 0.010045220459184379 0 0 0
711 1 0.0016 1600 -0.004079968939113434 -0.005932690788362836 0.014378638366083036 0 0 0
712 1 0.0016 1600 0.0006863179473291376 0.0043094688475145025 0.010499644822851227 0 0 0
713 1 0.0016 1600 -0.0042971611882646225 -0.00028911137378141765 0.011284592995340879 0 0 0
714 1 0.0016 1600 0.0008444753859470583 -0.00023583763789530095 0.011933711415142857 0 0 0
715 1 0.0016 1600 -0.0024063549159046133 0.005853114880869183 0.01028630739540164 0 0 0
716 1 0.0016 1600 0.004387044856172926 0.001061747226495647 0.012381368190036823 0 0 0
717 1 0.0016 1600 0.0006959776352204234 -0.005685300443662802 0.01651642585929606 0 0 0
718 1 0.0016 1600 -0.0004501398022895056 0.007186195685640908 0.01678873282784056 0 0 0
719 1 0.0016 1600 -0.0028605301482278827 0.005008583287453375 0.01156590204990098 0 0 0
720 1 0.0016 1600 0.006899236107201634 0.002061948791765561 0.013267056183467083 0 0 0
721 1 0.0016 1600 -0.005091532490997866 -0.005090840424822224 0.015288482426977171 0 0 0
722 1 0.0016 1600 0.004143142859019451 0.003912243333288344 0.01605824989371585 0 0 0
723 1 0.0016 1600 -0.0011882309225204207 -0.001505022580081657 0.016357094941235016 0 0 0
724 1 0.0016 1600 -0.005799351530400076 -0.0008298662957634368 0.011373692415590091 0 0 0
725 1 0.0016 1600 -0.005506892797702267 -0.0015256722878618293 0.015496181127512476 0 0 0
726 1 0.0016 1600 0.00519683177522769 -0.004984091807682306 0.0158230776098381 0 0 0
727 1 0.0016 1600 -0.0010581412075624376 0.0015775934408034408 0.01578218363183143 0 0 0
728 1 0.0016 1600 -0.0038795677260135587 0.0041242412874797525 0.015650219931963066 0 0 0
729 1 0.0016 1600 0.0064004934158328 -0.003297824959759369 0.015264120454832662 0 0 0
730 1 0.0016 1600 -0.006600915821660481 0.0028759137432257153 0.013187773574614621 0 0 0
731 1 0.0016 1600 -0.0002920064402072978 0.0063290517604671585 0.013110318985116918 0 0 0
732 1 0.0016 1600 -0.0034592559647384463 -0.002917346224992613 0.014793503855127114 0 0 0
733 1 0.0016 1600 -0.0055132895241104835 0.0006514716271605177 0.010842416028035807 0 0 0
734 1 0.0016 1600 0.0012965825527320987 0.001622727760766263 0.011604536714278739 0 0 0
735 1 0.0016 1600 -0.0026070718427885324 -0.0004491664513838377 0.016633626546152313 0 0 0
736 1 0.0016 1600 0.0062886592510488165 0.003506200005511755 0.013583680372623365 0 0 0
737 1 0.0016 1600 -0.0033145551844170435 0.0028910986539170186 0.01399795713338652 0 0 0
738 1 0.0016 1600 -0.0016600986435287917 0.007006648673086867 0.01781923987372685 0 0 0
739 1 0.0016 1600 0.006944542050428166 -0.0019022347638870912 0.015826009131301874 0 0 0
740 1 0.0016 1600 0.004904371975161276 0.002919350278902006 0.014130602622525008 0 0 0
741 1 0.0016 1600 -0.007173012581029615 -0.0006310925075422775 0.012167540979441994 0 0 0
742 1 0.0016 1600 0.004083298914110342 -0.0032537981210120394 0.012504919390053935 0 0 0
743 1 0.0016 1600 0.0018192738073961425 0.006966708224638046 0.015130514459413031 0 0 0
744 1 0.0016 1600 -0.00439033775858153 -0.0008641832524149427 0.014523463875818128 0 0 0
745 1 0.0016 1600 -0.001705882521598039 -0.0021204904802444094 0.014974473057375069 0 0 0
746 1 0.0016 1600 0.0031062361096373474 0.00042037023801145006 0.013758453494992363 0 0 0
747 1 0.0016 1600 -0.0004983481726113589 0.004082611154878731 0.01493340685914515 0 0 0
748 1 0.0016 1600 -0.004773583571328151 -0.0036251466130168115 0.013012408093808424 0 0 0
749 1 0.0016 1600 -0.006684715338049064 -0.002676402074104856 0.013688023151456851 0 0 0
750 1 0.0016 1600 -0.004917255649273988 -0.0030115548750562424 0.015444142581234577 0 0 0
751 1 0.0016 1600 -0.0004353594560581444 -0.005728815916347755 0.015385864507133341 0 0 0
752 1 0.0016 1600 0.0033260080567752413 -0.0063865971693535875 0.01593489472396106 0 0 0
753 1 0.0016 1600 -0.005605634335142699 0.0006523190754199367 0.0167944466963798 0 0 0
754 1 0.0016 1600 0.005617223374904095 0.0031228485447889983 0.01076514832587925 0 0 0
755 1 0.0016 1600 -0.0028001196093014684 0.005089575628586351 0.014473332758125004 0 0 0
756 1 0.0016 1600 0.006934439232342093 0.0019378284654714571 0.014861012242552684 0 0 0
757 1 0.0016 1600 -0.0019069513346777279 -0.006943578776941609 0.014276995756527607 0 0 0
758 1 0.0016 1600 0.0006998479197931621 -0.007166622575916735 0.013568767352116942 0 0 0
759 1 0.0016 1600 -0.0059105746345745 -0.004111963176100517 0.01631172824594728 0 0 0
760 1 0.0016 1600 -0.003686089693015816 -0.005691346352531479 0.01654053869005422 0 0 0
761 1 0.0016 1600 -0.005783372451131394 -0.001377420649565966 0.013927886847718755 0 0 0
762 1 0.0016 1600 -0.005823175463766732 0.0042344981581214835 0.013518088087558833 0 0 0
763 1 0.0016 1600 0.0032243177007979297 -0.0024175178658048 0.014042981291551572 0 0 0
764 1 0.0016 1600 0.00041292224524943114 0.0034446900828065423 0.013784363829699775 0 0 0
765 1 0.0016 1600 0.0031632069674676186 -0.0013813160401464524 0.011021087948531263 0 0 0
766 1 0.0016 1600 0.0029297950176142462 -0.004985664106125442 0.01446186401127466 0 0 0
767 1 0.0016 1600 -0.004455335411122756 0.0007335527028267014 0.012503867011654091 0 0 0
768 1 0.0016 1600 -0.00037358821238650926 -0.004634106788166255 0.014221379558961807 0 0 0
769 1 0.0016 1600 0.0015568717216219842 -0.0029134892462238378 0.014955487392842737 0 0 0
770 1 0.0016 1600 -0.0002614648286741412 0.0013664211277530124 0.011297415081249818 0 0 0
771 1 0.0016 1600 -0.002952766852767073 0.006566903180733916 0.015067835315128468 0 0 0
772 1 0.0016 1600 -0.0016122668661259026 0.0006368048622812387 0.010479119251760195 0 0 0
773 1 0.0016 1600 0.0038992627752995005 0.006053339194554901 0.012475115809120104 0 0 0
774 1 0.0016 1600 0.0038320673484831787 0.002398264499954344 0.013063661370998507 0 0 0
775 1 0.0016 1600 0.0015098833454531167 0.0003827115016838621 0.010617245407575769 0 0 0
776 1 0.0016 1600 -0.0048040512509608425 0.0034978518235056033 0.012508121893546036 0 0 0
777 1 0.0016 1600 0.0018758389306330753 -0.0038397433070482007 0.009825225886983053 0 0 0
778 1 0.0016 1600 -0.006918923605609899 0.0019941011000637852 0.015438988445482952 0 0 0
779 1 0.0016 1600 -0.005328946784918818 0.00013940471944531564 0.013704325544041359 0 0 0
780 1 0.0016 1600 -0.0018572840321240955 -0.00472599821502647 0.010798746155414493 0 0 0
781 1 0.0016 1600 -0.0026875454434576768 -0.0037906107536264787 0.011796290160475072 0 0 0
782 1 0.0016 1600 -0.0009664419453936404 -0.0009267479994746753 0.013948741427449125 0 0 0
783 1 0.0016 1600 0.0016092761395411963 -0.005854001198712109 0.013892618101231624 0 0 0
784 1 0.0016 1600 -0.005554702668642231 0.004581955607284452 0.015218444183171823 0 0 0
785 1 0.0016 1600 0.005737425086133519 -0.0012738034813515162 0.013235406438660802 0 0 0
786 1 0.0016 1600 0.005311058324396002 0.0025778373100535388 0.01247773033271477 0 0 0
787 1 0.0016 1600 0.0014984762468444757 0.001958580524838461 0.016042903219175373 0 0 0
788 1 0.0016 1600 0.0011314229419649886 0.004281078014607663 0.01643455189077116 0 0 0
789 1 0.0016 1600 0.0071934266736612025 -0.00032234316450079656 0.011171250223956918 0 0 0
790 1 0.0016 1600 -0.004365068379501732 -0.0019602704305119907 0.01652869756879541 0 0 0
791 1 0.0016 1600 0.005599958102211532 0.0010777459472815175 0.011329354715205292 0 0 0
792 1 0.0016 1600 -0.00430850366488412 0.005768999355399786 0.015359475322903863 0 0 0
793 1 0.0016 1600 0.0024920497286360036 0.005403339618462086 0.012868871330170981 0 0 0
794 1 0.0016 1600 0.001954640837796936 -0.0056703223669565045 0.015529171875442109 0 0 0
795 1 0.0016 1600 -0.0013277971896313804 -0.0019178046163422318 0.011839758842406352 0 0 0
796 1 0.0016 1600 -7.604178625810925e-05 0.005714138905405829 0.01057464465625458 0 0 0
797 1 0.0016 1600 -0.0017554021972145907 0.004024614016126629 0.01592036953810975 0 0 0
798 1 0.0016 1600 -0.007177825559317466 -0.0005671687558679654 0.013765366696610546 0 0 0
799 1 0.0016 1600 -0.004730406280068969 -0.005428505259083177 0.010168866573692543 0 0 0
800 1 0.0016 1600 0.0016836901544459617 0.0005963350745249418 0.014467963581435756 0 0 0
801 1 0.0016 1600 0.004157849760130221 -0.0010450671683450241 0.01334731747617588 0 0 0
802 1 0.0016 1600 -0.004852744749874151 0.005318368168030094 0.01285235333808644 0 0 0
803 1 0.0016 1600 0.0033656050835299597 -0.004605340081000524 0.012970493724160889 0 0 0
804 1 0.0016 1600 0.0004937479730366511 -0.006750707359627709 0.010546287907796211 0 0 0
805 1 0.0016 1600 -0.0018401480440724172 -0.0005480899820525897 0.01523389619454405 0 0 0
806 1 0.0016 1600 0.0031723256870064926 -0.0009260754381425133 0.014618871712646555 0 0 0
807 1 0.0016 1600 -0.0013282448587604511 0.004936791422351349 0.013865796701579607 0 0 0
808 1 0.0016 1600 0.0003860011313596555 0.001055128072227919 0.015332038347756982 0 0 0
809 1 0.0016 1600 -0.005882466648305332 0.0017583841729719761 0.0140793054724771 0 0 0
810 1 0.0016 1600 0.0003254631478198323 0.00528880100159182 0.012063457611656624 0 0 0
811 1 0.0016 1600 -0.0027631744277297177 0.0015528111629617561 0.013085557283511299 0 0 0
812 1 0.0016 1600 -0.0036863865433104715 -0.0005229417389171245 0.013127858776020402 0 0 0
813 1 0.0016 1600 0.0026264190349174657 0.004978916033599519 0.01440500275020876 0 0 0
814 1 0.0016 1600 0.004637727633076875 0.005507432544000634 0.015433655220978709 0 0 0
815 1 0.0016 1600 0.005539861097352922 0.0004023568855420683 0.01665764259609145 0 0 0
816 1 0.0016 1600 2.923398469355531e-05 -0.007200074202607848 0.012009874640773958 0 0 0
817 1 0.0016 1600 -0.0019118596886848816 -0.005428152195901581 0.014788570497445799 0 0 0
818 1 0.0016 1600 -0.0018654593969642623 -0.005517299580344896 0.012188336799714265 0 0 0
819 1 0.0016 1600 0.003514860059678708 0.00628397688216033 0.016279384110404506 0 0 0
820 1 0.0016 1600 -8.704853250091284e-05 -0.0013684010858645117 0.01268776229378104 0 0 0
821 1 0.0016 1600 0.003189710357164617 0.0035959941950893027 0.010484447330830161 0 0 0
822 1 0.0016 1600 -0.004317600214519167 0.004658886186914624 0.014207786661746116 0 0 0
823 1 0.0016 1600 0.004592126049838836 -0.0013008544251312888 0.01030634042047745 0 0 0
824 1 0.0016 1600 0.005763191129689097 -0.0010699356429321378 0.01735695057258277 0 0 0
825 1 0.0016 1600 0.0035196879326027304 -0.0062811527029317075 0.012505389291957063 0 0 0
826 1 0.0016 1600 0.0022976720271269623 0.0035230784454827737 0.015643941601290637 0 0 0
827 1 0.0016 1600 0.0028956273379274673 -0.0008865441011483181 0.01744053745556897 0 0 0
828 1 0.0016 1600 -0.005323778547592213 0.0006477315276087676 0.015220274630988639 0 0 0
829 1 0.0016 1600 0.001721187784480789 0.005428476886243102 0.01887291549364676 0 0 0
830 1 0.0016 1600 0.007141403793074425 0.0009192627214901025 0.017412149617087834 0 0 0
831 1 0.0016 1600 -0.003186098313119899 -0.002343547242490675 0.0202457452425587 0 0 0
832 1 0.0016 1600 0.00443001272454766 0.002158968971739939 0.01735304194223478 0 0 0
833 1 0.0016 1600 0.005500309498976008 -0.004645856454524854 0.01428910316754697 0 0 0
834 1 0.0016 1600 0.0030376313438282795 -0.0025508800798389056 0.019116047255188257 0 0 0
835 1 0.0016 1600 0.0018850692434082767 -0.004180812044617167 0.016108080202830662 0 0 0
836 1 0.0016 1600 0.004251031069359039 -0.001574578985281272 0.019941972930854156 0 0 0
837 1 0.0016 1600 -0.006759419684843732 0.0024801469940751815 0.019775340376837692 0 0 0
838 1 0.0016 1600 -0.0003616160928486593 -0.0018693017486546674 0.020220177369416666 0 0 0
839 1 0.0016 1600 0.0053005086915941324 0.004872915372255019 0.018320806912286533 0 0 0
840 1 0.0016 1600 -0.004522099418095206 0.0005852593039428041 0.017968416390866965 0 0 0
841 1 0.0016 1600 0.001291489014964295 0.006501714033472913 0.02094848596686829 0 0 0
842 1 0.0016 1600 -0.00023606800258664165 0.005072501907664821 0.0161623004627907 0 0 0
843 1 0.0016 1600 -0.004096661632747681 0.0010863840952590944 0.016488201829593527 0 0 0
844 1 0.0016 1600 0.0051040598590678535 -0.005078376184180281 0.02087342405849153 0 0 0
845 1 0.0016 1600 -0.00269007298457356 0.0022203709034804603 0.019953496961679022 0 0 0
846 1 0.0016 1600 -0.007017592390740441 -0.0016106681039177232 0.014966918438954152 0 0 0
847 1 0.0016 1600 -0.0040661750095607515 0.004315192142627223 0.019628123157278833 0 0 0
848 1 0.0016 1600 0.0026676669046714237 -0.006687916933706518 0.01960756999908763 0 0 0
849 1 0.0016 1600 0.005681673008006218 -0.000945494151106756 0.020284233787254663 0 0 0
850 1 0.0016 1600 -0.002995097471167508 -0.006547867202051421 0.015380265395252585 0 0 0
851 1 0.0016 1600 0.0001874525684795911 -0.0017169427583868574 0.017636601724230976 0 0 0
852 1 0.0016 1600 -0.001973777713956995 0.006924180521808714 0.019385858906199108 0 0 0
853 1 0.0016 1600 0.0016671141005303897 -0.0015990695713128714 0.02027374810400423 0 0 0
854 1 0.0016 1600 -0.0036504683166487546 -0.004437808822456284 0.017533367565698312 0 0 0
855 1 0.0016 1600 -0.005782275476783032 0.004290780655336119 0.018105708147147914 0 0 0
856 1 0.0016 1600 -0.003641795617351043 -0.003374291923087643 0.016338504393438553 0 0 0
857 1 0.0016 1600 0.001965081081536876 0.00035121734530439794 0.01988835374187704 0 0 0
858 1 0.0016 1600 0.003961915687848116 -0.00196528959943904 0.017948828398143424 0 0 0
859 1 0.0016 1600 -0.005043984323445245 -0.005138688511332886 0.0171798393044427 0 0 0
860 1 0.0016 1600 -0.002974680392126726 0.0038535287607610624 0.01694146635534623 0 0 0
861 1 0.0016 1600 0.0068087914973771445 0.002342408960558825 0.018526399430056947 0 0 0
862 1 0.0016 1600 0.002365329196540775 -0.005323824741798 0.01866444832641719 0 0 0
863 1 0.0016 1600 -0.0005762214177790078 0.002418058789564512 0.014509756130851856 0 0 0
864 1 0.0016 1600 0.0007717541677574241 0.0028843479854842842 0.017126492011024667 0 0 0
865 1 0.0016 1600 -0.0022869435041502364 0.0052602670925544935 0.020009665831042796 0 0 0
866 1 0.0016 1600 -0.0039572824001086505 -0.003912697642097872 0.02038918434596286 0 0 0
867 1 0.0016 1600 -0.0022835306388237294 -0.005119317997155772 0.017057628505122685 0 0 0
868 1 0.0016 1600 0.0034580124892189 0.0012130698360628782 0.020077399543409317 0 0 0
869 1 0.0016 1600 -0.0032725920796540845 0.0019263390354070892 0.017574316809664512 0 0 0
870 1 0.0016 1600 -0.00038418245996166175 0.003968710810302595 0.020473865655765516 0 0 0
871 1 0.0016 1600 -0.0022985950852354043 -0.0036017866122353744 0.017712082236504105 0 0 0
872 1 0.0016 1600 0.0007762217312768707 7.033267346346966e-05 0.017406798452048317 0 0 0
873 1 0.0016 1600 -0.0045740973260003015 0.005560869836833663 0.01692327070261495 0 0 0
874 1 0.0016 1600 -0.0005173591157909185 0.005825685679712646 0.017966354358207516 0 0 0
875 1 0.0016 1600 0.0029916050603667537 -0.004055400386574815 0.01737225592106498 0 0 0
876 1 0.0016 1600 0.002620185989861645 0.005442546917436923 0.01754975473438853 0 0 0
877 1 0.0016 1600 -0.002912377484450333 -0.0065852174401575805 0.019108818450860432 0 0 0
878 1 0.0016 1600 -0.002042879114683747 0.0009706508355134126 0.019148377293081914 0 0 0
879 1 0.0016 1600 -0.003067808969682857 -0.0016265405416768456 0.01565351752607449 0 0 0
880 1 0.0016 1600 0.003589209489347126 0.002727638172509666 0.018589657583505767 0 0 0
881 1 0.0016 1600 0.0005363041440909621 -0.0003448319173415188 0.02041329016438098 0 0 0
882 1 0.0016 1600 0.005160732374387763 0.005020946135295482 0.020155137570469474 0 0 0
883 1 0.0016 1600 -0.0007688937293603344 -0.0004443401391953219 0.01747855491888593 0 0 0
884 1 0.0016 1600 -0.002082401289125354 -0.003033579478812604 0.016232676407950324 0 0 0
885 1 0.0016 1600 0.002092665396241556 -0.0028146387547072654 0.016913500951252377 0 0 0
886 1 0.0016 1600 0.004147935224132686 -0.00379952252610491 0.014108998509976652 0 0 0
887 1 0.0016 1600 0.0009791663115930468 0.0016959414036512418 0.01817746548751025 0 0 0
888 1 0.0016 1600 0.004095374303993821 -0.003734304252573338 0.018484490566653168 0 0 0
889 1 0.0016 1600 -0.003373111376274948 0.006361380283822053 0.01882399281883602 0 0 0
890 1 0.0016 1600 0.0023668404753479913 0.006800471012617749 0.013636956168073769 0 0 0
891 1 0.0016 1600 0.003086672097880644 -0.00016426629799013326 0.016023010235555444 0 0 0
892 1 0.0016 1600 -0.005111463266428311 0.00407571818445589 0.016669458922538332 0 0 0
893 1 0.0016 1600 -0.0006568165372139441 0.0025141520129016623 0.017743628175488226 0 0 0
894 1 0.0016 1600 0.0013027131397479615 -0.004715333467795941 0.017635031144347387 0 0 0
895 1 0.0016 1600 0.005248471052885554 -0.00289645498530511 0.017758459061790407 0 0 0
896 1 0.0016 1600 0.0008622795179847726 -0.007148262795507223 0.017674487663088084 0 0 0
897 1 0.0016 1600 0.0056306386326559245 0.004487591052756605 0.016183456967257273 0 0 0
898 1 0.0016 1600 0.0023314360973781968 0.0016510243375803858 0.01903030927823566 0 0 0
899 1 0.0016 1600 0.002379657024795271 -0.00679565788596018 0.01803787448163824 0 0 0
900 1 0.0016 1600 -0.0015138913606039446 -0.006930830790885636 0.015848113785486024 0 0 0
901 1 0.0016 1600 -0.0014930645539500095 -0.0018252895775330718 0.017894684401860986 0 0 0
902 1 0.0016 1600 -0.002569795484976952 -0.006726052621231869 0.017032385478104393 0 0 0
903 1 0.0016 1600 0.005585580912253812 0.0045438915258263985 0.01457757272960421 0 0 0
904 1 0.0016 1600 -0.0016719666162790634 -0.0035577008349309694 0.01918296778889638 0 0 0
905 1 0.0016 1600 -0.002667872232245814 -0.005082350410018219 0.018618584327961894 0 0 0
906 1 0.0016 1600 -0.002483478214303962 -0.000599672829031304 0.019101841570095913 0 0 0
907 1 0.0016 1600 -0.005651968428133099 -7.118647984524499e-05 0.019789422491223257 0 0 0
908 1 0.0016 1600 -7.701451205940077e-05 0.007196975181732674 0.02036151573057286 0 0 0
909 1 0.0016 1600 0.004370217273205242 -0.00572219926664806 0.01697702833768161 0 0 0
910 1 0.0016 1600 0.0052726473098320585 0.002787855456998305 0.018558033291785677 0 0 0
911 1 0.0016 1600 -0.006497896800303631 -0.0031025657602791524 0.015218557147431644 0 0 0
912 1 0.0016 1600 -0.006085634464082943 -0.002365958772292895 0.020439949447411107 0 0 0
913 1 0.0016 1600 -0.0029429437508879685 -0.001597462260682565 0.014051106789987854 0 0 0
914 1 0.0016 1600 -0.0020626993569416428 0.0036810111562233633 0.020128753258369256 0 0 0
915 1 0.0016 1600 0.0021271274377776877 0.003500517019107813 0.01405376884092311 0 0 0
916 1 0.0016 1600 -0.0020661792336680246 0.002431163976733495 0.01849567350594268 0 0 0
917 1 0.0016 1600 0.0007369631474804905 0.00634165710484579 0.016128311495032605 0 0 0
918 1 0.0016 1600 0.006121509993913826 -0.0037908203537290997 0.016760094977674004 0 0 0
919 1 0.0016 1600 0.0024364271659014693 0.001038471445864781 0.01695530326801561 0 0 0
920 1 0.0016 1600 -0.004993683114632139 -0.005187228285019263 0.020308460656572047 0 0 0
921 1 0.0016 1600 -0.00019350012202080854 0.0057829101764059225 0.014610737936451764 0 0 0
922 1 0.0016 1600 -0.0041418603622225625 -0.0029381997035952214 0.017794084243759677 0 0 0
923 1 0.0016 1600 -0.0007750181896881163 -0.005614391559783882 0.019369660964309074 0 0 0
924 1 0.0016 1600 -0.0008945153415887075 -0.0007713962109039638 0.019039018201138593 0 0 0
925 1 0.0016 1600 -0.006429150266166083 0.003242413251037843 0.016311305423147536 0 0 0
926 1 0.0016 1600 -0.0071891917528106 -0.00040400272694698545 0.017622632226600925 0 0 0
927 1 0.0016 1600 -0.007094105891515287 0.0012349507771689367 0.01683581455507678 0 0 0
928 1 0.0016 1600 -0.001943022443015165 0.0024837195979278788 0.01679303933524307 0 0 0
929 1 0.0016 1600 -0.0052209171271985905 0.0013518441062379911 0.019198943198537186 0 0 0
930 1 0.0016 1600 0.0009648506627336192 0.005493485505703585 0.017465003929370865 0 0 0
931 1 0.0016 1600 0.001585356992115331 0.004104267765553826 0.01795849750898623 0 0 0
932 1 0.0016 1600 0.006773203867582979 -0.0024420938440970867 0.017322318978501425 0 0 0
933 1 0.0016 1600 0.00251431517031477 0.005067805893152521 0.01599833547687032 0 0 0
934 1 0.0016 1600 0.0029028934661756234 0.0039283791879445975 0.017068452357830773 0 0 0
935 1 0.0016 1600 0.005741254635529207 0.0031353369263669825 0.01703136603281708 0 0 0
936 1 0.0016 1600 0.007079077889466919 0.0005111160027543671 0.018957226147688532 0 0 0
937 1 0.0016 1600 0.003947664282749184 0.006021600826577827 0.01986192609650276 0 0 0
938 1 0.0016 1600 -0.006390948616390917 0.0033166270882843017 0.014710950999132099 0 0 0
939 1 0.0016 1600 -0.005563579278249497 0.002857731729914557 0.01878185473549172 0 0 0
940 1 0.0016 1600 0.0010313247176010846 -0.0027870780182513827 0.019411512810681875 0 0 0
941 1 0.0016 1600 0.004389999637910803 0.003747786178824675 0.01763043756662225 0 0 0
942 1 0.0016 1600 0.0063673753927713465 0.003361486770310321 0.015318826963235341 0 0 0
943 1 0.0016 1600 0.00650146723980384 0.0030940251948762287 0.020665178133187367 0 0 0
944 1 0.0016 1600 -0.0011757393649914853 -0.0071035833866862795 0.02133924658690494 0 0 0
945 1 0.0016 1600 -0.00043864485620763265 -0.0026117562894204375 0.018805328927617132 0 0 0
946 1 0.0016 1600 0.004320588977115396 -0.005759567022228057 0.014647654622265794 0 0 0
947 1 0.0016 1600 0.0010125207486827224 -0.004404447038620888 0.02014587658979716 0 0 0
948 1 0.0016 1600 0.005695796292726655 -0.004404385629073951 0.018174949646904838 0 0 0
949 1 0.0016 1600 0.004879111725551767 -0.0023803377893863264 0.014008468429350732 0 0 0
950 1 0.0016 1600 -0.0019336852355954523 0.006935559518646547 0.016244615737291548 0 0 0
951 1 0.0016 1600 -5.4638751104370155e-05 0.004224385068600322 0.017506767459754616 0 0 0
952 1 0.0016 1600 0.0022111291595597183 0.0026428496109480917 0.017781291624351207 0 0 0
953 1 0.0016 1600 -0.005720119467900288 -0.004080196432223779 0.014219257189450454 0 0 0
954 1 0.0016 1600 -0.00657951758244677 -0.0018287612458681207 0.018027076386418612 0 0 0
955 1 0.0016 1600 0.004402277945823172 0.003927457840685848 0.019267210537956304 0 0 0
956 1 0.0016 1600 -0.0007974402250187295 0.00492670958192177 0.0192610452895937 0 0 0
957 1 0.0016 1600 0.003813704321530956 0.00042266579421635335 0.017487339067242636 0 0 0
958 1 0.0016 1600 -0.0008922290718132007 0.0033388945347361965 0.019093667677590857 0 0 0
959 1 0.0016 1600 -0.0047722456122203435 0.005391493576673357 0.018677968602612744 0 0 0
960 1 0.0016 1600 -0.00027988280431304657 -0.007195130070162907 0.01879310443750971 0 0 0
961 1 0.0016 1600 0.0011144530636553861 0.0071135176464794244 0.019297086972411722 0 0 0
962 1 0.0016 1600 0.0008454623933169635 0.007078516248945864 0.017720626214832714 0 0 0
963 1 0.0016 1600 -0.00366211389226097 0.0032113338869526357 0.020748015943418626 0 0 0
964 1 0.0016 1600 0.0030473679146478237 0.004755412063395051 0.01946209475557201 0 0 0
965 1 0.0016 1600 0.004756771109942441 0.0002987400984368406 0.019889426860545397 0 0 0
966 1 0.0016 1600 0.003025230191205608 -0.0034958849013058597 0.015207553569556134 0 0 0
967 1 0.0016 1600 0.004437927833138892 -0.00010362402237642603 0.015149319509974382 0 0 0
968 1 0.0016 1600 -0.0036283999423246498 0.001217724146020497 0.01913424300424601 0 0 0
969 1 0.0016 1600 -0.00410052438745722 0.0027986745339609984 0.016519629120311883 0 0 0
970 1 0.0016 1600 0.005634895121756144 -8.193549845544999e-05 0.018608066957019033 0 0 0
971 1 0.0016 1600 -0.00390209966945987 0.0007985635236205734 0.01400355435578274 0 0 0
972 1 0.0016 1600 0.0020945284954940117 0.00023825021289141982 0.018297681181546937 0 0 0
973 1 0.0016 1600 0.0025314316432065074 -0.005551332634551401 0.01704346635411178 0 0 0
974 1 0.0016 1600 0.004545455439190428 -0.0041151560123535245 0.016997306454799032 0 0 0
975 1 0.0016 1600 -0.0015859628693395884 0.0038212216404425975 0.01773510360911494 0 0 0
976 1 0.0016 1600 -0.00507634026469365 -0.0018999601946581126 0.01857364973649028 0 0 0
977 1 0.0016 1600 0.00018567258122071458 -0.005762182363601091 0.018099225959794858 0 0 0
978 1 0.0016 1600 0.005693908344350383 0.001364402231749724 0.01792715379575213 0 0 0
979 1 0.0016 1600 0.0005515820102984723 0.004070975147168951 0.019178856210539597 0 0 0
980 1 0.0016 1600 -0.004959442503129971 -0.003340669007430795 0.019258604428882314 0 0 0
981 1 0.0016 1600 -0.0006769253973599674 -0.0028942385585103395 0.016983891580075686 0 0 0
982 1 0.0016 1600 -0.003105118601905812 0.006496074100000549 0.01724182319260567 0 0 0
983 1 0.0016 1600 0.0021133278131482735 0.0068829799222439375 0.01676499571067811 0 0 0
984 1 0.0016 1600 -0.006885329803352915 -0.0021067551934124016 0.016481813650941098 0 0 0
985 1 0.0016 1600 -0.00073105506427996 0.007163235805978931 0.01521424443285383 0 0 0
986 1 0.0016 1600 -0.0008825555961076171 -0.00587831895264978 0.016914174346752422 0 0 0
987 1 0.0016 1600 -0.0034348737682333664 -0.005524221643700674 0.020185635896213094 0 0 0
988 1 0.0016 1600 -0.001678111015777683 0.0007931495664670413 0.017030381279255317 0 0 0
989 1 0.0016 1600 0.0035340755966781993 0.002761583219993398 0.01497076524928691 0 0 0
990 1 0.0016 1600 -0.0016114320568372338 0.005227380007009484 0.01696452685481467 0 0 0
991 1 0.0016 1600 -0.002843024021849545 0.0038101343984592107 0.018728864649735985 0 0 0
992 1 0.0016 1600 0.00690423566680038 -0.002043097705204248 0.014233136288549964 0 0 0
993 1 0.0016 1600 0.003672578174995336 -0.002859787550366801 0.016526550343307547 0 0 0
994 1 0.0016 1600 0.0019355012481050576 -0.006935529980760734 0.01650768718059717 0 0 0
995 1 0.0016 1600 0.0005627590116092209 0.007178065196667244 0.01416297820369601 0 0 0
996 1 0.0016 1600 -0.007138891924453697 0.0009373716023273272 0.019586724456363516 0 0 0
997 1 0.0016 1600 -0.002972437280795063 0.005350290091335247 0.016133093004177895 0 0 0
998 1 0.0016 1600 -0.004222613558815306 0.0035881510774011306 0.01790661826252797 0 0 0
999 1 0.0016 1600 -0.00015517024574799793 -0.0017478392691355862 0.01509563713043106 0 0 0
1000 1 0.0016 1600 -0.006741396102020592 0.0025285823565267904 0.017708688816257152 0 0 0
1001 1 0.0016 1600 0.0006796689757067632 -0.0025063260374845243 0.016229700131490554 0 0 0
1002 1 0.0016 1600 -0.0034110653173988824 -0.0018379801159128164 0.018696181871789692 0 0 0
1003 1 0.0016 1600 -0.0008921259285893617 0.00569935629956341 0.02065857683119355 0 0 0
1004 1 0.0016 1600 0.0011954457938122584 0.0051565023996559415 0.015097256534427261 0 0 0
1005 1 0.0016 1600 -0.0030952112606453404 -0.004625026996646365 0.015504820429568121 0 0 0
1006 1 0.0016 1600 -0.003414608942647583 0.005054607804636122 0.01790182324135449 0 0 0
1007 1 0.0016 1600 0.005869400223183891 -0.004171174050849559 0.019800746150272306 0 0 0
1008 1 0.0016 1600 -0.003323823470549946 4.6726772491238484e-05 0.015291993548336524 0 0 0
1009 1 0.0016 1600 0.005763593863397705 -4.199965747049826e-05 0.014255696197066785 0 0 0
1010 1 0.0016 1600 0.0028054609128267704 0.0012866285431007603 0.015411142218351711 0 0 0
1011 1 0.0016 1600 0.001515189605644833 0.0001323290364088208 0.01598936465349928 0 0 0
1012 1 0.0016 1600 -0.004323008103668339 -0.0005729245294774424 0.019053628352566354 0 0 0
1013 1 0.0016 1600 -0.0001251123232444468 -0.00439610979694255 0.01698849425697282 0 0 0
1014 1 0.0016 1600 0.0003932230961431909 -0.00034460046312175343 0.014558145890009729 0 0 0
1015 1 0.0016 1600 0.0007364779059612529 -0.0032193818061696023 0.017660313577040516 0 0 0
1016 1 0.0016 1600 0.0031182692790571263 0.002434500634256325 0.01648049126543487 0 0 0
1017 1 0.0016 1600 0.006332403128594452 -0.0034271384051372867 0.013671232007793634 0 0 0
1018 1 0.0016 1600 0.0025626100265694193 0.0019628809399737826 0.013982090962044776 0 0 0
1019 1 0.0016 1600 -0.0018134349088270846 -0.001996390078488796 0.019501023697375632 0 0 0
1020 1 0.0016 1600 0.003059512511402806 -0.00651770972989849 0.014019335252005582 0 0 0
1021 1 0.0016 1600 0.004110724708837513 -0.0005656452379368215 0.018708955172180488 0 0 0
1022 1 0.0016 1600 5.5274486696864904e-05 -0.0005290834015342923 0.016110468418375212 0 0 0
1023 1 0.0016 1600 0.007028486338621757 0.0015652464652143872 0.021583147912782916 0 0 0
1024 1 0.0016 1600 -0.0011952604061946275 -0.004676729401274188 0.01814370000242206 0 0 0
1025 1 0.0016 1600 -0.005926734697669692 -0.004088618875231438 0.018002522364997244 0 0 0
1026 1 0.0016 1600 0.007173732458445357 -0.0006189492667022991 0.016753004883207998 0 0 0
1027 1 0.0016 1600 0.0013706640722964878 -0.00706875834028558 0.015017333795279805 0 0 0
1028 1 0.0016 1600 -0.0019121485736237264 0.003545955418396962 0.014402136769910355 0 0 0
1029 1 0.0016 1600 0.004024434258178281 0.004206329889620637 0.01449026092880693 0 0 0
1030 1 0.0016 1600 -3.77816133246083e-05 -0.006693470740507252 0.02029211190798233 0 0 0
1031 1 0.0016 1600 -0.000659499374578241 0.0009506541770325319 0.018253694649716004 0 0 0
1032 1 0.0016 1600 -0.0038714354177648586 -0.000823149517233118 0.01753964699370996 0 0 0
1033 1 0.0016 1600 -0.0010717662355760355 0.006691441015539747 0.02495105196138748 0 0 0
1034 1 0.0016 1600 -0.00034109839970146167 0.005414289374506669 0.023804056852685062 0 0 0
1035 1 0.0016 1600 -0.0049565814267999945 0.0008883301648769904 0.023290074182570543 0 0 0
1036 1 0.0016 1600 0.005682048534509959 0.0012525972439471115 0.02077905108509979 0 0 0
1037 1 0.0016 1600 0.0020662405654137783 -0.003727587609558204 0.018635002837965747 0 0 0
1038 1 0.0016 1600 -0.00370983868733778 -0.001129656879074771 0.02124996697942928 0 0 0
1039 1 0.0016 1600 0.0022042872128331115 -0.002319286693501618 0.023267732568603473 0 0 0
1040 1 0.0016 1600 -0.003371392096561032 -0.0031056132952758126 0.02164026996893758 0 0 0
1041 1 0.0016 1600 0.0006501500349267611 0.0003497337012402478 0.018976818993462728 0 0 0
1042 1 0.0016 1600 -0.004375189874926999 0.003910588053501224 0.023296517517578955 0 0 0
1043 1 0.0016 1600 -0.006038721779653173 0.000442835345218083 0.022198635266388378 0 0 0
1044 1 0.0016 1600 0.0016053628065893577 0.0046610125877548725 0.020271597699168725 0 0 0
1045 1 0.0016 1600 0.004061096319132829 -0.003465668745734699 0.02050422384781752 0 0 0
1046 1 0.0016 1600 -0.006949934487484929 -0.0007643217641041724 0.019162286198390954 0 0 0
1047 1 0.0016 1600 9.226515163197526e-05 -0.0004159648655766884 0.023678743787401715 0 0 0
1048 1 0.0016 1600 0.005752418799093908 0.00019398506535781533 0.022818939234939013 0 0 0
1049 1 0.0016 1600 -0.004656561659262937 -0.001728654316053427 0.020108109180347743 0 0 0
1050 1 0.0016 1600 -0.004153744197354876 -0.00588119348248034 0.02156926114833515 0 0 0
1051 1 0.0016 1600 0.0041386338392550215 -0.001378283538447251 0.021526059291609043 0 0 0
1052 1 0.0016 1600 -0.0015734663222869648 -0.00642854280163355 0.018247786445628564 0 0 0
1053 1 0.0016 1600 0.00577182934001563 0.004304786233596857 0.02144853731210766 0 0 0
1054 1 0.0016 1600 -0.0001305124786171214 0.0032854215005316523 0.023049358620091377 0 0 0
1055 1 0.0016 1600 0.0002369716615700459 0.007196518516561514 0.021930084232694574 0 0 0
1056 1 0.0016 1600 -0.0030874452973180784 -0.0046735037659296754 0.021495329103570406 0 0 0
1057 1 0.0016 1600 -0.005335129860384966 -0.004835187556647414 0.0218320561728145 0 0 0
1058 1 0.0016 1600 0.0038122656299504785 -0.0041340518734991425 0.02265095480463127 0 0 0
1059 1 0.0016 1600 0.00043870566842448927 -0.0030955057906643644 0.020864928825924098 0 0 0
1060 1 0.0016 1600 0.000462898092385457 0.005745044290750527 0.01980865399044095 0 0 0
1061 1 0.0016 1600 0.0002521316243088865 0.006869783942375564 0.023495859644072633 0 0 0
1062 1 0.0016 1600 0.007090830793574847 -0.0012510211522528988 0.021191730800354493 0 0 0
1063 1 0.0016 1600 -0.002652010075732672 -0.0066944496084585595 0.02427164262978959 0 0 0
1064 1 0.0016 1600 0.0012376884545862276 0.005618391556728531 0.02364596289260655 0 0 0
1065 1 0.0016 1600 0.0030361321824766245 -6.242129970406487e-05 0.02353793956015906 0 0 0
1066 1 0.0016 1600 -0.002388530070295194 0.005986525387198544 0.022058459595466096 0 0 0
1067 1 0.0016 1600 -0.003977363885439623 0.006002695632813165 0.021874711958596745 0 0 0
1068 1 0.0016 1600 0.0028972629864327136 0.0022918485840761715 0.021940855448069 0 0 0
1069 1 0.0016 1600 -0.005494288099067915 -0.000765496521457131 0.01752635237173111 0 0 0
1070 1 0.0016 1600 -0.004197223832224231 0.00585010870051007 0.020098728092697506 0 0 0
1071 1 0.0016 1600 -0.0040406241168664024 0.0027580081410068613 0.019261577110641158 0 0 0
1072 1 0.0016 1600 0.00021065344752461138 -0.004242937340510218 0.018771358736704033 0 0 0
1073 1 0.0016 1600 0.0028542650736575496 0.0015145520752488583 0.023338232668479737 0 0 0
1074 1 0.0016 1600 0.0010173426820132162 0.002401038110384394 0.023726615618094218 0 0 0
1075 1 0.0016 1600 0.001032531000450352 0.0028432278270636114 0.020084583544082855 0 0 0
1076 1 0.0016 1600 0.0050675506767030535 -0.0037220499448316086 0.021720822299684108 0 0 0
1077 1 0.0016 1600 0.0004635136820058812 0.00513029882463243 0.021289022522811885 0 0 0
1078 1 0.0016 1600 0.0007596309139253786 -0.0035711735488959187 0.02246642554123728 0 0 0
1079 1 0.0016 1600 -0.00427747920378441 0.0017571924153542253 0.020492951856035217 0 0 0
1080 1 0.0016 1600 0.0023764888036275082 0.006796827860637009 0.018365671282749615 0 0 0
1081 1 0.0016 1600 -0.005050473042551899 -0.0032599258022839857 0.0213575257559222 0 0 0
1082 1 0.0016 1600 -0.0063545251742594825 0.000834177916346284 0.018196305317171153 0 0 0
1083 1 0.0016 1600 -0.0071854263021175245 0.00046372914306772587 0.023313812383223952 0 0 0
1084 1 0.0016 1600 -0.003223357113615041 0.0036980481389970016 0.022207115430923036 0 0 0
1085 1 0.0016 1600 0.0003354184454074176 -0.005993055836608061 0.023940280315953955 0 0 0
1086 1 0.0016 1600 0.004856268182465872 -0.0030149189222284773 0.024226091609187643 0 0 0
1087 1 0.0016 1600 0.006777614464459615 -0.002423906742045486 0.02015009745959754 0 0 0
1088 1 0.0016 1600 0.006518031205135746 -0.0030592771525202816 0.021595108108350462 0 0 0
1089 1 0.0016 1600 0.0006257301671044302 -0.0012636237960865862 0.01910691137913467 0 0 0
1090 1 0.0016 1600 -0.0007252820210395577 -0.005760772041492465 0.0225287039518013 0 0 0
1091 1 0.0016 1600 -0.005062359949547296 0.0016703336434748795 0.02188404474009447 0 0 0
1092 1 0.0016 1600 0.004722979243395262 0.00432331774099485 0.024146849347595596 0 0 0
1093 1 0.0016 1600 -0.002115261243130143 -0.0031877690015057643 0.022726121131341284 0 0 0
1094 1 0.0016 1600 0.00401291710832725 0.002315063013320715 0.02447326367163546 0 0 0
1095 1 0.0016 1600 -0.0009624695885172839 0.002441371046610883 0.024129326800160413 0 0 0
1096 1 0.0016 1600 0.0017660387977894451 -0.0026313905539468493 0.021628196856548175 0 0 0
1097 1 0.0016 1600 -0.006015827601321908 -0.00395698766222839 0.020289453419768948 0 0 0
1098 1 0.0016 1600 0.0017603040653907075 -0.001981283442010238 0.0182373963117879 0 0 0
1099 1 0.0016 1600 -0.003173148545624768 -0.0007940094740523347 0.024150805036849004 0 0 0
1100 1 0.0016 1600 -0.0009556857189727749 -0.005565564835788854 0.020958092788254605 0 0 0
1101 1 0.0016 1600 -0.0018700280208961083 0.005484279815830908 0.024269607941366244 0 0 0
1102 1 0.0016 1600 0.0065341956794996905 0.00302490725624769 0.023970676534042005 0 0 0
1103 1 0.0016 1600 0.0005966680160030192 -0.0015521833586892725 0.021461314288462468 0 0 0
1104 1 0.0016 1600 0.0026364931712703258 -0.0010023951545865448 0.019149991661007195 0 0 0
1105 1 0.0016 1600 -0.0008833599268038812 0.0019435638920404998 0.022611101200729445 0 0 0
1106 1 0.0016 1600 -0.0022284320141306197 -0.00526466907645573 0.022761627351276386 0 0 0
1107 1 0.0016 1600 -0.0022040713969642737 0.0009327308147819565 0.020768211766306534 0 0 0
1108 1 0.0016 1600 -0.0028933030728694807 0.006593482665001456 0.020652636345273704 0 0 0
1109 1 0.0016 1600 0.0022808107117498165 -0.005563991797663065 0.02238272986385303 0 0 0
1110 1 0.0016 1600 0.005719512548248252 -0.0012832985379307724 0.02201444471933018 0 0 0
1111 1 0.0016 1600 0.0028040637270117844 -0.0011354198660549076 0.02237409300870552 0 0 0
1112 1 0.0016 1600 -0.0034240054167685766 5.770999385458622e-05 0.020216580803151758 0 0 0
1113 1 0.0016 1600 -0.004171685422045775 -0.004712442223585903 0.01902052255173224 0 0 0
1114 1 0.0016 1600 0.0011793674894876958 0.0018347245894339377 0.02198151137846219 0 0 0
1115 1 0.0016 1600 -0.0009597211659392983 -0.002646843197881454 0.02369110194012794 0 0 0
1116 1 0.0016 1600 0.004344517274485442 0.005741720634007446 0.021386056732998846 0 0 0
1117 1 0.0016 1600 0.006605677399495767 -0.002864967038703444 0.024114999786799853 0 0 0
1118 1 0.0016 1600 -0.001467698577953041 0.007049164179174027 0.02129538650084414 0 0 0
1119 1 0.0016 1600 0.0022253792075187127 -0.0038998425344495 0.023016614678337797 0 0 0
1120 1 0.0016 1600 0.0025235969808222922 0.006743597187661435 0.01995778782537628 0 0 0
1121 1 0.0016 1600 0.005927333172767759 -0.0016371886457045804 0.018843394979559926 0 0 0
1122 1 0.0016 1600 -0.0035774136887360363 0.0018789760914480055 0.022441838017542546 0 0 0
1123 1 0.0016 1600 0.00505458879445837 -0.0028513745912047504 0.019411301231002306 0 0 0
1124 1 0.0016 1600 0.0009287553545698623 0.004412697479027908 0.022640988650122665 0 0 0
1125 1 0.0016 1600 0.006990441895653293 0.0017274676869575671 0.019991984321689478 0 0 0
1126 1 0.0016 1600 -0.004744961757925643 -0.0033371744919492483 0.02293896109834086 0 0 0
1127 1 0.0016 1600 -0.0017157804911128289 -0.003051096465371549 0.020699778242567312 0 0 0
1128 1 0.0016 1600 -0.0018770711972773216 0.004614472061758799 0.02141423576785154 0 0 0
1129 1 0.0016 1600 -0.004787041584568585 0.003246276074350669 0.021884870463157163 0 0 0
1130 1 0.0016 1600 -0.0007755886449189169 -0.0007169852620792443 0.02124980986638673 0 0 0
1131 1 0.0016 1600 0.0043094640599561865 0.0013048929865585397 0.01872633382112752 0 0 0
1132 1 0.0016 1600 -0.00603497003519057 -0.0015352500547051282 0.0230287405870652 0 0 0
1133 1 0.0016 1600 -0.0034006140765556352 0.0005175295538490922 0.023263490122713996 0 0 0
1134 1 0.0016 1600 0.006035170615307896 0.003927207702328916 0.019381723882856017 0 0 0
1135 1 0.0016 1600 -0.004759092850586542 0.0003380591470412709 0.021051944795242496 0 0 0
1136 1 0.0016 1600 0.007091566187180826 -0.0012454218828175847 0.024175280928851798 0 0 0
1137 1 0.0016 1600 0.0004638718077185524 -1.4514373374444134e-05 0.021976653673771204 0 0 0
1138 1 0.0016 1600 0.002082310908395702 0.001782940935939834 0.020661739685141574 0 0 0
1139 1 0.0016 1600 -0.005079663611924715 0.002013577900063472 0.017512081849099127 0 0 0
1140 1 0.0016 1600 -0.00579897560210571 0.004267878678052269 0.022585883608592348 0 0 0
1141 1 0.0016 1600 0.003953172351297019 -0.0007248855067275821 0.024670334996985722 0 0 0
1142 1 0.0016 1600 0.00019074858141873238 0.0015700479714369985 0.024815243953811364 0 0 0
1143 1 0.0016 1600 -0.0025591495207433366 -0.00047510915838752367 0.022148363489325484 0 0 0
1144 1 0.0016 1600 -0.0018710263530133087 0.0069528655023983746 0.023590098901961745 0 0 0
1145 1 0.0016 1600 0.003404227143547402 -0.002637733781609679 0.022259422646029575 0 0 0
1146 1 0.0016 1600 -0.004669844210053414 0.005480629687034616 0.023218450175248945 0 0 0
1147 1 0.0016 1600 0.003430393097316998 0.00633042234316318 0.024737760845956185 0 0 0
1148 1 0.0016 1600 -0.005197643181827881 0.0030555663912450776 0.02032667977939203 0 0 0
1149 1 0.0016 1600 0.004727856394068542 0.002240764938053941 0.019959058738477857 0 0 0
1150 1 0.0016 1600 0.007138548441509972 -0.0009418890010615947 0.019623182325283678 0 0 0
1151 1 0.0016 1600 -0.0007495733103039023 0.0008726560788619314 0.021430424019572066 0 0 0
1152 1 0.0016 1600 -0.005660156253308528 0.0044500206065101865 0.019692958151032565 0 0 0
1153 1 0.0016 1600 -0.006963821866427936 0.0018294817735600387 0.02174455184059531 0 0 0
1154 1 0.0016 1600 -0.007163945843496779 -0.0007218607413155552 0.022239995863697622 0 0 0
1155 1 0.0016 1600 0.0029663246730779465 0.0007480326511285612 0.021526647744443718 0 0 0
1156 1 0.0016 1600 0.0017791155765338156 0.006977079968023054 0.02299785257330811 0 0 0
1157 1 0.0016 1600 -0.006221739264543723 -0.0036238353387922557 0.0223846065121212 0 0 0
1158 1 0.0016 1600 0.0008575172075380998 -0.005661182363510934 0.021123371650339274 0 0 0
1159 1 0.0016 1600 0.0027958696324791293 0.00531560727238241 0.023417064955983207 0 0 0
1160 1 0.0016 1600 0.0022612541592014358 -0.005367685043693147 0.02041406761679756 0 0 0
1161 1 0.0016 1600 -0.002199780583612751 0.0010692498011927295 0.02236193812847041 0 0 0
1162 1 0.0016 1600 -0.0011743545197174792 0.0023564162099510753 0.020446666764174056 0 0 0
1163 1 0.0016 1600 0.0005670757956553707 0.0012722760387753973 0.020614563268240058 0 0 0
1164 1 0.0016 1600 -0.0008872594943390317 0.006241382345627181 0.022548394254531215 0 0 0
1165 1 0.0016 1600 0.0033479764328928465 -0.0003451030767017462 0.02042306855181207 0 0 0
1166 1 0.0016 1600 0.003946592095493413 -0.006022477045860054 0.020300773310276212 0 0 0
1167 1 0.0016 1600 -0.0029327984457197223 0.00040749561492141437 0.017944016919079406 0 0 0
1168 1 0.0016 1600 -0.0033347868279864565 0.00638131546332299 0.023290000062345505 0 0 0
1169 1 0.0016 1600 0.0005270358447307515 0.003235054242582048 0.02156522155432734 0 0 0
1170 1 0.0016 1600 0.004882271376473583 -0.005292138860412433 0.019228326829754533 0 0 0
1171 1 0.0016 1600 -0.0010618513498495273 0.0032791577845161434 0.021748618801975365 0 0 0
1172 1 0.0016 1600 0.001865261158172046 -0.00039069005651533675 0.021303013573026653 0 0 0
1173 1 0.0016 1600 -0.0023994779763282193 0.0024338888068002346 0.02151218431242225 0 0 0
1174 1 0.0016 1600 0.0035147664081191248 -0.004787349412526377 0.021221255352584675 0 0 0
1175 1 0.0016 1600 0.00557399367880844 0.001700213208978057 0.022310774057534285 0 0 0
1176 1 0.0016 1600 -0.00212454669623008 0.004554338988678977 0.02299336519361973 0 0 0
1177 1 0.0016 1600 0.00283802103378599 0.005477098350764106 0.02088335021642874 0 0 0
1178 1 0.0016 1600 -0.0018833894528783978 -0.00129255276082072 0.023346825720733363 0 0 0
1179 1 0.0016 1600 0.0037037474005991145 -0.0019797936924647558 0.02371000107748481 0 0 0
1180 1 0.0016 1600 -0.0020810567014717084 -0.0046749619315112016 0.020251877565939283 0 0 0
1181 1 0.0016 1600 0.0014329037442666736 0.0005043244727412707 0.024173890451705527 0 0 0
1182 1 0.0016 1600 -0.00056829976462897 -0.004160541716794038 0.020171858711717696 0 0 0
1183 1 0.0016 1600 -0.0015771056561932064 0.003902302260447231 0.02434779839827222 0 0 0
1184 1 0.0016 1600 0.005253709275294613 -0.0023508901834595262 0.020917644202087964 0 0 0
1185 1 0.0016 1600 0.006937594376970252 0.000269506034786646 0.020648775253646376 0 0 0
1186 1 0.0016 1600 -8.616923951762807e-05 0.0019788203288541337 0.019336575444292407 0 0 0
1187 1 0.0016 1600 0.0032697663548167675 0.0027968582995064996 0.020311510720558056 0 0 0
1188 1 0.0016 1600 0.003457777746916638 -0.004657700153916704 0.019624486560164148 0 0 0
1189 1 0.0016 1600 -0.00040617530050597985 0.007188781812872555 0.018796068827452606 0 0 0
1190 1 0.0016 1600 -0.005148611868846224 0.005033083542697364 0.021092297862765206 0 0 0
1191 1 0.0016 1600 0.0049484999341175345 -9.744888489396341e-07 0.021449075336531308 0 0 0
1192 1 0.0016 1600 -0.0059627640427290084 0.001298819513776832 0.020615079133424734 0 0 0
1193 1 0.0016 1600 -0.003781146501484215 -0.0046140342383321495 0.0229354723994109 0 0 0
1194 1 0.0016 1600 0.0003658021515370347 -0.007190809517197015 0.021758113206116092 0 0 0
1195 1 0.0016 1600 0.00226288829939588 0.0033728089998687674 0.019209650767589105 0 0 0
1196 1 0.0016 1600 -0.0019183302189556704 -0.006939781504156853 0.02274679985942075 0 0 0
1197 1 0.0016 1600 0.0020652319225161475 0.00341537543368831 0.021163673237231388 0 0 0
1198 1 0.0016 1600 0.0011526102108916287 -0.006526097891025062 0.019119597019980197 0 0 0
1199 1 0.0016 1600 0.00648245769330546 -0.003134468460359039 0.01874776105181356 0 0 0
1200 1 0.0016 1600 0.003922765693158008 0.00603770125756059 0.018262665255738535 0 0 0
1201 1 0.0016 1600 -0.003421105412651656 0.004767974991586048 0.021024261810546504 0 0 0
1202 1 0.0016 1600 0.006101190945141164 -0.0038232559841374957 0.022937565570023303 0 0 0
1203 1 0.0016 1600 -0.006523173464781296 -0.0030480958142119017 0.0190609123928969 0 0 0
1204 1 0.0016 1600 0.0038006616785965486 -0.006115291583195784 0.022514962667696432 0 0 0
1205 1 0.0016 1600 0.004262011113950048 0.00167436762648624 0.021380842912724112 0 0 0
1206 1 0.0016 1600 0.0038762299018505167 0.004268241735213696 0.02074074497746575 0 0 0
1207 1 0.0016 1600 0.003228272571875106 0.006435868659320323 0.02229808146321678 0 0 0
1208 1 0.0016 1600 -0.003988156477321136 -0.005994789813725934 0.018081944332749608 0 0 0
1209 1 0.0016 1600 -0.007189769840072857 0.00038803743255129495 0.02108834996853377 0 0 0
1210 1 0.0016 1600 0.003047642601567925 -0.0022523861773774095 0.020748636540460493 0 0 0
1211 1 0.0016 1600 0.0023971313577631375 -0.003604704603350405 0.020195085752979403 0 0 0
1212 1 0.0016 1600 0.0012012447774767563 -0.00709921384886811 0.02311931697979432 0 0 0
1213 1 0.0016 1600 -0.0022418513088830394 -0.0009300064226339804 0.020647660136644364 0 0 0
1214 1 0.0016 1600 -0.0032578805274695566 -0.0033987192434095 0.01904532730957591 0 0 0
1215 1 0.0016 1600 0.0037739179120439433 -0.0061060568659711155 0.018411064082185555 0 0 0
1216 1 0.0016 1600 0.005057047094226482 -0.005125547527402007 0.022488299351164785 0 0 0
1217 1 0.0016 1600 0.006903043803933004 -0.002047107617919215 0.02277269155851739 0 0 0
1218 1 0.0016 1600 0.00412099075440662 0.0006877152130114658 0.022632261316903116 0 0 0
1219 1 0.0016 1600 -0.006411134550010257 0.0032769522988592386 0.02134553552059478 0 0 0
1220 1 0.0016 1600 -0.0015306178655687722 -0.007035443205866377 0.019777831751865094 0 0 0
1221 1 0.0016 1600 -0.004582172712251865 -0.001387854693446185 0.02368175747418656 0 0 0
1222 1 0.0016 1600 0.005435179493242345 0.001864904306359765 0.023895759589245523 0 0 0
1223 1 0.0016 1600 0.0018598011419662722 0.005619527992725732 0.02215565663489642 0 0 0
1224 1 0.0016 1600 -0.0006581911769948639 -0.0029778537837791 0.022023250207902186 0 0 0
1225 1 0.0016 1600 -0.007106179422285619 -0.0011625396260712551 0.020703332734191993 0 0 0
1226 1 0.0016 1600 0.0004458460510592495 0.007186596028738723 0.025051758196760112 0 0 0
1227 1 0.0016 1600 -0.00045482104745907606 -0.0015271136212919245 0.02266632553203838 0 0 0
1228 1 0.0016 1600 -0.0006636525229349962 0.0005818459546542542 0.019859878457334258 0 0 0
1229 1 0.0016 1600 -0.0020179398128910477 0.005589661721841011 0.01846823036438359 0 0 0
1230 1 0.0016 1600 -0.006611871911178179 0.002851166764597234 0.022924199199362467 0 0 0
1231 1 0.0016 1600 -0.0047344139317206345 -0.0019273919451324847 0.02218372404260014 0 0 0
1232 1 0.0016 1600 0.00578612071811253 -0.004285538860860932 0.024507963352919587 0 0 0
1233 1 0.0016 1600 -0.001833615142202236 -0.003965361586003684 0.024095665401467986 0 0 0
1234 1 0.0016 1600 0.0052913513243476405 0.00274471732391288 0.026767004879091085 0 0 0
1235 1 0.0016 1600 -0.0003265811859767792 -0.007192780388270111 0.024766048039671973 0 0 0
1236 1 0.0016 1600 0.0013112783918229815 -0.001263024674100675 0.02442808194444117 0 0 0
1237 1 0.0016 1600 -0.003746361262843345 -0.0038626334770042814 0.028450405316914434 0 0 0
1238 1 0.0016 1600 -0.0010365423274262243 -0.003880569238991044 0.02581709520445735 0 0 0
1239 1 0.0016 1600 0.0016012726761757488 0.007019896506731056 0.026145192192060726 0 0 0
1240 1 0.0016 1600 0.004526186680973401 -0.00082143630591571 0.02297482696577211 0 0 0
1241 1 0.0016 1600 0.005113764800951729 -0.0023683841263405004 0.026784627288420154 0 0 0
1242 1 0.0016 1600 0.005890942323237125 0.00414043712238232 0.026265652391689986 0 0 0
1243 1 0.0016 1600 0.004497111846256921 9.541835358294965e-05 0.02725850362640386 0 0 0
1244 1 0.0016 1600 -0.001263105133412353 0.0014114582218278636 0.02546409166509837 0 0 0
1245 1 0.0016 1600 0.004978964553263522 -0.005201229175547461 0.027776134585329428 0 0 0
1246 1 0.0016 1600 0.00030683438340643336 2.2104201091733482e-05 0.02520221005488455 0 0 0
1247 1 0.0016 1600 0.0059664460372744746 -0.002979341825456236 0.02557686690194815 0 0 0
1248 1 0.0016 1600 4.661029230245881e-05 -0.0019934936199419535 0.028088476876668957 0 0 0
1249 1 0.0016 1600 -0.003947571358352878 -0.00412349557967139 0.024926479394600756 0 0 0
1250 1 0.0016 1600 0.007199337367220359 9.909791278815519e-05 0.027412219528360083 0 0 0
1251 1 0.0016 1600 0.002897820617706903 0.0044033774428702994 0.02210661684961078 0 0 0
1252 1 0.0016 1600 -0.006124627018983352 -0.0005407467592890872 0.02701043612050589 0 0 0
1253 1 0.0016 1600 -0.004551314088202198 0.005579242028723397 0.024810508870899552 0 0 0
1254 1 0.0016 1600 0.0020575440589686604 -0.004572039601099926 0.025164186617248584 0 0 0
1255 1 0.0016 1600 0.0033336656421615336 -0.003487846713146393 0.024093974098283864 0 0 0
1256 1 0.0016 1600 -0.00560032250000933 -0.001887289097371169 0.02617762792396436 0 0 0
1257 1 0.0016 1600 0.004445627216165567 0.00457286280677202 0.022473360823415542 0 0 0
1258 1 0.0016 1600 0.0018256335900381183 -0.0030857907363290127 0.024619350950347365 0 0 0
1259 1 0.0016 1600 0.0024501069804056374 0.0026468842577081282 0.0243935006004112 0 0 0
1260 1 0.0016 1600 0.0030489548346324686 0.0040628096781196235 0.024835454719082117 0 0 0
1261 1 0.0016 1600 -0.0006517060084611822 -0.005429081958344169 0.02593197298203274 0 0 0
1262 1 0.0016 1600 -0.006611295798408287 -0.00285206857531175 0.023730606303814523 0 0 0
1263 1 0.0016 1600 -0.0011585140150358057 0.0010947719582993399 0.027063494812684007 0 0 0
1264 1 0.0016 1600 0.00587800852782489 0.004158521809896194 0.02305237431818419 0 0 0
1265 1 0.0016 1600 0.0005740171035608571 -0.004358127580275617 0.025723251022660393 0 0 0
1266 1 0.0016 1600 -0.0056678121879007665 0.002252783342529723 0.025826359703174595 0 0 0
1267 1 0.0016 1600 0.004529343626401332 -0.003600680537570512 0.025905838092097032 0 0 0
1268 1 0.0016 1600 -0.0010391283736161678 -0.0009675519221749312 0.024666315800475853 0 0 0
1269 1 0.0016 1600 0.003965500388061596 -0.002204445471346326 0.02527893338727715 0 0 0
1270 1 0.0016 1600 -0.0030447074001312326 -0.006524760001605548 0.026235759154411516 0 0 0
1271 1 0.0016 1600 0.006992609635311414 0.0017145709760830502 0.023175627418316823 0 0 0
1272 1 0.0016 1600 0.0009865964209656679 0.0029630468131603403 0.028395380237970846 0 0 0
1273 1 0.0016 1600 0.0012362570033637218 -0.0038410268309125913 0.02708436312438983 0 0 0
1274 1 0.0016 1600 0.004318402446654072 0.0007655311119627211 0.024217979889556093 0 0 0
1275 1 0.0016 1600 -0.001571856830584445 0.005477358361287408 0.028271039458022305 0 0 0
1276 1 0.0016 1600 -0.0004794302615488324 0.007184044401500607 0.026356746154926527 0 0 0
1277 1 0.0016 1600 0.006659431850031945 0.002737376430854916 0.025937441227111988 0 0 0
1278 1 0.0016 1600 -0.00022632460689472192 -0.0029524378613305768 0.0268373542749096 0 0 0
1279 1 0.0016 1600 0.0038732171355158797 0.0026130241064428014 0.026038609142612548 0 0 0
1280 1 0.0016 1600 0.0004830881578417524 0.001515487598164612 0.02793724229224245 0 0 0
1281 1 0.0016 1600 0.0009649889096834142 -0.007135436813725224 0.02724425403261012 0 0 0
1282 1 0.0016 1600 -0.0012613891914334736 -0.005944017140131127 0.024024589318733674 0 0 0
1283 1 0.0016 1600 -0.0003951852857403454 -0.007189470151559832 0.023167759165440994 0 0 0
1284 1 0.0016 1600 0.007001620872672787 -0.0016793662046421468 0.02817547891760896 0 0 0
1285 1 0.0016 1600 -0.0004628438108161838 -0.004658707004353159 0.02454286876236303 0 0 0
1286 1 0.0016 1600 -0.004162574025267208 0.00029885377890570894 0.02661925125262594 0 0 0
1287 1 0.0016 1600 0.004329307983244804 0.005753219851792214 0.023546886325992212 0 0 0
1288 1 0.0016 1600 0.0049279488768252545 -0.002480742335982017 0.022720058838119134 0 0 0
1289 1 0.0016 1600 -0.0026791333033074527 -0.006683061939602345 0.02098908175297237 0 0 0
1290 1 0.0016 1600 -0.004448969286779844 -0.0018022069916521952 0.027284933895980638 0 0 0
1291 1 0.0016 1600 0.0005732345988844595 0.005592791106874142 0.02510438425966463 0 0 0
1292 1 0.0016 1600 0.002937563689332384 0.0012123184425898638 0.02490688261493168 0 0 0
1293 1 0.0016 1600 0.005557685795345452 -0.0016127025756657136 0.023907095906622208 0 0 0
1294 1 0.0016 1600 -0.0010918874845568533 0.005752668564198472 0.026769933078613577 0 0 0
1295 1 0.0016 1600 0.0006078449689901781 -0.0023766473009486657 0.02351981465599676 0 0 0
1296 1 0.0016 1600 -0.0007016604822358041 -0.0071659953431185835 0.02827221221538958 0 0 0
1297 1 0.0016 1600 0.0071922626918762295 0.00033737724593842103 0.02396458572322044 0 0 0
1298 1 0.0016 1600 -0.005849727066899827 -0.0016882636979954045 0.024610190834180177 0 0 0
1299 1 0.0016 1600 -0.0015355669124259043 -0.004278375845791061 0.02170977426500186 0 0 0
1300 1 0.0016 1600 -0.0032596362359127063 -0.0007662888037314908 0.02755144207055361 0 0 0
1301 1 0.0016 1600 -0.0032033213580984357 -0.0018600420593732538 0.022642841088035028 0 0 0
1302 1 0.0016 1600 -0.0031561386391674366 0.006471578106618809 0.02910571330959424 0 0 0
1303 1 0.0016 1600 -0.0021638411170473984 0.00019504425743039074 0.02490037053382684 0 0 0
1304 1 0.0016 1600 -0.004022071524470552 0.00470431196449879 0.026952948036402274 0 0 0
1305 1 0.0016 1600 0.003515299193956629 -0.0023787289023878893 0.026838322532217473 0 0 0
1306 1 0.0016 1600 -0.0002598163484021774 -0.0013718695359169544 0.02659306417083415 0 0 0
1307 1 0.0016 1600 -0.00180805467960872 -0.001878229132144565 0.02186022184299005 0 0 0
1308 1 0.0016 1600 0.0009421964317874669 -0.0042193401621233514 0.02391762166594289 0 0 0
1309 1 0.0016 1600 0.004748428629734774 -0.005412260749070486 0.024031748558339002 0 0 0
1310 1 0.0016 1600 -0.0023049786786970197 0.0016128502459421398 0.023862733466139707 0 0 0
1311 1 0.0016 1600 -0.006140694185740606 -0.0037599923038785254 0.026612395112930762 0 0 0
1312 1 0.0016 1600 -0.006839722278841063 -0.002250180130316508 0.021845826150897057 0 0 0
1313 1 0.0016 1600 0.0035105613388678124 0.0036305488143209244 0.023366139065041158 0 0 0
1314 1 0.0016 1600 -0.004331386544327207 -0.0010211161711544997 0.025731333732219863 0 0 0
1315 1 0.0016 1600 -0.0003802697230318467 -0.007190022239842152 0.02636507389953133 0 0 0
1316 1 0.0016 1600 -0.00445050089223609 7.295782074948139e-05 0.024570126956904578 0 0 0
1317 1 0.0016 1600 0.004322731107018499 0.003914279255689045 0.027283707780373145 0 0 0
1318 1 0.0016 1600 0.0019549045426076168 0.006930045755243701 0.02458718823972291 0 0 0
1319 1 0.0016 1600 0.001273583204949303 -0.001091756141750942 0.022837811416923412 0 0 0
1320 1 0.0016 1600 0.0020349569384819073 0.003278053134949606 0.02285831067838187 0 0 0
1321 1 0.0016 1600 0.005261312120632656 0.001424295089748498 0.025423762380343884 0 0 0
1322 1 0.0016 1600 0.0014773876327695088 0.0021738305349740792 0.026871047781206546 0 0 0
1323 1 0.0016 1600 -0.0006637996703683359 -0.0002877857780553639 0.02769814983465993 0 0 0
1324 1 0.0016 1600 0.004112868482774317 0.0018430119374792896 0.02742012252152428 0 0 0
1325 1 0.0016 1600 -0.004451000766202976 -0.0003754419473800694 0.022450118530382847 0 0 0
1326 1 0.0016 1600 0.0036530422483933254 -0.00467891587588773 0.025112676265861507 0 0 0
1327 1 0.0016 1600 -0.003212180593846961 0.003158065568462358 0.026881870108828275 0 0 0
1328 1 0.0016 1600 -0.0055231770738524855 -0.004619667103126098 0.02349367972605394 0 0 0
1329 1 0.0016 1600 -0.003878858557677945 0.0018172059446072229 0.02406463588075754 0 0 0
1330 1 0.0016 1600 -0.0007772542438221604 0.0031373335597103015 0.025557816845122643 0 0 0
1331 1 0.0016 1600 -0.0009531399935519831 0.0007738164155372028 0.02402983543997051 0 0 0
1332 1 0.0016 1600 -0.004039610905030986 -0.0023283464259528414 0.02485656357355546 0 0 0
1333 1 0.0016 1600 -0.002211057372131098 0.003802827907351177 0.025813298266107777 0 0 0
1334 1 0.0016 1600 -0.00482726546601083 0.0016939571553108961 0.027938931297906512 0 0 0
1335 1 0.0016 1600 -0.005581253920477376 0.00454887821056283 0.024145733388038264 0 0 0
1336 1 0.0016 1600 -0.0025921620352315888 -0.0011837211194361725 0.025589233887713836 0 0 0
1337 1 0.0016 1600 -0.006889112909246143 0.002092533003007771 0.027503545495089484 0 0 0
1338 1 0.0016 1600 -0.0033393900183930217 0.004930519920966781 0.0239641161054379 0 0 0
1339 1 0.0016 1600 0.001424514281173158 -0.002806890854248038 0.02829008968390616 0 0 0
1340 1 0.0016 1600 -0.005253749866696946 -0.003289546967747008 0.024455077285967654 0 0 0
1341 1 0.0016 1600 -0.0029347209319596423 -0.005121935763341812 0.024194271054904147 0 0 0
1342 1 0.0016 1600 0.0018254900120754 -0.004296543632937588 0.021519388426040023 0 0 0
1343 1 0.0016 1600 -0.004245467460610382 0.0018887695435341732 0.026461625731101175 0 0 0
1344 1 0.0016 1600 -0.0008821450904662701 0.004943247454318285 0.025405879962589254 0 0 0
1345 1 0.0016 1600 -0.0044168413535862795 -0.005686152818724097 0.02393835315063922 0 0 0
1346 1 0.0016 1600 0.0033825231177189224 0.005293150750689842 0.025954784736053636 0 0 0
1347 1 0.0016 1600 0.0041918851674759205 0.0022657320770639484 0.022884475651632343 0 0 0
1348 1 0.0016 1600 -0.0022998106699314985 -0.0023192914234681796 0.02450104890672769 0 0 0
1349 1 0.0016 1600 0.0028571618609244225 0.0014612180256453901 0.026486068896096965 0 0 0
1350 1 0.0016 1600 -0.007160782998128039 -0.000751789483750386 0.028210940034365722 0 0 0
1351 1 0.0016 1600 0.006642933857702681 -0.002778146744618925 0.027012616149593306 0 0 0
1352 1 0.0016 1600 -0.0015151462408658665 -0.0025465642897821244 0.02769401007410827 0 0 0
1353 1 0.0016 1600 -0.0007610797052475722 -0.005771440679965156 0.027490718172245347 0 0 0
1354 1 0.0016 1600 0.001486436713507471 -0.00704536836526719 0.020625420446427494 0 0 0
1355 1 0.0016 1600 0.004054295656989705 0.005950112121417637 0.027841377076979406 0 0 0
1356 1 0.0016 1600 0.0034546688588223485 -0.006317172385845914 0.02713903166129887 0 0 0
1357 1 0.0016 1600 0.0023805135341510796 -0.0002554116113884348 0.025214903765673407 0 0 0
1358 1 0.0016 1600 -0.002112301556015445 -0.003859004527072119 0.027000966673399667 0 0 0
1359 1 0.0016 1600 -0.0033586775574668947 -0.0032386029910629983 0.023731003428769944 0 0 0
1360 1 0.0016 1600 0.0018255267756472418 0.004576721584238417 0.02628176918194952 0 0 0
1361 1 0.0016 1600 0.007083809832957082 -0.0012896077222199812 0.026626150315179353 0 0 0
1362 1 0.0016 1600 0.005351907426178813 0.0029763609729259867 0.025046983042402014 0 0 0
1363 1 0.0016 1600 -0.00288435615013947 0.006597168227750699 0.024809963500645474 0 0 0
1364 1 0.0016 1600 0.003874517410703845 -0.0015418753550277239 0.02940582658235352 0 0 0
1365 1 0.0016 1600 0.002967511236077077 0.006560285386401287 0.02683859602471796 0 0 0
1366 1 0.0016 1600 0.0034386943916433865 0.002747464977036933 0.028897736809868825 0 0 0
1367 1 0.0016 1600 0.005684400188212989 -0.0009799323566150131 0.027336906049475834 0 0 0
1368 1 0.0016 1600 0.0005094350447958747 0.003435129981903821 0.026693566326080692 0 0 0
1369 1 0.0016 1600 -0.004814188018482551 0.0032031591082426975 0.024662469262916476 0 0 0
1370 1 0.0016 1600 -0.0011054916911004526 -6.558868428173803e-05 0.02267640903192076 0 0 0
1371 1 0.0016 1600 0.006841017103707096 0.0022461594574668753 0.027452178124362344 0 0 0
1372 1 0.0016 1600 0.0028600982522985 -0.00660783477662972 0.02131831838215934 0 0 0
1373 1 0.0016 1600 0.004650364581853768 -0.0010055323136149675 0.02608672105750304 0 0 0
1374 1 0.0016 1600 6.499567819701677e-05 -0.003144246449654759 0.024814275513525632 0 0 0
1375 1 0.0016 1600 -0.005092783454824236 0.0024817113103240873 0.023262097985928612 0 0 0
1376 1 0.0016 1600 -0.0034477989773700883 0.0010185643131517042 0.025382123978609988 0 0 0
1377 1 0.0016 1600 0.007184023719804234 -0.0004826215259917093 0.022591370612871347 0 0 0
1378 1 0.0016 1600 -0.003160467848510462 0.0032767858976956166 0.02412249402204445 0 0 0
1379 1 0.0016 1600 -0.0056954949853022544 -0.0009075919972719139 0.021412679110771878 0 0 0
1380 1 0.0016 1600 -0.005047463938476865 -0.0049277478024385745 0.02663352984668823 0 0 0
1381 1 0.0016 1600 0.0011979331329679563 -0.0010037652979001661 0.026046254638152275 0 0 0
1382 1 0.0016 1600 0.0026914034990819765 -0.006678368618893832 0.023520608075074667 0 0 0
1383 1 0.0016 1600 -0.005891122907398034 -0.0002324674643975601 0.02394543328439571 0 0 0
1384 1 0.0016 1600 0.0015742495098736357 0.004124168960986229 0.02413530340567492 0 0 0
1385 1 0.0016 1600 1.4728384708998116e-05 0.004004277697806764 0.024471205297535183 0 0 0
1386 1 0.0016 1600 0.0009346885821306655 -0.0007460151045441438 0.027625598699872408 0 0 0
1387 1 0.0016 1600 -0.0023727434296769863 0.005393858983298476 0.025785459686564073 0 0 0
1388 1 0.0016 1600 0.005789317345734567 0.00011420948890114954 0.026174619138528813 0 0 0
1389 1 0.0016 1600 -0.0010858097401439974 -0.002305030671457822 0.025543072848875976 0 0 0
1390 1 0.0016 1600 -0.005615099968916318 0.0009545666707135932 0.026759238475754288 0 0 0
1391 1 0.0016 1600 1.00584463975482e-05 0.00578399572791208 0.02794625572834247 0 0 0
1392 1 0.0016 1600 -0.0005977125718084495 -0.004239031483906591 0.023005261412420434 0 0 0
1393 1 0.0016 1600 -0.007138358714127529 0.0003424537533666619 0.02490828833604352 0 0 0
1394 1 0.0016 1600 -0.004814789134038993 -0.0003774496455053495 0.027914052386369598 0 0 0
1395 1 0.0016 1600 0.0022463706463926965 0.006840992081246038 0.028238935463666463 0 0 0
1396 1 0.0016 1600 0.006566747687278261 0.0029533500763280853 0.022257319852719684 0 0 0
1397 1 0.0016 1600 0.0023363822550665565 -0.005299825044890616 0.026561460589920323 0 0 0
1398 1 0.0016 1600 0.0019482134358012955 0.0001853050582011688 0.02681031135098396 0 0 0
1399 1 0.0016 1600 0.0005264617722336069 -0.004957580910012864 0.027983707519870945 0 0 0
1400 1 0.0016 1600 0.0067623968242173736 0.0016546425789022248 0.024764047507755443 0 0 0
1401 1 0.0016 1600 -0.007028242807835043 0.0015640879246925006 0.029007168239185106 0 0 0
1402 1 0.0016 1600 0.005253208395397535 0.004924198825630779 0.02810451772954961 0 0 0
1403 1 0.0016 1600 0.0007540132526612717 -0.005161703209853431 0.022639176455188554 0 0 0
1404 1 0.0016 1600 0.002208972355122507 0.0019365110474863123 0.028273764763045883 0 0 0
1405 1 0.0016 1600 -0.006583944176107872 -0.0029145073541633503 0.02532883962718748 0 0 0
1406 1 0.0016 1600 0.0019177018088475464 -0.004320372190753401 0.028450614330596313 0 0 0
1407 1 0.0016 1600 0.0013564316613950745 0.005634482433144689 0.028797639401507414 0 0 0
1408 1 0.0016 1600 0.0023580609156942573 0.0031122743791509046 0.025921069641946782 0 0 0
1409 1 0.0016 1600 0.003118863489159167 -0.005144854012058041 0.023678945756113953 0 0 0
1410 1 0.0016 1600 0.0003461925333163811 0.0010707613700747136 0.023145470355929582 0 0 0
1411 1 0.0016 1600 -0.006756837464527962 0.002487549486193434 0.024475407658504582 0 0 0
1412 1 0.0016 1600 0.006379692845556476 0.00258238050032427 0.02894679536871901 0 0 0
1413 1 0.0016 1600 0.002415335260801364 -0.0018402304839931429 0.025431965157302297 0 0 0
1414 1 0.0016 1600 -0.003656065589725272 0.004372497417124821 0.02542965481294797 0 0 0
1415 1 0.0016 1600 0.001509643382665963 0.0011686521885957179 0.025627056114242396 0 0 0
1416 1 0.0016 1600 -0.0021820963212255775 -0.005095765312851738 0.025605787485684973 0 0 0
1417 1 0.0016 1600 0.004397746944149093 0.004084691490058041 0.025694876702077082 0 0 0
1418 1 0.0016 1600 0.0017596057630247565 -0.00606257573346397 0.02466576846486403 0 0 0
1419 1 0.0016 1600 -0.003787137641568853 0.006123631692278293 0.027677394850374164 0 0 0
1420 1 0.0016 1600 -0.0010619570728092444 -0.00011271429168304564 0.026018465682629915 0 0 0
1421 1 0.0016 1600 0.0018255257755879811 0.0005194894817804763 0.022623705316616158 0 0 0
1422 1 0.0016 1600 -0.0020558250369143837 0.002955971347974185 0.023010485258258863 0 0 0
1423 1 0.0016 1600 -0.005793191624371662 0.0012180632936147225 0.024612944347996754 0 0 0
1424 1 0.0016 1600 0.0009250133027349635 0.002931504106329119 0.02523305671945884 0 0 0
1425 1 0.0016 1600 -0.003397058104914265 -0.006348510128636551 0.022898901256723316 0 0 0
1426 1 0.0016 1600 -0.0006350669547055107 0.004666916531648824 0.02242056716509246 0 0 0
1427 1 0.0016 1600 -0.006181307034355619 0.0036927556402823456 0.025356342530602205 0 0 0
1428 1 0.0016 1600 0.006060648129106579 -0.001317557136494756 0.025396720394202845 0 0 0
1429 1 0.0016 1600 0.007197991600261507 -0.00018236943282322882 0.0254772679945398 0 0 0
1430 1 0.0016 1600 0.00463170182183262 0.0032042229354899564 0.021666070247894784 0 0 0
1431 1 0.0016 1600 -0.00162821690665834 -0.006619572073183382 0.02549847576744435 0 0 0
1432 1 0.0016 1600 0.00031618749420209244 0.0050186699333963514 0.02657513528811753 0 0 0
1433 1 0.0016 1600 -0.0025519082083941733 0.0023387273285730304 0.025266716977408225 0 0 0
1434 1 0.0016 1600 0.003593174731838323 -0.006239623096316588 0.024767069257407577 0 0 0
1435 1 0.0016 1600 0.0021503406275397087 0.005382007630196002 0.024938355184587622 0 0 0
1436 1 0.0016 1600 0.005658841039115689 -9.086911000524389e-05 0.02439051414952518 0 0 0
1437 1 0.0016 1600 -0.005720457663114503 -9.110266228808736e-05 0.025529571741491355 0 0 0
1438 1 0.0016 1600 0.0015884064563259008 0.00047053990074546787 0.028433249114313178 0 0 0
1439 1 0.0016 1600 -0.0014048944169888558 -0.003359268667864338 0.03168776987652935 0 0 0
1440 1 0.0016 1600 0.005595104164879229 0.0012586864744486685 0.02727528304777525 0 0 0
1441 1 0.0016 1600 -0.005410083270022397 -0.0047515408024044045 0.02508534209350928 0 0 0
1442 1 0.0016 1600 0.003110744896333514 -0.0008687314104677105 0.02649919980572999 0 0 0
1443 1 0.0016 1600 0.0022074299613033897 0.0038386811034947198 0.0306680873846836 0 0 0
1444 1 0.0016 1600 0.004838439242701826 -0.002588891905949329 0.028675079492969133 0 0 0
1445 1 0.0016 1600 0.0041491491768192385 0.0010092540814767156 0.03261470187876287 0 0 0
1446 1 0.0016 1600 0.0020882830419775176 -0.005483361394232766 0.03122761399070243 0 0 0
1447 1 0.0016 1600 0.004345948618590314 -0.0001080446900214979 0.028838044054129423 0 0 0
1448 1 0.0016 1600 0.0022483217292226508 -0.004185551432542582 0.030305881439678925 0 0 0
1449 1 0.0016 1600 -7.148436397042792e-05 0.0024431435575022736 0.030641803163073397 0 0 0
1450 1 0.0016 1600 -0.0024059259260905625 -0.0022555744732139778 0.030939846291630164 0 0 0
1451 1 0.0016 1600 -0.0005161792229777005 -0.001920340944818012 0.031434864478003546 0 0 0
1452 1 0.0016 1600 0.003011185767428198 0.0030027543812537996 0.02737736020197689 0 0 0
1453 1 0.0016 1600 -0.002728932514481568 0.005403486047897122 0.031817555225447554 0 0 0
1454 1 0.0016 1600 0.005395385334174174 -0.0013559768618955409 0.030598587480129835 0 0 0
1455 1 0.0016 1600 0.0011196467480264055 -0.0015376928292573225 0.03261557866362519 0 0 0
1456 1 0.0016 1600 0.002935836330741855 -0.002255207764107899 0.028324376360375183 0 0 0
1457 1 0.0016 1600 -0.0012623898465220279 -0.001554542831956966 0.030067798057940454 0 0 0
1458 1 0.0016 1600 -0.00670994297956351 -0.0026111351661614072 0.03190492141888585 0 0 0
1459 1 0.0016 1600 -0.004189889168106426 -0.0015237819985494518 0.028838687760434117 0 0 0
1460 1 0.0016 1600 0.0015045843739466783 -0.005403116045105482 0.02955323577287215 0 0 0
1461 1 0.0016 1600 0.002958095733132081 -0.003369043336434146 0.025712731301720956 0 0 0
1462 1 0.0016 1600 -0.00216201313552321 -0.003697251565292832 0.028597910466176924 0 0 0
1463 1 0.0016 1600 -0.006497485192944256 -0.0031024237397183313 0.028026561725069964 0 0 0
1464 1 0.0016 1600 -0.0035107259708158085 -0.0062861222585116755 0.02965791127739081 0 0 0
1465 1 0.0016 1600 -0.006101186650799975 0.0033559646531867967 0.02691826325045432 0 0 0
1466 1 0.0016 1600 -0.0012686831541090324 0.001537033767948814 0.03008768503553848 0 0 0
1467 1 0.0016 1600 0.000660659522392468 -0.006411251587710378 0.028637933542425175 0 0 0
1468 1 0.0016 1600 -0.0016854692857378865 -0.0011471941836829437 0.02857973834569615 0 0 0
1469 1 0.0016 1600 -0.0037552853163094345 0.006143374541111977 0.026078097131748783 0 0 0
1470 1 0.0016 1600 -0.0007393703968494767 0.0036119070378802668 0.032041878313264036 0 0 0
1471 1 0.0016 1600 -0.0036697108430402327 0.000660485185506659 0.028327771553843868 0 0 0
1472 1 0.0016 1600 -0.0037011106671128438 -0.005362404204307654 0.030950584513559875 0 0 0
1473 1 0.0016 1600 -0.005073359940785759 0.005109009547804315 0.028089020559982976 0 0 0
1474 1 0.0016 1600 0.002400751971171926 0.003839198866100952 0.03225623194660773 0 0 0
1475 1 0.0016 1600 -0.0015437067694699955 0.004576527884063586 0.03084521832359602 0 0 0
1476 1 0.0016 1600 -0.0023350582554720603 0.006791430574263795 0.02777075737137286 0 0 0
1477 1 0.0016 1600 -0.002479616063952444 -0.006759656695369805 0.02852998124604388 0 0 0
1478 1 0.0016 1600 -0.0036633754462142075 -0.00413003568711243 0.02671826691679589 0 0 0
1479 1 0.0016 1600 0.0034480280530952688 -0.005120247782618335 0.029809626255558726 0 0 0
1480 1 0.0016 1600 0.0033808829971564754 -0.006356922595199021 0.03205172743891143 0 0 0
1481 1 0.0016 1600 0.003719202444845666 -0.003982942333592665 0.030901708948565327 0 0 0
1482 1 0.0016 1600 0.0013147382991399005 0.0070790489568428976 0.029517547006478715 0 0 0
1483 1 0.0016 1600 -0.0015877023950239175 0.003788727351551919 0.02824389442992543 0 0 0
1484 1 0.0016 1600 -0.004333857078190605 0.0016247415001598624 0.02945921233560133 0 0 0
1485 1 0.0016 1600 0.0003740230512869731 0.00046177053808930783 0.026738707142682505 0 0 0
1486 1 0.0016 1600 -0.0034798547393838086 0.004760802686733578 0.02845711176114735 0 0 0
1487 1 0.0016 1600 -0.0024856739106202726 0.002007604498785637 0.0326912583000019 0 0 0
1488 1 0.0016 1600 -0.002622031147753661 -0.0008573421263384473 0.032511473681680135 0 0 0
1489 1 0.0016 1600 0.006840385451000014 -0.002247144463982407 0.03165039965839198 0 0 0
1490 1 0.0016 1600 -0.007111110116977401 0.0011284795731835195 0.030544325588035954 0 0 0
1491 1 0.0016 1600 0.005932810216484552 0.004079500880048374 0.029291544766149466 0 0 0
1492 1 0.0016 1600 0.0020626215233153834 0.0013005868653963506 0.02973453137834396 0 0 0
1493 1 0.0016 1600 0.0020497604665840677 -0.006150031723627262 0.027886130898106983 0 0 0
1494 1 0.0016 1600 0.004651313774375386 -0.004240049453596225 0.029025307140218917 0 0 0
1495 1 0.0016 1600 0.006192303726394444 0.0036742121373225713 0.02776590626524048 0 0 0
1496 1 0.0016 1600 -0.002762565719600217 -0.006649154771369783 0.031101363015458135 0 0 0
1497 1 0.0016 1600 0.00011489467106066246 -0.005604502720627552 0.031576467268551726 0 0 0
1498 1 0.0016 1600 0.0010296311221356263 -0.00712615589031029 0.025611946803733122 0 0 0
1499 1 0.0016 1600 -0.002186394217312941 -0.005476387800794895 0.030178405432875893 0 0 0
1500 1 0.0016 1600 -0.0031975256469951485 -0.004269087165688144 0.029896936535690546 0 0 0
1501 1 0.0016 1600 -0.0047255170545226965 0.00340671186763016 0.031540041888902845 0 0 0
1502 1 0.0016 1600 -0.00028730230373430195 -0.003233421473575559 0.03054992865392813 0 0 0
1503 1 0.0016 1600 -0.0025776315050953674 0.00016731781616649417 0.02644586120643444 0 0 0
1504 1 0.0016 1600 0.00030633595363751756 -0.0018583462387955067 0.02998739914818107 0 0 0
1505 1 0.0016 1600 0.0015096241080269181 -0.0013961632295866298 0.0290393340887108 0 0 0
1506 1 0.0016 1600 -0.0008468844973839113 0.0012828530675528778 0.03287863729027603 0 0 0
1507 1 0.0016 1600 -0.00015243103586657427 -0.007198652298965736 0.029774371375063138 0 0 0
1508 1 0.0016 1600 0.0036568225780958443 0.004491472610885103 0.030488683556720388 0 0 0
1509 1 0.0016 1600 -0.0009919816790056517 0.00412519297013732 0.026797693480429086 0 0 0
1510 1 0.0016 1600 -0.000382964399858743 0.0030905428780948025 0.029212428617769053 0 0 0
1511 1 0.0016 1600 0.00411008539691566 -0.0003162688194824075 0.030406585850100126 0 0 0
1512 1 0.0016 1600 0.0051835719096684435 0.0022923701448991046 0.032118847231405075 0 0 0
1513 1 0.0016 1600 -0.004962484526768389 -0.0032871171191584093 0.027585319647432854 0 0 0
1514 1 0.0016 1600 -0.0025666286625119143 -0.003546977871876965 0.025491654091291022 0 0 0
1515 1 0.0016 1600 -0.0033458223223990493 -0.0024049393648229106 0.026295988192938165 0 0 0
1516 1 0.0016 1600 -0.0013583114308107756 0.0005919730314104672 0.03138422586771102 0 0 0
1517 1 0.0016 1600 0.005882927806380945 -0.0041511740344831495 0.026701872037171163 0 0 0
1518 1 0.0016 1600 0.005249120442883655 0.0021154535594672267 0.030530090626842525 0 0 0
1519 1 0.0016 1600 -0.005312340780918069 0.004860502178715391 0.026020155199158006 0 0 0
1520 1 0.0016 1600 0.004589192378507219 0.0033825754044165468 0.02980993590851648 0 0 0
1521 1 0.0016 1600 0.004847159540467345 0.0053242901391624175 0.02660068089826798 0 0 0
1522 1 0.0016 1600 -2.0993148324118562e-05 0.001965115505912938 0.02635083173045559 0 0 0
1523 1 0.0016 1600 0.0039239692919822156 -0.0018604581963067583 0.030972830067616423 0 0 0
1524 1 0.0016 1600 -0.007105706051250638 -0.0011624942445421795 0.025450030087588716 0 0 0
1525 1 0.0016 1600 -0.0008526077797120409 0.0009896550082734645 0.02864306969917781 0 0 0
1526 1 0.0016 1600 -0.002484447251885686 -0.0023099726650203166 0.0293341235146229 0 0 0
1527 1 0.0016 1600 -4.417817852243097e-05 0.004178595968587488 0.028085283121304563 0 0 0
1528 1 0.0016 1600 0.0025561756679479317 -0.00673117700124223 0.025881636900168536 0 0 0
1529 1 0.0016 1600 -0.004944941790088504 -0.0026060836214256674 0.0312779545979245 0 0 0
1530 1 0.0016 1600 -0.0029236882474203323 -0.0052249553258684606 0.028614016039289567 0 0 0
1531 1 0.0016 1600 0.005992949578220416 -0.003780119810908076 0.028254196009931048 0 0 0
1532 1 0.0016 1600 0.004219615471601948 -0.0013631796813111678 0.027853983980344697 0 0 0
1533 1 0.0016 1600 -0.002443016073077035 0.004661078644629634 0.027205937805196923 0 0 0
1534 1 0.0016 1600 0.004569568868500871 -0.0036741925884432695 0.027531236469026013 0 0 0
1535 1 0.0016 1600 0.005768968466695167 0.0008753797678757441 0.031397163714108584 0 0 0
1536 1 0.0016 1600 0.0016072419132450023 -0.0027832722027756867 0.029879236770399456 0 0 0
1537 1 0.0016 1600 0.0050832561808184734 -0.005099821280792942 0.025692076428774163 0 0 0
1538 1 0.0016 1600 -0.0002797766007902424 0.00719457809889138 0.029577438281694887 0 0 0
1539 1 0.0016 1600 -0.0017635700704013394 0.002518057882652042 0.02665475073504133 0 0 0
1540 1 0.0016 1600 0.005596561859188263 0.00011426325349471975 0.030000481304044067 0 0 0
1541 1 0.0016 1600 0.004930540396296446 0.0028710239856950207 0.028333169143670418 0 0 0
1542 1 0.0016 1600 0.007104114565210696 0.0011729653077364322 0.028608953997071234 0 0 0
1543 1 0.0016 1600 0.0036426829504546763 0.0012735022375761932 0.029485383379384382 0 0 0
1544 1 0.0016 1600 -0.004712021268799371 0.004066858220008341 0.02927556961864166 0 0 0
1545 1 0.0016 1600 0.005706068256596124 -0.0012928476944562436 0.029030648022356206 0 0 0
1546 1 0.0016 1600 0.002824422034089033 -0.0037589935707985737 0.02725838972425654 0 0 0
1547 1 0.0016 1600 -0.00012978688058660318 0.0071989131727242545 0.031170196233850547 0 0 0
1548 1 0.0016 1600 -0.0043078910651625476 -0.00576928255043083 0.03237385260192158 0 0 0
1549 1 0.0016 1600 0.00481134359076989 0.00535683160595321 0.03184356967430089 0 0 0
1550 1 0.0016 1600 0.00319830804998218 0.0006974314163513157 0.028060526362450915 0 0 0
1551 1 0.0016 1600 -0.004277979247566995 -0.005791462706705011 0.025528495791533712 0 0 0
1552 1 0.0016 1600 -0.002294543312152091 -0.005456151645494556 0.027160532084763055 0 0 0
1553 1 0.0016 1600 0.006648897514953926 -0.0027618986290691948 0.029299448258200928 0 0 0
1554 1 0.0016 1600 0.0015294356605961659 0.005837632722397121 0.027220320558828816 0 0 0
1555 1 0.0016 1600 -0.006342538505410987 0.0034078265820092794 0.031592382348148096 0 0 0
1556 1 0.0016 1600 0.0030641674344046746 -0.006515610766515885 0.03049154035766272 0 0 0
1557 1 0.0016 1600 0.005232716439897096 -0.002557462837348929 0.03164230452315042 0 0 0
1558 1 0.0016 1600 -1.6912505768775785e-05 0.0055535771262900215 0.03214988266325267 0 0 0
1559 1 0.0016 1600 0.003907425117852482 0.004618963447313158 0.02891373635998851 0 0 0
1560 1 0.0016 1600 -0.004519435679811223 -8.641897479754689e-05 0.029459032805111578 0 0 0
1561 1 0.0016 1600 0.0015257575577527134 0.004362261254702818 0.02783847493991873 0 0 0
1562 1 0.0016 1600 -0.0020467246285652057 0.0069034760323916184 0.026201445324812167 0 0 0
1563 1 0.0016 1600 0.0013385051837566404 0.0027128314928111658 0.029935703832294568 0 0 0
1564 1 0.0016 1600 -0.0023150928433058127 0.003883430430269904 0.03209517746035406 0 0 0
1565 1 0.0016 1600 0.0010203837169445076 -0.006502101174959544 0.030610068198005 0 0 0
1566 1 0.0016 1600 0.005174343166112969 0.001470965223962866 0.029067716412611 0 0 0
1567 1 0.0016 1600 -0.0057959760428424245 -0.0016344831814624904 0.028130889018674755 0 0 0
1568 1 0.0016 1600 -0.0031046655800669497 -0.0025152821677608835 0.027873695754214556 0 0 0
1569 1 0.0016 1600 0.0016076383741768197 0.0026174151622584533 0.031509928213524704 0 0 0
1570 1 0.0016 1600 -0.004765280473461199 -0.003237157935173465 0.025977739316510047 0 0 0
1571 1 0.0016 1600 -0.0008497547631866636 0.00460877297857756 0.02940393786770664 0 0 0
1572 1 0.0016 1600 -0.005340701876814144 -0.0024745452571381782 0.02941414990702788 0 0 0
1573 1 0.0016 1600 -0.005748799888634315 0.0009285390301520842 0.0297294523958445 0 0 0
1574 1 0.0016 1600 -0.004074397956516247 -0.001011136586179213 0.030686329788511917 0 0 0
1575 1 0.0016 1600 0.0071892558557982884 -0.0003961665621414727 0.02911249701185735 0 0 0
1576 1 0.0016 1600 0.0025199860238663816 -0.0007490379217035655 0.027981143746102676 0 0 0
1577 1 0.0016 1600 -0.007185019414942012 -0.0004661898553192838 0.030438695657983652 0 0 0
1578 1 0.0016 1600 -0.0044949148133235604 -0.0002786513071289312 0.03204517335490799 0 0 0
1579 1 0.0016 1600 0.005320047735919669 -0.004851668487301807 0.03192183420298529 0 0 0
1580 1 0.0016 1600 -0.0013428736578577486 -0.005170026628764656 0.028854188676394818 0 0 0
1581 1 0.0016 1600 -0.0008056382846007356 0.007154946163809762 0.028067166860545098 0 0 0
1582 1 0.0016 1600 -0.0005388833372711651 0.0027162308084738864 0.027664931222376368 0 0 0
1583 1 0.0016 1600 -0.004949445002202411 -0.005229243709365002 0.02820158117168595 0 0 0
1584 1 0.0016 1600 -0.005995778278272672 -0.003986446876256662 0.032302693351961544 0 0 0
1585 1 0.0016 1600 0.0031912507154753596 -0.003598744192063006 0.029154362057080694 0 0 0
1586 1 0.0016 1600 0.0025010744432343323 0.0013073471733365725 0.03172292010006371 0 0 0
1587 1 0.0016 1600 -0.004686416460374676 -0.0038495916408663416 0.030305184624001866 0 0 0
1588 1 0.0016 1600 -0.006099972990489144 0.0005244257002215746 0.028221780001292832 0 0 0
1589 1 0.0016 1600 0.005441653422797955 -0.004714946599654422 0.030332542363458732 0 0 0
1590 1 0.0016 1600 0.0006757579181601327 0.007168453521004108 0.027463372733335628 0 0 0
1591 1 0.0016 1600 -0.0027545633630956193 0.00202831138093458 0.029755049640744165 0 0 0
1592 1 0.0016 1600 -0.001901784195044132 0.002177953340250879 0.028306876511655765 0 0 0
1593 1 0.0016 1600 -0.0017756338618695182 0.006977758202963861 0.030101609556699632 0 0 0
1594 1 0.0016 1600 0.0007040041093310397 -0.004488352072824499 0.03059328156422799 0 0 0
1595 1 0.0016 1600 0.0013586227790647713 -0.00011406411433161558 0.029984122214101017 0 0 0
1596 1 0.0016 1600 0.0038618170325568192 -0.004836384858773562 0.026690632134360844 0 0 0
1597 1 0.0016 1600 0.0007851635970072624 -0.0056893044685490555 0.026584817565300494 0 0 0
1598 1 0.0016 1600 -0.0030066036399702353 -0.0006031508170313732 0.029396614955527967 0 0 0
1599 1 0.0016 1600 0.0005513576877589561 -0.003847335513358353 0.0291354159584008 0 0 0
1600 1 0.0016 1600 -0.0016025565449415767 0.003093488700630106 0.030247937909344783 0 0 0
1601 1 0.0016 1600 -0.006057226707973664 0.003892805747873289 0.028424736715806316 0 0 0
1602 1 0.0016 1600 -0.003959436435519226 0.002993768741073083 0.030197568465282862 0 0 0
1603 1 0.0016 1600 0.002476799333381759 -0.0003290349831567304 0.03257404709828177 0 0 0
1604 1 0.0016 1600 -0.0027838147679069107 0.003582727354272699 0.02928618257237347 0 0 0
1605 1 0.0016 1600 0.00636080719096883 0.003373723870054814 0.03205007043431896 0 0 0
1606 1 0.0016 1600 0.004851853752531832 -0.0031065298838590144 0.03018869891165599 0 0 0
1607 1 0.0016 1600 -0.00694102196651374 -0.0019156339621500989 0.027049853729645974 0 0 0
1608 1 0.0016 1600 0.007098092757386192 0.0012075520615219184 0.026262959552919154 0 0 0
1609 1 0.0016 1600 -0.005334128285704775 0.004836147620670954 0.03053284869075212 0 0 0
1610 1 0.0016 1600 0.006234559854947246 -0.003601781452817069 0.032324308845821534 0 0 0
1611 1 0.0016 1600 0.0030067554035649543 0.004811677427226876 0.027433481241410915 0 0 0
1612 1 0.0016 1600 0.0006973486355714672 -0.000902369519852197 0.03120924625718319 0 0 0
1613 1 0.0016 1600 -0.0015611431527962998 1.3984617475627487e-05 0.02969448504329489 0 0 0
1614 1 0.0016 1600 -0.0007811256710034279 -0.002965881279439639 0.029052072946785603 0 0 0
1615 1 0.0016 1600 -0.0034758017238245256 0.002451333154993098 0.028391398046901575 0 0 0
1616 1 0.0016 1600 0.002469247141326293 0.006763464505630312 0.03057909000711895 0 0 0
1617 1 0.0016 1600 3.212762028136273e-05 -0.007200137742507292 0.0316567525916151 0 0 0
1618 1 0.0016 1600 0.003422084074083348 -0.004882454242515306 0.028227914417504968 0 0 0
1619 1 0.0016 1600 0.00199114844055643 -0.0019486713703771726 0.027064676370319812 0 0 0
1620 1 0.0016 1600 -0.0023833257683956205 0.005166226156044938 0.02961432581163913 0 0 0
1621 1 0.0016 1600 0.0033539605096825687 -0.006371333225923584 0.0288089964089494 0 0 0
1622 1 0.0016 1600 0.0011834003628781711 0.0063203322495234875 0.03142142520097731 0 0 0
1623 1 0.0016 1600 -0.00011091764884284558 -0.005599410344510391 0.02978030827220556 0 0 0
1624 1 0.0016 1600 0.0010667068872650272 -0.0026314916293174555 0.025952055558696015 0 0 0
1625 1 0.0016 1600 -0.002885750356466756 0.0015302939072180546 0.027224250811684832 0 0 0
1626 1 0.0016 1600 -0.0007806097366168253 -0.00404245111868799 0.02786858419837797 0 0 0
1627 1 0.0016 1600 0.0033711661647400646 0.0063068997794595415 0.029243301147622646 0 0 0
1628 1 0.0016 1600 0.00308168287721849 0.006507316400373563 0.032034749562447395 0 0 0
1629 1 0.0016 1600 -0.007100615251448869 0.001193124284714932 0.032483301786546674 0 0 0
1630 1 0.0016 1600 0.00047595932674743827 0.0014265348259201339 0.029534434280168182 0 0 0
1631 1 0.0016 1600 0.00216636207000558 -0.0034655690762425617 0.03173224894921085 0 0 0
1632 1 0.0016 1600 -0.0037714815969579975 -0.006133275444114938 0.02760611618686142 0 0 0
1633 1 0.0016 1600 0.004065685078526278 0.001158831952550824 0.031024018167706197 0 0 0
1634 1 0.0016 1600 -0.006226613935732187 0.003615665279694334 0.030010298687124973 0 0 0
1635 1 0.0016 1600 -0.0012875154809878508 0.00607893771512614 0.03133180647381183 0 0 0
1636 1 0.0016 1600 0.000180800917537457 0.0023147719192579777 0.032216323134437716 0 0 0
1637 1 0.0016 1600 -0.0063585993827058535 -0.003377788543257848 0.030255375549559916 0 0 0
1638 1 0.0016 1600 0.006326509539043347 -0.003437617791056286 0.03071333649204364 0 0 0
1639 1 0.0016 1600 -0.0018118215499286637 -0.0011436814288425445 0.02698495352647853 0 0 0
1640 1 0.0016 1600 -0.003102904156921007 0.004245380417612085 0.030707068218311432 0 0 0
1641 1 0.0016 1600 0.006484865706456479 0.0031286730402451434 0.030453770679536023 0 0 0
1642 1 0.0016 1600 -0.005702105091507705 0.0024584689252160267 0.029038403671679893 0 0 0
1643 1 0.0016 1600 -0.0060301659397878505 -0.0006157619808058357 0.029341806249413547 0 0 0
1644 1 0.0016 1600 0.004046510278758289 0.00044009254506169587 0.025762839101351093 0 0 0
1645 1 0.0016 1600 -0.0021458278455275316 0.0002804902979707239 0.028023605669319974 0 0 0
1646 1 0.0016 1600 -0.004653851233302514 0.0034193263782882595 0.0262392557804947 0 0 0
1647 1 0.0016 1600 -0.0039527983312114615 0.005331281515965316 0.029895726753413072 0 0 0
1648 1 0.0016 1600 -0.004808165648060558 -0.005359327379708292 0.029789892880559474 0 0 0
1649 1 0.0016 1600 -0.0031662544266637485 0.006466687595366939 0.030705314576125683 0 0 0
1650 1 0.0016 1600 0.0008917756621178 0.00421944690394914 0.029382055412967074 0 0 0
1651 1 0.0016 1600 0.0039680248614936 0.004004418152921333 0.031980443998332816 0 0 0
1652 1 0.0016 1600 0.00703677864228693 -0.0015244669953774542 0.03023651476747942 0 0 0
1653 1 0.0016 1600 0.0024628576332635507 -0.001896012830312917 0.031823614990743376 0 0 0
1654 1 0.0016 1600 -0.0017813316285058083 -0.006976261780627694 0.027107002923529556 0 0 0
1655 1 0.0016 1600 -0.003414139568937589 -0.003455507885923703 0.03126137339182989 0 0 0
1656 1 0.0016 1600 -0.003887367945277852 -0.002481420906389696 0.030083864124472493 0 0 0
1657 1 0.0016 1600 -0.005592427226509906 -0.003997922363789574 0.028995107801353837 0 0 0
1658 1 0.0016 1600 -0.007048069090837892 0.0014719576357388109 0.026037587402473087 0 0 0
1659 1 0.0016 1600 0.00586444822126782 0.00017903378319261562 0.02842453560828422 0 0 0
1660 1 0.0016 1600 0.0015709832829872605 0.007026614861699955 0.032803603252841214 0 0 0
1661 1 0.0016 1600 -0.004665246892827977 0.003366486356697296 0.027837972188749727 0 0 0
1662 1 0.0016 1600 0.00013923277113272325 -0.0005709424191186837 0.02905239344953892 0 0 0
1663 1 0.0016 1600 -0.006923681428087958 -0.0019767388870411406 0.02921251148692143 0 0 0
1664 1 0.0016 1600 0.0024478767775974906 0.003988548478193718 0.029091271400481993 0 0 0
1665 1 0.0016 1600 -0.002361736734410643 -0.00463118202177669 0.03152531818590583 0 0 0
1666 1 0.0016 1600 0.006947467454927595 0.001630910069921154 0.03013374236466887 0 0 0
1667 1 0.0016 1600 0.005383989936888295 -0.004780527101629186 0.03397245509245925 0 0 0
1668 1 0.0016 1600 -0.004369784918358272 0.005722347188454149 0.03145173580988996 0 0 0
1669 1 0.0016 1600 9.138260549314976e-05 -0.0039056385872926853 0.0319513909736199 0 0 0
1670 1 0.0016 1600 0.0012851953251730788 -0.004705378930715265 0.03409411719887433 0 0 0
1671 1 0.0016 1600 -0.005208159109867104 -0.004971846196502778 0.03131878004854162 0 0 0
1672 1 0.0016 1600 0.0033550239009319215 0.004491897669474187 0.033375450142764926 0 0 0
1673 1 0.0016 1600 0.00438069850605904 -0.00034797200133208635 0.03348233169392236 0 0 0
1674 1 0.0016 1600 -0.00302176423713284 0.0010685545805870372 0.03387045155163823 0 0 0
1675 1 0.0016 1600 -0.005220361785090567 -0.0049588209530730554 0.033408388763972244 0 0 0
1676 1 0.0016 1600 -0.00042401273995160794 0.004143048083448154 0.03351767670162147 0 0 0
1677 1 0.0016 1600 -0.0033098126062597742 -0.0001263778872199466 0.03526619141385911 0 0 0
1678 1 0.0016 1600 0.0025262357791021955 -0.0015323931134185794 0.030266943989997755 0 0 0
1679 1 0.0016 1600 0.0022658829526346676 0.005265771275787303 0.0342555851154649 0 0 0
1680 1 0.0016 1600 -0.002539290935056024 -0.0033210704313001954 0.03559489417555692 0 0 0
1681 1 0.0016 1600 0.0038954322781850088 0.0060553829354195645 0.030733556586804156 0 0 0
1682 1 0.0016 1600 0.004457464217849006 -0.0056543421629434475 0.033004033257408444 0 0 0
1683 1 0.0016 1600 -7.830105786517384e-05 -0.0025770921374154007 0.03282645505277702 0 0 0
1684 1 0.0016 1600 0.0036368063344072543 -0.0029432425984229284 0.0321150041672954 0 0 0
1685 1 0.0016 1600 -4.5918195845846894e-05 0.004042836646464504 0.030666121034948163 0 0 0
1686 1 0.0016 1600 -0.007200010432923433 -9.765852188409336e-06 0.03353354112225301 0 0 0
1687 1 0.0016 1600 -0.0010282079616649566 0.0011194206747399459 0.03445974584792964 0 0 0
1688 1 0.0016 1600 -0.0014390072215260785 0.005075163824545126 0.03270500130830696 0 0 0
1689 1 0.0016 1600 -0.0056657604334786485 -0.0013944064604636275 0.032072166039388485 0 0 0
1690 1 0.0016 1600 0.0010823100210963475 0.0011810754553205334 0.03099441666396838 0 0 0
1691 1 0.0016 1600 -0.005541164139796072 0.002320293187285913 0.03244955384815882 0 0 0
1692 1 0.0016 1600 -0.0009353592166147706 -0.00468160183970588 0.030798784566380744 0 0 0
1693 1 0.0016 1600 0.002141657634605291 0.0003938746248906601 0.03486404139716063 0 0 0
1694 1 0.0016 1600 0.0019724959451561546 -0.006924830950916744 0.029395899241336797 0 0 0
1695 1 0.0016 1600 0.003698501903925058 -0.004519450601996753 0.033838226050578415 0 0 0
1696 1 0.0016 1600 0.004451966861153203 -0.0014870192962410478 0.03460358214219137 0 0 0
1697 1 0.0016 1600 0.0027564743632407735 -0.0033020505355404626 0.03340181742460808 0 0 0
1698 1 0.0016 1600 0.005623749441791561 0.004496070430081744 0.032919965232245565 0 0 0
1699 1 0.0016 1600 0.00030073414640570823 -7.344008126329677e-05 0.03350196256212498 0 0 0
1700 1 0.0016 1600 -0.005451166100559639 0.0025174773097964005 0.034341820913443316 0 0 0
1701 1 0.0016 1600 -0.006477101552489938 -0.003144584254461498 0.03357513456044607 0 0 0
1702 1 0.0016 1600 -0.0029559217619375914 -0.006565314731097389 0.03268732499261891 0 0 0
1703 1 0.0016 1600 -0.0010458649445299825 -0.0006826589851480172 0.03229930447276987 0 0 0
1704 1 0.0016 1600 0.005791871192574858 -0.0011387477506423836 0.033631398244274996 0 0 0
1705 1 0.0016 1600 -0.004399111336926978 -0.004069029496794096 0.032362717754810415 0 0 0
1706 1 0.0016 1600 0.005515201762680769 -0.0007977435274941502 0.03209298253706049 0 0 0
1707 1 0.0016 1600 -0.003367556473795092 -0.003047924085699995 0.03303554375333411 0 0 0
1708 1 0.0016 1600 -0.0071996354527607 7.664163454775498e-05 0.035348989687233164 0 0 0
1709 1 0.0016 1600 0.0031656100327701435 -0.004776381194141087 0.03217596692630279 0 0 0
1710 1 0.0016 1600 -0.004108214368818048 0.001941985599397495 0.031846777984943314 0 0 0
1711 1 0.0016 1600 0.007090084343224255 -0.001253731456235311 0.03455934608014077 0 0 0
1712 1 0.0016 1600 0.0036360809080552446 0.00223396566297988 0.03392861695251423 0 0 0
1713 1 0.0016 1600 0.0016069503852203352 -0.001738268994605692 0.03561331540270906 0 0 0
1714 1 0.0016 1600 -0.006175372006421306 -0.0018250628022511795 0.030618134817638643 0 0 0
1715 1 0.0016 1600 0.0007147783135427517 0.0034932666143261673 0.03443449174330863 0 0 0
1716 1 0.0016 1600 0.0019038928742028283 -0.0069438270598222085 0.03186846130321669 0 0 0
1717 1 0.0016 1600 -0.0030472387982028127 -0.004054041923279443 0.03426652016163863 0 0 0
1718 1 0.0016 1600 0.007131461025325192 -0.0009914662789851094 0.03259802277691303 0 0 0
1719 1 0.0016 1600 0.0017831085600265109 0.004227038075319149 0.03537260736270293 0 0 0
1720 1 0.0016 1600 0.0017862963671176394 0.005340006879987099 0.030310179733802206 0 0 0
1721 1 0.0016 1600 0.0029756691272782715 -0.0016540202067577207 0.03331965837108187 0 0 0
1722 1 0.0016 1600 -0.005105637963099038 -0.0026638794504676086 0.032868712432208014 0 0 0
1723 1 0.0016 1600 0.0029833184998190013 -0.002065054605333317 0.03486585497716667 0 0 0
1724 1 0.0016 1600 -0.006929316737254521 -0.0016624199859311159 0.03317728097037862 0 0 0
1725 1 0.0016 1600 -0.003927057519048831 0.004720406499689131 0.03262824773624278 0 0 0
1726 1 0.0016 1600 -0.0012165003733995872 -0.003640604618487355 0.034753427473411654 0 0 0
1727 1 0.0016 1600 -0.0002947499213700347 0.00501389459249272 0.03485356681565446 0 0 0
1728 1 0.0016 1600 -0.005553364874734317 -0.0003693041707963613 0.030848897398929147 0 0 0
1729 1 0.0016 1600 0.0004278058781838082 -0.006925091824080055 0.03421790315922388 0 0 0
1730 1 0.0016 1600 -0.001731196024466172 -0.0069889567776858005 0.02992534246478402 0 0 0
1731 1 0.0016 1600 -0.0010469099696672405 -0.0018616807380898335 0.03476236144428482 0 0 0
1732 1 0.0016 1600 0.0022088532357395396 0.0019707939180310004 0.034602029593371525 0 0 0
1733 1 0.0016 1600 -0.0018109999063213365 -0.0035116809092903987 0.030147794561780225 0 0 0
1734 1 0.0016 1600 -0.005668930653191529 0.004438922944790037 0.03468607897915769 0 0 0
1735 1 0.0016 1600 -0.003908596779518652 -0.0014956882939470134 0.033425306998973885 0 0 0
1736 1 0.0016 1600 0.005344536574690917 0.0035008722449897368 0.03466168479204101 0 0 0
1737 1 0.0016 1600 0.005338050704465584 0.004077198965647214 0.031041008496328164 0 0 0
1738 1 0.0016 1600 -0.0028310830019769844 0.00082202064651252 0.030803016702724412 0 0 0
1739 1 0.0016 1600 -0.007177450964601731 -0.0005700106686268214 0.03203509762459754 0 0 0
1740 1 0.0016 1600 0.004987845615655328 0.005192776634500516 0.029944941416200892 0 0 0
1741 1 0.0016 1600 -0.0012274591830522016 0.0027744232765781244 0.0333147362440977 0 0 0
1742 1 0.0016 1600 -0.001417646940365809 -0.0003270491271109301 0.035021632499467194 0 0 0
1743 1 0.0016 1600 0.006189547381879035 -0.0036784895880927417 0.03480699818205719 0 0 0
1744 1 0.0016 1600 0.001740535542652867 -0.0008229268562050442 0.03390577289743443 0 0 0
1745 1 0.0016 1600 0.0011405171565811534 0.004608565523990457 0.031578226747941564 0 0 0
1746 1 0.0016 1600 0.004127344228126483 0.0008348815668525274 0.03452941580676235 0 0 0
1747 1 0.0016 1600 0.007174427461630674 0.0006077303089274763 0.032587911154056265 0 0 0
1748 1 0.0016 1600 0.0014069846694842304 0.0008403338014292865 0.032792770775741366 0 0 0
1749 1 0.0016 1600 -0.001973282556703317 -0.005039661765479397 0.03492610738917835 0 0 0
1750 1 0.0016 1600 0.005336437872764979 -0.002641693517591676 0.03393710269804996 0 0 0
1751 1 0.0016 1600 0.0006061836504990625 0.006216328257677864 0.03540333133618434 0 0 0
1752 1 0.0016 1600 0.006783549947981821 -0.0024132533115716927 0.03324393677520164 0 0 0
1753 1 0.0016 1600 0.0003401254932888418 -0.0015890111785570543 0.034013137010521464 0 0 0
1754 1 0.0016 1600 0.00675414579909782 0.00023736731142669394 0.03408653915366084 0 0 0
1755 1 0.0016 1600 0.006938800858929941 0.0019220393868264807 0.03170680666307105 0 0 0
1756 1 0.0016 1600 0.00011218593961974513 0.00037330318000399024 0.03197733102091937 0 0 0
1757 1 0.0016 1600 -0.004430141411407998 0.0007691776324003926 0.03080767224183048 0 0 0
1758 1 0.0016 1600 -0.00030637704875377726 0.002422572926115951 0.0350432582767887 0 0 0
1759 1 0.0016 1600 0.001270343541811375 -0.005043836285533495 0.032530468006359364 0 0 0
1760 1 0.0016 1600 0.004759726755013185 -0.0037414161667005705 0.032928290742643584 0 0 0
1761 1 0.0016 1600 0.004372379853370376 -0.005720530229252055 0.030969180122255104 0 0 0
1762 1 0.0016 1600 -0.004354846680771365 0.003911971918597601 0.03394092916053628 0 0 0
1763 1 0.0016 1600 0.004067574499943381 -0.003231590322806468 0.034712843706740576 0 0 0
1764 1 0.0016 1600 -0.0004980495261674605 0.006001765057070367 0.03360835903063119 0 0 0
1765 1 0.0016 1600 -0.0037259610542472723 0.0014185086368196102 0.035264003692688096 0 0 0
1766 1 0.0016 1600 -0.004033327605066462 -0.005964259173787277 0.033937920847377415 0 0 0
1767 1 0.0016 1600 -0.0019204267891806516 0.006939173683407925 0.03412306061008053 0 0 0
1768 1 0.0016 1600 -0.00014380661850252774 -0.005430759765265533 0.034224983722095675 0 0 0
1769 1 0.0016 1600 0.0036135383288559745 0.002449611403243608 0.031853893650436886 0 0 0
1770 1 0.0016 1600 -0.0027888679875163894 0.0026154810839116847 0.031242684084203137 0 0 0
1771 1 0.0016 1600 -0.0032073235394046804 0.0006223197749142892 0.032345211245575906 0 0 0
1772 1 0.0016 1600 0.003931298463858054 -0.0006086601805760603 0.03196918442736314 0 0 0
1773 1 0.0016 1600 -0.0002932718400815133 -0.004012039009666535 0.03350067083781717 0 0 0
1774 1 0.0016 1600 -0.0017929794579477575 0.00013037072981977386 0.03345844165691453 0 0 0
1775 1 0.0016 1600 -0.005290747074283305 -0.0006905361940624788 0.03345904378391393 0 0 0
1776 1 0.0016 1600 -0.0035937194535024916 0.003160290554932205 0.03274700548626157 0 0 0
1777 1 0.0016 1600 0.005627464652540779 0.0005239785189947506 0.03298732358000819 0 0 0
1778 1 0.0016 1600 -0.002715820895590111 -0.006668221168023596 0.034511060633747065 0 0 0
1779 1 0.0016 1600 -0.003332116379790568 0.005034714028686554 0.03444411737209945 0 0 0
1780 1 0.0016 1600 0.005394756014425836 0.001947383547845591 0.03367959485182988 0 0 0
1781 1 0.0016 1600 -0.0022583102708083145 -0.0006628399797893529 0.030965635208771495 0 0 0
1782 1 0.0016 1600 -0.004571576338349596 -0.0036325802542669632 0.034024615002418206 0 0 0
1783 1 0.0016 1600 -0.004390150147036172 0.0017636113048296912 0.03341139625326403 0 0 0
1784 1 0.0016 1600 0.004497849041499623 -0.0018150533063211786 0.03285409951468611 0 0 0
1785 1 0.0016 1600 -0.0020258479699882355 0.002258113950521155 0.034977282499708065 0 0 0
1786 1 0.0016 1600 -0.006504528722518832 0.0011504637187818643 0.034387984582220504 0 0 0
1787 1 0.0016 1600 0.004178995639557509 -0.005863121510640537 0.03456562533331336 0 0 0
1788 1 0.0016 1600 -0.0024472522161996316 0.0037711354648990326 0.033685618700289126 0 0 0
1789 1 0.0016 1600 -0.0015162189506974307 -0.007038584510124116 0.032025770285054905 0 0 0
1790 1 0.0016 1600 -0.005444827440791118 -0.002395381645471123 0.03454093195632787 0 0 0
1791 1 0.0016 1600 0.0018400069664854589 -0.0069610478167239425 0.033466931008218494 0 0 0
1792 1 0.0016 1600 -0.001955810533889125 -0.0037954074686800325 0.033125122339391584 0 0 0
1793 1 0.0016 1600 0.0028315785729634284 0.0009136227085473897 0.033517281278983235 0 0 0
1794 1 0.0016 1600 -0.0058377140630999705 0.001059393282439479 0.03151039547727358 0 0 0
1795 1 0.0016 1600 0.00295667185811408 0.0024517233564852786 0.030394374496474884 0 0 0
1796 1 0.0016 1600 -0.0056420173975441894 0.0008237891745319175 0.033080670775611366 0 0 0
1797 1 0.0016 1600 0.005659101978743072 0.0010170798241687792 0.034954155898182925 0 0 0
1798 1 0.0016 1600 0.002412280568050502 0.002378207154224442 0.032908220090052134 0 0 0
1799 1 0.0016 1600 0.0026287804807826193 -0.00011218555370127381 0.030996294057327223 0 0 0
1800 1 0.0016 1600 -0.004425607135916025 0.0004001134169772243 0.03424753883755425 0 0 0
1801 1 0.0016 1600 -0.0037979073803429634 -0.0024205507995511146 0.034726163960515775 0 0 0
1802 1 0.0016 1600 -0.00040669282760294635 0.0006038300397311167 0.035840964076343 0 0 0
1803 1 0.0016 1600 0.000916178696438365 0.0036075598355791924 0.03280601401320651 0 0 0
1804 1 0.0016 1600 -0.0034214191995182814 0.0026660065911561894 0.034309663025627615 0 0 0
1805 1 0.0016 1600 0.004630940460765399 0.0032846362663968742 0.03324611788601879 0 0 0
1806 1 0.0016 1600 -0.0024926404937818496 0.006754929918010893 0.03264038060559847 0 0 0
1807 1 0.0016 1600 -0.005795530204129272 0.003671122390222026 0.03328811871330413 0 0 0
1808 1 0.0016 1600 -0.0011572843587123781 -0.007106503889350587 0.03409877821753696 0 0 0
1809 1 0.0016 1600 0.005129502484334789 0.0050525636802368 0.034336253607586825 0 0 0
1810 1 0.0016 1600 0.007198859075156769 0.00012874357442456383 0.030623832802400056 0 0 0
1811 1 0.0016 1600 0.0012184108402968521 -0.0035215277306490794 0.03301990380835495 0 0 0
1812 1 0.0016 1600 0.001553294905183531 0.007030502084506691 0.034403413034619655 0 0 0
1813 1 0.0016 1600 -0.00040192837290135315 -0.006312331454542345 0.032915007302877775 0 0 0
1814 1 0.0016 1600 0.0037511235045249287 0.0036450889255836426 0.0346738323788717 0 0 0
1815 1 0.0016 1600 0.0022595660905058617 0.003519542644141332 0.03401898184151743 0 0 0
1816 1 0.0016 1600 -0.0010612728880604171 -0.004914480335145866 0.03241304866484631 0 0 0
1817 1 0.0016 1600 -0.006394054134925169 -0.0010571498973637405 0.03455818264781203 0 0 0
1818 1 0.0016 1600 -0.004627360794740249 -0.0010599618093592837 0.034869688397830764 0 0 0
1819 1 0.0016 1600 -0.00044184379106635227 0.007186519956969135 0.03468205003959163 0 0 0
1820 1 0.0016 1600 -0.0036361249870940316 -0.0019402682543321209 0.03191279503051271 0 0 0
1821 1 0.0016 1600 0.002104953679581241 0.005373447099496237 0.03260024378298128 0 0 0
1822 1 0.0016 1600 -0.006780564503069141 0.0024218002042130293 0.03345672167575348 0 0 0
1823 1 0.0016 1600 -0.0053940932555636865 0.0022980108953719294 0.030600102398996108 0 0 0
1824 1 0.0016 1600 0.002697293861933764 -0.006447650738196961 0.03471643158998676 0 0 0
1825 1 0.0016 1600 -0.0017595165980147547 0.005265155263068378 0.034260932603225505 0 0 0
1826 1 0.0016 1600 0.0015958330508601636 -0.0025547512637137675 0.03423745834957853 0 0 0
1827 1 0.0016 1600 0.0002030949775859791 0.005704664490756421 0.02990428641898644 0 0 0
1828 1 0.0016 1600 -0.0030615784039383608 -0.004935450426340242 0.032931421666073026 0 0 0
1829 1 0.0016 1600 -0.0009421009533293071 0.007138112414039232 0.03254716946109402 0 0 0
1830 1 0.0016 1600 -0.0018341193622933762 -0.005779830037508372 0.033514535323837316 0 0 0
1831 1 0.0016 1600 0.00649509082970813 0.003107351185696117 0.03362190748289476 0 0 0
1832 1 0.0016 1600 0.0008387845461940885 0.005124953623889913 0.03354610870829658 0 0 0
1833 1 0.0016 1600 -0.002314364701328692 -0.0026353557125470737 0.03416695086747766 0 0 0
1834 1 0.0016 1600 0.006973558619773084 0.0017916152292381973 0.03439628687909173 0 0 0
1835 1 0.0016 1600 0.0009825043284812285 0.0021597467432146345 0.03359204118794412 0 0 0
1836 1 0.0016 1600 -0.002574781983791235 -0.0010570339514347602 0.03419224576077041 0 0 0
1837 1 0.0016 1600 0.004232473662471287 0.005824718517139263 0.03325971687429397 0 0 0
1838 1 0.0016 1600 0.0007369965463878346 -0.0004935743949307884 0.03510961505971234 0 0 0
1839 1 0.0016 1600 -0.00014480225763981972 0.0002359455679021428 0.03040431512889047 0 0 0
1840 1 0.0016 1600 -0.0013010594896192378 0.0021720043637148798 0.03162862974400141 0 0 0
1841 1 0.0016 1600 0.0028794451393493923 0.0065992342933334615 0.033619131692472826 0 0 0
1842 1 0.0016 1600 0.0009806467324598082 -0.0024732941425512417 0.031318332400467705 0 0 0
1843 1 0.0016 1600 0.002504723054051526 -0.005506137001567464 0.03343721880464474 0 0 0
1844 1 0.0016 1600 -0.005445229327800337 0.0047108870009145275 0.03212382553010375 0 0 0
1845 1 0.0016 1600 -0.0012835834658629505 0.003661411860378756 0.034778186829043475 0 0 0
1846 1 0.0016 1600 0.0005590939192488248 0.0010244574206747148 0.03463674187322728 0 0 0
1847 1 0.0016 1600 0.003843682716901643 0.006088201164213454 0.03478916057244949 0 0 0
1848 1 0.0016 1600 0.002852810660931718 -0.00011629993731424817 0.029412298545714338 0 0 0
1849 1 0.0016 1600 -0.003774686362961352 0.006131421316013732 0.03336654944960407 0 0 0
1850 1 0.0016 1600 -0.0016493128847008343 -0.002118042167349313 0.0326671990055452 0 0 0

Velocities

1 -8.653462535353442e-15 8.851981958049305e-13 -8.581076685862499e-13 -1.4289292945932799e-09 7.890422279423674e-10 -3.212608028464491e-10
2 -3.6116799746212165e-13 2.698560526477957e-13 -3.015398110118027e-13 5.798732087101586e-10 3.4075272274409095e-11 4.389409557594999e-10
3 -2.5981154364409373e-13 2.803940216408013e-13 1.1174043546770488e-13 -3.4974025666340637e-10 -3.333549925695455e-10 1.3057289796753345e-09
4 -3.840982992574316e-13 2.869163850366627e-14 3.5074414841518374e-13 1.5787840776047074e-11 -4.821630794203115e-10 -4.934581309062611e-11
5 3.3661435319524573e-13 2.0350965944923874e-13 6.74590022996425e-13 1.4735214155701668e-09 -4.516303585145721e-10 7.246081537602226e-10
6 2.7034504341767925e-13 4.653856968642004e-13 -1.6205354269375877e-13 -1.114393812144146e-09 7.878834597126577e-10 1.9577403218535371e-10
7 8.465962533553032e-14 2.303774275577909e-13 1.8342913460601024e-13 -2.948982522786557e-10 1.135948923564519e-10 -5.029062656476127e-10
8 -6.575134178730044e-14 -1.146046108394915e-14 -2.708956095727969e-13 1.3578217389126758e-11 -9.493881420903544e-11 6.037312065529202e-10
9 6.871542022333846e-13 -9.000838065004081e-13 -6.326225729157921e-13 2.439844728483816e-10 1.8290044762053911e-09 -1.1762246450566379e-09
10 -5.216799137613401e-13 5.069359060795057e-13 -1.083918567854501e-12 -6.09385747839074e-10 1.2408233325998793e-10 -1.113372003800613e-09
11 -2.4916130861939567e-13 1.656426454106229e-13 -2.8073377096035073e-14 -1.8688257609169276e-10 -3.2287286440633003e-10 -2.3366206743201946e-10
12 -4.1344581390681205e-13 -3.680249865266372e-14 1.2445018394058312e-12 6.042659431178514e-10 1.336495050279881e-09 -1.249349492404889e-10
13 1.0836145285815136e-12 4.848394020317587e-14 -1.0827532148937606e-12 -2.058402993918172e-10 5.848900315158678e-10 2.741894207992643e-10
14 -1.0898790085764263e-14 -2.6994495073644923e-13 -3.7369335614763364e-13 8.931362586739161e-10 3.698375813233263e-10 -3.438273734600811e-10
15 5.63159651687406e-13 -6.162389764955351e-13 4.06987497686318e-14 -3.607967699832696e-10 4.553597178596033e-10 1.544537534816452e-11
16 1.4860230728104702e-12 1.0821727430731748e-12 -9.797929218124069e-13 -1.7775776982267569e-09 1.893099880683244e-09 -1.2981373500613185e-09
17 7.30558904826692e-13 -2.9637449335758164e-14 1.0723649349198334e-13 3.6710080365172274e-11 9.12997541191026e-10 -4.729953322314186e-10
18 5.422065938662959e-13 -2.521336080901802e-12 -2.001793811370256e-12 3.2790902342968075e-10 -4.683707174792387e-10 4.190392919466024e-09
19 -3.7733976436820776e-13 6.765729689197067e-13 -2.7102730540834344e-13 -8.342083976142986e-10 -4.762758984746771e-10 8.72120009058391e-10
20 1.6996789586677513e-13 2.1678088572739137e-12 1.3099553685498608e-12 -1.1944179560623621e-09 -7.367632795674017e-10 -1.3446982810930111e-09
21 -2.833233760643082e-13 5.733731560307378e-13 -2.2462646992111458e-13 -5.719120504392584e-11 4.589859545377239e-10 -4.5560061976641033e-10
22 -1.0100571554506185e-13 1.3180671963972448e-13 2.3094145087948237e-13 -1.6297815328454207e-10 -1.2538509813577575e-10 1.342051701738486e-09
23 -6.762712140054288e-14 -9.029416254668806e-13 -1.0727156894850629e-13 7.15296005134376e-10 8.735150034462862e-10 -3.914836558907234e-10
24 -6.745448352025548e-13 -2.622017344566675e-13 2.6850324118080763e-13 3.273935972099425e-10 -8.43301777417744e-10 -2.905586272001214e-09
25 -3.306010473404929e-13 -8.329802705312019e-13 1.4559987862842476e-13 1.5696894237402548e-09 -9.420476446942286e-11 -9.56989955109972e-10
26 2.848444621653569e-14 -1.9038877728459064e-13 7.172386326887677e-14 1.8880979909579738e-10 -4.824690787555485e-10 -1.0987861979514591e-10
27 -8.378233794117443e-14 2.314556066400051e-13 1.743494830083843e-14 -2.979685023356378e-10 -9.999900564378316e-11 -3.0479096257800705e-10
28 -1.0791444830605854e-12 -2.1467023863900346e-12 -1.079263840533726e-12 -2.266582968074297e-10 -1.665694629605739e-09 -4.816976300017568e-10
29 -2.306659075529662e-14 -2.922661443389923e-13 1.666377556208693e-13 3.510636544701689e-10 -1.988155677226914e-11 -4.287488604416258e-11
30 9.883294509049456e-14 9.26453551977498e-14 -1.1338364698988895e-13 -1.1438047855435136e-10 1.243861783449925e-10 1.1113670295842091e-10
31 2.7976311631065855e-13 7.933907326497699e-13 1.4093648823838738e-13 -9.193536617151998e-11 1.5117391279308365e-10 -7.450117420734648e-10
32 2.7274186394818057e-13 5.149877418993339e-14 2.1519738249703597e-13 -6.785012731399079e-11 3.306407466470511e-10 2.555898138363661e-10
33 -1.085743766198914e-13 1.7829977824952566e-14 1.7370056510814081e-13 -3.352918996677885e-10 -3.5552408423834623e-10 -4.5538825945469314e-10
34 4.979364494634838e-13 2.4359776719061305e-13 -6.663668857701192e-13 1.185883537316338e-11 -1.585970686464095e-09 -6.959928285562068e-10
35 -1.0778398599913605e-13 1.1566439670478075e-13 3.9112353361615713e-13 -8.441637815359143e-11 9.355330128621486e-11 -1.7488228916025453e-10
36 9.327527428734187e-14 1.0284025878156195e-12 -3.177220085490866e-13 -1.2499148414288051e-09 -5.763602403747727e-11 9.252101431672391e-10
37 1.2426686958095172e-13 -7.014396653258616e-13 -7.268415527418845e-14 9.065603451892516e-10 1.574120296975167e-10 -4.1591760592628474e-11
38 1.8302348970508486e-12 -3.734082784625602e-13 1.5861037737818266e-13 8.15968953820864e-11 1.8721920037952006e-10 -1.0146439528569753e-09
39 3.8677047221382517e-13 3.0596616699725287e-13 2.024402433115992e-13 -3.928118686506185e-10 4.785196744161519e-10 -5.404711767985825e-10
40 5.918713629181971e-13 -1.380224402362282e-13 -2.661979848775331e-13 1.642169989532418e-10 7.481681834948367e-10 -3.4130831989087987e-11
41 -1.351731527200746e-13 -4.745867846195519e-15 -5.618075180051183e-14 2.8384188422919053e-11 -1.683437190349212e-10 -2.0194550139081693e-10
42 1.3312758167768843e-13 1.464404073888712e-12 2.51644037625092e-13 -1.5785455641927373e-10 4.114375855482884e-10 -9.035847080282161e-11
43 -3.5107452629691765e-14 4.0739575810491237e-13 -1.907089072302023e-13 -5.065416976333873e-10 -3.4850571382995843e-11 4.731012488312959e-10
44 7.702222197443037e-13 -5.4315829789340686e-14 7.801406682237733e-13 2.809065542612379e-10 1.4253593725501503e-09 -7.846559226449837e-10
45 -2.504518314103021e-13 -1.4583566767244136e-14 -4.6005881418768826e-14 -3.1479181287628174e-10 4.89391212597627e-10 2.8214070066964695e-10
46 -1.0833580052604797e-12 -7.213379901739638e-13 -1.0841725830586895e-12 -7.622378858619615e-10 1.4590917393972263e-09 7.434963831122854e-10
47 -6.290266102655471e-14 -3.384994447720869e-13 -6.277427500446671e-13 6.708552318070869e-10 -8.619424866571287e-11 -1.1703369199816182e-10
48 8.939525194872697e-13 5.052313765787083e-13 -2.695084154091054e-13 -6.316926762279911e-10 1.117156563272713e-09 3.358148393072237e-09
49 1.6405880755857416e-13 -5.412039597870605e-13 -4.759442082332358e-13 5.297121092081006e-10 9.461267655227034e-10 2.9513149868475197e-10
50 1.7688312158677015e-13 4.273240935637122e-13 -2.493206442773787e-13 -5.293809620813108e-10 2.1457300375490426e-10 -1.1884038053342553e-09
51 -5.359092549992317e-13 -9.772759566661764e-14 1.0826431407111875e-12 -8.264065886762582e-10 4.189983688292337e-10 1.1055369158520828e-09
52 -5.973837175720909e-13 6.549969294432953e-14 -2.454247194023567e-13 -8.044214019652744e-11 -7.48926912277884e-10 1.2689145768014918e-09
53 -4.741180137123816e-13 -1.3467215713857904e-13 -8.174631494399484e-13 -9.728314497744364e-10 3.6870237970100764e-10 -6.000844601586346e-10
54 2.494438373649881e-13 -6.77352261684373e-14 2.3102038022598597e-13 -1.0537365077304196e-09 6.439200742460897e-10 1.1586954879499114e-10
55 2.2441099865572244e-42 1.455862091120002e-40 -2.185741837741339e-14 -1.8197856167868125e-37 2.8050727475724026e-39 0.07847153505171871
56 5.46404905030917e-13 -3.3879974140648467e-13 1.4966461351982913e-13 4.259396707117412e-10 6.851744603729387e-10 7.751582179380387e-10
57 1.592000011658019e-13 -1.417333527017758e-13 -9.207164249858843e-14 5.83453316357344e-10 1.5761547651596777e-09 1.1352058093311298e-10
58 -8.668315852628055e-13 8.355836657887247e-13 -9.897598795669833e-13 -2.4749290616696356e-10 -1.3020541876373163e-09 -1.3994237966632375e-09
59 6.445637042076409e-14 1.3099148618997778e-13 8.938486830362292e-13 1.3928772892133146e-09 -2.2484847774598748e-10 -9.972468726420227e-10
60 5.6058439184503796e-42 1.4728385858830767e-40 -2.185741831571485e-14 -1.8410057455213512e-37 7.007143186824663e-39 -11.00607822277005
61 9.247834638953551e-13 -3.445354981982813e-13 5.262939880358269e-13 -1.8699115120457075e-09 1.0204965198781014e-09 2.2606422312928218e-10
62 -8.540941368351624e-13 -9.003797095585565e-13 4.5429480206254913e-13 1.39999670184294e-10 -7.700760793089826e-10 -1.5228241992415017e-09
63 -2.48357291623367e-13 -6.0037807726274225e-15 1.083261086362931e-12 2.3359546363892177e-10 7.932015517626611e-10 1.2317526054325155e-09
64 -8.92463608135476e-13 -5.420718746099115e-13 1.0825547517696897e-12 9.340666958684864e-10 9.6717472085489e-10 -4.1863576228280916e-10
65 -1.2512023760495627e-12 5.769242515989688e-14 -6.247167192348275e-13 2.6884313601426424e-10 -6.282436644079068e-10 -1.093288275392136e-09
66 1.083903785474546e-12 -3.75406377631695e-13 -1.472365889687321e-13 -6.91948862918092e-11 4.199598904511085e-10 8.843824187100715e-10
67 8.27702032050083e-13 5.810833614646713e-13 1.9429171033059843e-13 -7.217410521708622e-10 1.0293617344709262e-09 9.214491445300398e-10
68 -2.923218098308597e-14 -4.554622013082459e-13 2.196058668143584e-13 6.15733506357745e-10 -4.369904254775527e-11 8.48657449589364e-10
69 9.435532540197937e-13 1.0132700647527495e-12 1.971453767023778e-12 -2.2598119776220894e-09 9.580962161665211e-10 5.934392904856394e-10
70 1.2347065002330838e-13 1.6843981543887545e-14 -2.5245549183331795e-13 -2.0878878057359743e-11 1.5637559497291134e-10 -4.207566537909076e-10
71 9.888206685842008e-13 1.7023257537314352e-13 -9.09346782992484e-14 -4.782094897072266e-10 -5.366220442103875e-10 6.179250887538735e-10
72 9.5463095715968e-13 1.1746176786001166e-12 -5.292838899569169e-13 6.131125012222017e-10 1.206324429790115e-09 5.643581648562729e-10
73 1.2782588639120438e-12 1.2390259451459073e-14 -3.776056934161127e-13 -4.519591064994479e-10 -3.982773707944961e-10 -1.2605847398823627e-09
74 -2.7043477819972976e-13 1.1023885301849816e-12 5.419445901381323e-13 -4.190928102615744e-10 -8.068211525440066e-11 -4.766165339688459e-10
75 -1.3443197737498293e-13 -5.5868795692421936e-14 3.080951294796449e-13 2.202112806528025e-10 2.480759101773383e-10 5.4091577445659695e-11
76 -5.411973844455849e-13 3.482109100836789e-13 1.3459560552333189e-12 -4.2861218133827207e-10 -1.1494487040239477e-09 3.773937326698436e-11
77 2.7312557462869144e-42 1.464153465225417e-40 -2.1857418361210932e-14 -1.8301495952381143e-37 3.4139908945878226e-39 5.51961898948109
78 -2.689269598625883e-14 1.186314918341339e-13 2.7006235688912017e-13 -1.442909621990513e-10 -3.096460393632974e-11 -7.562228345079627e-11
79 1.371463954460001e-13 2.082470932435806e-13 6.422129619719362e-13 6.618720900935918e-10 9.421578576363725e-10 -7.354420834135304e-10
80 4.405267112901975e-13 -5.014137502072427e-13 1.0838984653548903e-12 -6.888688494708896e-10 -7.008922937675002e-10 -4.2709923660826106e-10
81 -4.2472675008728524e-14 4.807216324676768e-13 -8.411304084870907e-13 -5.705967594784475e-10 5.144346508880168e-10 1.267104115503474e-09
82 2.3867984787503507e-13 1.1299398153777945e-12 6.200794763058571e-13 1.0792145277915768e-09 -9.312593118354221e-10 -7.858825080325567e-10
83 2.274340251245436e-13 2.9326873804066376e-13 -3.604784876500246e-14 -3.6758171162775657e-10 5.244197534861731e-10 -5.588165401464104e-10
84 -1.2919937856667894e-13 -1.940553797915817e-13 4.301410496369546e-13 7.456980877974431e-11 -3.1038434509272843e-10 -2.041864973420316e-10
85 1.623519402011818e-13 -4.5161300872243296e-13 1.3708882897481355e-14 5.670199773681728e-10 2.054301502217481e-10 -1.7358898375448425e-09
86 -2.2863122111802274e-14 -3.330955275301032e-13 5.189337935348942e-13 2.0251276621681106e-10 8.949069303706071e-12 -1.1144617827045083e-10
87 2.0782498359011502e-12 2.599308619432211e-13 -1.8031213777805637e-13 1.0862852083777648e-09 -5.529145718435164e-10 6.769814957348013e-11
88 -9.453479157985176e-13 -2.7093317779482337e-13 2.7068334239189134e-13 3.3565133393471046e-10 -1.1876964825496953e-09 1.335624454051802e-09
89 -1.1188777712507121e-13 2.70779296192547e-13 3.4648989335826653e-13 1.2393120875145919e-10 -1.746794214241308e-11 3.2738633001914306e-10
90 1.084315277045971e-12 4.408797158947258e-13 1.0837207023283046e-12 -7.66180790407569e-10 -1.2584258486525191e-09 -7.754343953874329e-10
91 -4.75649767316495e-13 2.012513661438406e-12 -3.1771130101174383e-13 -1.1142776485305787e-09 -1.821057764630126e-10 -2.029723675652001e-11
92 2.8436258835669263e-13 2.1683386673598988e-13 -9.968928497977364e-13 -4.0353885953960515e-10 5.799091769359187e-10 -3.484228586827424e-10
93 -7.771517212251662e-13 -5.158836790615676e-13 4.052103395700572e-13 2.676697632188839e-10 1.1476087954418485e-09 -3.577593630468569e-10
94 -4.566604778796083e-13 -3.780713351356398e-13 2.6375026525395014e-13 4.934548865457048e-10 -5.758775931988824e-10 -3.6728136242241947e-10
95 -7.243313164606912e-13 9.165586484285674e-13 -2.7076946220456304e-13 -1.1494628209547435e-09 -8.982864797455604e-10 -2.3683791802412734e-10
96 -4.021168228468968e-13 1.5268283394456284e-13 -1.0416596118950252e-12 3.7401484018604144e-10 5.4809043762269e-10 7.612920904236876e-10
97 -6.045824736664058e-14 1.1185932582270189e-13 3.8878402840435354e-14 -1.4282968906250188e-10 -5.298531819785233e-11 1.2996541263863537e-10
98 8.457913803569157e-15 -1.4091275687868756e-13 -2.711038387302799e-13 1.5956731950942475e-10 -1.7177344382811017e-11 -6.403806401144708e-10
99 9.85725187133911e-13 -2.0896131638719314e-13 -9.496197745023952e-14 3.1761132179671807e-10 8.179194325600837e-10 -2.53544292915088e-10
100 -1.5728431840307772e-15 -2.707847731029706e-13 -1.505088111395835e-14 9.969022200885004e-10 3.0688410088870475e-10 3.8092546748972277e-10
101 3.320581443030397e-14 4.418760330182491e-13 -2.6167985761755414e-13 -5.61688520113694e-10 4.469740779737982e-11 -6.727872293923419e-10
102 -1.607961439621546e-13 -6.737958806538017e-14 2.998569131389047e-13 -3.6850787130827643e-10 -3.3417575232360666e-10 1.3963730993280768e-09
103 5.596908349422689e-13 2.7794528857930738e-14 1.3039859956116361e-14 -9.891782608082943e-12 6.822259231759865e-10 -5.588096353585438e-10
104 1.464848198254881e-13 -4.343963263569955e-14 2.5275607300449617e-13 4.2820919723688034e-11 1.7176020936863345e-10 2.611075237808814e-11
105 6.997838772747565e-13 -2.7829736488739055e-13 1.0792461813686736e-12 -8.427315405037307e-10 1.1899937853027052e-09 9.303886218442102e-10
106 -1.3545360564872288e-13 5.589935856380164e-14 1.0829295350146668e-12 -1.3829491158550082e-09 -1.0566801110877024e-09 -1.747734023778648e-10
107 7.649486289457442e-13 2.888834459293218e-14 -3.805042806901363e-14 1.2442313869186202e-10 -2.7177457986040367e-11 1.1912070526762334e-10
108 -2.9100799566396285e-13 3.978425805765245e-13 -5.590998689784305e-13 -1.164845975316269e-11 -1.429428395930368e-09 -2.245936628649514e-09
109 2.253034465899347e-14 2.4842338876215803e-14 3.4278344210626356e-14 -1.4800499743386143e-12 1.1056011409801817e-11 -5.745202128827371e-11
110 -1.0814709160213468e-12 -2.574824648065097e-13 -8.697237244367818e-13 1.0409803238452432e-09 3.1786913183527414e-09 3.6107138899558954e-10
111 5.420347526051344e-13 6.529233032609865e-13 8.091498886385131e-13 -7.548539512942329e-10 -1.1187802276595816e-10 -2.132421180110919e-10
112 -2.9289994397776503e-13 -5.416550844088343e-13 1.1142395798057245e-13 -1.3425025488759685e-09 -1.0986815453068757e-09 6.286871429242221e-10
113 5.186856048301068e-14 5.318859344171965e-13 1.083478609634121e-12 -3.3271420171438784e-10 -2.0783094979963194e-09 -3.5982804707191555e-10
114 -4.562788707504509e-13 -8.280570126951452e-14 -2.6028893497182433e-13 1.2907016750507788e-10 -5.585199608002219e-10 5.864990733143263e-10
115 5.099065495806506e-14 3.627242559739009e-14 -2.9589700194059507e-13 1.2629658610702621e-09 2.606434593952149e-10 3.1894490327195175e-11
116 1.5322882558820968e-13 1.1282296377104178e-12 -9.086140423990919e-13 -2.574805185357414e-09 -3.322327705496156e-09 3.5930550797381295e-10
117 -3.3694981043495265e-41 7.616900877246421e-41 6.753798664346794e-15 -9.520906372553802e-38 -4.211775430850398e-38 -0.1677108703283952
118 6.360703550735998e-13 6.65205479048651e-13 4.0707529134554946e-13 -7.225632045542e-11 6.398715976727065e-10 -3.607053883527867e-11
119 -1.5917084386213947e-13 2.7063770937883377e-13 -6.582318181932462e-13 3.762867506100552e-10 -5.224390242201827e-10 5.703547618058836e-10
120 1.5482274378263083e-13 1.0001055781063618e-13 6.571695740212002e-14 -1.0488217110844475e-10 2.0304618055351145e-10 6.608305080749955e-10
121 -1.3579303537521338e-13 5.419723643229633e-13 8.936103428602719e-13 -5.107980344742479e-10 -6.783586373141325e-10 1.785757227563032e-09
122 5.073425578814096e-13 -1.3539264711846889e-13 4.551976062196492e-13 1.0586729840557133e-09 4.756928987946453e-10 2.010446691556998e-09
123 -1.207512304405432e-13 -1.175991103135357e-12 1.2462412249297638e-13 1.4665855350050006e-09 -1.6562706170818203e-10 9.671197083105967e-10
124 1.8562199171021255e-12 -9.338251008468436e-13 5.527677801673163e-14 6.173865810912468e-11 1.474966991812937e-11 -8.167152997391158e-10
125 -4.1718107189165914e-13 -8.369698867114163e-13 3.429075005749589e-13 6.411734906474744e-10 -3.450385766214815e-10 -1.5955795811882665e-10
126 -5.41734223412061e-13 -9.200284668532044e-14 3.753184529726168e-13 1.9607875890482064e-10 -6.319233388592789e-10 4.268423249825143e-10
127 -7.958896620894562e-13 2.5903907049531574e-13 1.0817945390863975e-12 -9.182771110118047e-10 -1.2078483520501798e-09 -7.617542147825102e-10
128 -7.899048222424765e-13 -8.269843499967368e-15 -1.082105787159208e-12 8.521122429721781e-10 -3.437179446833132e-10 -1.9452015328580677e-09
129 1.532735389154759e-13 8.030257926320025e-14 2.3000045736519364e-14 -9.437331127800122e-11 2.3937605676563636e-10 1.5020978786436642e-10
130 -2.681744597905872e-13 6.04774863346449e-13 -8.461644498555548e-13 9.877233530314085e-10 -1.1970648527047273e-09 -6.372789737772856e-10
131 -1.3391844340820687e-13 -1.5633397647029935e-13 -2.7074898075140204e-13 2.1758878034902427e-10 -1.5087850758035204e-10 -8.755337945154204e-10
132 3.710746694466163e-14 2.6420840199541563e-13 3.928253023396713e-14 -3.733428119923284e-10 1.0326225417869775e-10 -5.769962736612358e-10
133 -1.4121087529845378e-13 4.237139506224795e-14 1.15433364590876e-13 -5.4827348123509685e-11 -1.7480839771486444e-10 1.0345092884785092e-10
134 -2.655758055218398e-13 2.9454589146194744e-13 -2.7083226090926793e-13 -3.135771498385847e-10 -3.256298967472986e-10 -6.698962004523547e-10
135 -1.3344549067703324e-13 2.496901031509073e-13 2.6834125812366134e-13 1.9440989875774806e-09 2.6814713949313766e-10 6.776195726602887e-10
136 4.4560911180256037e-13 -5.115825509392698e-13 -1.0845972219796159e-13 6.347152789359483e-10 5.429530212407752e-10 -1.345980954195354e-09
137 -1.045660912338129e-13 -1.2512182805698446e-13 6.89997698183135e-14 1.4124662268239547e-10 -1.434379846155094e-10 -2.0172849135844155e-10
138 5.920520573250406e-13 -2.389055838538805e-13 3.678620328546911e-13 4.5373411427831777e-10 4.3849393097310503e-10 -1.7780241840229476e-11
139 7.164334571604683e-13 -2.685439310110685e-13 -6.036618246397954e-13 1.3598290104624336e-09 -8.743447479144877e-10 2.562107273240549e-10
140 -1.5906136477142182e-13 5.935551617143545e-14 2.7051682108162133e-13 -9.413110052325224e-11 -2.0267354712357644e-10 -3.638350838238462e-12
141 -5.42028387697372e-13 -3.5587288225662587e-13 2.699207758442755e-13 3.799626805469356e-10 -5.994219163320176e-10 -5.601530310302595e-10
142 -8.913618757043532e-13 -4.483258706027984e-13 1.308869475278033e-13 1.158356431920684e-10 -1.2756148820605832e-10 5.865077193689727e-10
143 -3.403098697514651e-13 7.046677212419316e-13 -4.3602428705905356e-13 4.755441873466196e-10 -7.453211265997767e-10 2.078774618704242e-11
144 -2.1525979258733228e-13 -2.1683935421025224e-12 8.866172924139529e-13 -2.626252922339614e-09 2.76435220164451e-10 -3.949449421317691e-09
145 -8.339567707648063e-13 2.0402402058045358e-13 -4.261589192874384e-14 5.395820378196526e-10 8.197632267716532e-10 -8.229441546789625e-10
146 5.421101524016481e-13 -1.9189237533195863e-12 1.1221219198157323e-12 7.033087009182636e-10 -1.077352164520405e-09 -1.7368612161696692e-09
147 -7.977369044739574e-14 -4.755963466660812e-13 2.3928481424791686e-13 5.890123409600442e-10 -9.045929676994939e-11 5.495076175401936e-10
148 -1.0827351324824047e-12 -5.105944661413224e-14 -5.6363953609839e-13 -1.1104911600898913e-09 -1.0851823804470423e-09 1.2407163546870513e-09
149 -1.0806183997635628e-12 -8.622710258982736e-13 -1.0806317507914842e-12 1.2469608251388423e-09 -5.170257357786363e-10 -7.98307867080622e-10
150 -7.336754129118537e-14 -2.7205702081785793e-13 -6.453275049697763e-14 3.946988976450465e-10 -5.20968932663651e-11 2.0266435061406437e-10
151 -9.163040727570766e-14 3.846676797470695e-13 1.4810366119863228e-13 -5.505401744570532e-10 -9.264820548218479e-11 6.271643083209808e-10
152 1.0451969899856948e-13 -6.220750753272048e-14 -4.3652223776637656e-14 8.108864269006005e-11 1.324462899390151e-10 1.6636861482181824e-10
153 -1.7766378311544696e-13 3.6470561569254074e-13 1.8048163285633006e-13 -4.339871492581682e-10 -2.55516257888405e-10 8.018859280665177e-10
154 -5.908173079536107e-13 -1.8434720979637198e-13 -4.596134235300349e-13 2.5110170615472794e-10 -1.8854522952578396e-09 -3.5754644532299604e-10
155 -5.9071774629156815e-15 2.0956815161650348e-13 3.830218343201842e-13 -4.886543700474092e-10 4.8607087453913015e-11 -3.0121117440650945e-11
156 -5.416011060724442e-13 1.5998498379244653e-13 1.431781825371939e-13 -1.0717797568061081e-10 -2.3144095329925182e-10 3.7718523023476463e-10
157 6.634000179773792e-14 -6.023921141846012e-13 9.844354510189807e-13 -7.000583550553946e-11 8.388024880574589e-12 5.448086526729308e-10
158 -1.7304495564114508e-13 -2.1582315303424382e-13 -1.1612949025797487e-13 2.7352488519935637e-10 -2.302735774748969e-10 -6.153054673651247e-10
159 6.577338033154909e-13 -1.0845542811061256e-12 -7.927450608883283e-13 1.4821806697938184e-09 -1.2491734607448323e-09 3.151666946020662e-09
160 -2.2182835135525143e-13 -1.4786063326123647e-13 2.1141438664465358e-13 1.8613936018817918e-10 -2.8122606205486026e-10 1.4188201817742545e-09
161 -3.329806079058318e-13 1.5176156570480702e-13 -1.035951518284501e-13 -1.8979629992873122e-10 -4.161640456195128e-10 2.9418331289486685e-10
162 -9.009362659368942e-13 -6.954382595149564e-14 1.328131879448068e-13 8.662584975935405e-11 -1.1252427559191382e-09 9.588352730354297e-11
163 -1.229537257460285e-13 -1.5910472526562e-13 2.324587695955454e-13 2.0237226106608827e-10 -1.5344547540873403e-10 -6.454130565972686e-11
164 5.470648080908181e-14 -2.6528235865450095e-13 1.4205760676283242e-14 3.2443458132858815e-10 6.299967612398212e-11 3.3844098084172885e-10
165 -9.88319449642101e-13 -6.7720982324114e-14 -1.3157478661531282e-13 1.0949048326420532e-09 -2.0321850828606084e-10 -9.423454989576612e-10
166 -2.7087474564624617e-13 9.885257976875304e-13 3.2866174420545495e-13 3.994387034695829e-10 4.4051797000981517e-10 2.4308884765081945e-10
167 1.2268568875499769e-12 -7.458794742275038e-14 4.098970594140791e-13 3.3581317391186275e-10 6.608371213651614e-10 1.4570030100449132e-09
168 -5.419520207002032e-13 -7.696555632751786e-13 3.1810595109451806e-13 2.2781684186486117e-09 -1.4429661581150372e-09 1.1123783873222012e-09
169 -2.710242862031977e-13 5.420991881500836e-13 1.3759151473984908e-12 -1.3429495433166404e-09 -8.226508820077002e-11 -5.27386681334572e-10
170 9.014823021676863e-14 7.707256999543291e-14 6.411627134777833e-13 2.3380631473078064e-10 -3.3383591835621364e-10 -1.21059599777166e-10
171 -4.355118924572064e-13 -5.417296757623502e-13 -9.84072581111918e-13 4.382770181555873e-10 1.1690013295203754e-09 -7.731484303320657e-10
172 -7.27590882102069e-13 -2.2252789197403493e-13 -9.11451588949155e-14 1.0062794143000759e-09 -1.0588104834963911e-10 1.4418249164176783e-10
173 4.0226902975928827e-13 7.24941152707566e-13 3.24663103807865e-13 6.608820965794994e-11 -4.055943842194874e-10 6.626724242750082e-10
174 -8.657711411375823e-14 3.4041706077351397e-13 1.024249555841866e-12 1.836810845103194e-10 -1.1145101949279886e-09 -2.0107756737461993e-10
175 -6.77404725535325e-14 -3.0432194057090496e-13 5.140357951303908e-13 -1.0427954713219199e-09 5.152082884029397e-10 3.0233997831666153e-10
176 -1.8460329820048602e-14 -4.024530094266657e-13 7.837934338958853e-13 -1.6111135799387663e-11 -1.2026767653397808e-09 3.4472808262755616e-10
177 -7.084281313991388e-13 2.5686328690357063e-13 1.6845405238508181e-13 -4.478238803156276e-11 -2.2455562944423918e-10 4.516450537890941e-10
178 1.1113103705198728e-13 -3.329151644148466e-13 -1.4506777168409703e-12 1.2670420544342382e-09 2.472355200847976e-09 5.457181404952809e-10
179 1.9086368520111918e-13 -4.100591897538409e-13 8.616022830503153e-13 2.2220729008569278e-10 -8.481619612036424e-10 -2.5522300236967807e-10
180 2.7834262785486026e-13 2.896104695465667e-13 1.0865527329818115e-12 -9.162056464288939e-10 3.870269806486742e-10 8.415059681713591e-10
181 -2.164273553698538e-12 4.930805499410044e-13 -7.282240281312788e-13 -1.1031998225108481e-09 -1.7589245312831508e-09 -8.229577289194956e-10
182 1.0839012401883323e-12 -1.8122781344635936e-12 -2.0202265258238405e-15 -5.18548864309326e-10 1.5171969200573282e-09 -5.707889918983849e-10
183 -1.9422813472738533e-13 -2.1348076831544876e-12 -4.48698585715807e-13 1.739825383099626e-09 3.624167455625418e-09 -1.2915897562708374e-09
184 1.9956152331088384e-13 -1.8777479781177728e-12 -2.15922251002997e-12 2.1837204889386734e-09 -4.2723115717035605e-11 4.79705499587024e-10
185 1.0838293478343122e-12 4.508825001573731e-13 1.928871930652462e-12 1.1544569161680586e-09 2.1987566032393854e-09 3.257804380267343e-10
186 1.563470795231561e-12 -3.2975674643560257e-15 9.844812734519785e-13 -1.4706744332538284e-09 1.5372318967495558e-10 -7.978540575162095e-10
187 1.6292197769614904e-13 1.3553766166858807e-13 4.1565943291400723e-14 1.032141574040845e-09 -2.2091218542916906e-09 -8.515878236745187e-10
188 8.195950128296653e-13 5.970060806942311e-13 -1.0837769430141323e-12 -5.563360184957226e-10 -1.7884398800918385e-09 1.2282080364716216e-09
189 -1.3498897988778282e-14 2.641512045867449e-13 -3.03699861996431e-13 -8.410691298609412e-10 3.3256592903208633e-10 5.690906037784104e-10
190 -2.864947813904324e-13 -2.7096195346924007e-13 5.031290590096133e-13 1.3039689834292073e-09 -4.630308049371236e-10 -1.71782018005823e-09
191 6.768753987956103e-14 1.7257194120515442e-12 2.984483106327209e-13 2.4226854544747345e-10 9.766734735647475e-10 4.917914786932619e-10
192 -3.470095535462424e-14 1.0831765071613758e-12 -1.2849563549439787e-12 7.44095636670073e-10 -6.241518709990124e-10 -2.3383536591185105e-10
193 -2.7055422786713433e-13 -1.7000650412333776e-13 1.1877280068028447e-12 -3.2144784719019624e-10 -4.8807058770011594e-11 -2.6256908250452225e-10
194 5.419421340895401e-13 -1.7538698509098768e-13 9.699488943819293e-13 1.3387384091798037e-09 7.497246033819254e-10 -7.371303924851619e-10
195 -3.7013732509770596e-13 2.699861950858677e-13 -3.726887460692136e-13 5.675298830890396e-10 -1.7717914302649026e-09 -1.37573472230969e-10
196 5.417235627454854e-13 -8.797833802497466e-14 1.8456610459490153e-12 1.0437628913379446e-09 -3.1130362716415085e-10 2.5027817512095673e-10
197 1.2540461580081283e-12 -7.622810781477598e-13 -1.0260732576423238e-12 -2.746661266659478e-10 -7.0808434343341e-11 -6.433719807845485e-10
198 -2.934350123902453e-13 2.325761542524053e-13 2.2846776742931544e-13 9.564585279445392e-10 -2.5844607927195154e-10 1.2130635251266619e-09
199 -1.3541224361649473e-13 9.993656236642468e-13 -7.665393583651946e-13 9.646618274292279e-10 -1.3097284685228273e-09 -1.002386080024373e-09
200 1.0841995630478534e-12 1.0838927119626992e-12 9.911307570467774e-13 -1.2940076148641008e-09 2.3802692695952208e-09 9.142035915418922e-10
201 9.748625771664668e-13 -9.274882717046897e-13 -1.3605996489722156e-12 1.5434509916484363e-09 -6.888317706810743e-10 3.924582271439083e-10
202 1.0839252635979574e-12 -1.207583711695373e-13 -1.8855567158476854e-13 -8.295703073281384e-10 -2.685429322409501e-10 3.1453414983007133e-10
203 -9.13768984336071e-14 1.199359040795837e-13 8.309291257665174e-13 1.379586780133884e-09 -5.255820022704355e-10 -6.983228687138642e-10
204 2.710404608910923e-13 1.7088795808620522e-13 -1.0840524183853842e-12 4.543478786876483e-10 5.755247798862466e-10 -6.032355440725582e-10
205 -2.595648229579107e-13 -2.5195682231459076e-13 -2.417422075695141e-13 -9.699925865557008e-11 2.896160419477829e-10 -2.8822468709923964e-10
206 7.227206968941343e-13 -4.910640638111348e-13 2.0847056020659307e-13 9.221058346440493e-10 1.4382616937150987e-09 -9.339686056466374e-10
207 -6.081422266422735e-13 -5.784005840718597e-14 -5.263573145771258e-13 -2.5236290397233753e-09 -1.3533421747300098e-09 1.2723153250884767e-09
208 2.7098920580435214e-13 5.552785185363622e-13 -1.5286797509573024e-12 -8.878980076805591e-10 -9.57772420807745e-10 3.768838132409013e-11
209 2.701914550988179e-13 1.9481853666117765e-14 1.0913797126389506e-12 -1.45548181893956e-09 -5.421818271225661e-10 3.4442782356336036e-10
210 9.670528273284272e-13 -2.083851880680519e-12 -1.3727084134687273e-12 -1.302751930779795e-09 -2.6263294470811404e-09 1.4316717572424233e-09
211 1.8365077812767365e-13 1.3544888327744922e-13 -2.9668434368630923e-15 2.1883593164844924e-10 4.943379048056248e-11 1.145640687540872e-10
212 -5.354558979881239e-13 3.9637707639762933e-13 -2.3416580550248283e-13 -4.745737165216756e-10 8.250515305615903e-10 -2.501379339369089e-10
213 2.710199067908494e-13 -4.8994521733515e-13 8.964634185427341e-13 -2.2158984147598854e-09 1.5093183646631418e-09 5.965464791506883e-10
214 -7.0078773800688e-13 -1.8838926940060625e-13 -1.6112522911006567e-13 1.1134292623656932e-10 -1.999333497904702e-09 3.038790626950986e-09
215 1.3502741125531964e-13 -1.023928882537027e-12 2.1345405695539115e-13 -7.991907727674382e-10 -8.006619855308228e-10 -1.737141819920112e-10
216 -2.5173005462780624e-13 -2.595051498464463e-13 6.131418949706908e-13 -3.973528983420884e-10 2.1241949171637475e-10 -2.434223091483065e-10
217 -1.083196351581043e-12 -7.264620275273973e-13 -1.0833622518517612e-12 -1.4229759459452708e-09 1.6177869518543937e-09 4.0025432547358853e-10
218 3.133624468835231e-13 1.18115215894829e-13 3.16141480872649e-13 -1.0618196235604316e-09 -2.100492683957723e-10 -9.271486285105481e-10
219 3.0227850293104487e-13 5.341224594309388e-13 1.0078372459636245e-12 3.3591011618496867e-10 -5.416255791307843e-11 -2.927424351396542e-09
220 6.636754497388678e-13 -1.519833971447736e-12 3.5730518597381806e-13 -1.2493014660560677e-09 2.2086250590771398e-09 -7.274507413311295e-10
221 8.41205632450737e-13 -3.135962699216258e-13 6.823807713253412e-13 1.9994124776936684e-09 8.074823247036277e-11 -4.749567172687859e-11
222 1.0576891131432659e-14 -1.839849743252984e-13 -2.847539746223384e-13 3.718822875140128e-10 2.0436737697830005e-10 -2.06558384101451e-10
223 -2.9282030560364936e-14 1.3551541000496795e-13 -3.4150157618170915e-13 2.7877092725656995e-10 9.661598023433955e-10 -5.651001218075926e-10
224 -9.576972528592363e-13 -8.116024347053911e-14 -1.0240192635564814e-13 1.516376425000504e-10 -6.103102252326117e-10 -1.014346108305489e-09
225 -2.0897173784881494e-13 -1.2236139118873418e-14 4.440018440344352e-13 -3.14035829774836e-10 9.393667936107443e-11 -8.998865428491416e-10
226 -5.222535541134976e-13 1.0838962482567755e-12 1.3386559174745815e-12 1.3597127229586306e-09 1.679379259929083e-11 6.676388395075627e-10
227 5.35273275360189e-13 -1.9331261815239194e-12 3.3005218238525716e-13 -2.5587025124465406e-09 -1.5695127032546272e-09 -3.799221504138138e-10
228 -4.1216274182874185e-14 1.0837564420757172e-12 1.1263869400913358e-13 -3.462668123034444e-10 8.803397926390105e-10 -1.006090373032179e-10
229 8.167885513721436e-14 -1.6970038486145863e-13 5.381291657604356e-13 -5.402540287500216e-10 -5.067198937131647e-10 5.225910115234373e-10
230 1.034883016101989e-12 1.1587949637715124e-13 -3.2075809072052714e-13 5.303803213868798e-10 1.369869241650371e-10 -3.1621990406337043e-10
231 2.1773382974245426e-13 2.332651966182621e-13 2.023850652041886e-12 -1.4063566412423068e-09 -1.3527213511452693e-09 5.613575317104709e-10
232 1.0812632471374993e-12 -9.65209497873866e-13 3.7933897431833567e-13 1.0683591240755143e-11 -1.1074220095670008e-10 -7.81313909631094e-10
233 -8.499527507563145e-13 1.0840074634319101e-12 -1.4126057013108918e-16 -8.448409302350463e-10 1.6765042064055953e-09 2.127191362854815e-09
234 4.190756968659659e-13 4.2745204207296803e-13 -5.196053183837665e-13 1.9274900743107466e-10 -6.240031590126448e-10 -3.338291657149246e-10
235 -1.0834206485515304e-12 7.399912171311979e-13 -2.35922431744439e-12 -1.1270390510554644e-09 -1.4226318398482213e-10 -1.0119277505214496e-09
236 -4.760456702030149e-13 -2.4338446498588047e-13 2.467914204426809e-13 1.3519832668589756e-10 -9.77072917308456e-10 3.9191648762211315e-10
237 -9.420972948836035e-15 3.1066008967601625e-13 -2.3933858977683767e-13 -3.8956970356748397e-10 -1.162759013700724e-11 8.079480221701163e-10
238 1.0558070265571914e-12 -5.934699801508916e-13 1.0231525693124865e-12 6.909048962380397e-10 1.6027741990454393e-09 -8.618151015938499e-10
239 2.0625356196739733e-13 -2.228135403311942e-13 1.0503729383974564e-12 5.216459236908267e-10 -2.3013444599149406e-10 -8.860146751094076e-10
240 1.3481031473371313e-13 4.652335123442289e-13 2.1168158517269662e-13 2.3004796328170346e-10 4.4455365818035867e-11 -1.3990403635453892e-10
241 -5.265985722746813e-13 -1.0840802032585553e-12 1.7008615271725171e-12 -1.305455668708208e-10 5.748785667349163e-10 8.728692604885792e-10
242 -2.135260069447553e-13 -6.860634526552431e-14 -8.591563426867367e-13 -1.3740360028495046e-11 1.6262656957812286e-09 -1.3138602865775047e-09
243 1.0745664473225462e-13 7.757800003051409e-13 -5.032326011084498e-13 1.7921672841103772e-11 6.94602334232454e-10 7.735768924307289e-10
244 -1.7489912469975653e-12 -1.645734461125431e-12 -1.1445546119611306e-12 -9.13456085240722e-10 1.1003986593951933e-09 -1.5643761192765346e-11
245 7.679353372135206e-13 8.110003676916282e-13 2.1519794725812733e-13 -9.91754840577498e-10 -9.582185437068854e-10 2.951142467433208e-10
246 -2.0690890653749424e-12 -9.248752216146158e-13 6.054319022911882e-13 -5.288860477042213e-10 -5.289558800923712e-10 -2.629256809063803e-09
247 -3.4386802092669205e-13 5.411641006963431e-13 -3.229845922812576e-13 3.980826932541534e-11 2.2680564476556844e-09 -7.532882654287747e-10
248 1.2250910571941624e-12 8.580454539307454e-14 -9.972622064282796e-13 -3.663570239551998e-11 1.4132564040563258e-10 5.317676653963724e-10
249 6.162228997624227e-13 -1.0841637475493432e-12 4.053472615697647e-13 1.0649451535391816e-09 1.4302349001749911e-09 5.993213388874202e-10
250 7.509608340166682e-13 -5.071867899617459e-13 -5.2562235900510157e-14 2.3490905403603556e-10 7.331480827174373e-11 -8.073894134418635e-10
251 -1.9202558928250366e-13 9.645954049985548e-13 1.0835054478743937e-12 -1.459971730267491e-09 -5.107258448394822e-10 -2.9262821487152744e-10
252 -1.0808810219171517e-12 -3.2260618511365806e-14 -1.299818796607282e-13 -1.2355598386877856e-09 -2.155581834425006e-09 -2.109093448077904e-09
253 -1.2429898245089684e-12 -6.08625691433893e-14 -2.167952771342197e-12 -4.454827880462839e-10 7.020564346914148e-10 1.899726742835114e-09
254 -1.0020484137872272e-12 -2.1626491700285203e-12 7.607775415310102e-13 1.4846260438756216e-09 5.330166157575967e-10 1.2534312021514702e-09
255 3.191536574130467e-14 1.0635158139622735e-12 -1.0412216562404094e-13 -9.53156173044114e-10 -4.902096710369598e-10 -7.499598771956967e-10
256 -2.7575049551785137e-13 5.407374982122032e-13 -1.373687247607244e-12 -4.1279588098245954e-10 -1.4642147381968863e-09 -2.9299600447666977e-10
257 1.083385913597565e-12 -2.1506995631138674e-13 5.530763182778625e-13 3.8764392963919023e-10 -9.783221729041976e-10 9.897468409497409e-10
258 -3.689771409412738e-13 1.0454179962765958e-12 -6.763327440658744e-13 -7.88021347417947e-10 6.502195238759613e-10 1.2393951500923284e-09
259 6.69686444906788e-14 -6.952040079327889e-13 9.988890754898752e-13 4.476322217049183e-10 -6.296855901570767e-10 -7.968430935106058e-10
260 8.012044874175856e-13 4.5337708452741516e-13 -1.5812295676514367e-13 4.347104081222554e-10 4.232134565157767e-11 4.827286998961667e-11
261 1.0822517442334418e-12 -1.4019919249064016e-12 -1.7125127040673639e-12 -7.989752342020731e-10 5.994715642564126e-10 1.3277772697330225e-09
262 2.4957467468824413e-13 2.1707690512440575e-13 -1.521008260239137e-13 1.3101815438668853e-09 -7.313753419581503e-10 6.630291316988231e-10
263 -1.2887892839741855e-13 -2.2933185066683894e-13 1.3653074498917194e-12 -1.3451774700876998e-09 -1.0702276063648376e-09 -3.242211573394339e-10
264 7.15100097026649e-13 -3.4147698275875265e-13 -6.945486462895951e-14 -3.710303499752871e-10 1.862316877958081e-10 -1.0564940174711853e-09
265 2.897083191403649e-13 -2.311325373904135e-13 -1.0837589846402355e-12 -8.220387367171992e-10 1.096267394641891e-09 2.314370232081214e-09
266 9.739958810778697e-14 1.3246663612168494e-12 -1.0841421459464156e-12 -5.801769859723459e-10 3.256674372844578e-10 -3.6464928798264413e-10
267 -1.084078649640224e-12 1.7505844967539375e-12 1.8891988148557375e-12 -1.5501106238902033e-09 -2.115321523452806e-09 -2.0598458578142103e-10
268 1.2200405760126012e-13 -1.4223903363766465e-12 1.0936965644336059e-12 3.665673586123509e-10 1.5581848426686327e-09 9.380425522280165e-10
269 4.104883652470716e-13 2.546162870548532e-13 -6.627648852661861e-13 -5.951752552728602e-10 -1.5276422731405646e-09 7.73989392848695e-10
270 5.596068828702632e-13 -3.197856381730874e-13 -1.6099079096976617e-13 -4.789080479028726e-10 4.435662440615467e-10 1.8560827136832325e-09
271 2.1631912588530856e-12 1.0841258396019647e-12 3.324195784989698e-13 4.520171965346646e-11 7.477174736797582e-10 4.2214248103482516e-10
272 -1.0828189637353513e-12 2.1677924557374485e-12 -5.891241644416257e-13 4.347861960585521e-10 2.4015478903032346e-09 2.459237172053729e-09
273 7.133255692347467e-13 -6.613253631898888e-14 -5.419442772557399e-13 5.828401355556829e-10 1.4362783136994543e-09 -6.54049123707697e-10
274 2.1781364368240496e-13 4.719021591103912e-13 7.89443122394761e-13 1.2042836068519426e-10 9.22511880698702e-11 -2.351966368467135e-10
275 -4.90699604825821e-13 7.555764177090333e-13 8.62089948497511e-13 -3.8655636665076614e-10 2.5668723443188753e-09 7.30333941699209e-12
276 -3.609211250730127e-13 8.967983637312814e-13 1.1404346070139854e-12 2.524691867122276e-10 1.445411503368799e-09 -8.392451627527816e-10
277 -3.1879676393515373e-13 6.775067700145609e-14 -3.3003869253137497e-13 -2.020437024016353e-10 1.1968788095001436e-09 -8.741094187415068e-10
278 6.623562720640832e-13 -6.776362793629851e-14 1.0754315777455751e-12 8.045539428316246e-10 -1.3360401133867208e-09 -1.1131035191345293e-10
279 -1.0839785133116214e-12 -2.1682749956614575e-12 2.1678584206881113e-12 -3.121931142692985e-09 1.218199918680983e-09 -2.010003944140431e-09
280 1.1045424619350492e-13 6.738009667376963e-14 2.1877924718262528e-13 -2.508280337254272e-09 9.552505269465699e-11 -1.5139936631737278e-09
281 4.840952440717913e-13 3.306872593026446e-13 -3.187495335718352e-13 3.6788268099101383e-09 3.6895216982487333e-09 2.035550785778418e-10
282 2.706518251365033e-13 -2.1283190613222352e-14 1.1250815418805724e-12 -9.193905152079615e-10 -1.3074060026395684e-10 7.914545550360129e-10
283 -2.7135944328366956e-13 1.9853770300116816e-14 -1.2789967828604729e-12 8.727480771802226e-10 1.399345413852523e-09 9.231539706668153e-10
284 3.317165506326677e-13 -2.7782496509018953e-13 -2.2397956901417535e-13 4.652810823041958e-10 -4.51225639040638e-10 1.9972488132039107e-10
285 -3.1612870155954473e-14 -1.1338986848963423e-12 4.1112952698415947e-13 4.0354259141723707e-10 -5.422933434143565e-10 -2.564115685566537e-10
286 -1.0522891948083366e-13 8.08195514642387e-13 6.284522305072611e-13 8.275082203041475e-10 5.457227132874897e-10 3.090588292148168e-10
287 2.2227882769031348e-13 5.947108553768892e-13 9.016893620442472e-15 2.0771098427078352e-11 4.1894253198108377e-10 5.508216572670727e-10
288 5.898200860549519e-13 -5.409740514291911e-13 -7.34842387951345e-14 1.7472748100550927e-09 -3.4751080848959143e-10 1.6190728432302576e-10
289 -4.812298697734108e-13 -9.182771287590432e-14 -6.195045077977032e-13 -6.961648110958102e-10 3.175208614777071e-10 -3.4128244206261285e-10
290 -2.3345253187210644e-13 -3.075150837652496e-13 9.701510398593466e-13 -2.561781493666309e-10 5.495856671283669e-10 1.5380019285001892e-10
291 -1.4901462159673678e-12 1.9628120658216455e-13 2.0189817074084506e-12 1.512764276399594e-09 1.2928911911605607e-09 1.5459087828706365e-09
292 9.012196094641701e-13 7.901653331417221e-13 1.8530121115691553e-13 -3.627289340392482e-10 -3.1444370384000194e-10 8.186754126140668e-10
293 -1.3963680787406208e-14 -3.297971324510392e-14 -3.7532597103928977e-14 -2.2692765423676633e-10 3.3724188196449074e-10 -4.3170293562123425e-11
294 6.780421753113975e-14 -1.031743916327407e-12 -6.311652432206865e-13 1.0861202386931853e-09 3.082434822266495e-10 1.1401736799066525e-09
295 -1.3525617575312476e-13 -2.986829927682272e-13 9.988967893313026e-13 6.556334451243687e-10 2.1918529430807973e-10 -1.5281767790428994e-10
296 -2.1001238215352748e-12 7.03458512671666e-13 2.831273463210666e-13 1.811561033249875e-10 6.802022870482047e-10 -2.4662142091671152e-11
297 -8.445499406493206e-15 1.550524252868811e-13 1.782837858715355e-13 2.3304440193597865e-10 -3.35085266139452e-10 -4.358811318565391e-11
298 -1.0839313354372585e-12 4.20398277706614e-13 -2.140885085671782e-12 -3.868583423142546e-10 -7.822922052681931e-10 4.675961827792949e-10
299 -2.8743552202805444e-13 1.0739524503872246e-12 -3.198179642609407e-13 -4.603710061201911e-09 2.355759693930104e-09 1.0838283333756573e-09
300 4.510709775830808e-15 -1.3094609215631713e-13 4.979660330817838e-13 -5.040033418244902e-10 4.115485834902712e-10 4.624481676593327e-10
301 5.718108971130284e-13 1.3207566290329278e-13 -5.1431594970570615e-14 -7.767248646644804e-10 2.155838102748978e-10 7.650926493898346e-11
302 -1.1398631140287413e-13 -1.7571218591559745e-13 1.4381201201339606e-12 -8.573332640201046e-10 -7.031718323397563e-10 -3.129659475425588e-10
303 1.0772315071347804e-12 -2.1507112950524795e-12 1.0827396745755115e-12 1.8072277302051058e-09 1.4132658025932763e-09 -5.321813928450296e-10
304 4.237097543850014e-13 8.006455455029228e-13 -1.3054848174775024e-13 -2.48527801902957e-10 5.977074111403261e-10 -1.997742406856895e-10
305 9.241277182137709e-14 2.1646748994457033e-12 6.723051430542884e-13 -1.260533926084073e-09 -2.0032072087913025e-09 -4.4802284699040927e-10
306 1.0802025411309152e-12 -4.245546052286693e-13 1.4242809406357274e-12 -1.5195434720544384e-09 9.503014231215538e-10 1.4503883337392708e-09
307 -4.0254355763199237e-13 -5.680733104174129e-13 4.1404131440203005e-13 7.877906493248451e-10 9.307060537263287e-10 1.3140440682422917e-09
308 -4.1313832181861e-13 -8.81014885520261e-13 -1.177746513932568e-12 1.4181958097349358e-09 -1.5643708847852041e-09 -7.059478606451662e-10
309 -1.0826283825149002e-12 -4.84775298461945e-13 -1.2226854898195747e-12 1.1788609596387104e-09 1.1977185840553786e-09 -1.4736488195092642e-09
310 -2.7115678244704e-13 4.728571355443776e-13 7.225081147724074e-13 5.467669179394633e-10 1.2196564394594875e-09 -4.246920366018085e-10
311 5.404411568434534e-13 1.7486024191329224e-12 -5.324716459429527e-13 -4.3639273810014764e-09 -8.704423018391603e-10 -1.13973178538132e-09
312 -6.803839775878622e-13 5.241624301675101e-13 2.595045384661605e-14 -1.1418470792553434e-09 2.9152920863906003e-10 -1.0183671600655332e-09
313 5.418712232049251e-13 -1.6425123095969547e-12 -1.0832189093717884e-12 1.2122142582673745e-09 5.826292616652855e-10 2.803029875246549e-10
314 -9.008894235992283e-13 -1.0838783997530645e-12 -2.285929130460822e-13 2.585714512176083e-09 -1.586612482831645e-09 -8.143724056743486e-10
315 -3.789621496241483e-13 9.988027002060347e-13 1.7974076169329492e-13 -2.2041748684976413e-09 7.885864123096904e-10 3.31246217470017e-11
316 7.669628902748298e-13 -2.5666965828059634e-13 3.7637655296958853e-13 3.834812619968459e-10 1.56349999321883e-09 2.1998753261165346e-10
317 -9.098842502535529e-13 4.54158450163601e-13 9.379131788258412e-13 4.804765722642764e-10 1.6931883223689028e-09 -5.476456893181098e-10
318 -4.4570292172485066e-14 -1.1888853212753807e-12 1.010736635674668e-12 2.339253497720694e-09 2.2230986875261183e-09 -3.4174709008031474e-10
319 -4.2074703397475637e-13 -6.257272829764219e-13 1.1459189994573873e-12 1.1114868845959152e-09 -1.6795437185895342e-09 3.676015555441952e-10
320 6.870220509827636e-13 5.420409180946868e-13 2.1670988712221725e-12 -1.7669860775169774e-10 6.178275529338787e-10 6.310279549187422e-10
321 5.405802645953801e-13 -8.59686833074601e-13 3.567797121259311e-13 1.1543358897234597e-09 1.4509869901242678e-09 3.94889553074566e-12
322 2.783991504390428e-13 6.747806945166342e-14 9.491778212243706e-13 1.0402906445357772e-10 2.293627701285049e-09 -2.855296552901819e-10
323 -1.3158108041302036e-12 3.408978290019819e-14 8.780828080672766e-13 -6.791586736673152e-10 6.314600936818594e-10 5.464064826273904e-10
324 6.959778935762478e-14 1.6862234154965205e-12 2.679758640577657e-13 1.8285651745029382e-09 1.1969734394590996e-09 -1.87119169212233e-09
325 9.854711686392736e-13 8.609461965077903e-13 -9.796759132880882e-13 -7.677434120235375e-10 -1.1639129720205405e-10 1.1378512144048453e-09
326 -1.0669237145949962e-12 6.585828085242195e-13 -9.954263846585339e-13 -7.7902348917828e-10 -1.5557485126833507e-09 1.9802199075872132e-09
327 3.3000591345352e-13 -5.407713395374911e-13 -6.260827507245379e-13 4.2438976844981507e-10 1.556054368147557e-09 -1.5022819528636414e-10
328 2.60954527802316e-13 1.1870557209267585e-13 1.0838470298786945e-12 2.619433095574019e-10 5.382929015523993e-10 -1.7371855147566806e-10
329 1.3339604089074922e-13 8.001467569472729e-13 4.836982132112795e-14 -1.503669871457286e-09 4.509066649294761e-10 -3.410575868335258e-10
330 -2.730673633246341e-13 5.413960300871295e-13 5.913657427639152e-14 -1.5131702656057304e-09 5.049335360876992e-10 -2.2778812784173835e-10
331 -5.617894364320461e-13 3.2835104000716715e-14 -1.0828077470798772e-12 1.6095977944011716e-09 -1.6005214723801155e-09 -2.0177678948070684e-09
332 -1.6327722384689397e-13 -8.394163647194412e-15 9.571096903992041e-14 -6.736046229522641e-10 -7.429928050997556e-10 1.7752208399947586e-09
333 1.0442011141686163e-12 -5.419471010615093e-13 -3.542684344186929e-14 -4.135890653725066e-10 -6.619836252476418e-10 2.06374914265075e-10
334 -5.421348942482081e-13 -2.8625503926760435e-12 1.0841348465187061e-12 3.2175025542339088e-09 -3.920330905468801e-10 2.7054599178883336e-09
335 -5.41390621730256e-13 8.028852030566901e-13 1.2883240109714704e-12 4.687527294805414e-10 4.005029010375912e-09 -1.1305622216165097e-09
336 5.372072944877856e-13 5.417570553051729e-13 1.5152861458767988e-12 2.7361832080459595e-09 -2.528292924540656e-09 8.271155500121282e-10
337 9.82099591749152e-13 -2.350037390785926e-13 -1.1759718944051105e-12 -2.8038211680887347e-09 1.954926661904611e-09 -6.402749616715434e-11
338 3.3713875715499477e-13 -5.302460073988785e-13 -1.3065719124623878e-13 -1.5514200664134506e-09 -5.884182458480672e-10 -7.305199194774541e-10
339 7.157029218038305e-13 5.419417720688153e-13 -2.820356488778164e-13 8.693080598341146e-10 5.703929615006091e-10 1.54514594497903e-09
340 4.2756076832832165e-13 -7.638429189989054e-13 1.0306373653849413e-12 1.331688198949524e-09 -7.22548967250628e-11 -3.4229168681037015e-10
341 1.0024989138789666e-12 1.5321990638157097e-13 -3.350772828454306e-14 -6.830142027238104e-11 -7.540319392160875e-11 3.6468877464354004e-10
342 7.101647555656416e-13 1.2587185569731623e-12 3.594613797560274e-13 -9.19708254331363e-10 -1.291490890785527e-10 -6.739958244319206e-10
343 -8.854178371193589e-13 9.631408416817073e-13 -8.204265757395712e-13 1.5376646282230378e-09 -8.406673273255189e-10 1.8897227835045896e-10
344 1.6406660457713732e-12 -1.202381309472951e-12 -9.506814863761683e-13 -5.607094177643332e-10 -1.2257961845361902e-09 -6.451541547871044e-10
345 6.422094016130413e-13 -8.708911628237215e-13 3.0134212346381167e-13 -6.391644513520059e-10 -1.2549780521155239e-09 -1.3260768848658436e-09
346 1.7312110413006527e-13 -4.593934722123209e-13 -9.42863626565372e-13 1.0699355444040367e-09 -5.26704771208784e-10 2.347060254446004e-10
347 -1.208313416910721e-14 -1.2230947130400103e-13 -2.732899392465613e-14 -2.6735175810419545e-10 -6.071863051283338e-10 -4.273866628863415e-10
348 -1.08331578639742e-12 2.704432341190639e-13 -9.351785581070902e-13 -1.0450975212866982e-09 -2.1653165631498605e-09 1.27007664032414e-10
349 -9.145837660510457e-13 1.3541203219910088e-13 1.3434565598166861e-12 5.4429159126557586e-11 -5.727639469120539e-10 -6.909856408829914e-10
350 7.727633306029746e-14 -1.2845302216250673e-13 3.1362451644898615e-13 -1.6414665291227628e-10 -3.627191698806404e-10 -6.737036097111625e-11
351 -4.3736717080360806e-13 -7.919726743559668e-14 1.0837838011229864e-12 -7.384239399303332e-10 1.030649387224609e-10 -3.1211342624278694e-10
352 2.861517635531594e-13 -3.1486833436703137e-13 -1.8628910163505364e-12 -1.3157295133593934e-10 -8.240563301222331e-10 -5.30756463866297e-10
353 -7.364939839221591e-14 1.0585436942011323e-12 -5.41613724093627e-13 2.3797027461887244e-10 1.1523944074038107e-09 1.0214226302961907e-09
354 6.83208139040944e-14 9.998023620326757e-13 4.7410446175745113e-14 -4.342155819167007e-10 -3.057707621976819e-10 -1.1221914900146703e-11
355 -1.2164260393432365e-12 1.5891547466320865e-12 -1.4135692375945573e-13 1.5833602711455204e-09 -1.3706493757865276e-09 -7.030887392785511e-10
356 -1.573677619891199e-12 8.127673921624691e-13 2.136482652325379e-13 -3.097026774599258e-09 -1.6764518996839776e-09 -1.919743628538189e-09
357 7.269437122501074e-13 -5.417321194871499e-13 -5.0689484902726004e-14 3.696920354023027e-10 5.728174794229041e-10 -4.226837118488305e-10
358 9.105013801782437e-13 -9.180990781477308e-13 6.373377321823926e-13 -1.3422976217472653e-09 -2.6854337478626268e-09 -1.6089333730221872e-09
359 6.847809893571621e-13 -1.0797672716379632e-12 5.010740677233779e-13 9.283058021521126e-10 -6.224555621465681e-10 1.3993462946786536e-09
360 -2.1662912892614044e-12 -1.0573662678723499e-12 -2.564911146724779e-12 -1.5503806973202415e-09 -8.720491977180543e-10 1.6594853356315218e-09
361 1.2383735614931304e-13 5.107131461549755e-13 7.58639581060509e-13 2.188802988519248e-09 1.6284801335627475e-09 1.0686459280615075e-09
362 7.653700589388697e-13 -1.3408601332360454e-13 5.244531545208381e-13 -8.943254986343207e-10 7.008752977081392e-10 1.3172522291268515e-10
363 -1.9917846460033206e-12 9.961726954547757e-13 1.0271471475753415e-12 1.793267748227686e-09 -1.3716987356355864e-10 -1.5064314313776754e-09
364 5.3870656337528e-13 2.7051164764149706e-13 1.0818265782775851e-12 4.574792032645087e-10 9.603532680537414e-10 -6.154445813418765e-10
365 1.0839951400984821e-12 -2.0575374785832914e-12 2.4832558799010604e-14 7.591130047340982e-10 -1.3368739106326387e-09 -2.8333449345454915e-12
366 -5.142184089875617e-13 -6.554118894617809e-13 -3.779723142024015e-13 -2.3530787134928253e-09 5.274412918781944e-10 1.7894794872922064e-09
367 1.3840351895966427e-13 5.418030920096788e-13 -5.671508459466202e-13 -8.560734328187472e-10 -6.883906585512297e-10 -9.653212915533508e-10
368 1.693894173419135e-12 -4.1740916730651466e-13 2.6959616411054417e-13 1.8607795779695765e-10 1.919583257477193e-10 1.1073758785846797e-09
369 6.369969770805171e-13 -1.0836993805969847e-12 -8.476126150049172e-15 1.0118160810488281e-10 -6.158516996355904e-10 1.0528556758255836e-09
370 -5.408725116619635e-13 -4.969930903303708e-13 1.136584107842326e-12 -6.638101226456962e-10 7.240061411224934e-11 4.2093537838414433e-10
371 7.274916920275661e-13 1.3584619348394016e-13 -1.3700938878613894e-12 1.5974275139294134e-09 -8.277251218550974e-10 4.933193696430453e-10
372 3.0166176006299854e-13 4.0735501468050857e-13 -2.7437583740784884e-13 -3.793829745340915e-10 -2.6538854800252364e-10 -3.44530987382955e-10
373 -8.348753587314134e-13 -8.162846025316488e-13 1.0839139338593407e-12 -2.0715673406447059e-10 8.894308947393959e-10 2.4858426264030394e-10
374 -2.7096012078470134e-13 1.0645927550560617e-13 1.9213951236767487e-15 2.0712509155522435e-09 -1.5320484470660613e-09 7.617057608732621e-10
375 -5.360130918256269e-13 1.4701457516223374e-13 -7.018757893515145e-13 4.0190836344796057e-10 -1.6422534196147507e-09 7.593838092734655e-10
376 3.6346851358848524e-13 -3.254341710310642e-13 -1.723326192941174e-12 -9.461567983273597e-10 -2.00423962778106e-10 -1.7956747448711877e-09
377 1.0128597531286413e-12 -1.9925856304397665e-13 7.814016422567949e-13 -2.9957913454071333e-10 1.5122063989133816e-09 1.3383899107572406e-09
378 -3.0597617729298726e-13 1.7023818538328019e-12 -1.6959083267090087e-12 2.959084569168587e-10 -3.1020919404358447e-09 2.911388131495688e-09
379 1.0826280090600606e-12 -1.5844627836789416e-12 1.4676079610718202e-12 6.372025619373444e-11 6.924877836862593e-10 1.6520768842911342e-09
380 2.951924739559031e-14 8.430613578909357e-13 1.0769887089882593e-12 6.954935810892322e-10 -7.624027495881491e-10 -2.79405172945387e-10
381 7.060075880915761e-13 1.0829516135687316e-12 2.7562098347646017e-13 -8.031105416898939e-10 1.3748423711618662e-09 3.264665003924822e-10
382 5.419418839659302e-13 4.608046411335275e-13 9.084738535760803e-13 1.1007798789254271e-09 4.0882914958278665e-10 -6.666650478970331e-10
383 -1.0839624568515137e-12 1.0641609452253626e-12 -5.712299898441153e-13 6.885478395443102e-10 7.915496924930042e-10 1.4801220046168706e-09
384 -1.03044993859994e-12 5.420214963844287e-13 6.282623453342896e-14 1.4159919459333338e-09 3.1775847809875907e-09 -6.521714398112114e-10
385 1.8162238824843162e-13 5.39716846874661e-13 6.405878028090384e-13 -1.289372307680611e-09 4.672728227800625e-10 -7.15073576285582e-11
386 2.7098574235034356e-13 1.0040122920907521e-13 2.638012075844332e-13 -6.118128896698093e-10 -6.464492586273992e-10 -3.136181874135877e-10
387 -2.1659719001849534e-12 -3.588243142492476e-13 4.667638241865022e-13 1.2304997538438502e-09 8.859243691966158e-10 -2.251231729254443e-09
388 2.2511061919948892e-13 1.0829263880900488e-12 -3.028642744623426e-13 1.2838866369076113e-09 1.085368177810907e-09 -2.131459912984518e-10
389 2.57137239778528e-13 5.3669533603318866e-14 7.29062788037101e-13 -1.5873577749709115e-09 1.3906028569129697e-09 9.027003310774075e-10
390 2.4293591407852873e-13 1.0528320530919222e-13 2.0698237019915483e-12 -4.704587758796865e-10 -2.6291122430949036e-10 7.522599191307349e-10
391 -1.083556652882332e-12 -1.5565592277704047e-13 3.012458549226521e-13 -1.6235547865513615e-09 -1.3669278709295858e-09 1.1345065172516091e-09
392 -2.1682561518775458e-12 6.72354432655753e-13 -9.006435019733978e-13 1.664009890422584e-09 1.1624727877059306e-10 1.2068625661920607e-12
393 1.3504238059641027e-13 -1.3472798995422155e-13 3.999966928139659e-13 -4.772629123804302e-10 1.9635160601675765e-10 8.957066643831641e-13
394 -5.136077771107712e-13 -1.3075622191770207e-13 -6.876725506149872e-13 1.332812433049678e-09 -9.810955305698116e-10 -9.119736807088198e-10
395 -1.0613569689198793e-12 -2.417784796172342e-13 -9.090384915904202e-13 -3.435335640255731e-10 1.450356158389221e-09 2.005292702573104e-11
396 1.0840075562809782e-12 -1.6897498323923403e-12 1.87527176991579e-12 1.3238583599353082e-09 7.371017763745205e-11 1.0706030555339239e-09
397 -5.553639879382163e-13 -1.0826877098664066e-12 6.073563719955304e-13 -2.8862493003547004e-10 -9.201397226734055e-10 -1.0581213456843205e-09
398 2.0097082624175337e-12 2.7106774000244e-13 2.713179804878563e-13 1.1963801726099849e-09 -2.4621015223420227e-09 2.469820601616083e-09
399 -2.6804075083425185e-13 -1.1180696686114041e-12 -8.322834360533367e-14 7.07822639776222e-10 -2.478145408210909e-09 7.777974986557931e-10
400 5.41453143103553e-13 2.5811307283355895e-13 -4.1014650073830754e-13 2.0962613698625853e-10 1.3616564980321906e-09 -2.765289589717178e-10
401 -3.3510444111165397e-13 2.1655532065017358e-12 -2.5270149616061928e-12 -2.17983423180771e-10 6.580906753298764e-10 -8.073895257984757e-10
402 5.790340508004642e-13 1.1414733981618673e-12 2.0378448027862004e-12 4.1554318198014475e-10 3.394750395185353e-09 -1.502306140908893e-09
403 1.0833996005964756e-12 -9.670211322836959e-14 -1.9634780822350674e-12 -5.251701960657965e-12 6.949620659637816e-11 -5.969048113976569e-11
404 -3.2452041408621616e-13 -1.0783168806171531e-12 -9.605403221726093e-13 7.113987215431851e-10 -2.243428492217576e-09 6.947416369926949e-10
405 -5.589370170167003e-13 9.996428453432032e-13 3.290011873658931e-13 1.2691076400309901e-09 3.666766623306435e-10 1.8847228151897432e-10
406 9.09005599556762e-13 -1.5385892639563179e-12 9.768728288402317e-13 -1.2508034226748047e-09 1.0346330179669081e-09 -1.3552925363491196e-09
407 2.703737060357459e-13 -1.6267436139345067e-12 5.808585035041561e-13 8.673659612890191e-10 -1.1157243638447898e-09 -9.148216140531203e-11
408 -1.0829035112236898e-12 -1.9986112648996655e-12 -7.289177161537095e-13 2.7933541526695142e-09 -4.383404564730806e-09 -2.1914827656516535e-09
409 -4.4196049601582753e-13 -9.868665830873291e-14 1.4557478847449727e-12 9.043994870526601e-10 -5.683540255321298e-10 -7.944199237826524e-10
410 3.8641565410154013e-13 -7.901166266663204e-13 2.521842701402919e-12 4.677896639148336e-09 8.641785345285663e-10 1.2467201291716588e-09
411 5.060618899445467e-13 -3.348584018640326e-14 6.752392945937264e-14 -5.007949091006142e-10 2.8415166630700717e-10 1.9457704413541065e-09
412 -3.665003257423234e-13 2.166165519926249e-12 -6.131391672462072e-13 -1.2097967936276013e-09 5.72048974611832e-10 -1.435953761738528e-09
413 -4.67735114098334e-13 6.269671119018197e-13 -5.729737771819264e-13 -3.2011424076099237e-10 1.171029703856923e-10 -2.494537487303753e-10
414 8.521620714015354e-13 -1.3444496207506566e-13 2.4092358325588016e-13 -1.647470998366477e-11 2.0932580474115615e-10 -3.1510308682206043e-10
415 -3.3438937246137675e-14 -1.778523508596713e-13 1.6729077657972338e-13 -4.255645001930376e-10 9.914035675162532e-11 3.105302234271466e-10
416 -4.168155406813205e-13 1.353674227996488e-13 2.134096553235007e-12 -2.0316678561988624e-10 1.7092897574732698e-10 -1.6533907777703843e-09
417 -8.49390978632989e-13 1.2617966603385576e-13 -5.494613024419195e-13 -8.800392821845665e-10 -6.026953539782947e-10 -3.122115571170152e-11
418 2.3546688901353147e-14 -1.378010866835465e-15 6.978604052356291e-13 -9.474386801240708e-10 3.212348522982943e-10 -4.0143970805074644e-11
419 -1.3816071600550498e-12 3.1873833110919725e-13 -3.1584487041020827e-13 -4.200312483898588e-10 2.199866418684214e-10 1.1342890614323407e-09
420 -2.1617985181232617e-12 -5.38606252650275e-13 -1.377447207236476e-12 1.0435095900198528e-09 -3.86323947454878e-09 1.147971138173386e-09
421 -1.3541966122903118e-13 -3.394707863895398e-13 3.6237606575304383e-13 3.521665520546313e-10 3.999069374050026e-10 -1.6247877910106129e-09
422 -1.1088861486629372e-13 2.1667382293399173e-12 -6.850015554665018e-13 -6.730907821162909e-10 -6.164463359244056e-10 2.199241725255954e-10
423 -5.0425430689526e-13 1.3548168927423914e-13 7.496286477356342e-14 4.199019942243054e-10 -1.0700052844007226e-09 -6.078255853778529e-10
424 -1.990608750218061e-13 -1.06280718930409e-12 -1.5633821162795568e-12 -1.21579136067145e-09 -1.8150333557349426e-09 8.30950212000073e-10
425 1.0833396217592834e-12 -5.416025402259266e-13 -1.3867982247366472e-13 1.5380845873359496e-10 -2.9809050834432094e-09 -8.687855094505237e-10
426 -5.87197893548513e-14 1.8653879643385416e-13 3.8794853063885756e-13 3.3297835443022164e-10 5.355252647225748e-10 2.793069808581698e-10
427 1.3521791989550172e-12 7.309704633165683e-13 6.076625588550849e-13 8.395953191410703e-10 -1.0402950171896693e-09 3.194042347520076e-10
428 1.3771881829067118e-13 1.0816582934030685e-12 -1.0243647391935715e-12 -6.470281453431397e-10 -7.915862650636287e-10 3.6241728156291094e-10
429 1.4488445638683259e-12 -5.001429949659483e-13 1.0704493952528345e-12 -9.100496549829466e-10 -1.0140857646514877e-09 -1.7277937888672078e-10
430 4.868206696557215e-13 1.0834857309029198e-12 -4.4868973803485797e-13 1.3134831318213326e-09 -1.1800794878288483e-09 -1.064632034670746e-09
431 -7.496477898260733e-13 1.0830658643971959e-12 1.519862035095656e-12 9.36902591747806e-10 8.298325031638845e-10 -4.150086803484102e-10
432 8.696458282506741e-14 -9.13961739353211e-13 4.497459005516025e-13 1.522056559982455e-09 1.1782467189836824e-10 -3.3134883828876427e-10
433 4.2446394383469973e-13 -1.353518792749085e-13 2.1400750067400984e-13 6.915541327814293e-10 -8.900372580459898e-11 -1.1852422800669958e-09
434 5.420827971227457e-13 2.0435894469229663e-12 -1.2392068762287796e-12 -1.0152586282109497e-09 -1.9141355220888888e-09 1.7742409932408237e-09
435 -4.272539029587478e-13 -1.579036018071349e-12 1.6775074973450238e-12 4.296795251056079e-09 3.4837912904126806e-09 2.9927907448252294e-09
436 2.8774067824939247e-13 -1.2826780344130216e-13 2.099324916051374e-14 -8.822423360463081e-11 5.448901638429098e-10 -7.237566030499285e-11
437 -1.0811921740504572e-12 1.0829303946573213e-12 -2.683654416061746e-13 6.66430826708615e-11 -1.9861654555277657e-09 1.4418579282682133e-09
438 -9.534889612020595e-13 3.6306340885983836e-13 -3.8890575668989093e-13 -6.120358054150972e-10 2.0362002443728162e-10 -1.2215757300427386e-09
439 -5.417786783925712e-13 1.0794356562455697e-12 9.19043883665284e-14 -4.922670658790894e-11 4.499956861980021e-10 7.728460569522324e-11
440 -1.0836349768431863e-12 2.8395432983376965e-13 -1.0389889708155568e-13 -3.310346114387017e-10 7.642049095121316e-10 -9.71625953716077e-10
441 5.416662146204425e-13 -2.1612438289242187e-12 -2.0133197569644116e-12 -5.585763235846811e-10 7.945682332323397e-10 8.58130267759317e-10
442 5.89605575275071e-13 1.3541268202424404e-13 7.033650700225534e-13 -6.107973321266019e-10 6.434335046848212e-10 7.588274910989962e-10
443 -3.403911668666904e-13 -9.797697358959666e-13 -1.6120978052568949e-12 2.1142272739251264e-09 1.574630513400321e-09 2.560065687885631e-10
444 -2.7014111131169864e-13 -1.1253033276479057e-12 -2.48307952180588e-12 1.7541217627041278e-09 1.0339538889342736e-09 -4.701499457406162e-10
445 -9.417080667607735e-14 3.3164608918487865e-14 4.3986730415188424e-14 1.0542829170461843e-09 1.9968310808357873e-10 -5.833020841210977e-11
446 -1.5393775196736804e-13 1.0840289271092116e-12 2.698059355998148e-13 1.4882293975873536e-09 9.200185029674029e-10 -8.425336451120329e-10
447 1.0501637755801466e-12 2.219709652545901e-13 2.396923001694248e-12 -1.6423782614788244e-09 2.6935005342190553e-09 -7.503566055113877e-10
448 -7.088463525603216e-13 9.457875864140837e-13 -9.932561311157753e-13 4.827355472957525e-10 1.9179135057722627e-09 -1.0026604482343039e-09
449 -8.45152123877527e-13 -1.0060983568835365e-13 -4.335711123274957e-12 -4.500643822982161e-09 -2.338995836944007e-09 2.3913839531846877e-10
450 6.766070269974122e-14 1.8206912203720762e-13 -6.984122326056248e-13 9.131698595533981e-10 -9.612247168679839e-10 7.201469114813598e-11
451 1.0731208367719323e-12 6.214737264037451e-14 1.1205918399874119e-12 9.389466015371759e-10 3.5830847884263404e-10 -2.962481360602206e-10
452 2.166699576648216e-12 -1.0165904771167969e-12 3.3959539579455576e-13 2.569313647850628e-10 3.067405336483468e-10 -1.0064575085166087e-09
453 -9.851596454235756e-13 -5.867933699063731e-13 2.2320410535918926e-13 1.7803432042819197e-10 2.2190696355483736e-10 1.2247586483108126e-09
454 -2.7083533942242047e-13 -7.099639106995165e-13 -1.768527911180422e-12 -2.2455381901290547e-09 4.660809265057936e-09 -1.9744923475862483e-09
455 -1.3519861644199338e-13 5.420728076767491e-13 5.102127959971581e-13 -1.0461112995370543e-09 4.467288432604292e-10 -8.7526491082894e-10
456 -5.420297695342092e-13 -2.0999816249272622e-14 6.948491619348905e-13 -2.8326151924669035e-10 1.120615204739369e-09 4.409734404732248e-10
457 1.3603729687918386e-13 -3.4399598351990712e-12 1.3076214326573067e-12 -1.0215458316332051e-10 2.444443199839322e-09 2.2018143241997243e-09
458 -5.418049759822927e-13 -4.0484174156144056e-13 3.5042586800400177e-13 7.331736938671553e-10 -5.54557018420937e-10 -2.5098368934563183e-10
459 2.0670281762819512e-13 -5.514935615082618e-14 4.675737052785649e-13 -3.1689262156750857e-10 9.534530971814069e-10 -5.233291982750839e-10
460 5.3352841936164404e-14 2.557120735063298e-13 7.39293358512436e-14 -1.1412716981298444e-09 -2.8574599293080213e-10 -2.767289285286888e-10
461 1.9526384411037298e-13 -1.299444666264824e-12 -2.930090930983575e-13 -7.124541891683036e-11 1.581274023524927e-09 -6.939584918827258e-10
462 5.1417309078180743e-14 6.182659521882385e-13 -1.9485872843365725e-12 -1.8556926776692093e-10 7.183353988681548e-10 -6.114677458440391e-10
463 9.401415201037442e-13 -1.5658896060878605e-14 -7.847178410768766e-13 -9.066756269823465e-10 9.68936396012441e-10 -3.285504024720052e-11
464 -3.4751592100243556e-13 -1.3538005741295115e-13 1.4136134956219862e-13 -1.810219258996305e-10 -8.05172499196282e-10 2.1754009396490135e-10
465 2.607483241169939e-13 5.082777064080633e-13 1.5088612488511157e-13 -9.329718680026136e-10 -2.128842433210758e-09 1.322467732180742e-10
466 4.3439366512620476e-13 -1.018120562169908e-12 -6.860228496695766e-14 6.242793769438672e-10 1.9037109115758547e-09 -9.555053779548098e-10
467 1.0841039658207277e-12 3.3582043684405045e-13 -9.673677716480778e-13 -8.996579605678458e-10 -1.0564565923529758e-09 -5.435390795527699e-10
468 1.3522671456357853e-13 -1.9084375885728982e-12 2.958032807696251e-13 4.0161210379225446e-10 7.734512575358727e-10 -3.1095941655183545e-10
469 1.656113921792588e-12 -1.0776878331663755e-12 2.149010448081783e-12 2.155025338347676e-09 6.086505122925334e-10 5.737833223537261e-10
470 1.865921709699938e-12 -8.777270585201879e-13 7.304690681442544e-13 -7.333098323023848e-11 -1.861128643448703e-09 3.9582722343037196e-10
471 2.226514563281806e-13 -1.35287074967523e-13 -9.31996160351329e-13 1.8501843427627791e-09 -2.0888708005130723e-09 -1.732632123625702e-10
472 9.779644350225976e-13 4.605618025209126e-13 6.869010061631276e-13 2.00858658715368e-10 2.7126969026229978e-09 3.912146676557971e-09
473 5.418797183851141e-13 -8.97274543015431e-13 -3.838332832409115e-12 -1.369605150626176e-09 -8.815148731837578e-10 2.844956650167557e-10
474 1.9475498605942417e-15 -8.73752458174835e-13 1.948479960177175e-12 1.664179640654457e-10 2.823778407144022e-09 -1.2075457320905055e-09
475 5.521087752723967e-13 -1.3535489001817199e-13 5.550206557849331e-13 1.4236985520849353e-10 -7.14333990440912e-10 6.206251951083895e-10
476 -2.8560260661513613e-13 1.5420321034161675e-12 -5.962426882716136e-13 -2.588596760093095e-10 1.1709107711780112e-09 1.5228820678686893e-09
477 1.3931313101496315e-13 -5.420269978007545e-13 1.800673894513947e-13 1.0873330418048966e-09 1.7313001834945854e-09 1.9885624491399646e-09
478 1.5029981404127882e-12 5.465406190578751e-13 -4.3670190996613544e-13 1.0640314506957275e-09 8.535460842586247e-10 -2.0896893264489827e-10
479 -2.7050464122972013e-13 4.615853783188047e-14 -1.7725818499375793e-12 7.871671335381715e-10 -1.4511445394745728e-09 9.52944571815515e-10
480 -4.340020522106538e-14 5.732297641217831e-13 3.059005510545172e-15 7.236063970523977e-10 1.240989071648737e-10 2.8436821676861206e-10
481 5.239777772645749e-13 -9.248901826556963e-13 1.003501712458718e-12 -1.0166718078922952e-09 1.829803438475321e-09 7.882228668731661e-10
482 9.839197585996714e-14 5.399539335800421e-13 5.138990127845357e-13 5.689647358247845e-10 1.7864550850567602e-10 3.4107923782442984e-10
483 2.301321266166142e-13 -7.626010526777737e-15 4.633480614403804e-13 -2.5553518448669166e-10 -3.849824038599638e-10 -7.689059695803687e-10
484 -1.3571370450567814e-13 1.8180635571185212e-13 -2.352241467978559e-13 4.0481277457625075e-10 -2.7488505264581023e-10 9.19019552073887e-12
485 8.842045937982208e-13 6.948036798972975e-15 8.692082106964014e-13 -7.086286559319648e-10 -7.065967345191708e-10 1.8878427101552865e-10
486 1.336938451479489e-12 8.37574905501527e-13 -3.3407713073352354e-13 4.652331030864943e-10 -6.937616388088e-11 6.590556840462975e-10
487 8.513462960202805e-13 1.3544543674750885e-13 1.624980511598407e-12 -6.136700721533136e-10 1.1432472137332772e-10 -1.386655050857249e-09
488 -1.7919203894404953e-13 6.688454774174445e-14 4.864518659792247e-13 -8.407134655942723e-10 6.119309199684395e-10 -9.564485848796406e-11
489 1.9393831631696673e-12 7.114482073013468e-13 -3.231976078021315e-13 -3.4880635624318526e-10 -2.1274763880960586e-09 -1.7389739699612687e-09
490 8.886198867674714e-13 5.004162113261997e-13 1.6166405658296358e-12 -4.785977441007931e-11 1.4568344856506061e-09 -9.312361551741571e-10
491 -9.954596182160736e-13 8.902595592833713e-13 -1.1661665938247356e-12 -1.1742904064095173e-09 -4.735609886855421e-10 7.993612114542624e-10
492 6.434947000351358e-13 6.454587585599853e-13 4.058991208312584e-13 -1.0933605128206708e-09 6.320611109880445e-10 -1.308142363228514e-10
493 -9.97669540677551e-13 2.375544860878808e-13 1.2734536768735424e-12 4.737444329013443e-10 -1.5256610220531023e-09 7.536336239484039e-10
494 4.569306976344626e-13 1.084112372284622e-12 -6.479262168788527e-13 1.8557151571841682e-09 -4.261907692946608e-10 1.6692889159910053e-09
495 6.762360134667143e-14 -5.464251640260747e-13 -8.846022187004797e-14 -3.170609327929498e-09 1.8136683842145798e-09 1.2124205027295829e-09
496 -1.3579850126914654e-13 1.408250150932693e-12 -9.004451517124215e-13 1.2113297683775983e-09 -3.9290435587905794e-10 1.6075842573393061e-10
497 1.07014413869402e-13 1.0839660361972085e-12 -2.3215704164264844e-13 1.078411636327002e-09 -9.448751727471464e-10 -5.710616608725053e-10
498 3.390817235804113e-13 9.873959256121707e-14 -1.5999233619256057e-12 3.009070209413254e-10 3.975782296853978e-10 1.3274134841605089e-09
499 6.626016610272178e-14 1.3641493575147331e-13 -5.868019797013367e-13 8.200839682644671e-11 -1.959962428009465e-10 -1.0376067103826828e-09
500 1.825583511734844e-12 1.1864343525208052e-12 -1.5339688868780451e-12 5.104110801031801e-10 -9.381268872347316e-10 6.21040607651439e-10
501 -9.271084735678381e-14 -1.0741367226233863e-12 -2.8681414657813318e-12 3.819690122572999e-09 -3.5749456013748157e-10 7.967581997074344e-10
502 -2.061110334914976e-13 -1.6623804503071552e-13 -2.1853314112233124e-13 -6.328518589882509e-10 -2.135649481000686e-10 2.354619504755487e-10
503 -1.2420428881233453e-12 -2.5883074155592563e-13 8.655334640389294e-13 -2.8836796835963706e-10 -1.1396585606417114e-09 -5.595511637272264e-11
504 7.898340432808817e-14 -6.73678512881621e-14 8.139919034151576e-13 6.591384768337309e-10 8.636484891099817e-10 2.2885611098549878e-10
505 3.1038198120845333e-13 -3.8325365543016304e-13 1.9883882638565003e-12 3.1189376251124413e-10 -8.90518871961596e-10 8.33804773475395e-10
506 9.896735527261789e-13 3.480001269997724e-13 -1.6481851755054594e-12 -2.0727675401817124e-09 -2.0661261860760073e-09 -1.0203294556096895e-09
507 1.5290421310325494e-12 -1.7472497580604436e-12 7.227469981674832e-13 3.6284820946922915e-10 1.0246649579843764e-09 -2.9592280595595466e-11
508 -1.9375209879852494e-13 -1.6736700722701373e-12 -2.8931804484104674e-13 -5.842029761130048e-10 -1.4443387138507301e-09 -7.494148727281351e-11
509 7.07697106989885e-13 9.798345459173902e-13 1.7124548956231301e-12 -1.5937248977773436e-10 -7.46562578225028e-10 -1.1351830238191682e-09
510 2.7081299718323494e-13 2.1678622976404945e-12 -4.63449208582797e-13 8.779626042439126e-09 7.361967585626254e-11 4.118011354667259e-09
511 1.629579369189093e-12 1.9860771832157378e-14 1.0334548483721348e-12 5.383000494343377e-10 1.557038643118309e-09 -1.687575458229032e-09
512 1.0565160691961395e-12 -7.089548646971224e-13 9.44863418076641e-13 -3.3313714499124703e-10 1.25879066529833e-09 2.453507529945151e-10
513 1.079830071665854e-12 9.367716120207134e-13 -1.8626976215633493e-12 -9.138793153240149e-10 4.737588595594281e-10 -6.516839564441988e-10
514 -3.0489302744107537e-13 -2.1631517629990047e-12 -1.683486669966656e-13 5.498733345640201e-10 1.6483716830954565e-09 -8.228722362565123e-10
515 4.772696020342035e-13 9.36553085502507e-13 -1.9449203534056996e-12 -3.3181571444237927e-09 2.9803572909290923e-10 -7.497867876751834e-10
516 1.018957651013121e-12 -1.1338671006328885e-12 -1.0382600667541114e-12 -2.3154824073110489e-10 1.009280549323152e-09 2.6119192167613514e-09
517 -2.1321358089491056e-13 -2.695441231164507e-13 3.9903769406478596e-13 -3.878572314782021e-10 1.0082532950643005e-09 6.765847624862355e-10
518 1.407539953483413e-12 -2.1665940292406e-12 2.907728571093836e-13 1.1808125917550934e-09 -7.143354997575677e-10 6.609960855305393e-10
519 -1.1170252614979618e-14 2.138111116126784e-12 3.5221472922601105e-12 -3.462554766792085e-09 -4.4745050397563795e-10 -4.5134358844845436e-10
520 2.1736152507457943e-13 -2.7086095971069156e-13 7.372326165528084e-13 -1.5169332900901722e-09 7.332637115696234e-10 1.1824994578253152e-09
521 7.108320983030752e-13 -4.93312434861408e-13 1.092290213341096e-12 -4.3711892929151673e-10 -8.299343750056003e-10 9.457407210409768e-10
522 -3.8148025470478446e-13 1.7874666387464288e-12 -7.799175034595731e-13 2.012482474757658e-09 -7.734283489146572e-10 -4.904839062544118e-09
523 5.41124976743917e-13 -1.0829585842422875e-12 1.4122563006073132e-13 -6.794651010256875e-10 -2.819902569528637e-10 4.780478449121528e-10
524 2.1670791054443594e-12 -2.662121950761782e-13 -9.560215778217682e-13 -6.71472836815227e-10 1.7384347509920557e-09 -6.12917140735174e-10
525 -2.1612686741949854e-12 -8.381914739150672e-13 5.35442139405363e-13 5.531845559261416e-11 -9.959860720082242e-10 1.437978233459261e-09
526 5.679561505422915e-14 -6.715823861881054e-14 7.836924618085378e-13 5.367347605409586e-11 4.924050643765558e-10 5.521852858483289e-11
527 -6.116744615102049e-14 -1.0837087029539065e-12 -6.313942824184597e-14 -1.1230703521358772e-09 -7.81542643943163e-10 -1.5559890987268562e-09
528 -4.812576689313231e-13 1.9921244273957547e-13 -4.332019939068246e-12 5.155098512300978e-09 2.328683335350734e-09 -1.4391160770332431e-09
529 2.7049296390330553e-13 3.949273918943438e-14 -6.061238240794371e-13 -6.518296701719488e-10 5.544317666499948e-10 -3.2091336556286004e-10
530 -1.0747745576149226e-12 -1.081291112344683e-12 4.980665140688722e-13 6.917899573276387e-10 -9.026631032828974e-10 -1.0808345081421252e-09
531 1.8444426153684158e-13 5.418641689455385e-13 -1.2011203802162333e-12 -1.3087719526344977e-09 1.7949776203019673e-09 -5.066827956928416e-10
532 3.823359868303554e-13 1.0836163169510709e-12 2.3655508568387535e-12 6.00064018670004e-10 1.843125908026877e-09 1.0967040402418583e-09
533 1.50263403179787e-13 6.430303554744076e-15 -1.9701952702799989e-13 3.120879100400147e-10 -2.0756014466394671e-10 -2.662118960280351e-11
534 -1.2008631612802002e-12 3.208180569908804e-13 -6.471566798528108e-13 4.3267937989256535e-10 -5.106332741227599e-12 1.06645912560255e-09
535 -1.5783488058818543e-12 -9.760122722723407e-13 1.4724081155201258e-12 2.2813868500719427e-09 -7.926405705864386e-10 1.479281701622078e-10
536 -2.704869824871466e-13 2.790758105501874e-13 8.895438187197799e-14 -4.5660483339374914e-10 -8.465401836085488e-10 -3.0688755492413226e-10
537 2.654827872702504e-13 -1.9613215666249264e-14 4.9136690376374344e-14 5.686781513383111e-10 -2.443023731711161e-10 5.49782403114438e-11
538 -1.6468662526661587e-12 -1.4029108847405055e-12 1.2592086040727062e-12 -8.841204231067751e-10 -1.3810014149624812e-09 -2.7007136122928326e-09
539 -5.620275009225764e-13 5.416266194959084e-13 2.4868953251526596e-12 -2.37155770738022e-10 -6.078716985175622e-10 7.368888711395122e-10
540 1.9236539971406277e-13 -1.5011606279219531e-12 4.342476789442449e-13 -9.737980991911937e-10 -1.6258885802252997e-09 -1.7058968156334494e-10
541 -2.141393080071158e-12 -5.623368935097827e-13 -1.931407328883142e-12 2.5294478875992643e-09 1.2720217413381671e-09 -1.9916747785042744e-09
542 5.415225462883059e-13 1.1082487353615133e-12 -2.104393640586383e-12 -3.973571164109247e-10 -4.66514907372071e-10 -1.277613905553187e-10
543 5.420320308879072e-13 1.2360031145816804e-12 -8.117731227076219e-13 3.331354204212204e-09 2.1820120198741224e-09 1.2662770359252704e-09
544 1.2027231756122511e-13 -1.4332529690365228e-12 5.17580996033647e-13 8.553413657594706e-10 1.685487480940112e-09 1.3164757768787528e-10
545 -5.420946901133878e-13 -2.1676790469986807e-12 3.9226333833371705e-12 -4.849328777988711e-09 -7.277904967561615e-10 -1.210684494180489e-09
546 4.3815940425368904e-13 -1.0840521570521891e-12 -6.347364525560446e-13 -9.193023761515494e-10 1.6990305989581082e-10 -3.0175377639963926e-10
547 1.6086240423553236e-13 5.774014953781736e-13 -3.125813427593816e-13 3.314475967625228e-10 7.370346828339461e-10 4.645696003387118e-10
548 1.3528881832714569e-13 1.9772964238432183e-13 9.167246651393223e-13 -3.123248981274005e-10 -2.8779326253051175e-10 -2.5904317724795234e-10
549 9.021282905219093e-13 -1.574490936251661e-13 7.124282700040566e-13 1.1544169826021202e-09 1.408113928571905e-09 1.3290478448377104e-09
550 6.488983610256216e-13 -1.8251799907904222e-13 1.464143653794018e-12 8.256710483562178e-10 6.317787165937076e-10 1.2128633292619233e-09
551 1.0833445088367734e-12 -5.419321209377834e-13 -1.4656681487779785e-12 -5.544800527741456e-10 -3.812550622206151e-10 -1.0581442015936539e-11
552 5.42096629844861e-13 -1.1656271559815964e-12 2.2645243559244444e-13 -2.7438099630488726e-10 -9.936125451088999e-10 9.68997800432932e-10
553 8.764862969351289e-14 -2.651429221745933e-13 8.190064835372847e-13 1.151388374836395e-09 8.34491268489151e-10 5.714527286499061e-10
554 1.2319936096458043e-13 -8.501923873735466e-13 -2.831010717722539e-12 -2.843055680264481e-09 -2.2245431753461586e-09 4.672002295434351e-11
555 -1.8549722223035283e-12 7.683096117628928e-13 7.716018594875195e-13 3.546707312843078e-10 -1.4383048509051295e-09 -5.306651250246268e-10
556 4.5249129128786274e-13 9.799614353564594e-13 2.810171263460389e-13 7.358769529286717e-10 1.3101971100435358e-09 -3.780179763626654e-10
557 -1.0740150537718691e-13 1.025022065803037e-13 4.3241571564032075e-12 5.022578574302961e-09 1.236004268549873e-09 3.932801336277579e-10
558 8.48946488875051e-13 1.0642547977796398e-12 -6.567346606637074e-13 -9.275574435648975e-11 -8.502817596403911e-10 -1.194208571036063e-09
559 -5.351656477034099e-14 -2.343850099250335e-13 8.382488915147689e-13 9.683042883587932e-10 -5.4145703853084025e-09 -1.6703193273910996e-10
560 1.2186126931064551e-13 -1.1631283007372915e-12 -2.3201568250853626e-12 -2.382956709178404e-10 2.360445115605829e-09 -3.7137678310129196e-10
561 5.23062722405432e-13 -3.681748783122359e-13 1.8200094653876012e-12 2.83771598707369e-09 4.849122872423188e-10 -1.0839448681698336e-09
562 -8.631361748166431e-13 -4.878044174603855e-13 1.8443027543183724e-12 1.845552396133268e-09 1.6101673240798118e-09 1.0683568301538673e-09
563 5.404527062729429e-13 -1.1814870866720853e-12 -4.068282550264681e-12 9.532176664533214e-10 2.2622299954242167e-09 -2.65750257660898e-10
564 -1.3526357578312309e-13 2.3422645488879047e-13 -1.824614546633196e-12 -2.791006608722761e-11 -1.0163689262382982e-11 8.364907888917913e-10
565 1.8979619613178287e-13 4.2101332210622276e-14 -9.037945863959592e-13 -1.2731357572961682e-09 2.2318815181673616e-09 1.3110097999371716e-09
566 5.297490205709692e-13 1.0840117400521324e-12 -6.974586022972691e-13 -1.0366708554734324e-09 1.0144618376608124e-09 1.3479327014601824e-09
567 -1.348670591364699e-13 1.1787218822988466e-13 7.587519943562841e-13 3.662950328501798e-10 4.611192785103531e-10 1.5430963649247708e-10
568 1.3303867577096094e-12 1.5257214059232818e-13 7.872331212801939e-13 4.9256893539837865e-11 7.763510767795514e-10 -3.550316597794017e-12
569 1.0740548633255523e-12 1.351831019680879e-13 -7.222413316952062e-13 -4.0022366959972854e-10 2.127059951753889e-09 1.2814407023012498e-09
570 -2.1260907551517563e-12 -1.0841373441787267e-12 -1.9900278407892006e-12 5.485615666846904e-10 -7.998161776247716e-10 2.6036080187885846e-09
571 7.481524984012806e-14 8.58100589352343e-14 5.182457430266502e-13 1.4066999046296756e-09 6.695527663453345e-11 9.165063538649277e-10
572 2.990682028472367e-13 5.420639382701301e-13 -2.147481634000416e-13 -6.6551087344167e-10 -7.408057043964076e-10 1.5637478015134427e-10
573 4.739414922399143e-13 -4.015315253965797e-14 -1.0317922353731802e-13 -1.3151610625302725e-11 -9.089001736182484e-10 -2.0766454824724167e-10
574 -1.3612926684395196e-12 1.8201563505913676e-12 4.03023147982468e-12 1.6490949189193697e-09 -1.3779284254683494e-09 3.7957387696815475e-09
575 -3.8732797533265355e-13 5.541516645621697e-13 -2.246300075101449e-12 -2.189752443833925e-09 1.4036742457077626e-09 1.5070469786631095e-09
576 1.167382369565181e-12 -1.8511045282911437e-13 1.0072936731480466e-12 -3.0180080113050412e-09 8.572315415837274e-10 7.531565584280086e-10
577 1.7815324795950442e-12 1.3183707166994804e-12 -2.2686102606667688e-13 9.572940202275208e-10 5.935349665259323e-10 4.82337293172075e-10
578 -2.142024572857212e-13 1.5822770654657435e-13 -3.6030748762825926e-13 -5.238182144340835e-10 -4.091376331630261e-10 -1.7189224980800004e-10
579 -1.4031497237945098e-13 -8.803684616353958e-14 -1.6147096502203916e-12 -1.1721051880530937e-10 5.997143789432847e-10 -6.89832377483335e-11
580 -9.550625568301608e-14 1.7798349249729316e-13 6.489508637046836e-13 7.043229165219241e-10 1.139048739252518e-09 9.126883815158521e-10
581 1.081538369643285e-12 1.6702697070900443e-12 -2.5932200834060724e-14 -1.527956680427052e-10 -2.928776472770016e-10 2.3940310427393706e-11
582 5.022929593494029e-13 1.9321274450817195e-13 -1.8831094170552476e-13 -1.364684960621326e-10 2.3581255079528807e-10 3.0622371400603394e-10
583 -3.1781061814000917e-13 5.387849802512447e-13 -4.953299398098255e-13 -6.224453200330022e-11 -1.0872071110437942e-09 4.683695076473351e-10
584 7.980184275356381e-13 5.6399142979424514e-14 5.766325624515209e-13 -5.586621977573348e-10 7.268045370803838e-10 9.208141736910442e-10
585 7.3801961415148e-13 3.5600566785054725e-13 2.555303254013293e-13 -2.9136889023190904e-10 8.675575868213239e-11 5.584036568664291e-10
586 4.8677324935245e-13 -4.2761080055388215e-14 4.018187930379968e-13 5.454215339502306e-10 -2.3640774905551294e-10 -4.037947534648921e-10
587 8.135969930542972e-13 6.770605002106483e-14 -7.683357300240426e-13 1.7930152509593942e-10 -9.515464928730313e-10 -6.074703338532558e-11
588 1.0834443882188569e-12 8.313146713094684e-13 -9.153762674570528e-13 -5.82890747991792e-10 1.4527548261462743e-09 -6.889232571909148e-10
589 -2.1645320110220756e-12 1.6861510836073182e-12 -2.8933918395464775e-13 8.227124942952606e-10 1.896534300771605e-09 8.324668379229671e-10
590 2.6975574398092967e-13 -1.408271471616129e-12 -1.257677495651743e-12 1.4691588786072902e-09 -8.998033388396257e-10 4.442266639430981e-10
591 1.0841356006212845e-12 2.1682748099133646e-12 1.4392757041717943e-13 -3.142714036906051e-11 4.926299566407486e-10 -5.780735121075976e-10
592 1.7063966435521103e-12 -1.1954713637304285e-12 -2.654500154296107e-13 -1.3484807531226307e-10 -3.405010185421186e-10 -2.0127793232154245e-10
593 -5.437073841354627e-13 1.442701412296353e-12 1.4552274760187527e-12 5.235980596326635e-09 9.355930322685783e-10 2.070111569821765e-09
594 -7.684731133937682e-14 2.7107037727405404e-13 6.985564699178192e-14 -4.3694866345861906e-10 -7.499422226096695e-10 -2.332539865159163e-11
595 1.0776737255362422e-12 -1.2120968708304748e-12 -2.145440806856639e-12 2.275628685796071e-09 -8.673674589153265e-10 1.4951270085027166e-10
596 -4.98777973495531e-13 1.1579519018737206e-12 3.0339771220227227e-13 5.523538945412868e-10 -3.1730691974927786e-09 2.4560813817025275e-09
597 -1.5675669940823685e-12 -7.40510856299532e-13 -1.1794008885574764e-12 1.3939334266283433e-09 -4.203739593464402e-09 9.591724572013977e-10
598 -2.166661060005448e-12 1.5041403511462751e-12 2.840400131456546e-12 -3.669648586182376e-09 -9.570981241544158e-10 -1.1667447542076888e-09
599 -7.620566500215272e-13 -2.7013248674099116e-13 2.7020921066171677e-13 1.1882230256658483e-09 1.0399456448336437e-09 -1.2780281298948543e-09
600 -2.161029551275286e-12 1.4419207048106015e-12 1.1631284507055265e-12 -1.5693418042077632e-09 -7.112673858104443e-10 1.1818172889067622e-11
601 -1.0653836436864439e-13 6.478877760783555e-13 2.961884154303115e-14 2.6422072113781978e-09 2.0588489598332926e-09 -7.232707257969297e-10
602 -1.18459299402492e-13 2.6565848255228266e-13 -3.502277191183013e-13 9.250118050391106e-10 -3.321334031417939e-09 2.895240946237582e-11
603 1.0824133709032401e-12 7.588511241890315e-13 2.2492842645318105e-13 6.227391546762029e-10 3.732795351862039e-09 -1.123934576871131e-09
604 -9.335437965372881e-13 -3.2733132101628856e-14 2.2197979921607039e-13 1.0448207077983516e-11 -1.0267142629635148e-09 -3.788153040548525e-11
605 8.434796019795703e-13 2.165883209820314e-12 3.831962500964599e-13 1.4882646691694862e-09 -4.404858450780626e-11 -1.1258324833513927e-09
606 -1.8940871166182992e-13 3.7718654688981883e-13 -7.789325599899206e-13 1.1567500562809091e-09 9.318540421737693e-10 -3.74895915317838e-10
607 5.367357420805974e-13 -1.007537518566511e-13 9.154455176428734e-13 -5.263037300603158e-10 4.3557256956033724e-11 6.364670811009556e-10
608 -7.348311928857558e-13 -4.71546869611916e-13 -3.720107382782081e-13 -3.1252201672105815e-10 -4.290544716546913e-10 7.622417103880455e-10
609 -1.0838693707822084e-12 -5.617415385006395e-13 7.915484435306074e-14 -6.522327879527448e-10 -9.960568063257177e-10 -3.292461196418944e-10
610 5.982891741673538e-13 9.961874832944809e-14 1.9701043835309186e-13 -3.4643154151289074e-10 2.560610028739689e-10 7.559929622896577e-10
611 -1.718495620830156e-12 -9.631513389550411e-13 2.506171779464897e-13 5.140907772235575e-10 2.1185826037945173e-09 -2.104159634435003e-10
612 -4.5154790463005697e-13 9.834915335252196e-13 5.052897652865016e-13 6.967231625795154e-11 -2.5019260425509394e-09 8.276181256789045e-10
613 -2.8321226675941183e-13 4.9947268763761e-13 -5.753512255758391e-13 -2.746731798888092e-10 -1.2050031432593722e-09 -8.185304182747582e-11
614 5.513416714899398e-13 -4.867469465795229e-13 4.072853406326703e-13 -1.3903710912499056e-09 -3.4731499096723703e-09 3.2926307564580457e-10
615 -6.337428888747336e-13 -9.196547396085766e-13 6.140620498146367e-13 -2.101488034045239e-09 -1.212667900529847e-09 1.3446187209271267e-09
616 -4.4996434152398353e-13 2.168165487125122e-12 7.306424187968631e-13 2.567802268695464e-10 6.185288053636222e-10 2.981864011788467e-09
617 5.418604372455699e-13 -7.598950502527648e-13 -6.141417124847354e-13 -2.174360990430604e-09 2.2420121361411084e-09 3.7867874360430707e-10
618 9.976593256953314e-13 -1.343203520622711e-13 1.186126598935349e-12 5.143500695329452e-10 1.6900304339412011e-09 7.574588598113875e-10
619 -7.583688959249133e-13 -5.419599085694956e-13 1.573763575367866e-13 -1.5149387608448905e-10 -2.286505977731851e-10 -9.09994594434405e-10
620 -2.378434483618339e-13 -6.648542496934541e-13 -8.872754838798816e-13 1.0651419900131154e-09 -8.31758735772938e-10 7.675833679427282e-10
621 1.424750977509246e-13 -6.644837692146042e-13 -4.336169759135206e-12 2.8111112581276753e-10 3.673575622234192e-10 1.8974011607589464e-09
622 -1.0175699929537857e-13 -5.40982976274178e-13 3.190170970533207e-12 1.5339357243452992e-09 1.7149194175721197e-09 1.2214601076962818e-09
623 -1.0816126145724275e-12 -2.1673626425585367e-12 4.336382283884487e-12 6.2683596190704215e-09 4.3691645274319325e-09 -1.8743230489335693e-10
624 3.834995779113457e-13 -8.686984261873134e-13 1.1619025765953079e-12 -7.465365646367195e-10 1.3947378529238796e-09 -2.6076189452243726e-09
625 -5.419675127530761e-13 -7.302543848572341e-13 -1.753347518376373e-14 -2.8881905144306843e-09 -5.701308067439129e-09 1.238644573085075e-09
626 1.5683914639357715e-12 -1.5555351672338212e-13 1.7540241763786322e-14 -1.2564438594326345e-11 1.8338557607836777e-10 -1.5642701533150922e-09
627 1.6287406074143685e-12 -5.405300536053051e-13 2.3330799687858254e-12 2.2698651734422517e-09 1.139383489444866e-11 2.091490891625077e-10
628 -2.7079394915977065e-13 -1.0838797516560155e-12 -4.316486378195622e-12 1.7907542347668749e-09 2.219928228234681e-09 5.515566569414158e-10
629 1.4365272950046244e-12 -5.098464415512526e-13 3.170577996707336e-12 -1.448982155498642e-09 -1.7889017147504462e-09 8.707221834897418e-10
630 -3.4738733065604976e-13 9.348743370095757e-13 -4.034917578070676e-12 4.9869711866679845e-09 1.787005638135764e-09 2.5919437069759693e-11
631 -4.766541408901241e-14 7.917262237569656e-13 6.975439238099399e-13 -2.0970781565347173e-10 9.744964250430225e-10 -7.664300155251964e-10
632 2.168112477167414e-12 5.422110622391842e-13 2.3264258665397965e-12 -1.8965196652055697e-09 -1.0222229574985284e-10 -7.644012685627191e-10
633 -9.182371457292135e-13 -5.92224246177146e-13 1.2402564096792196e-12 6.403843666896958e-10 -1.9221298059991925e-09 5.902728177045912e-10
634 1.9451065317129618e-13 2.1683064913589386e-12 2.0460362605458193e-13 -2.6125696314303847e-09 5.896772738266382e-10 1.5557068088219124e-10
635 3.685813199251812e-14 3.8467496305035294e-13 8.740868528491805e-14 1.7030876195087424e-10 1.1071933867043691e-09 -6.575795769661471e-11
636 -1.0743251067895174e-12 -1.0385729927431425e-12 -2.8213037554669843e-12 -3.9326578200623696e-09 -4.384473705823705e-09 2.1249277243119004e-09
637 3.387053565443166e-13 1.997965467357399e-13 1.2101491607426259e-12 1.1657980867267355e-09 3.459211488624897e-09 2.200920089740361e-09
638 5.420842522735117e-13 1.0838058823308422e-12 -7.523215623728085e-13 5.374337562043563e-10 -4.811707147709296e-10 -8.4934392514472e-10
639 2.616693618669658e-13 2.7102526806018034e-13 -1.7701519107045184e-13 -3.3014802366153717e-10 7.530738385717027e-10 2.75607644077425e-10
640 2.1676816778235088e-12 -6.978895453052444e-13 1.519558827428492e-12 -3.171045582539068e-09 -5.053520256619298e-10 -7.605816708012345e-10
641 -2.9074482306369023e-13 5.311362999143842e-13 7.374002487508677e-13 -3.613975551566165e-10 1.058556875763019e-09 -5.049703261322253e-10
642 9.96420601875466e-13 5.421400890590565e-13 2.1706252362346476e-12 -2.9909289384118636e-10 3.950698481145991e-09 2.1276631639425806e-10
643 9.866587656932844e-13 -8.280103113314297e-14 7.176039325740793e-13 -3.875820097327125e-10 1.1436909846722437e-09 1.1394277346172836e-09
644 -5.088954234947249e-13 -4.2472664629716434e-13 1.8688379007569492e-13 4.333293884907121e-09 9.206810116513081e-10 4.867216465416343e-10
645 -1.411495049064474e-14 2.1667089284273267e-12 8.630461071977108e-14 -3.516632183442554e-09 8.746820954799159e-10 2.2226749108760954e-09
646 -2.2893567841055933e-13 -5.419592923740551e-13 4.218304303235458e-12 3.3136289190727437e-12 3.7316255948748475e-10 -6.223694772832282e-10
647 5.168874536355806e-13 -2.7065451876852755e-13 1.5845619080141013e-13 7.316317735808014e-10 2.8588495127842064e-10 3.5504609445085134e-10
648 2.903050553653534e-13 2.935725399007284e-14 -5.860756530219443e-15 -6.473579470700296e-10 -3.4195625859862526e-10 -1.492845645263963e-10
649 1.917823179119813e-13 1.0824618353258475e-12 1.7072924369613185e-12 -2.2379304667848864e-09 4.306974916516215e-10 -2.2416365142727015e-09
650 2.441898759840187e-13 -9.35158820596379e-13 -3.655157617468581e-12 -2.429566975337408e-09 -3.09852199009071e-11 6.18184276760576e-10
651 -5.418334342244707e-13 5.419832035927845e-13 7.593207873045949e-13 -1.5109051333775612e-10 1.0769913684442039e-10 1.84598354709935e-11
652 9.304690671842738e-13 -5.416761510911856e-13 2.295728893062655e-12 1.315772833984655e-09 6.746563486242185e-10 -3.7206885616690116e-10
653 1.4774020672468108e-12 1.079155908324684e-12 -1.6370257555759758e-13 3.526616594409097e-09 -3.1314208063183668e-09 2.881612865597868e-09
654 2.7102084576371564e-13 4.302586598124343e-14 -2.9749704274355177e-13 -2.513737131342756e-10 1.6410856634943369e-09 -8.729860646050553e-10
655 1.657634287558247e-12 2.7079333485483353e-13 -2.237057281093341e-12 -3.030674880483234e-09 -2.399731388726213e-09 1.5268434198823495e-09
656 -7.687967266911682e-13 1.92634735535877e-12 -5.810111134371881e-13 3.5914935337523983e-09 2.518053377419126e-09 -1.1563661298176877e-09
657 1.753465179756226e-13 -5.601944213519464e-13 8.596831979239571e-13 2.0844419619995742e-09 -1.5229921599505555e-09 -6.722385592956501e-10
658 -3.2815704703071493e-13 -1.0833794165516888e-12 -5.402354193194435e-13 -2.9185139710687114e-10 3.631508958634059e-10 1.0842708125165635e-09
659 -5.420386127117203e-13 2.0361946385763275e-12 1.8205833786005012e-14 7.995869791514082e-10 2.181622883779879e-09 1.0501077007346506e-09
660 -1.2226591095418306e-14 5.41880889324346e-13 7.495889015979578e-13 2.471781504239247e-10 -5.548056192858669e-11 -1.5273991390947677e-09
661 1.2391075273682155e-13 -8.658544145010164e-13 -8.139831188720352e-14 1.8958357894085e-09 2.3323924786395695e-09 -3.2695175585504412e-09
662 4.066086507522246e-13 1.194760496835097e-12 7.523880522125689e-13 -6.982165965084915e-10 -1.6915059059296225e-10 -1.1664988410355216e-09
663 1.2907908075847018e-12 -1.35201530871901e-13 1.2941249491005117e-12 1.0841463387690583e-10 1.0529214816046794e-09 -8.652408402728867e-10
664 -1.7424950970796255e-13 2.1657652550875397e-12 -1.4266299298959983e-12 2.436567602249596e-10 9.752780322346132e-10 1.2077253483864385e-09
665 -2.3545383036632853e-13 -1.0635779447104975e-12 -2.351895735243009e-12 -1.8294052193299454e-09 3.763617141009305e-10 -1.3962563286962683e-09
666 -1.6475330191975559e-12 6.764871951696823e-13 3.19172758595875e-13 -4.125628637971612e-09 4.9743166673273514e-09 -1.1450215803683862e-09
667 2.089820627535132e-12 1.9906556763182915e-12 7.873610204444638e-13 4.993556216772048e-10 -8.876755850636299e-10 -1.4191661832288603e-10
668 7.89656050213648e-13 1.0404986225337326e-12 -9.419110923505136e-13 1.9458596562043236e-09 5.754191794695952e-10 -1.1088614280879377e-10
669 -2.4092676939922724e-13 -2.707262808540241e-13 -3.317580177090019e-12 8.357534498166233e-10 -5.16601113097142e-11 -1.0362496882711636e-09
670 3.0245598714231863e-15 1.1049859906745468e-13 1.3800508084268714e-12 -5.755857420765333e-10 -2.6587551057185823e-11 6.279004601037464e-10
671 3.6781908930742566e-13 -8.554416099137085e-15 -1.3714374020921179e-13 5.43338968023026e-10 4.789058214956266e-10 2.4068800684431785e-10
672 1.455853743882314e-13 -9.55765249024083e-14 -5.95564949358924e-14 -1.7442524525011276e-09 -2.476216806396821e-09 2.577503786824018e-09
673 2.7149823679091744e-13 -5.419918318143504e-13 2.560217565349271e-12 1.5733953421429498e-09 -7.147081604884594e-11 -3.1695978854463605e-10
674 2.710497086171487e-13 1.0840788323880292e-12 2.0137296294120097e-12 -5.29779996541703e-09 2.137946534818671e-09 -2.3167547214492595e-09
675 4.964850686107532e-14 -1.0841377055754527e-12 2.2380225628106048e-12 2.681780411644362e-09 -2.360554695997842e-09 8.271057197221814e-10
676 5.157603401994178e-13 -2.1681787919966013e-12 -3.671402139864871e-13 4.554864804731503e-11 -1.7982244671718735e-09 1.3628504558084783e-10
677 4.541091545384078e-13 -1.0839717297955548e-12 2.367725142036869e-12 -1.976188843507632e-09 -8.176384139636104e-10 5.7691904305778e-11
678 4.342674764949618e-13 -5.403422672728684e-13 -2.3469385638452367e-13 1.1510534300625573e-10 -6.462592965734572e-10 7.215014069346484e-10
679 -5.587320307716245e-16 9.577381148948448e-13 -3.202427460703025e-12 -5.2396244031941376e-09 1.7056360600996049e-09 -2.905365486205887e-09
680 -2.708116125649042e-13 -1.0841326002111738e-12 -2.635385734658623e-12 7.413357272881695e-10 2.1258689834406257e-09 -1.7530900568993059e-09
681 2.1678122757411715e-12 3.010004391231846e-13 7.831513701611892e-13 1.1632933263837595e-09 1.0540808125213584e-09 1.805092345874229e-09
682 1.0837343396875734e-12 1.0839417110209333e-12 -1.4744188259139516e-12 -7.315531433552385e-10 1.8085840379451373e-09 1.5303272072261995e-09
683 3.6363799264148827e-13 1.5332025343748564e-13 1.7701699603019324e-12 7.815993945230616e-10 -1.8868405697652643e-09 -8.410167049970226e-10
684 6.662511772409248e-13 7.496248254491839e-13 1.5668205851886572e-12 -1.7813243896480174e-10 -1.385221956068401e-09 -4.943180884574568e-10
685 5.422209387371543e-13 -1.2000140973873716e-12 -4.2681435939593864e-12 4.0758528820241905e-09 -7.564223629840863e-10 1.5423488932833385e-09
686 7.277035698119784e-13 1.5485348795523423e-12 1.2450760182804362e-12 -7.136030059873593e-10 2.143678776242317e-09 -6.410400483667301e-12
687 9.069905411883259e-13 5.417428540127333e-13 -2.00370847047549e-13 -6.485240979836863e-10 -3.933375178233873e-09 1.564652174433033e-09
688 -9.128168332274867e-14 -1.498647924849735e-12 -2.2133537684428038e-13 -1.442276167063226e-09 -1.3584770295838585e-09 1.035491544470412e-09
689 5.398844237373649e-13 2.333921186215728e-13 -2.2435982616668628e-12 4.301089711107372e-10 1.70936806248328e-09 -1.2491309374508869e-09
690 8.250992527260777e-13 1.083519556069911e-12 -1.2723944195932867e-14 -2.0218892525225048e-09 -5.589766455553605e-09 -4.4033823057581834e-10
691 -1.0919010014348255e-12 1.7693428129866048e-13 5.407126638280558e-13 -6.540163124841405e-10 3.678445848057101e-10 -1.0051318300606908e-09
692 1.0837987897317565e-12 -6.288631784197431e-13 2.769581666418644e-12 1.8862622858611003e-10 8.338148456172361e-10 -1.2276861501796985e-09
693 8.235918490602289e-13 -1.526399382209145e-13 -6.76668204349172e-14 -6.055365924105242e-10 -6.758785885646442e-11 2.463296977586446e-11
694 -1.0714526000641545e-12 -1.8028726053201806e-12 4.3363275528866545e-12 -2.902868922370398e-09 -5.639517583150165e-09 -2.2414127351935262e-09
695 1.0824486015025975e-12 -1.083372873030994e-12 3.02868405621188e-12 -5.032797901094806e-10 1.7460874452697072e-10 7.329557903660643e-11
696 -2.6542771947070964e-13 -9.218633751477378e-13 4.3996049214676984e-13 1.1667863647477137e-09 2.579531253245613e-09 -2.389452145161262e-09
697 2.1681760892623926e-12 5.093876658867572e-13 -1.3138347016371847e-12 1.88510901133079e-09 1.2464909838751564e-09 4.0843093259061575e-09
698 1.828239213012192e-12 5.417247297488502e-13 1.1153861028155085e-12 1.0358997626343867e-09 -1.071476816103238e-09 4.3468195221800726e-10
699 -2.1277859991918222e-12 -5.42038503883622e-13 -1.4521751265182217e-12 -3.059438238029725e-09 3.62919729550363e-09 2.3870152700251176e-10
700 1.691900691209623e-12 -7.166022532371295e-13 1.2904349696636765e-12 1.4753204286229276e-09 -2.5265961662854053e-09 1.9073734835285054e-10
701 2.5703569534973507e-13 6.32798350330272e-13 -1.2946765079611599e-13 -5.530815249848962e-10 -3.2492872941437015e-10 -6.409508109632706e-10
702 1.0456332322334647e-12 -8.982179527571089e-13 2.8768540209348975e-13 -1.247102292910534e-10 -1.5470470948135884e-09 -5.179126042362792e-10
703 1.354103934884832e-13 4.878359866675393e-13 -3.9302608287143066e-13 -4.383147690029818e-10 -7.196672951013076e-10 -1.7919556906795817e-10
704 1.96298596838721e-12 2.494580089037076e-13 -1.3134065371294873e-13 -6.064226229324493e-10 -6.962406050985318e-11 -1.4101744879348268e-09
705 5.11575314229641e-13 -3.4079485774638294e-13 -8.460939029882525e-13 1.4546119287380782e-09 1.7666418224324912e-11 4.320243978159092e-11
706 -7.697306392480731e-13 3.4360049157574324e-13 2.426533811445503e-12 1.775289897344592e-09 3.811168247986582e-10 7.923323450336917e-11
707 -1.1214927925962073e-13 6.721795401700608e-14 -4.335317067213925e-12 2.955324687947287e-09 9.179467041234317e-11 -1.1975199828303068e-09
708 -8.825313470711324e-13 1.7982617786885668e-13 3.480419334523481e-13 -1.6407182276681194e-09 2.613012426961849e-09 -6.997956751340992e-11
709 3.439421696546393e-13 -2.71042056281753e-13 -3.5136081593809705e-13 4.032277094027789e-10 -4.054982135703168e-10 4.1304804348934896e-10
710 -1.7411473340632332e-13 1.0262211497721375e-12 -1.7995023868157572e-12 3.62236399516623e-09 2.410721658698312e-09 6.09064950667574e-11
711 1.1073399002980083e-12 8.454225023392077e-13 9.218140588126556e-13 1.0401727329870866e-09 -5.526886434000812e-10 -5.272357501739565e-10
712 -2.4766308093395954e-13 -9.234234207850061e-13 -1.6481526451209968e-12 1.60525176944273e-09 -1.1795342107183223e-09 -3.1924865940323627e-10
713 -1.0208825464679576e-13 -1.351583780273046e-13 1.5345964023105147e-12 -2.7194917903227736e-10 1.6790294801103325e-10 -8.678346454305226e-10
714 2.55923156915535e-13 6.848372083091817e-14 -4.34766799995306e-13 7.541111847665221e-10 4.6926875182487e-10 7.933905563284724e-10
715 -7.065007987172642e-13 2.2210947020966853e-13 1.5049395151342202e-12 -1.5466181044649598e-09 2.8595531884106627e-09 2.50336839821424e-09
716 1.0473644997938358e-12 5.419371895356646e-13 -3.561930950202323e-13 5.816550142739802e-11 3.541706289901933e-09 4.006084045994535e-11
717 8.578878646447792e-14 1.5422797406121328e-12 -1.5814384791591844e-12 -1.260500429289369e-09 1.15533641687094e-09 5.760485432756992e-10
718 1.355207990017585e-13 -2.079615335501298e-12 -8.189090887895469e-13 9.266417967145048e-10 1.1584728055382357e-09 3.714556173884333e-12
719 -2.683169254184145e-13 8.136332663146278e-13 2.5551874098811234e-12 -1.2808058375418567e-09 -4.884332718885866e-09 1.854021253969219e-09
720 4.1559585388373267e-13 7.640038734590234e-13 5.776113007563331e-13 -1.2855526114080947e-11 7.908233038668816e-10 -7.609346763847653e-10
721 1.185815263726154e-12 1.0775979091808608e-12 -4.3052766553281313e-13 -1.6120668615880741e-09 -8.389569823226482e-10 -1.1021437268916386e-10
722 4.859821109127597e-13 1.7148108300605682e-14 -4.155960080086865e-12 -8.83044439368758e-10 1.2315834958095043e-09 1.1676756734433246e-09
723 -5.420462484186686e-13 5.420285883880841e-13 -8.959758763133846e-13 -1.0989426178940813e-09 7.674195169869214e-10 2.0991910908849393e-10
724 2.0783676408718354e-12 2.7017722469117606e-13 2.5796970015218967e-12 2.6762954120925374e-09 2.2495969492154238e-09 1.142207116594275e-09
725 -5.872948707788484e-13 -1.826496325437187e-13 7.838911493488659e-13 2.2950722036175096e-10 -5.111956060077551e-10 -7.544131769767326e-10
726 2.1156169798771814e-12 -3.586830636042386e-13 -1.3546732184521374e-12 -2.251325658869951e-10 -2.1190458040491198e-09 -1.5014291267070297e-09
727 -4.680106038974245e-13 3.483461878211187e-13 3.629766988049294e-12 3.070200729315798e-09 -1.6272343387067392e-09 1.5940130732601752e-09
728 1.0841000213520707e-12 -1.456283157573849e-12 1.4400288711289862e-12 -1.542969694429296e-09 -8.51423752465674e-10 3.721733701364691e-10
729 4.721629545881962e-13 8.881811017843335e-13 2.51403904699108e-13 5.831725892872451e-10 5.6919766613332546e-11 -1.307262760621657e-09
730 1.1404778716445907e-12 -1.0841125746380103e-12 -9.818660822771952e-13 -3.4193722154049437e-10 1.6204553260788428e-09 -6.910631340232557e-10
731 -1.3601257352481523e-13 -6.678218293842502e-13 4.307442383184426e-12 -1.055365100089941e-09 2.952587323637898e-09 1.1315823546310373e-09
732 -1.0814678676167157e-12 -1.0602179092897493e-12 -8.322351664668911e-13 1.2063182756612135e-09 1.7406703235878412e-09 1.3307020373030357e-09
733 4.609341325350535e-13 2.36483993613421e-13 2.7918353338458845e-12 -1.5181241389188904e-09 3.0541045012941594e-09 -9.493861397465752e-10
734 4.661628255151643e-13 9.690567367210553e-14 -1.847233763636922e-12 -9.76348316017647e-10 -8.379977714382127e-10 -3.395424496234881e-10
735 1.1283598563378621e-13 1.3499906302464308e-13 -7.300630933353984e-14 -1.4109680603955698e-10 -2.1305082050333913e-10 -5.629224426228609e-10
736 1.1452155514833421e-12 -2.136102547388433e-13 1.5499781780296336e-12 4.3717950940117265e-10 2.2846052075458796e-09 9.861087696737336e-10
737 1.0821273933371689e-12 -1.0842244854740133e-12 3.235246716487764e-12 5.910545083120061e-10 -5.910998069148428e-10 7.730341283390178e-10
738 2.1438906958770712e-13 -2.0795423071024845e-12 4.593025167508945e-13 -5.982372826536278e-10 1.8102369386548e-10 -3.6152475565140504e-10
739 9.920109512343036e-13 -5.416494437553592e-13 4.670766346871391e-13 4.2431154236549676e-10 4.704684232425459e-10 3.3570127116781996e-10
740 -5.740657978720975e-13 1.0841887906170253e-12 2.3781250479050484e-12 -2.5362691201776864e-09 -2.590471910169836e-09 -2.8533359920508427e-09
741 1.7987808954313642e-14 -2.6414171914398955e-13 2.636364168911135e-12 -2.189456062142611e-09 -3.5013040080929833e-09 -3.3153249411228863e-10
742 -1.9156657384492156e-12 3.834958343215551e-13 2.3789975420306977e-13 -3.3118285392967937e-09 4.216870146891798e-09 -2.0482648014390697e-09
743 -5.418645533380254e-13 -1.3277357243761597e-12 -1.1111206486010031e-12 1.7400592535219037e-09 1.270295711120664e-09 -2.429086338428614e-10
744 9.058099727976182e-13 -1.3703721225584752e-13 5.769119923803815e-13 -1.061119228641797e-10 3.076529671807987e-11 -2.4176933226390146e-10
745 -5.421576959518931e-13 -5.795623366956562e-13 -3.035922124489577e-13 -3.2904103357792535e-10 -4.6457333354439554e-10 4.1690908599965523e-10
746 -1.083786974571387e-12 1.3582741613426392e-13 2.655668249297056e-12 -6.150266720852478e-10 -1.996625198376221e-09 -9.987881003954439e-10
747 2.702560292397053e-13 1.4148648029791139e-15 9.689694836038226e-13 7.856680200222191e-10 -1.731031884216335e-09 -7.92527402935323e-10
748 1.8818939691808575e-12 4.529770666196113e-13 1.1501479514345765e-12 -5.731687187432018e-10 -2.1975075292000616e-10 3.3626373513871723e-10
749 2.2266083855146337e-13 5.626527740642937e-13 -4.5338827387233357e-13 -3.59693002314742e-10 4.578847596930071e-10 5.313380810417385e-10
750 -2.1659002265950017e-12 -6.959787337574396e-13 2.5160528986922545e-12 -2.895450727471843e-09 1.3961443966914319e-09 -1.2726500434401802e-09
751 3.230175731127148e-13 5.642781724972664e-13 2.1238732142090763e-14 -3.604355354769399e-10 -5.238759326592279e-10 -1.1146084249664578e-10
752 -9.628327372388585e-13 -6.186087270218354e-13 -1.501426413132434e-12 -1.965097336520974e-09 -2.9368765643257104e-10 1.4246856861643652e-09
753 2.1632894368864027e-12 -2.7085973031788465e-13 2.738341755836698e-13 -7.971178992242077e-10 -1.4869924576035118e-09 1.9674660702952735e-10
754 4.69702216028433e-13 2.8690281461489906e-13 -8.528333816171466e-13 -1.3123421602580571e-09 2.0443952650192065e-10 -2.7593073680685685e-10
755 1.0805447689151904e-12 -2.0602150469549396e-12 8.34532103697647e-13 1.8764880173499237e-09 6.90483290370098e-10 4.2597532779982116e-10
756 7.016802211966881e-13 5.408234054569986e-13 -3.208143552145715e-13 3.3300125552339925e-10 -3.329370651145644e-10 -5.170589163656623e-10
757 8.045009326621521e-14 5.237642683133359e-13 4.1993101587376724e-13 3.2845802376114143e-10 -7.977284239495338e-10 6.099691598673877e-11
758 1.0756518942333873e-13 -1.0344171844854486e-12 -1.938709776558233e-12 -2.506927085531484e-09 5.107245449829504e-10 -2.3507903961855842e-11
759 -1.204427690268552e-12 2.798754154643442e-13 -4.0707736769330854e-13 1.7767792952327142e-09 1.863858947580384e-09 1.1458292754927123e-09
760 5.623761431444312e-13 6.974799842205016e-13 3.2147053650907307e-13 -8.449543710345347e-10 5.975608931896574e-10 3.502924187243448e-10
761 5.00692226597533e-13 5.419186947645144e-13 -2.706245743974734e-13 2.857917837323429e-10 -9.312903862216848e-10 -8.994472890104426e-10
762 2.1372000165712346e-12 -2.1671146581541727e-12 -6.128359213475226e-13 1.7229830596221168e-09 -3.459114778339677e-10 -7.05121797638344e-10
763 5.431210948603776e-13 1.0838695093702479e-12 -2.769752540611599e-13 2.4928079580293987e-09 -1.4012669407469674e-11 -2.677045743607934e-10
764 1.354543120475886e-13 1.5753499894377656e-13 1.5296069736368973e-12 -8.128524918257985e-10 1.3067821318286123e-09 5.951260933505771e-10
765 -3.570603878226434e-13 -5.183890130114433e-13 -4.32561654753173e-14 2.486698348788078e-09 6.187417774804597e-10 1.3206666580219582e-09
766 2.677376615971537e-13 -1.724353759382126e-12 -1.7416651251121468e-12 6.05614186612169e-09 -9.014333496891568e-10 2.072579655387951e-09
767 1.0384977113107257e-12 1.3030348533872353e-13 1.066705823567776e-12 -2.2743418964100843e-10 -6.990889842670372e-11 -1.1646023320680317e-09
768 1.0617293896461141e-13 -1.3870545780646978e-12 -1.1984529836111268e-12 -2.5634143719936564e-09 -1.0909829461430272e-09 2.2007627681144954e-09
769 -4.614300057046953e-13 8.985786792293337e-13 -4.33358388763083e-12 -5.269417222288534e-09 -8.394344467861947e-10 -1.6922070718464093e-09
770 -2.421714289623003e-13 5.420101784155282e-13 1.1411534417480076e-12 1.9013595267413529e-10 -8.75141179164354e-10 -6.230352572949528e-11
771 1.08373258591563e-12 -2.0656200908364955e-12 1.0005153735344236e-12 -1.865786457826864e-09 1.0409715605532423e-09 2.2194068333129157e-10
772 -4.5088365948772753e-13 2.707438722467589e-13 -3.251323986021373e-13 5.839939620022252e-10 4.7039261183359394e-11 7.04605610997286e-11
773 9.49609984969388e-13 1.335060756259625e-12 6.182513411495568e-13 -8.886039783523537e-10 4.92392182729231e-11 9.152532514454477e-11
774 1.0838404615492744e-12 1.0833733747780325e-12 4.71713319716492e-13 6.426213826195891e-11 -1.9677776394994935e-09 2.8976810184935234e-10
775 2.953381486700692e-13 -1.3555576676017504e-13 2.6920245676994527e-13 -8.072494999866288e-10 -8.64115172456886e-10 -9.592894018946302e-10
776 2.157997099816282e-12 -6.18519768725257e-13 2.230990637698062e-12 1.4604877417674784e-09 4.5685800766978847e-10 -1.2075020776857017e-09
777 -5.41129124780975e-13 1.083844131152026e-12 -4.335830004622324e-12 2.0283461931676887e-09 -5.295931084558726e-10 2.2641710780206224e-10
778 1.247035955388826e-12 -1.0823530842325648e-12 8.684060443811754e-13 -5.411197251532143e-10 -9.560986268332965e-10 -8.524171221785219e-10
779 7.279685252602121e-13 6.7534068836754e-14 8.29759060716171e-13 7.494239061230169e-10 -1.5756315494797426e-10 5.804683426560412e-10
780 -1.0828976932927806e-13 2.697916440038265e-13 -3.0660697592310492e-12 1.8560708369800242e-09 1.8954089543571117e-09 -8.791576652433553e-10
781 1.0838766018428981e-12 -8.100977806812791e-13 3.4391523749917983e-13 2.1607438977285667e-09 5.433843854430081e-10 -5.740101000063454e-11
782 -2.7077077593453553e-13 -2.242819912903025e-13 -1.1023530611580869e-12 -4.850536677358309e-10 3.309686282344167e-10 -4.324953918396403e-10
783 -5.421808950293851e-13 -2.1682645059955946e-12 -3.1947599615743954e-12 5.4214611585765154e-09 -7.89571603301073e-10 6.466513737486523e-09
784 1.226341127298205e-12 -2.002827668839718e-12 -7.847983357552774e-14 -1.0164701859543929e-10 2.0094714798327844e-10 -9.920281368374568e-10
785 -6.79452614483931e-14 5.416866207717555e-13 -2.693897679375122e-12 -5.070555712964147e-09 -1.3761989725245044e-09 1.736737879005658e-09
786 -1.0322498508579778e-12 1.861626999329093e-13 2.6408648722083687e-13 1.3560605641464763e-09 9.911290301358892e-11 8.706311445047938e-10
787 7.086810719558644e-14 -1.0839592388706634e-12 -2.0429312296502316e-12 2.9422448027305516e-09 2.2287674008215574e-09 6.249716917596375e-10
788 -3.33449110625221e-13 -2.1683770518522606e-12 8.23060631436662e-12 -1.3618142706888107e-09 1.5229695257066364e-09 -1.3219496813904424e-09
789 1.0598607944469838e-13 1.2088524018854528e-13 -1.4876454877293528e-13 9.88751115899374e-10 -2.14358017379541e-10 -1.3880538177028095e-10
790 -4.2617632126462745e-13 -1.137504251839924e-13 6.488646992215122e-13 -2.423337324199813e-09 1.6054881365603162e-09 -1.1280632310031015e-09
791 2.0605153380220996e-13 -2.722480974012704e-14 9.332150164495964e-14 -2.164237437316685e-10 6.009861998595372e-10 1.4338932466625603e-11
792 4.817612757022878e-13 -1.6243009853439035e-12 1.105015312800242e-12 -1.4752440469391086e-10 -2.110010448102337e-09 -7.383930594676648e-10
793 -9.103459092798321e-14 2.1677390752728913e-12 -4.943167171085929e-13 3.5360249002735256e-10 -2.006538837256703e-09 -1.3167620868117069e-09
794 5.805805729554383e-13 -2.161381605042744e-12 -3.395550190699903e-12 -4.365370177820434e-09 2.3201070670815482e-10 -2.0322543511124393e-09
795 2.4581261746129687e-13 -5.402662450848591e-13 1.1879053562706485e-12 7.096784457890715e-10 -6.819270335658937e-10 7.946212278542049e-11
796 9.96797816374583e-14 1.7328147875030202e-12 -2.6285028687992962e-12 -1.2932662551697244e-09 -1.9997650119691087e-09 -1.8052572541641597e-09
797 5.41558319993205e-13 2.1030446801381433e-13 6.050661461122107e-13 -2.137180619115783e-09 1.5473769952443622e-09 1.466369598467308e-09
798 -1.2307857778217974e-12 -2.7014482144210076e-13 -1.4052961575531514e-12 1.9959045010798656e-09 1.918958796422482e-09 -1.6562188297723648e-10
799 6.54861374220322e-14 -1.4237384917899268e-12 2.3729371353528223e-13 1.902176210013965e-09 1.7390182175795694e-09 -1.2267740652232797e-09
800 -5.42325183230509e-13 -1.969627767599015e-13 -7.344803092389547e-13 1.5739757606794223e-09 -1.6376810137387317e-09 6.271360103189372e-10
801 8.447722712472186e-13 -4.942290579643349e-13 -3.2373916751229154e-12 3.4103966247523296e-09 1.0667083916289395e-09 -5.193525754420263e-10
802 2.1526656155539482e-12 4.436222295818169e-13 2.276781843042437e-12 4.3226565525295876e-09 6.759753374897245e-10 1.1863277032159863e-09
803 -1.0842640239932464e-12 2.0257489192549933e-12 4.116018958870709e-12 -4.981371092750578e-10 -3.691917944447333e-11 1.4566533632286321e-09
804 2.704208281899193e-13 -1.6822867089952406e-12 -1.7650721409514282e-12 -3.6575735874578274e-09 -1.3549648177405135e-10 -2.445725519218997e-09
805 -3.0221389805700354e-13 2.701770693234057e-13 3.9272968860208514e-13 1.043890849917843e-09 3.248971071128256e-10 -8.662525165037542e-10
806 -2.5634820919314496e-13 2.7118391769725864e-13 2.29623850978822e-12 8.533034298379451e-10 2.2319635089946996e-09 2.190808453927335e-09
807 5.404436063336716e-13 -1.9493398395742876e-12 -5.627634500415935e-13 -4.325391665410219e-09 1.4500182316392533e-09 7.418862605927672e-10
808 -1.2667110040027406e-13 -5.239623691781274e-13 -2.076474690367052e-12 -1.793475664543482e-10 -1.3275552594601207e-10 4.2477434904637693e-10
809 -2.9103302079258686e-13 -5.420952694841396e-13 1.272999582064475e-12 -2.796045120791662e-09 -2.815652330033584e-09 -1.2656721937988655e-09
810 -3.436534117364194e-14 -1.8414598330038316e-13 1.8837639780415717e-12 2.1196859186833834e-09 3.7709428911957994e-10 1.4170504190303328e-09
811 2.42046881428151e-13 -3.728728642537025e-13 1.6237946043748328e-12 9.81591326310552e-10 -2.0983956763764202e-09 5.912854582060867e-10
812 6.408182631181283e-13 -1.0991831106681539e-13 1.1144220889948771e-12 2.3625917449727743e-10 1.1926290690760992e-11 5.046023022790305e-10
813 -2.9924540487920803e-13 -1.6825453579581801e-12 -8.981061992569629e-13 4.354380172642719e-09 2.217801552554017e-09 -5.813266923183184e-10
814 6.133256626295093e-13 7.637401632400506e-13 -1.2671253952297155e-12 1.9691399309015495e-09 -1.2876384522674387e-10 -5.177810779553801e-11
815 3.0997596878918703e-13 1.3540213511649901e-13 -2.588746897401044e-12 3.6668269358732384e-09 -3.1417425719339706e-09 -3.7720373125771754e-09
816 2.28126289368758e-13 2.166813000381023e-12 -5.579843633715552e-13 -7.179181116173371e-10 9.138380415869952e-10 -3.162053959419048e-10
817 -1.3869437181645389e-13 -7.43831751043041e-13 -7.331864643751963e-13 -1.2062264408481382e-09 -5.383180858096051e-10 -2.2012085690724318e-10
818 -5.420706194206978e-13 -1.1437024448924005e-12 -8.682659030840119e-13 -1.6907666619660726e-09 -2.7855772488996324e-09 1.3776616359540045e-09
819 7.7863200280674e-13 6.285145720254317e-13 -2.5314465562081386e-13 -4.3572876808101827e-10 -1.391443419268653e-09 4.595785979330419e-10
820 -8.413669114283974e-14 1.0350940952410451e-13 -1.1095782673668306e-12 1.7919968124621168e-09 -9.967515880831892e-10 -5.524089375583147e-10
821 -1.4800923186414195e-13 1.0841905129870288e-12 4.1110412001903116e-13 -1.0753150935084314e-09 -6.299328415383933e-10 -1.3426120168277517e-10
822 2.159101649972674e-12 -2.1256658718883822e-12 1.52984658378994e-13 5.352004249894904e-10 -1.1193937304149805e-09 4.2823118349337084e-10
823 5.882355004557477e-13 4.145343481432674e-13 -1.1567982532302932e-13 -7.684477700789199e-10 -1.0252186502258098e-09 -9.49052166303881e-10
824 1.858291630183456e-12 5.411897994800412e-13 -2.2653765189004635e-13 4.5346024663804954e-10 -2.1960306492071332e-10 -8.221934514583382e-10
825 -3.44633268184014e-13 -1.4422500967632795e-12 8.520627727311699e-13 9.361972952716678e-10 5.527764187514933e-10 1.2255379521833042e-09
826 -8.190807392175347e-13 -1.073095875612225e-12 4.851295446258585e-12 5.096130063038377e-09 7.373381821800739e-10 1.0090287671385609e-09
827 9.015422663466518e-13 8.815381399118035e-15 -1.1279471208488294e-12 -6.3088232710516245e-09 -4.34452073434236e-09 -1.907421630190301e-09
828 1.6761482525742407e-12 -2.7043512790693463e-13 3.827323693093901e-12 8.677145427000113e-10 1.3463507490204908e-09 -7.074509870066238e-10
829 4.0099383716282276e-13 -1.7973825193505943e-12 -3.1982694955901e-12 5.3608532333282115e-09 2.44620287896842e-09 -2.3596394121239045e-09
830 -1.3111759249072412e-12 1.5149745792202894e-13 -1.1760418491955717e-12 -1.0705531535439401e-09 -1.647803670819858e-09 -3.813357344882353e-10
831 -1.083669508611368e-12 -1.4822583380094436e-13 -1.61495274805493e-12 -1.5918969238370142e-09 -2.492186754612238e-10 1.2362136665146497e-09
832 -1.335185701322059e-12 1.0703894069973962e-12 2.7125516620664252e-12 7.15056128597735e-10 -5.364283178650346e-09 -1.3093348089959508e-09
833 2.168322925478575e-12 4.619768978382241e-13 4.5344612581352364e-13 1.380871756872006e-09 1.2388038348763544e-09 3.364116596686858e-09
834 -1.083696818267574e-12 8.584982108412748e-13 -5.840773342296805e-13 3.744746354884902e-09 -2.5378132501852047e-09 4.792994655751098e-10
835 1.540437090263796e-12 -1.8701667502991902e-12 -8.671138252060822e-12 -2.065619512957793e-09 5.410737159563406e-09 2.9634176428393085e-09
836 1.7062476758719324e-13 -2.9158412972218087e-13 1.5260782993854526e-12 2.307105374666107e-09 -4.421335150269123e-10 2.3377245512578417e-09
837 -4.1415002996007457e-13 2.244914191893893e-13 -1.854419725341989e-12 -5.4455685184178614e-09 4.479795988117453e-09 1.0534298600360912e-10
838 9.005091558988697e-14 5.419593856967122e-13 -2.2357066955803826e-12 5.188893039825814e-09 -5.658459165849789e-09 -4.75804871855636e-09
839 -1.6802722897235717e-12 -1.942710120488307e-12 -2.4310343788431176e-12 -8.041145834287804e-10 -4.878431696287376e-09 3.55428658728412e-10
840 -1.0217116223761304e-12 2.677579149626421e-13 -6.699355915577258e-13 1.07678534266344e-09 -7.202162344952445e-10 8.992813851188924e-10
841 5.414879707027854e-13 -2.1664334770078182e-12 -2.4672994993050636e-12 -1.0629520078512118e-09 3.6183898238585142e-09 1.4265293409557944e-09
842 -1.5134778699048794e-13 -1.3366804491494e-13 -2.354861612984079e-12 -3.325703890619464e-09 1.1568139172661337e-09 1.9527233560002216e-10
843 1.3024716983394171e-12 -3.8462657435783793e-13 1.8411382767879915e-12 -2.1737016770933983e-09 -1.1488505494351086e-09 6.711987132692237e-10
844 4.446006577243716e-13 -6.593627000999e-14 3.2552774309979326e-13 -3.314012898217483e-10 8.909458179924172e-10 -2.9297096527258613e-10
845 1.0841892170359764e-12 3.568709081747159e-13 3.3747744449635e-12 4.77708320895192e-10 -7.023704802954654e-12 -2.267766809319613e-09
846 -3.913789422693729e-13 -5.407271352571205e-13 -3.5742176597098365e-13 -2.7633918075173492e-09 -1.4149325624472217e-10 -4.996138325539421e-10
847 9.792925880291708e-14 -1.1387424394808874e-12 -1.9418278253348215e-12 1.937264052384886e-10 -2.9767526905227226e-09 6.591270505434413e-09
848 1.083975910336313e-12 -1.1190123796248723e-12 -3.7276156358564634e-13 -5.798824464183699e-10 3.4737642353887074e-10 -8.375740102526019e-10
849 -9.963080970959187e-13 1.6344753103361405e-13 6.90697773129988e-13 4.751305250805291e-10 2.542913100009347e-09 -4.842086521393758e-10
850 2.0386286234199206e-13 2.0134336888070482e-13 2.97454335790248e-15 1.9110531357296315e-10 4.3645575497622163e-10 -1.5305767601940182e-10
851 1.5581011223010346e-13 -5.413195600949647e-13 -4.958546464160612e-12 4.785088131088702e-09 -3.274889149419727e-09 -6.378739882433312e-10
852 1.0841899212890802e-12 -4.919740160801649e-13 2.1176105915443314e-12 -1.945017164757092e-09 1.2032285196113926e-09 1.6821251603122634e-09
853 -5.279098233830026e-13 -5.418211157845605e-13 2.3110103816053535e-12 2.34496488624799e-10 4.037965540852438e-09 1.25306163234703e-09
854 6.263282221423238e-13 1.4141529420964246e-12 2.803788598263066e-13 2.7175471656355807e-10 -1.0435585356874262e-09 -7.892630175070078e-10
855 8.320742267533024e-13 1.5182594596720794e-12 2.2595721270690795e-13 -2.148574015183858e-09 1.2339815508274428e-09 2.1142642672034e-09
856 -5.188347560003565e-13 1.0838878254233483e-12 1.1695959629762669e-12 1.3922055809898864e-10 1.6880610719342925e-09 2.1945236968580805e-09
857 -1.0810939597161803e-12 -6.350979210094898e-13 2.7781747603662234e-12 -6.137831478733715e-10 -1.3471182869311726e-09 1.2910726216262613e-09
858 -2.166528870777494e-12 3.708697295908954e-14 5.0280406527998545e-12 -9.503252666755175e-10 7.470020748171876e-11 -1.6258839027171568e-09
859 2.5725195636327766e-13 9.366858770840203e-13 -6.288909343320516e-13 -1.9322900026082574e-09 -8.517202075884625e-10 5.884715257344279e-10
860 3.3054401871388347e-13 1.0201473745557995e-12 2.360798022554716e-12 -1.730936118650619e-09 -4.0984565291738904e-10 2.2244572138522742e-10
861 -3.10082077476847e-13 -1.5424339813910672e-14 1.2314910672910708e-13 1.2186941531835274e-09 6.108453914079553e-10 -1.0543482968324606e-10
862 -3.2642780208321246e-13 1.9334749040751544e-12 1.1969604796181246e-12 -2.144950064856735e-09 1.3277088071038773e-09 3.092546851528885e-09
863 4.8491192717997925e-14 1.0842031160867458e-12 4.318859990660065e-12 -2.0115344164843408e-09 6.706578292154454e-10 -1.3419708679862323e-09
864 -5.4160865693957154e-14 -1.083946085914708e-12 6.767696984885344e-12 3.5673604016659902e-09 2.5291721977291648e-09 -7.464252416091085e-10
865 7.640665510747415e-13 -2.1142415700309736e-12 1.8280337185993652e-12 -2.3506855527859374e-09 6.702084211582593e-10 -2.4956027829716955e-09
866 -3.963091824798841e-15 -1.0167025217947427e-12 -2.115942069389288e-12 5.5245825950908004e-11 -7.634788907386618e-10 1.3626439835490638e-09
867 1.0829331359348296e-12 7.97083561899437e-13 6.63359019435268e-13 -6.381710680534125e-11 8.348138986047693e-11 1.2414899806168263e-10
868 -6.372975283868635e-13 -5.41824472222425e-13 2.1831426418548683e-12 -2.630273159684106e-10 6.200607420224487e-10 9.306790983913258e-11
869 -1.0173073250220912e-12 5.419852537444754e-13 3.410980740225139e-12 3.981697631137313e-09 -2.807317775296605e-09 3.3652996216051464e-09
870 1.4510329611170245e-13 -1.148438418010755e-12 5.058090967458491e-13 6.524525741037908e-10 8.165873285081555e-10 -2.9388929798608012e-09
871 -8.059018034157635e-13 4.2587641020487813e-13 9.303183605201324e-13 1.1440185831696046e-09 6.929259756543915e-10 8.095566292196444e-10
872 2.7093659196090654e-13 3.615625394369816e-13 6.617578634666711e-14 1.2300652193624175e-09 -4.255035113749273e-10 -2.558787848767593e-10
873 4.568353822673135e-13 -1.4391379176385716e-12 -1.2502228722124606e-12 5.572818249711554e-10 1.78673255864498e-09 -7.10859418231625e-10
874 -1.4217729203346544e-14 -2.1682118262374674e-12 4.574217249271272e-13 3.716173795253927e-09 -1.1503544297430965e-09 -2.0086974653860693e-09
875 1.0830660835618366e-12 -2.1646554085633574e-12 -2.7006310663057354e-12 -3.046323628827199e-09 -5.045325987894289e-09 -7.291143755657584e-12
876 -6.249535045461769e-13 1.99040466875321e-12 -3.354660556903068e-12 4.086685883005461e-09 -1.2410942435108672e-09 -3.1752690206758774e-09
877 -9.472664587632882e-13 -1.4443777154138027e-12 -1.4641421014101372e-12 -1.8632807131828205e-09 2.9630530282932913e-10 3.595976149388213e-10
878 8.166817755002693e-13 2.710082455895989e-13 3.1476475318456535e-12 2.2682862181019993e-09 6.306045105144276e-10 3.27770005213116e-09
879 -6.692994709154941e-13 -3.0940957508735697e-13 -1.2686149602161775e-13 -3.473759514794151e-10 4.3449373220570775e-10 -2.4120145696131696e-10
880 -1.0814199465502087e-12 -4.660638764674167e-13 2.473237840336012e-13 1.1712557915981698e-09 3.00188286795747e-09 -4.2735047568296206e-11
881 -2.1046846683493104e-13 -8.802639660109584e-13 2.418030463633271e-12 -1.1236048408768133e-09 1.4725900161708506e-10 -8.998761298548733e-10
882 -1.6281249750310063e-12 -2.057251617044284e-12 2.935712203605848e-13 -1.0648743643389958e-09 -4.615024466333646e-10 4.295042364937301e-10
883 8.08898563463117e-13 9.086375953588199e-14 -1.3614963375664387e-12 1.5974166584334807e-09 2.217480717424474e-09 3.02097351334121e-11
884 -1.0819152696550174e-12 1.0531640968619907e-12 -6.296126771482806e-13 -8.444852707999088e-10 4.742314591254296e-10 -2.1144366559038707e-09
885 5.195526728075953e-13 -1.3059607440563387e-13 -5.980926330410582e-12 4.409444107424994e-09 -2.1462519074199585e-09 1.0365878641149628e-09
886 -1.698933331244394e-12 1.0840827305513461e-12 -2.8075913203316876e-12 3.253678550414475e-11 6.8940288919320224e-09 2.797488053918843e-09
887 5.411703751136678e-13 -5.420442638736827e-13 2.4245198164006794e-12 -7.072605466630908e-10 -6.243346015204107e-11 -2.369446023526083e-11
888 2.1675765807785052e-12 8.34546050142415e-13 2.9205599922411414e-12 -3.6905371342574694e-09 -3.945763882581837e-10 -3.065540091516535e-09
889 -7.278829250678488e-13 -8.616285988692864e-13 -2.026145719674818e-14 1.2827159363591749e-09 -2.3586787305540633e-09 -1.3130561369884327e-09
890 -2.2175086573989216e-13 2.420157272226946e-13 -9.47778836055052e-13 5.837518038630987e-10 -1.8895564106178114e-09 -3.9125661854540366e-10
891 -1.0838168206541162e-12 7.063122453783272e-14 -2.309034613124159e-12 -3.446522666376469e-09 -2.2563971278553825e-09 3.2940996712949093e-10
892 8.197166649181043e-13 -4.386602500769417e-13 2.7030035034808993e-13 -1.9390386862398467e-09 -6.152023079227928e-10 8.602335320874604e-10
893 -2.707185317684744e-13 -1.083143547110046e-12 6.426436976383654e-12 2.689856541111585e-09 -1.4777779848514217e-09 -1.9376589410889146e-09
894 8.679663268258672e-14 -2.851307157687386e-13 1.3256583870330054e-12 1.9859162759381504e-09 -2.4415633532759142e-09 6.218467003213066e-11
895 7.839555190693144e-13 -3.561243843208547e-13 3.4429975653702408e-12 2.9653597341630197e-09 3.7903876461928143e-10 3.1821625228498016e-09
896 -5.1815609162990384e-14 4.2639304169753125e-13 5.233924354440296e-13 5.151026415299723e-10 5.221698167225223e-11 4.014142641067276e-11
897 1.0310649801791461e-12 1.2849593335033065e-12 -1.8454542739592663e-12 -3.861533379774614e-09 -6.0125438948948075e-09 -4.336365663275633e-10
898 -5.296328594229556e-13 -5.41984703237655e-13 2.13526305633148e-12 -5.808305494867672e-10 -3.838491895807564e-10 -8.760156127365352e-10
899 8.919640747004981e-13 -2.5162290384232937e-13 9.80018121955305e-13 1.3000546856521272e-09 4.541536419713298e-11 -8.698465281077333e-10
900 4.155796677799981e-13 -4.0700034737077803e-13 1.4007623423626172e-13 1.2912531595805597e-09 -9.014944637994059e-10 -7.425624339024371e-11
901 5.828102665704235e-14 -5.419875757906171e-13 -3.3365265691502374e-12 3.458831967874189e-09 -8.273471670716134e-11 -2.194842474449369e-09
902 1.0825503676551284e-12 -5.922739917268438e-13 -5.6748444811873625e-14 3.6137594788970127e-10 1.093916479449423e-09 -1.5688863105131089e-09
903 8.667999520662013e-13 7.616901689474845e-13 4.976943696559245e-13 -2.974543580989243e-09 -1.6859032217741504e-09 -4.850403409823989e-11
904 5.421554525482008e-13 -6.184615566559278e-13 4.236031208096032e-14 6.531900881300122e-10 1.3993678853627661e-09 5.051698044139709e-11
905 -9.922571627167848e-13 -3.802767924420197e-13 -9.203851831297133e-13 2.9605952386597157e-09 -1.2477092692043215e-10 -1.7400022091808907e-10
906 -1.0828482671835713e-12 2.70690755944266e-13 -1.7571243562686087e-12 5.758121323967516e-10 7.635129311367727e-10 -4.293954406097861e-10
907 -7.791519128060205e-13 -3.686836041181652e-15 -1.350299327772724e-12 9.799658795237298e-10 1.3107906908035935e-09 -2.211002958566716e-11
908 1.665395425760034e-13 4.6192754484492865e-14 5.530939383158209e-12 1.0735981752141996e-09 2.190655740076403e-09 -5.629836047610031e-09
909 -9.327757819569159e-13 7.434407958720025e-13 -1.912574194419795e-12 -1.557342106515525e-09 -1.903012216265701e-09 4.0103953234501234e-10
910 -1.7224127637781628e-12 -4.796055706308534e-13 4.519876046049916e-12 2.0896810253566076e-09 4.144414678591245e-09 1.1448675453997089e-09
911 -8.949577560177975e-13 -1.3944972238149883e-13 1.9519304986955172e-12 5.412974320444157e-10 -2.4644943903889936e-09 3.2306330643823807e-10
912 -2.167064036619371e-12 -8.633664480927786e-14 -8.913840768584811e-13 1.433339111683026e-10 -3.981133073180593e-10 3.546695377385243e-10
913 -9.635576512919247e-13 -2.590479037758696e-13 9.743049800345566e-15 7.839409974613547e-10 -4.95585400396665e-10 -1.9758645150506733e-09
914 6.544639691563946e-13 -5.980548132579499e-13 3.3240594354144737e-12 5.738029253296874e-11 1.1588816790005388e-09 2.4257441385007916e-09
915 -6.048392987456907e-13 1.0834592534342286e-12 -1.980762611464389e-12 -2.1810237515011723e-09 -1.8883660706569864e-09 -6.752679164824914e-10
916 -9.78287669785501e-13 -1.6010834082649826e-13 6.420835052958728e-12 1.1343837776809856e-09 1.3967339678758021e-09 -1.5423787636529115e-09
917 -2.699592747014659e-13 -2.1682391980510417e-12 -2.8588566858991683e-12 2.7814106304216648e-09 -8.046827663338026e-10 -1.6829631986339262e-09
918 8.713932776615478e-13 1.0790129560713445e-12 9.131791518705331e-13 -4.4535109179118415e-10 1.6060235771228864e-09 -1.7419143720666153e-09
919 9.089086391372837e-13 -1.8214207235746294e-13 -5.7009431387947315e-12 -5.6179409953680546e-09 5.585209943900775e-09 -3.908683132514017e-09
920 -1.1938198093575024e-12 1.274452320811858e-13 1.1404586076860122e-12 2.187219612951625e-09 2.2502419477187808e-10 1.1975254012416307e-09
921 6.788914329453953e-14 -1.4949481765527198e-12 -1.1363500109071155e-13 3.9304938894852785e-09 -2.543077780183224e-09 -3.185559241375196e-10
922 2.0739571060565592e-12 -8.593743465120594e-13 1.3761606327160317e-12 1.3736588641505145e-09 2.0152164598377844e-09 5.2410040225028175e-12
923 -2.710421830573309e-13 2.884973888238908e-13 -4.204436522160795e-13 -2.264711087305071e-11 7.695885597468428e-10 -5.111683875398746e-10
924 -2.7087004032009474e-13 -2.708268870366691e-13 6.165649077431749e-13 -1.6828271194128327e-09 -3.645021929778194e-09 -2.460702448015266e-11
925 1.3688690537923802e-12 -1.0620053175265685e-12 5.733951338819389e-13 -5.13592131109298e-10 -5.528118503563451e-10 -4.3268635794434854e-10
926 2.165697349924392e-12 1.1699499633235886e-13 -2.2513725186167295e-13 3.1160383834094073e-10 2.912067145300833e-10 -2.1376022180843223e-12
927 8.973160085147193e-13 -6.048794326295329e-14 -5.079730057347019e-13 3.0647559093196833e-10 5.807997167584922e-10 1.303861719069748e-10
928 2.635724810953104e-13 2.2650542783861416e-13 3.658034968453704e-12 -4.5960968751940093e-10 -1.6852996984461512e-09 1.4896594108396376e-09
929 -8.779139398466688e-14 5.059552460673901e-13 -9.093026336824887e-13 -5.916232414148364e-10 -2.809888838769269e-09 -1.626138138075705e-10
930 2.7088352705052234e-13 -2.167100353593476e-12 1.3354502044005472e-12 -5.488951685058513e-09 3.2472688048555087e-10 2.604681863115759e-09
931 5.420185095997366e-13 -2.1672251101851995e-12 4.674201279407758e-12 4.054683571403797e-10 1.4644067017848931e-09 -3.473294714613047e-09
932 1.2471921404219556e-12 -8.64904927312475e-13 -2.9094844111882283e-13 1.961411007301836e-10 -4.973774340593046e-10 4.88447947563669e-10
933 5.001757376265089e-13 1.2281655949347101e-12 3.5335547995996135e-12 -7.451238985489702e-09 -9.84791002743026e-10 -2.4298404753282494e-09
934 -3.3342668588938123e-13 -2.170408535254287e-12 1.0548307455988893e-12 -2.232935468776957e-09 3.2357898538929324e-09 4.913122417284542e-09
935 -2.1681449216150757e-12 6.724397067409589e-13 1.239907086198486e-12 1.3347866189216815e-09 6.684627290351589e-10 -1.2007369076577047e-09
936 -9.96622023350255e-13 2.6559495354901227e-13 -5.667856456347666e-13 7.434726607106072e-10 2.0575192310415534e-09 4.757605752469955e-10
937 -1.7344982885702386e-12 -1.8504600378441308e-12 -3.9242287736468784e-13 5.239175336282859e-10 -8.101584470129679e-11 -5.496204352274723e-10
938 2.167070169174076e-12 -4.034249697777481e-13 4.0625465680068345e-13 2.7162331375078714e-11 -5.541501392729504e-10 7.936307605909557e-10
939 1.2383335656749289e-12 6.097842392484842e-13 -6.201034503741345e-14 4.075118707292544e-09 -8.126074345098031e-09 1.5671444622279364e-09
940 -5.421749457434181e-13 -1.0837445910567833e-12 -1.165588597378865e-12 1.5550586391994051e-09 -7.854646415704798e-09 -2.752796377767468e-09
941 1.6010538445900475e-12 1.0844317104502715e-12 -2.2793652383867888e-14 -1.0626717437233433e-09 -7.100685611846089e-10 -1.5451013701379934e-09
942 1.5481189344595293e-12 8.169014536329466e-13 1.5453196183197755e-12 1.1339952622130551e-09 2.7872655992355216e-09 -5.638103935874912e-11
943 -1.165335875249818e-12 -8.268635810344678e-13 -6.292405924763354e-13 1.6082141155519894e-09 -1.4277409520058321e-10 2.6380805094104475e-10
944 -5.420127439640834e-13 -6.689480327159981e-13 -1.4209484761199912e-14 6.886776680172535e-11 7.36808758311294e-11 5.980808708324168e-10
945 1.3545741895833409e-13 -3.595428187491058e-13 -5.050518825279146e-12 -4.795030363935368e-09 3.2856646468798224e-09 5.553712648038265e-10
946 4.767450674476726e-13 3.915273775762639e-13 -6.787522117408184e-13 1.8204111255159269e-09 -3.81863188634821e-09 -7.913808952270464e-10
947 5.420211589812083e-13 -7.352926759807085e-13 -2.772466039205755e-12 -6.980926292539131e-10 -9.490905800003064e-10 -6.759487504523139e-10
948 7.338976551010293e-14 4.0105313738716496e-13 -5.952409717558213e-14 2.2663609371091507e-09 -1.8979169832513924e-09 -3.984186473771446e-10
949 -8.0893427056628e-13 1.0841855286594905e-12 -2.1883518691724503e-12 6.4187612444737844e-09 3.938489327975434e-09 -4.599048081287896e-09
950 4.169526156259431e-13 -1.676843783923069e-12 -4.776560335870841e-13 9.450038128685018e-10 -5.939472159138049e-10 7.30934805990349e-11
951 -3.565734014171109e-15 2.1430390313264453e-12 7.36740628890639e-12 -5.452914361751156e-09 -2.2648517391622654e-09 2.081146389160105e-10
952 -1.080011785182544e-12 -1.0841839849646058e-12 3.2479418634903297e-12 1.0141225068736467e-09 3.3042474770114193e-10 2.2929583744449e-09
953 2.1647878634763604e-12 -3.7016751014221244e-13 4.0456752174188526e-13 1.413350681831285e-09 -1.6377596864250636e-10 6.619137545869705e-10
954 -2.0390516572296806e-12 3.756223761542029e-14 -1.877498813014941e-12 -1.0881872810488733e-09 2.0375543650239917e-09 -3.795844308264224e-09
955 7.271138208194652e-13 -7.804837247732495e-13 1.1429513118148982e-12 -3.301573558229696e-09 -7.202544505318608e-09 -4.444562863913998e-09
956 2.711459126422586e-13 -1.4024693852432193e-12 -1.855162812327813e-12 -3.7871170839593114e-09 1.0345165252352568e-09 -3.765344532627505e-10
957 8.577194267094576e-13 1.326593108301472e-13 -2.2305238372210833e-12 -2.8760035012689127e-09 -6.348437814090317e-09 1.6254537174853385e-09
958 -2.7096930500375765e-13 -1.0822304303571106e-12 4.2615997978029706e-12 -3.690637470970956e-09 -3.530644143285718e-10 -4.4147003911176436e-10
959 -1.108615212057721e-12 -1.2177153450343067e-12 -1.6034763213779405e-12 2.5718299721213385e-09 1.717995143463982e-10 -2.099387179170257e-09
960 1.3617814217035908e-14 1.25235098765597e-13 -3.308268897119532e-14 -2.0379147680015408e-11 -4.95627704922226e-10 -1.3845098200875217e-11
961 5.418343549942659e-13 -1.6570365865631303e-12 -6.620625400033438e-13 1.2703511635245945e-09 3.073544663534336e-09 1.0223319257011492e-09
962 2.6811412692835674e-13 -4.625145124315629e-13 2.641419690454036e-13 1.0784307643630473e-09 -2.424641403878797e-09 3.9954565025538485e-09
963 9.054477138915618e-13 -7.192362238717086e-13 -1.944455904349638e-12 1.3991246586833364e-09 -9.533255374203412e-09 -1.1363115352952014e-09
964 -7.708950648928511e-13 -7.391827262629418e-13 -6.3138437256037984e-12 7.094353043442207e-10 -2.2798190796471154e-09 5.029542865241268e-09
965 -1.0477076394039254e-12 -1.354035847609935e-13 2.0893272719368258e-12 -5.171888069185464e-10 2.2148978104600093e-10 1.9606638894945027e-10
966 -3.405153216448333e-13 1.0838298366877387e-12 3.3262851457971954e-13 -3.2774609819886574e-09 -1.9310708152044754e-09 8.641820062028014e-10
967 2.0040669579375527e-14 -1.360230798281595e-13 -1.556939982850843e-12 1.4661748758128049e-09 4.7602342471323744e-09 -8.610554382818133e-10
968 -9.59087150947394e-13 5.407705686308578e-13 1.7073000779884295e-12 4.938256210567062e-10 -4.1363890275082794e-10 1.1049934038798286e-10
969 5.370618901851008e-15 2.4094218488287035e-13 3.3835788619752667e-12 -1.6893084457568014e-09 -7.31963405947192e-10 -6.152753063330942e-10
970 9.868735826525922e-13 -3.307774674376207e-14 3.3755787540568444e-13 5.976981597960521e-10 -8.173492789854437e-10 1.255174088413069e-09
971 1.0842069672049736e-12 9.932338383162072e-14 1.0408158625879728e-12 -5.493832781567345e-10 7.702899499885221e-11 -1.003756117123791e-09
972 1.084175391343742e-12 -1.0189266210930853e-13 2.4714247297169876e-12 1.2749905870817677e-09 -1.1928998679360263e-09 7.113607158080231e-10
973 1.08418930662003e-12 -1.0028879478561698e-12 -1.4138358475264418e-12 1.217239146711613e-09 3.374291479721526e-09 -9.009693300609349e-10
974 1.7926602607833885e-12 -1.2971922520444879e-12 -1.2974100434382378e-13 2.523402286601357e-09 1.6873719766401699e-09 1.1719034822967175e-09
975 5.398277528075044e-13 5.216816726286659e-13 4.141300788775479e-12 6.690870207568327e-09 -1.5086066207797067e-09 1.916045189784493e-09
976 6.096967840094074e-13 -2.863511734782389e-13 3.8098647567488745e-13 -3.913501913875241e-09 -2.094768757930941e-09 1.934106951905579e-09
977 -6.789302705724638e-14 -6.93841109591732e-13 -7.076656633777569e-13 -1.5434011655512003e-09 -6.424608077455407e-10 6.71880074789121e-10
978 -1.9117750442513227e-12 2.515185806206719e-13 1.8910093344806967e-12 1.4390857248751403e-09 5.0747698508143934e-09 7.262511739435536e-10
979 2.7130941263159563e-13 -1.4702375587747608e-12 1.4342824996914734e-12 1.195722075203662e-09 -4.287116954226522e-09 2.98849527096263e-10
980 1.4914854321206748e-12 8.317151552267279e-13 1.629486684710274e-12 2.3073948800275915e-09 -2.439873258441753e-09 1.4775932642969451e-09
981 -2.710241425560392e-13 1.084257160156797e-12 -2.2914765635262544e-12 -9.593224274798587e-09 7.449208345605873e-10 -3.3259067233091414e-09
982 8.168506843758717e-13 -1.78036576301336e-12 7.40673383891564e-14 -8.339416379157628e-10 1.5074106810102014e-09 -4.453691406309046e-11
983 -3.0855201555038394e-13 1.896584155013398e-12 8.013327899681086e-13 -2.93787491487271e-10 2.45761883974845e-09 -1.0740898467028454e-09
984 -1.6818822727147682e-12 6.76052356387441e-13 1.6892707445335904e-12 6.355970522400061e-10 -2.022856169132363e-09 1.4182786646270509e-09
985 -1.948875096853542e-13 -2.163824616509953e-12 9.829370888899845e-13 -1.1769266699547136e-09 -3.4169841906957196e-10 -5.019185447818057e-10
986 2.7076724825534073e-13 -5.248715030239976e-14 -4.566446811654806e-13 1.7460979206213099e-09 5.218796836057996e-10 -1.6354225074656674e-09
987 -6.882307478110855e-14 1.0952490737475874e-12 -1.439331953011624e-12 -1.4189559390427876e-09 2.807438992156634e-09 2.6155230063331703e-10
988 5.420858288944126e-13 -2.7109571168880494e-13 3.8428497597864367e-13 -9.048305095887521e-10 4.370366119316156e-10 1.94388635656557e-10
989 5.323937870947946e-13 1.711624270230301e-13 -3.3664502240492255e-12 -5.221919514608927e-10 -9.99965186065227e-10 -2.6270285736731007e-09
990 -1.5622040364703262e-13 1.95870080828142e-13 -1.6641557321850166e-12 2.778015587948393e-10 -2.3369763953542957e-11 9.271972257610446e-10
991 4.331842450601729e-13 8.748847517169867e-13 3.124803694363466e-12 -6.90103034010057e-09 4.3050888756285927e-10 -4.1846914810504934e-12
992 6.035853649771838e-13 2.2148191833988987e-13 8.645018165576793e-14 5.715939247697482e-10 -3.420041810131942e-11 -4.730176648652113e-10
993 2.2730068776198115e-13 1.0527749035499308e-12 1.6571741495964535e-12 -2.3674112096562308e-09 3.610813415031556e-09 -2.5304594803670086e-09
994 -1.96110129560718e-13 4.072723129587178e-13 -2.688287018592647e-13 -5.921178476318432e-10 7.824389696672245e-10 3.72755868077625e-11
995 -2.710170216709211e-13 -6.8342286363956e-13 5.258665266229978e-13 -6.567221986113326e-10 1.3643524731992257e-10 -2.1004320532039757e-10
996 -8.426593168632539e-13 -1.937211177764532e-13 1.7253468312554e-12 1.3224196343705753e-09 -2.3817475832021575e-09 -3.8260737123369884e-10
997 -3.833245872453906e-13 -1.0619832413308278e-12 2.6178276575494587e-13 1.0043388320190393e-09 2.1595430918685622e-09 1.6265850658383665e-09
998 -7.24617413571187e-13 -3.0981750109307314e-13 7.078245728034236e-13 3.1772140880032905e-09 -2.0056658493073947e-09 7.559899314976445e-10
999 -2.2710225136921673e-13 -5.42022439819597e-13 -5.618760868657952e-13 -1.3742570900672163e-09 4.4141882068099673e-10 -5.697333531623274e-10
1000 1.073171340792532e-12 -5.632528059659416e-13 -1.9869611402980653e-13 4.882865576899281e-10 9.941524750433245e-11 -8.355239115736182e-11
1001 1.87992049876619e-13 -7.962379518159876e-14 -5.0539844425770524e-12 5.1757473432928854e-09 1.3582067934030297e-09 3.3659459965002397e-09
1002 8.378906513572198e-13 -4.122884207316395e-13 -3.3579385710460205e-13 -1.8891859737444003e-09 2.869899722092726e-11 2.863055180780103e-09
1003 1.9513850841511048e-13 5.210801973119497e-13 -1.9791921024854168e-13 2.2130384290916447e-09 2.011954608078566e-09 6.222610489805091e-09
1004 -5.404803596140507e-13 -1.830238517828907e-12 1.3454422522306208e-12 -2.882619074802341e-09 -2.0231680561406953e-11 2.0816711987484306e-10
1005 -1.0819335751287254e-13 4.263875900566892e-13 -5.815886630172791e-13 2.0184713805047107e-10 1.0112383631856688e-09 -5.888213318600558e-10
1006 3.074148219590245e-13 -1.6533053821338713e-12 -1.8491870301523893e-12 -1.0065056599120244e-10 -1.3887034031760382e-09 4.61569794297507e-10
1007 1.053661036767166e-12 5.206887197170168e-13 7.523426395472801e-13 2.1640765857093163e-09 -3.62465258182381e-10 -1.3215560119494306e-09
1008 8.851616036065298e-13 -1.691763545796887e-14 1.0401620141753067e-12 7.093244036834499e-10 -1.6058239583165958e-10 5.898537905766239e-10
1009 -1.1940321976637093e-12 1.3851231503284958e-13 -2.983721958550125e-12 5.042141579001328e-09 -2.2140760172852874e-09 -2.938893409242143e-09
1010 1.0841005655453413e-12 1.6543755812344752e-13 -3.491793368013845e-12 3.02976023368915e-09 -3.51603153556764e-09 -9.823648438400493e-10
1011 1.785650410950082e-13 6.81047848117854e-14 -2.901995129894558e-12 -1.145289968742087e-09 2.3207791269828963e-09 -6.77696887078932e-10
1012 -1.6671857408307835e-12 2.172631041449684e-13 -1.5397203844391222e-12 -1.1242765408562803e-10 -8.412830983345707e-10 -4.4231585861933086e-10
1013 6.777159480814859e-14 1.9385571990643603e-12 2.9338762584364033e-13 2.8432858976239708e-09 3.7841447716183453e-10 -7.249581490028213e-10
1014 -5.113450733395762e-14 -3.608446152699464e-13 -2.0246924878939813e-12 2.878907101220556e-10 9.407316452116607e-10 1.481854112955208e-10
1015 5.008498469422661e-14 -1.0831846193752767e-12 -2.799685461747649e-12 -5.187761825667043e-09 -3.4926640014070436e-09 3.2263578456306756e-10
1016 -6.613268730854148e-14 6.861331207983043e-13 -1.6885000388621024e-13 -7.097310424065167e-10 1.4299059722994216e-09 1.9586076904363535e-09
1017 -4.4204332079019165e-13 1.081769662835073e-12 4.516335593756567e-13 -4.731640064407016e-10 9.188433959486494e-10 -9.33328920555125e-10
1018 1.0624639357563238e-12 1.0830518001538846e-12 -5.327625112948478e-13 -1.0977723495554714e-10 3.1325765986157684e-09 2.679315223199478e-09
1019 -5.420864088530056e-13 4.0312162492201443e-13 -4.560344006823134e-13 -1.4926079722742817e-09 -2.2992922311666734e-09 1.215723257331075e-09
1020 8.172995292837347e-13 1.272504458897121e-12 -2.8188125737112066e-12 -3.6072626434018216e-09 -5.792291486858041e-10 -1.5977266161814661e-09
1021 -9.738455084381271e-13 -2.6977607549962663e-13 3.601093289106827e-12 -4.6037396888830667e-10 5.847254174780796e-10 1.818862460117651e-10
1022 4.432059404316333e-14 2.0652826394004007e-13 -2.1959485082113776e-12 -9.87214353071075e-10 -8.746882667831518e-10 -6.139356171101902e-10
1023 -2.1661873590832087e-12 -9.722530067424881e-14 -6.820945700135766e-13 5.995205730578587e-10 -7.611224191968909e-10 -4.648089312676513e-10
1024 -1.7954230744300006e-13 4.585881161292476e-13 -5.204890618493329e-14 3.068921115376708e-10 -4.396157522645416e-10 2.5323663390934825e-11
1025 -1.8712212109265285e-12 1.2046273414940008e-12 -9.28163624442691e-13 -1.811054082139044e-10 1.2926582763631163e-09 2.5575246693648754e-09
1026 8.509768730506556e-13 -2.7095213913733197e-13 1.0520188356156105e-13 -8.634158011033919e-10 2.4889488385859643e-10 3.4279018162404204e-10
1027 3.393856904607409e-13 4.203687812349557e-13 7.81667762295394e-14 3.946056713336963e-10 -1.3584129112763988e-09 -4.942078930707256e-10
1028 -4.644694808391852e-13 -5.260816811256995e-13 3.0715493383833806e-12 7.183619070386606e-10 9.384779817274657e-10 1.223518754017761e-09
1029 1.1681473637137742e-12 -1.1761725399605795e-12 -2.36035120185868e-12 1.0980314462689818e-10 -2.543037518117645e-09 2.276499844929404e-09
1030 -1.183497737122321e-13 -2.9868875153323424e-13 -8.387036447248737e-13 9.912521649395578e-11 3.400048574967327e-10 -4.6204939086749584e-10
1031 2.7105954963038966e-13 -2.707526711853386e-13 1.745397622458826e-12 2.1869348345587473e-09 -1.6106123056341784e-09 1.0585692983886275e-09
1032 -8.701439235027057e-14 2.7043153308309824e-13 -1.2794154433066e-12 2.410307746860345e-10 -1.106078468740087e-09 4.765560510579089e-10
1033 -5.175692680006499e-13 -2.1679576458566412e-12 2.0982514202634097e-13 7.442307483552901e-10 1.1523729418389715e-09 6.478552021516541e-10
1034 1.142587305014143e-13 -2.167267492020124e-12 1.5303117708600741e-12 3.643354151397208e-10 -1.3087211773812244e-09 -9.951655538222594e-10
1035 3.9460537604062585e-13 -2.708487739918815e-13 1.7287834092658373e-12 1.35043413927033e-09 5.191049984136434e-10 -4.986003302625086e-10
1036 -1.4959857978020183e-12 4.034658513297372e-14 7.364165493086774e-14 -1.0013976923689838e-09 1.0601262946347787e-09 3.071383005813518e-10
1037 -2.306668400294924e-13 -4.398392270642017e-13 -4.875600548229825e-13 -9.756008019730076e-10 6.302007711938924e-09 3.0113891777624967e-09
1038 -1.0809855502077719e-12 2.651576918092118e-13 -5.617123339187644e-13 -7.188474765545864e-10 -9.479052894309562e-10 5.667597281898296e-10
1039 -8.784524442734839e-13 -1.084235979717588e-12 -1.7814920112589315e-12 -2.105040443688435e-09 -5.385921329092911e-10 -1.5254767088974086e-09
1040 -1.0841708777160715e-12 -7.414288161513568e-13 -2.8066955260185516e-13 1.2716770214566974e-09 -4.4045746837895223e-10 3.5335547932760446e-10
1041 -3.275333009882439e-15 -8.550114106151685e-13 2.253393463611324e-12 9.921933073864105e-10 9.098206483747906e-11 -5.9873401027572e-10
1042 2.1657359268219502e-12 -2.1660097927169605e-12 2.9771871783275963e-12 -1.3347717723188939e-09 -3.545033789225342e-09 1.0970129324379814e-09
1043 -8.646742150301626e-13 1.1195786896675668e-13 -8.721737806814616e-13 3.98841869997328e-10 2.021361530971214e-09 -1.1978363847431956e-09
1044 5.412885252722552e-13 -1.4781940732618269e-12 -1.5445301991400427e-13 -6.99847765050138e-09 1.132034484888387e-09 -3.128456357708542e-09
1045 1.4158741486770162e-12 -7.102156596919419e-13 4.141914516324523e-12 6.826651903064078e-10 2.7449136472273523e-09 9.256842460505113e-10
1046 -4.461562136936128e-13 1.8552206440011258e-13 -3.2115968718592077e-12 5.887581201032381e-10 -3.0945254491051724e-09 2.2660467935374944e-10
1047 2.764905424233053e-13 -3.923350402909417e-13 2.9026358197321732e-12 1.5746258650104925e-10 5.216269232065942e-10 1.528267216027901e-11
1048 2.453702201814068e-13 6.98047447327345e-14 7.406491214335656e-13 -2.051197000123217e-09 -2.5383313863641562e-09 -6.612042647603787e-10
1049 -2.168154542024832e-12 -2.0877650411977834e-13 -1.3033304146485177e-12 5.416175821711381e-10 1.3047673244566732e-09 -7.367159429257653e-10
1050 7.082269070497082e-13 1.1626993819753727e-12 7.909566202651205e-13 6.385089231173855e-10 -7.735521402242014e-10 1.0653808945470486e-10
1051 -1.6979503083887092e-13 3.11605459267622e-13 -4.287070692060615e-13 1.4353538600636836e-09 -1.205042544582624e-09 -1.1705664785887667e-09
1052 -1.4123811888237903e-13 -9.577368223193624e-13 -1.323003363708692e-12 -2.771445622987848e-10 -1.276265821242872e-09 1.6206572278614032e-09
1053 -1.6150471045384523e-12 4.929841476268585e-13 2.3877186936380266e-12 -3.843014113835373e-09 8.58511921559441e-10 -1.7040521281165103e-09
1054 -3.838049013719916e-13 -1.0831831768178795e-12 1.4039049885096939e-12 -8.297855787641279e-10 -2.150559934260666e-09 -3.2870681472247834e-10
1055 6.429775250339921e-14 -1.908758045958838e-12 -2.1957360662890075e-13 3.2019021861699223e-10 -9.43616506943618e-10 1.9215415341961155e-10
1056 6.178406093317115e-13 -8.920091065078115e-13 -3.5857426181861315e-12 2.819955325161654e-09 4.5594482029959344e-10 1.7373243203102245e-09
1057 1.095319707712732e-12 5.521708865828971e-13 1.6779036386663958e-12 2.6193480686781562e-09 -4.681929454001355e-10 -3.9035620843321343e-10
1058 1.0835880405449372e-12 4.837589229851995e-15 -1.211773039134747e-12 -6.580128122324721e-09 3.525882111457231e-09 2.2671437927303427e-09
1059 -1.354590560192998e-13 5.561167725462492e-13 -3.666626797763129e-12 -3.8329371855535315e-09 6.7064543198300114e-09 4.6562022210332e-09
1060 1.356737177304493e-13 -2.1010986834797835e-12 -2.0124473073525278e-12 8.980117067617981e-10 -2.914089387440036e-09 -1.5866707114407111e-09
1061 -7.561849685251653e-13 -1.1840009129698421e-12 3.8179924186868596e-12 -2.303725926668635e-09 6.450214429565188e-11 -1.3693845052020113e-09
1062 -1.0331213586983138e-12 -1.5575579780302082e-13 1.332488359620182e-13 9.111520098460802e-11 1.1271149545784755e-10 4.378190032189381e-10
1063 5.58733362190696e-13 -1.4546010488278032e-12 -8.473032674420231e-13 1.2972926458481496e-12 2.8617794476818216e-09 -1.328167582524743e-09
1064 -5.416308368375256e-13 -2.0384730909195974e-12 1.098068738372212e-12 4.401089071295684e-09 2.6688474481825584e-09 8.965427755190974e-10
1065 1.0767793153582963e-12 -1.703849558609359e-13 9.577068673892614e-13 1.0783940467385037e-09 1.6113710641057905e-09 1.0352900379372705e-09
1066 2.197705948672552e-13 -2.16813008740155e-12 4.090428924779386e-12 3.536545634140642e-10 2.5626686079529302e-09 1.9176375138199563e-09
1067 -4.434321745253167e-13 -2.132765426691401e-12 2.1986878301286973e-12 -1.6147153189986523e-10 -4.723065239875106e-09 -1.946650064760152e-09
1068 -8.105957598912573e-13 -4.328764518683697e-13 1.3870803286164582e-12 -5.155117339941652e-10 8.194137256760354e-10 1.5786310672602074e-09
1069 1.1243839952727945e-12 -2.691092101916522e-13 -1.6297630437801663e-12 3.108153542689236e-09 -1.5863475770389496e-09 9.713824894955764e-12
1070 1.979441805090451e-12 -1.823377514320502e-12 -1.290022178061307e-13 -1.447099387844172e-09 2.483706950146869e-09 6.232383779020503e-10
1071 2.1555362342983726e-12 -6.24436906963746e-13 7.350148174062164e-13 -3.3999045292737283e-09 7.494358859786771e-09 -2.894462329038435e-09
1072 -6.550263528278559e-14 8.950755544088621e-14 -1.1464832211956514e-12 2.0863395785041107e-09 2.543592814054813e-09 7.167135404259658e-10
1073 3.2330499506695045e-13 -3.4403111796563713e-13 1.986924867233684e-12 -5.35132634306767e-11 -7.023432193338659e-11 -2.6365311647261143e-10
1074 -5.418955890171447e-13 -9.838692483981638e-13 1.2323418227861935e-12 1.1805164542261105e-09 2.0653125979768227e-09 3.6661014923111663e-10
1075 -5.400169711528275e-13 -1.077675535036111e-12 2.901071821097141e-12 -1.959597989301376e-09 9.273367886988326e-10 7.826063210219305e-10
1076 5.721365694862188e-13 4.605271249911446e-13 -9.582384749820851e-14 -4.504370354825005e-10 -3.9400229750979215e-10 4.441937563980157e-10
1077 8.669839464565811e-13 2.1683404892983576e-12 -1.6941072047339061e-12 4.370198543479038e-09 -2.7684437742141337e-09 -1.0826795273105484e-09
1078 -2.710496958738916e-13 -5.820587981499647e-13 2.6070557631869793e-13 3.471779908440312e-09 3.192870184770898e-09 -2.138165760905329e-10
1079 9.884347804263329e-13 4.145207319978805e-14 -4.170588863710019e-12 -2.47311429682188e-09 -4.969432157829935e-10 -6.794185099808293e-10
1080 8.277103365936791e-13 -1.1132033840467699e-14 -3.3085766800826843e-13 7.705035684126491e-10 9.889433057497588e-10 9.661150387971423e-10
1081 -7.781206263999435e-13 -4.862960940886279e-13 1.588220660608582e-13 4.2164497642332253e-10 2.254923892908765e-09 -1.192727219137014e-09
1082 2.0437119829278176e-12 2.3833135579489423e-13 -8.473331494901942e-13 -4.555386854240843e-10 8.108073080595335e-10 5.378207353863266e-10
1083 2.16671795467094e-12 -8.491319464154359e-14 -6.567475998254376e-13 1.0414223055526656e-09 8.076643072027441e-10 7.404751592796741e-11
1084 -5.178478321101872e-13 -1.0841207726584507e-12 3.3199454133370906e-12 8.517761150421618e-10 5.844322007198662e-09 7.426927642779274e-10
1085 1.3509649862215098e-13 4.754946007663653e-13 -6.371606688089656e-14 -1.973976115547836e-09 -2.8994306455174268e-09 2.452387275804049e-09
1086 -1.2915114074946475e-12 1.08369513876228e-12 5.032387321645827e-12 -5.21987777294614e-09 -3.7298461832391535e-09 -1.9292545105337033e-09
1087 1.2816899786379324e-12 7.855900735768563e-13 7.050901702263344e-13 2.4750753195782806e-10 -1.4600881885228534e-09 1.8030611428022605e-09
1088 6.838317322138247e-13 3.002406799397773e-13 1.5431413595360936e-13 3.539175439718254e-10 1.0895497657530012e-10 -7.26530768767665e-10
1089 -4.639302807366046e-13 -1.2101026473771183e-12 5.4204627196243475e-12 -9.8383133486627e-10 -1.5116092135476225e-09 -1.3757047237031073e-09
1090 -2.7097864297477505e-13 -1.8126211894069455e-13 -9.015736704000337e-13 2.634501850962313e-09 7.352237315116222e-10 -2.1502048834089746e-10
1091 -6.228293451495948e-13 -2.0886377906547847e-13 -3.618264366616621e-13 2.9096813681910506e-09 1.1677773357772308e-09 -2.1442848655556432e-10
1092 -1.6830900648968345e-12 -2.1658269808658977e-12 4.107988976862038e-12 6.828677717087882e-10 -1.522066219737049e-09 -1.5249884443829284e-09
1093 -1.0840745249173627e-12 1.0841568142646362e-12 2.713197988241423e-12 5.911650981044534e-10 -5.3668140317662e-10 -1.7206037818302297e-09
1094 1.4774574189837152e-12 -6.198167250087276e-13 1.712862651422843e-12 1.5575028407557767e-10 6.747256628512524e-10 1.2510312291429058e-11
1095 1.4707897278925044e-13 -1.084165981122865e-12 4.047288244430789e-12 2.0533186909180905e-09 2.902217619584625e-09 6.045058038535515e-10
1096 5.421083055462556e-13 -3.0061421409579687e-12 -2.83771809858881e-12 1.9641871351491598e-08 -2.3636147350269007e-09 -1.2619758243670335e-09
1097 -1.6168870340861855e-12 -9.786148060758271e-13 4.740104590328884e-13 -1.8761854273286525e-09 -1.9461327518887915e-09 9.426966245537132e-11
1098 -5.419167610488764e-13 -6.837526123730092e-13 2.39975405004343e-12 6.615996750932983e-10 5.574952185579656e-09 3.6500903798119485e-09
1099 9.518443659761064e-13 -2.7090601275274707e-13 6.840998713739582e-13 7.229848921822207e-10 -1.0870908333904853e-09 1.552432526625728e-10
1100 -2.3566244742371284e-13 1.2652016908351212e-12 -1.1442521340110565e-12 -1.055526978163812e-09 -7.75900857570976e-10 -5.596174355831527e-10
1101 2.615504120862459e-14 -2.1669487894518937e-12 4.840775870589653e-13 -1.4947672941877846e-10 -1.7493976282835108e-11 7.536346882205074e-10
1102 -1.9901572052067418e-13 -9.832094693441012e-13 -3.5883816276161355e-13 -1.4377528327238234e-09 -1.0377364160818882e-09 9.748007743631032e-10
1103 2.7119353789121114e-13 -1.60547401710491e-12 5.81698583189644e-12 -1.5223281135918191e-09 -3.8221500409077634e-10 2.146128179757984e-09
1104 -1.0837122577015729e-12 6.18561911720238e-14 1.7284486159721597e-12 5.277740605816633e-10 -2.9455296730436626e-09 -6.187405658328637e-10
1105 1.253152456833093e-13 -5.420029226824834e-13 8.146481214405483e-14 1.9604779015312017e-10 -2.4248058385256975e-09 -2.3135857013146757e-10
1106 -1.0839771557660613e-12 -4.2044509899335814e-13 5.453120714898854e-13 -2.759406930621947e-09 1.0176243202046952e-09 8.728908414471992e-10
1107 -9.64668860425851e-13 -2.0482108992634917e-13 2.164308308255032e-12 1.2046757765206542e-09 -1.1247879915523582e-09 2.0350122197257321e-10
1108 1.083175011683402e-12 -9.673214370274036e-13 1.8033281272936527e-13 1.1113358751361818e-09 -3.2092637286604273e-09 7.466350691894176e-10
1109 2.4976503116021517e-13 2.1664817193361215e-12 -1.9672913836137453e-12 -1.9744752678731352e-09 -8.492605784355141e-10 2.1287171198297866e-09
1110 -2.1370786034858298e-13 2.682990773309294e-13 3.4712390526059244e-14 -1.4202171899087496e-10 2.0718703307814822e-10 -9.72911110258981e-10
1111 9.021981641609934e-13 -4.681110188330547e-13 -2.539068104616368e-12 1.6954829229320176e-09 -8.970495827596249e-10 -1.304035962295967e-10
1112 -1.0841599311523322e-12 1.0821471547355227e-14 2.829868995103709e-13 1.2549244140786635e-09 1.4435126773241667e-10 3.973802210217419e-11
1113 -3.6404360510976105e-13 1.5895609082348381e-12 2.769926342429157e-13 9.697510545712493e-10 6.523998599503603e-10 -3.5264773669318817e-09
1114 5.651890389104314e-14 -5.419861414342813e-13 2.999317258825874e-12 5.212405221385315e-10 6.003257307097799e-10 -1.0044579679632917e-10
1115 1.3275878294879884e-13 -1.0832807729752673e-12 1.915255368791199e-12 2.0608127405694434e-09 3.0903308242056385e-09 4.0472510592211367e-10
1116 -1.6942201022916365e-12 -1.2418337696541822e-12 1.2106183857392403e-12 -1.976471663014092e-09 -8.939109157560096e-11 -7.710863759499446e-10
1117 1.8190028711781e-13 1.0758002998608675e-12 -1.5006964284221074e-12 -2.0141593744066317e-09 -1.219086535834703e-09 -1.315255061902408e-09
1118 -9.003968973744472e-13 -2.1684845262124487e-12 8.41045662291104e-13 -1.5551916914999634e-09 2.057928623082776e-09 -1.8385796395447236e-09
1119 1.0840031364471483e-12 -1.0842179439678024e-12 -6.47208632102615e-12 1.7172151095387913e-09 3.933631429349696e-09 1.421782369520963e-09
1120 -8.98594259189526e-13 -1.6165134377621152e-12 -1.9385731586891822e-12 1.394133096764063e-09 -3.023999442501906e-09 -3.682401156623504e-10
1121 1.992148602883232e-12 5.420452136433317e-13 4.695534861727786e-13 -8.590240281877524e-10 6.304723732006095e-10 9.353936752570813e-11
1122 9.974817670341212e-13 -5.420443534437227e-13 2.93319132543583e-13 -1.2165349693634917e-09 -9.80138859794182e-10 4.709949068949299e-11
1123 2.167270327097302e-12 1.0829987438951534e-12 1.1562903058825017e-12 -7.445946857079847e-10 -1.1348470324161082e-09 2.165537602272518e-10
1124 -2.710337977600525e-13 -6.495465609927478e-13 4.934603910587444e-13 -2.000021320812988e-09 -1.7410764277883747e-10 1.2239391386240143e-09
1125 -7.440084438506392e-13 -1.4146527520265021e-13 -7.51124149016793e-13 -6.47719683091344e-10 -1.0914665934560078e-09 -3.923233072172321e-11
1126 1.4396670832727975e-12 -1.0833257339808669e-12 2.501437540824319e-12 -2.472972217615512e-09 -1.0427758660005871e-09 -1.0525810791998305e-10
1127 -4.736194843464371e-13 1.897268336455404e-15 2.8804538577927847e-12 -4.579722092939731e-10 -1.6092436980339336e-09 3.041133718726702e-09
1128 5.417008027067126e-13 -1.8154056457257776e-12 2.264118978364736e-12 7.1953711214297e-10 3.5138246119582625e-10 -4.0786029305194013e-10
1129 -1.5230032788665043e-12 7.769900451419665e-13 -2.6382026710245297e-12 -4.393869695102207e-09 6.811195404387699e-09 1.5404427475261412e-09
1130 -2.7081428106299446e-13 3.729503050883078e-13 2.1333103613323196e-12 9.80956786093498e-10 3.262560116490745e-11 -5.86939666474565e-10
1131 -9.817345589028507e-13 5.414514978100139e-13 4.425894689599914e-12 5.146555017127071e-09 -1.413923042302981e-09 -4.987331984660909e-09
1132 5.896628007339987e-13 -1.2513726987705158e-13 -1.050577830559359e-12 -2.256162932324593e-09 -1.218391101549388e-09 -1.3954856237168296e-09
1133 1.0842330663609207e-12 -2.710429783194256e-13 1.3214096786821942e-12 1.860577167726569e-10 -5.207710595744998e-10 7.607396174677706e-10
1134 -1.7871473355461927e-12 -1.94018763684184e-12 1.5083737592922676e-12 -1.2693499715869653e-09 1.4274861687949642e-09 7.859683082848183e-10
1135 -8.826871454344236e-13 8.920383382775916e-14 -1.3130504596503018e-12 -1.4584632786786e-09 -1.6516332518852433e-09 -4.348548129588953e-10
1136 2.16606926964134e-12 -1.970682755166835e-13 9.465460891116655e-13 1.1464343352762057e-09 9.948668515693239e-10 -2.60750253173079e-10
1137 1.3634057256775135e-13 -3.981735250488044e-13 2.649526262986387e-12 5.479717844498042e-10 3.97009807237188e-11 -1.5758248203119098e-10
1138 -5.047267454972818e-13 -2.4290676361334665e-13 2.8049554037829748e-12 6.712296256188233e-10 6.01423057170375e-11 -6.354393754046672e-10
1139 2.1683631188473503e-12 1.0831801468932327e-12 -1.3853058695764788e-13 -1.5851719355960375e-09 3.7163867168472322e-09 -6.044193500035429e-09
1140 1.110256716511538e-12 -1.1653534527827633e-13 -1.1194145530843115e-12 8.518615992878452e-10 1.1300401203231454e-09 6.999427502353235e-10
1141 -3.0768226059564045e-12 8.130945718210661e-13 2.7815773673541358e-12 1.6184837587392402e-09 9.086821088581042e-10 -1.5495805362947947e-11
1142 -1.394251333825383e-14 -5.415540064571362e-13 1.846047137950799e-12 -1.5207672264983267e-09 -6.90072840373622e-10 -8.215784767087215e-10
1143 -1.0840744786694512e-12 -7.110911006687338e-14 2.8897458841449017e-13 1.7031848779323662e-09 5.388975287929697e-10 -6.532226505924839e-10
1144 4.210596079468383e-13 -1.3080455688978645e-12 -3.5044546368477375e-13 1.1145901348178036e-09 -2.741005838156473e-09 1.4204205483220203e-10
1145 -1.0839145221683158e-12 7.110865572907858e-13 -5.282352153887694e-13 7.290096686951122e-09 -1.508785319653003e-09 -2.321681487742896e-10
1146 -1.343851853883525e-13 1.1651395990650581e-12 -2.489113787327843e-13 -2.5672607796678757e-09 3.4786478294707974e-09 8.543952074559642e-10
1147 1.0839251603715502e-12 -9.917446888324951e-13 -1.1265176274248317e-12 1.4152114988320266e-10 -2.531217179194707e-09 1.729314452424283e-09
1148 -1.977453589198991e-12 -1.011927291671176e-12 -5.4966243140959575e-12 -2.410820520729085e-09 6.09845777436495e-09 7.70611768587504e-10
1149 1.0996284697255935e-12 -7.022007563430338e-13 7.947132438090091e-13 6.23461317467364e-10 -1.7645301201677037e-09 -2.1438604985969286e-09
1150 -2.517860817706454e-13 -3.8569702408838085e-14 -9.006707389108416e-13 -2.3059098078235352e-10 -1.1253093753782777e-09 9.949328180268538e-11
1151 2.708463282627786e-13 -2.8695712943634136e-13 2.7267993402202946e-12 -1.8882463182157682e-09 1.1060612113221928e-09 -6.217804929921868e-10
1152 2.0923545699589698e-12 -9.035006595952212e-14 -2.583909348111762e-12 4.083848149520971e-09 9.817685635544894e-10 1.5199876980903278e-09
1153 5.496400721485069e-13 -4.821540010729887e-13 -2.4243096063195423e-12 -2.835988835680957e-10 3.2858686153319886e-09 -3.8111193026902995e-10
1154 5.126849809075955e-13 2.581979473705752e-14 -1.6716002069465404e-12 -1.2455574832365435e-12 2.1734462152682393e-09 -1.061021807505324e-10
1155 3.550417752186245e-13 -6.330290267776016e-14 1.9516785944272596e-12 -2.580834220274131e-10 2.8143947975341376e-10 3.536713289639612e-10
1156 -5.424848292536205e-13 1.5378227210935262e-12 1.057192433954544e-12 -1.1115941911297758e-09 7.74159489976712e-10 -1.1518839421470829e-09
1157 -7.297458323536555e-13 8.05025395982133e-13 4.5298670214993247e-13 -2.9841612374717616e-09 -2.4028897100235866e-09 1.3534789930649552e-09
1158 -2.71242021129735e-13 -3.9910218692463327e-13 -1.4899985287502863e-12 -7.862809623366163e-10 -3.2397051397075347e-10 3.3536354463758905e-10
1159 5.443167587173767e-13 -1.1128253564232874e-12 6.729262821747424e-12 -8.361332782965415e-11 2.4755216851501987e-09 2.1302154462373683e-09
1160 -3.2001033403003725e-15 6.008183057486866e-13 -6.382346939484844e-13 -9.19521550384351e-10 -1.1251959192533012e-09 1.4723899157010048e-09
1161 -3.3448823595440046e-14 -5.054912751875197e-13 2.400725385271849e-13 -1.0287784545244287e-09 2.3505378639639136e-09 -3.2569722102305806e-10
1162 5.417995106112573e-13 -1.0820861705206973e-12 4.156355040131399e-12 -2.7562128264089074e-09 -1.4594673988155135e-09 -3.049758026178708e-10
1163 2.698942466605556e-13 -5.42088106605621e-13 1.98148767787437e-12 1.0016623206632825e-10 -8.345362978370489e-10 1.2896070009080552e-09
1164 2.281937707023751e-13 -1.2483479046945295e-12 3.8975885952484353e-13 -8.740450669250052e-10 1.7787600981950266e-09 -7.710174117312776e-10
1165 -1.0841804743188642e-12 -1.3485529034193962e-13 3.1010940383316533e-12 -8.389442191216527e-10 1.1158798213459774e-09 -1.2166628018112611e-09
1166 -9.150040555569994e-14 -1.3584131007481486e-12 -3.8900069550960194e-13 2.6036010348241947e-10 -1.3107423142430735e-09 1.0024283085269379e-09
1167 1.1281907973125294e-13 1.3532728541193654e-13 3.145047619471121e-13 7.955626512384352e-10 -7.208920561875083e-10 -9.436393380988133e-10
1168 -6.397577397010091e-13 -1.068438700867073e-12 9.523740721877974e-13 -3.2049996440142228e-09 3.974046739497703e-09 -1.3095763368597703e-09
1169 -2.7089299402923104e-13 -1.0841416389329945e-12 1.3676508612499995e-12 -3.0278883678428275e-09 -4.18822726942037e-10 3.7544067557478853e-10
1170 -5.77802383837775e-13 -8.817875225112917e-13 -4.504466723195738e-13 -1.3277704859319158e-09 6.451075980335315e-10 1.2578149035854362e-09
1171 3.398475821344938e-13 -1.0839503437475086e-12 9.81415189650851e-13 4.935233897285074e-10 1.2158535870857213e-09 3.80307550224712e-10
1172 5.419998623492042e-13 -4.0650816736914895e-13 2.2656975392398316e-12 2.837620545258863e-12 1.093267705275037e-10 2.7334093941891705e-10
1173 7.53936806313182e-13 -1.0841965712455241e-12 1.3792316941003495e-12 5.761293308919422e-10 -1.4134283646839496e-10 1.1560593744519026e-10
1174 -2.0528916672237476e-13 -1.4395585081797721e-12 1.9095868963595644e-12 3.1894374047937773e-09 -1.7645473725278831e-09 -3.6616129839281655e-09
1175 6.752961717700196e-14 -1.792694180997196e-13 -1.6178960708415261e-13 1.0338737552434067e-09 1.3970101727646645e-09 1.3013569972032296e-09
1176 4.995026720903855e-13 -2.1673680878106923e-12 3.556157816122413e-13 8.95629239278665e-11 -8.496168548950772e-10 -7.362517116941232e-10
1177 -5.65510630968029e-13 1.5286590828269434e-13 -4.244484797338211e-12 4.846937038853499e-10 2.1919399106296305e-10 3.7647852296243705e-09
1178 5.418469812215852e-13 5.421925697099249e-13 1.0662121661889537e-12 -8.632018648891303e-10 1.1088096975119895e-09 7.051531015681529e-10
1179 -1.0839997901871066e-12 -1.0836073551332663e-12 2.3926894521887313e-12 -3.382061793057881e-09 -5.936752900889682e-09 -3.4226680493152773e-10
1180 1.0836776136953563e-12 1.5395163200934924e-12 -2.8077802589292e-12 1.5457372766480604e-10 -1.5286926370626579e-09 -5.881161705691183e-10
1181 5.327898805906878e-13 2.7096442977645814e-13 3.3489031832926696e-12 -6.16342716824724e-10 -1.93013424117896e-10 3.3144370800540303e-10
1182 2.7083575665562224e-13 2.3580910935935003e-13 -2.7089927724096816e-12 -1.0517239320779008e-09 1.2704246897349426e-09 -4.70432966877684e-10
1183 5.420445443225652e-13 -9.64457294229146e-13 3.606272018377729e-12 -3.87685473315283e-09 5.456507923918437e-10 -6.381588955155136e-10
1184 2.0095788952817217e-13 8.155755113749805e-13 -1.4289068834716868e-13 5.736933067063941e-10 -7.510189584104885e-10 9.353036513699265e-10
1185 -8.069601369849856e-13 -9.051226591949744e-14 -6.938559853487603e-13 5.167016802574995e-10 4.5697606555719497e-10 2.1761169148718706e-10
1186 7.447993217480052e-14 -1.0841132980845124e-12 4.970079178579922e-12 1.920386374230101e-09 1.6281468753762266e-09 5.939728536933571e-10
1187 -3.344433258295609e-13 6.16307548848631e-13 1.375972722167985e-12 2.889843231263821e-10 1.6331850300374316e-09 1.017113093555722e-09
1188 1.381750688740178e-13 1.924128893445756e-12 1.835621994737807e-12 4.768397122505882e-09 -1.2977662778980444e-10 -1.340176270389905e-09
1189 -3.825196613369076e-14 -5.190118889627495e-13 2.4794718176581145e-12 -2.948669055275345e-09 -2.747668666361241e-09 -8.837573138056175e-11
1190 1.6355095553614007e-12 -1.9759144806960436e-12 1.1198137947494057e-12 3.134932617398583e-10 -2.223709215306735e-09 -2.9373997569386485e-10
1191 -4.60382028622137e-14 1.5136212191630624e-14 1.008942010058985e-12 5.740947826390755e-10 1.0177144219131499e-09 7.111795562931201e-10
1192 -2.166635672068625e-12 5.410657554135785e-13 -2.334385337011476e-12 -6.708984936429725e-11 -3.666632488178398e-10 1.3519893852974528e-09
1193 6.002444832925459e-14 -2.167644329360299e-12 3.5858998493978107e-12 -5.340536406267353e-10 2.759262994326794e-09 -2.099224596904479e-09
1194 1.360200588228902e-13 -4.202629031032371e-13 -4.4854235303115617e-13 -3.444467464467175e-10 4.649863019928958e-10 -2.726347538270786e-10
1195 -1.0841939439976385e-12 -1.0841991753252622e-12 1.984716028489163e-12 -9.609914187409469e-10 -6.96004792364126e-10 1.2147768305732256e-09
1196 5.416990301485019e-13 -1.1441518873579503e-12 1.277899296297027e-13 6.545003910395487e-10 1.4270599540740986e-09 -8.72935807007632e-10
1197 -1.083696090718637e-12 -1.0833883735103626e-12 3.069021428470539e-12 2.7432797012912545e-09 -1.187146511053265e-09 1.186000659353194e-10
1198 5.376190170410694e-13 -2.2207630081943492e-13 2.747266666287665e-13 1.3083603115527855e-10 7.158267199862583e-10 -4.1830543636097335e-10
1199 1.2861342877758368e-12 1.9897660206869887e-13 1.0769440317919489e-12 -9.3526042892649e-10 1.924460128588789e-09 -9.062269576170744e-10
1200 -6.784716137756441e-13 -1.4164858015033337e-12 -5.229049816468111e-13 -2.1439451633244212e-13 -1.2431558398751914e-09 2.3378328349709363e-10
1201 3.0886918767441476e-13 -1.0321819916092765e-12 2.419622394446671e-12 2.5718352983819733e-09 -8.526199468492576e-11 2.5709501336221955e-10
1202 1.4272148497689347e-13 7.313164423237655e-13 -9.630637867646964e-14 -2.993395823621544e-10 -5.7301940476550235e-12 -8.606903603311667e-10
1203 -2.1674007362001518e-12 -2.0872449538314363e-13 -7.573918792533223e-13 4.9081742304916174e-11 1.0597358240840348e-09 9.088761337045371e-10
1204 -1.0826681382017113e-12 5.764830149717239e-13 -1.650532685889358e-12 -3.5750516827933025e-10 -3.25232178028462e-09 8.487129998916074e-10
1205 -1.7872874742128362e-13 8.150926469278626e-14 6.335280778018145e-13 -1.0167637952159716e-09 8.010501286686893e-10 1.710041217677408e-10
1206 -8.930834552764859e-13 2.167275860532128e-12 1.4078089730546584e-14 -5.404572438263197e-09 -2.285961265997476e-09 -2.209799605436071e-09
1207 9.058854131487184e-13 -9.46999648823135e-13 2.0624345810736285e-12 -6.509827496164767e-10 4.4791964545874664e-09 1.5234952694325915e-09
1208 -6.259573822177993e-13 1.6578698787115108e-12 5.189104621544702e-13 -8.803142918023632e-10 -2.5040084231382313e-09 1.801663740464617e-09
1209 -1.459332531905304e-12 -1.3449039887711218e-13 -1.4170619122695025e-12 -3.120502056500614e-11 1.7083829479316638e-09 -2.7570755684727824e-10
1210 1.0660652659851597e-12 8.522634535936247e-13 2.070027090381168e-12 -6.489460391085846e-09 -2.506956664123293e-10 -9.92828643697363e-10
1211 1.0840601461034658e-12 -1.0838297305520697e-12 2.4056106629177192e-12 2.7936968913311987e-09 -5.050967907137468e-09 -1.2475864405186227e-10
1212 -5.383224651903004e-13 -7.918272823935822e-13 4.646235427716896e-13 1.04181019979151e-09 -1.8088205535846899e-09 8.11180536905683e-10
1213 -1.0541526801034156e-12 2.7041635241245397e-13 9.673577762556537e-13 -1.3731453824544796e-09 -1.1337558089418368e-09 3.494352368169778e-10
1214 1.0841331194206647e-12 -9.151990018907226e-13 -3.9706945242226986e-13 -2.180418661037576e-10 -2.0295518918156447e-09 2.4205591456362577e-10
1215 -1.0479320828404183e-12 -1.7745404215989151e-12 2.295738357860378e-13 3.431160029446667e-09 2.5391270953297056e-09 1.5125362080422495e-09
1216 1.522977562618924e-14 1.202612847736589e-12 9.622992443944497e-15 -1.576883195830807e-10 1.2898270900101095e-10 -1.0932537693004994e-09
1217 7.974991442140604e-13 -9.021432693948939e-13 3.0894582080060237e-13 1.0367218765520486e-09 5.607477073501307e-11 6.580963942325502e-10
1218 -5.00191098085665e-13 -2.709114231222716e-13 1.900238051583971e-12 4.356251297751486e-10 -1.0055318467769756e-09 -5.803505946897834e-10
1219 5.077499610670975e-13 -1.0816276226881178e-12 -1.1321836058179952e-12 3.010177722382589e-09 4.610688461666304e-11 -9.27774289780253e-10
1220 -5.418262598669146e-13 1.5034766128652796e-13 -6.429596350166241e-13 -9.088680145366277e-10 -4.285820788607352e-10 7.067779116438407e-10
1221 6.329562708592429e-13 -4.972699272668158e-13 -3.598675848565298e-13 2.4265019792827787e-10 2.518834713164831e-10 1.7400215161505206e-10
1222 1.556955100782721e-12 -5.420986455785226e-13 7.311311490018324e-13 -5.33555866146471e-10 6.517677573845042e-10 1.984740333758357e-10
1223 4.224489515185258e-13 -2.092320218833634e-12 1.7349989504379065e-12 -1.5917358141440757e-09 -6.145802652830332e-09 -8.574890340604995e-10
1224 -2.702280671341375e-13 4.931742347340488e-13 3.099317529266926e-12 2.907270694904532e-10 -7.270776468518368e-10 -3.3234749113587225e-10
1225 -2.1641414139202195e-12 -3.468265799143182e-13 -9.4595064363374e-13 -7.304701238315636e-10 1.1111466945631296e-09 2.755904774635965e-12
1226 -5.768874839377942e-14 -1.505194475490413e-12 -1.1381419708682518e-12 1.4788319064778407e-09 1.4042743098263445e-09 1.1988649700706485e-10
1227 1.5872423035479706e-13 -5.421036741568713e-13 2.5209747950199622e-12 -7.514710653258421e-10 -2.299862534448274e-09 -1.559842520584167e-09
1228 -2.7114198025517983e-13 -2.7098901399594647e-13 1.8185517476344997e-12 2.209069620181055e-09 -9.018936402822655e-10 -2.368905272584252e-09
1229 3.6915642618862423e-13 -1.9680422629279766e-12 -7.82374944187859e-13 2.350112848060856e-09 9.021571705816399e-10 -1.4313817715983036e-10
1230 9.006655101749771e-13 4.4287756455376797e-13 1.834854087472179e-12 2.9819951590371727e-09 -3.744380680782092e-09 9.479187034402048e-10
1231 1.4957486060451001e-13 -5.220550434688501e-13 -1.7924743693624562e-13 -1.2512912066394672e-10 1.1604671166595546e-09 1.9121231410648446e-09
1232 -2.1646559612147228e-12 2.7041835432124497e-13 4.231341279047393e-12 9.361013207828028e-09 -2.940862188200049e-10 1.3844881052089636e-09
1233 -4.0993411811943625e-13 -1.5449491138479777e-12 3.3324596305812756e-13 3.271056077787799e-09 2.859741328753681e-09 -3.4662641225817164e-10
1234 2.6421520784659295e-13 1.1910470723697337e-13 3.9343356595270853e-13 -9.032871129479024e-10 4.034391749255915e-09 -8.093410163213174e-11
1235 -1.2673702943461025e-13 -7.492072278937929e-13 4.1717469315637933e-13 5.96964082418188e-10 -9.770503937879887e-11 1.3645375666758064e-10
1236 4.3619760689316946e-13 4.0522919529810746e-13 -1.263123380447781e-12 -3.100802896141577e-09 -1.918509209582426e-09 -3.9515102691241716e-09
1237 8.290901791429078e-13 1.0832546921158414e-12 1.7246797806886971e-12 4.10809953577013e-09 -3.2830249996777545e-09 -7.044670741904212e-11
1238 5.4126557028256e-13 -1.0839500719414935e-12 3.92066098757661e-13 1.985614174873938e-09 1.9032281770441925e-09 1.3270953764447339e-09
1239 5.421565421168011e-13 -1.3826757446953878e-12 7.124530746942522e-14 -6.877682546916741e-10 -2.0258502833839864e-09 1.0219474493866437e-09
1240 6.384624406547724e-13 -2.7016449971195884e-13 1.301109683636171e-12 1.953392434587691e-10 1.930782832065823e-09 1.6770772428833207e-09
1241 1.7876165204548809e-12 4.4583867584798255e-13 3.680884306644683e-12 -8.072330953878488e-09 1.402799107064856e-09 -1.3978878626541862e-09
1242 -2.2088160779298407e-13 5.056074276967999e-13 -4.547987090473808e-13 1.923349905611278e-09 6.435118753161369e-10 -7.03970506839606e-10
1243 5.133032897354401e-13 2.9551900026587613e-13 -3.2233633922949427e-12 1.580633581677145e-09 -2.3118679327915913e-09 -2.9741785060982076e-09
1244 1.945642429190102e-13 -5.419082245613283e-13 7.106275861999336e-13 -7.429042737396246e-10 -5.898712393683627e-10 1.7618064338186912e-09
1245 -6.126297420106358e-13 -4.035338016841262e-13 3.1853567228444847e-12 5.211043459728246e-09 3.023429376082366e-10 9.045337561018462e-10
1246 1.351699546366492e-13 -2.5939926700177227e-13 3.4183823813045444e-12 -1.1163371577117184e-10 -5.200489907300782e-10 1.0768803269169086e-09
1247 -2.1674742591958508e-12 -1.9963608199379754e-13 7.598556135947898e-12 1.1675062319365766e-09 2.8228243756412152e-09 5.163449452595693e-09
1248 -4.218027043737076e-13 -1.08412378544632e-12 -7.372614608736082e-12 -8.401622187012546e-09 7.136504953644632e-09 6.399831682110034e-11
1249 -1.8294964831513223e-12 -2.168328835637296e-12 -2.0354334846375786e-12 -1.483940456736434e-09 -4.33157387981747e-09 7.772551969345782e-10
1250 -2.1060497780685543e-12 1.817275164002924e-13 -1.9824881956749025e-12 1.4121664245573432e-09 -2.537031034446508e-09 -5.646549554519327e-10
1251 -6.829966995654751e-13 -1.6818886023636325e-12 5.276505865428029e-12 2.280452374735368e-10 1.0240575404270368e-09 1.0148124801372011e-10
1252 -4.0578615571896184e-13 2.7098262126500127e-13 -4.483047030642753e-13 1.057696210984032e-09 -5.143398913320232e-10 4.877314935722859e-10
1253 -9.71066935769156e-13 -9.307839692570277e-13 -9.414505086912472e-13 5.087158632768965e-09 -4.4786097022638e-09 -1.6765829078459976e-09
1254 1.0837800457247654e-12 -1.1066491659224271e-12 -6.448482180918918e-13 -4.149008763748744e-09 -2.492896177918862e-10 -3.9126644797030427e-10
1255 7.927084965532822e-13 -1.081935472144675e-12 -2.259141369151533e-12 6.321257371741497e-09 -5.393339746923022e-09 5.227437086575268e-09
1256 -4.475487377639379e-13 3.73816254292808e-13 -2.0734740609408885e-12 -2.24696252711683e-09 -2.892242734059873e-09 2.906768345065204e-10
1257 -2.1674110569704827e-12 -1.4593307515522495e-12 4.384773115736665e-12 -7.784955251530157e-10 -4.2456369733390587e-10 1.8701286352093404e-10
1258 -5.284119780115384e-13 -9.708273035023355e-13 -2.1783801236401958e-12 2.016473792459624e-09 4.372698728719926e-10 2.4641207266599135e-09
1259 -6.16008292787119e-13 -6.833555256983906e-13 9.345061640795246e-13 -7.783499963599405e-11 -1.54382395377035e-09 6.90955903600916e-10
1260 -1.0229676742069508e-12 -1.951895365164747e-12 6.175491758473823e-13 -8.273697640678036e-10 -8.617180829191136e-10 -1.4847799985015368e-09
1261 2.7108663204432546e-13 -2.1679355369773463e-12 -1.1752837559574418e-12 -2.7556488946980023e-10 -9.658507959981436e-10 -1.957039161343968e-09
1262 -3.6019169755525404e-13 -5.481834327211174e-13 -9.78253600063508e-13 3.313906209676972e-09 2.7705140977613497e-09 -4.682840444589984e-10
1263 5.417509155836004e-13 -5.420079906483491e-13 -3.1724439441909135e-13 -1.99084411312323e-09 -9.239295646865036e-10 -1.4747289576259222e-09
1264 -1.7184525598394885e-12 -1.417210710147474e-12 1.3857800668823512e-12 2.364310365952631e-09 3.710987282131249e-09 2.438034598015426e-10
1265 2.7091132412680874e-13 -5.151109907810661e-13 -3.719193871705558e-12 4.373882703687781e-10 -2.9472570055055333e-09 8.374333557807478e-10
1266 2.111906020733077e-12 -1.299680938310379e-14 -3.84003788381418e-12 -2.5079148771710147e-09 3.4411944040176135e-10 -1.6150215154619869e-09
1267 6.527872623032536e-13 -1.0839990897023162e-12 2.39803929877288e-12 2.1114656284403825e-09 -7.757982040239643e-09 -2.790235175958033e-09
1268 5.42175967695855e-13 -2.8372267622344673e-13 1.120677733872515e-12 1.8834327232794623e-09 -1.2456976905844165e-09 -1.2288324772358187e-09
1269 -2.1684030704887767e-12 1.083919343060402e-12 -7.120069332600128e-13 2.2821204703543334e-09 -1.6950781319888787e-09 1.6453743066126274e-09
1270 -5.951066991416976e-13 -1.077347680578174e-12 -1.5257633483761868e-12 -9.130952496942217e-10 2.4229137619848857e-09 7.354035086940736e-11
1271 -2.883079912269501e-13 -5.415457286006991e-13 3.1420093429113795e-13 2.979146136522935e-11 3.3234192965942032e-09 7.319274708580376e-10
1272 5.420165259496488e-13 -1.0840545020188758e-12 3.344995228733141e-12 1.5553027936914734e-09 -3.449464048617422e-09 -2.351485028407924e-10
1273 -5.419824284779321e-13 5.1154529872471396e-14 1.8661149958152396e-12 1.996685307222197e-09 -2.904381973142881e-10 1.3016493796349932e-09
1274 -1.2438755413862674e-12 -2.7097380879551927e-13 2.822488296716313e-12 -1.3599761630391248e-09 5.785486807410927e-11 -2.968955921340526e-09
1275 -5.050240736808253e-13 -1.9591669712835348e-12 1.8049707109637939e-12 7.875576469071246e-11 1.4075783648175304e-09 -1.4682250953220013e-09
1276 -1.354653894904278e-13 -1.7349193418694286e-12 6.874484411218359e-13 -8.92569936010734e-10 -2.165238986728332e-10 -4.0024529766048294e-10
1277 -9.688992435260792e-13 -3.999926159433077e-13 -1.0415599024543854e-12 -3.345664969447329e-10 -1.564695870407312e-09 -9.381134286329486e-14
1278 -3.383563887264169e-13 -7.396352961538898e-13 3.917296060914713e-12 3.2303103056336527e-10 -5.0380237297310495e-09 -3.1318403063523336e-10
1279 4.20939664943387e-14 -5.901772696496141e-13 1.8347095144777615e-12 -2.3642157283485406e-10 -2.3955193749800064e-09 4.946387305480581e-10
1280 4.7786642298659895e-14 2.9981378498758003e-13 2.600018398461327e-13 2.846906051235749e-09 2.6099670588954955e-09 -7.17597635921858e-10
1281 -2.710523956077767e-13 8.345319700917764e-13 1.0376722801981181e-12 1.575753834469305e-09 -2.1358691724431596e-09 2.1774483706266915e-10
1282 5.415121234705163e-13 -1.948034667912033e-12 -2.7090013349640232e-12 -2.5236458280473886e-10 -3.518084325615934e-10 6.361202135466289e-10
1283 -4.8637992862944496e-14 -1.4918765599398915e-12 -1.1793680202948379e-12 -1.5740443463586505e-09 -1.2040690130249733e-10 3.3599251534776394e-13
1284 -1.6621495421999605e-12 -5.42099295918001e-13 3.677389861762797e-13 3.0331204090674245e-09 -2.0242851262755403e-10 1.1326532649856356e-09
1285 1.0467188078265902e-13 -1.5737957752705527e-12 -4.4345718199793736e-12 -7.406585795622346e-10 2.487169404466257e-09 6.188594830454438e-10
1286 -9.440918939132296e-14 -1.3491260299043696e-13 5.940507598275583e-13 -1.5148155480019857e-09 2.5274731343901695e-09 1.0080312278650488e-10
1287 -8.331533544005559e-13 -2.7171914013796943e-13 2.467790309712932e-12 -2.0913514284784933e-09 2.361172469787824e-09 -6.828081570783822e-10
1288 4.546653880039571e-13 -4.866415907185844e-13 3.0090393949819503e-13 1.415702129075445e-09 1.954533386678306e-09 1.0695484890345096e-09
1289 1.0838231680591704e-12 -3.457613586163197e-13 -1.3577793039994176e-13 -3.5841043273926253e-10 -5.839563412217439e-10 -1.5398981684538222e-09
1290 -1.1927403875834443e-12 5.420306953228945e-13 3.877523650565163e-12 -5.035628793266471e-10 -3.1875008976335486e-09 -3.0720870360690387e-09
1291 -1.7529442066013076e-13 -2.1046033943861777e-12 -1.2611684040905073e-12 -1.6774886157914337e-09 2.774520425282126e-09 -3.1596680678084534e-10
1292 -5.6271093202003816e-14 5.418748891103258e-13 2.1189170127672584e-12 -1.176295972590015e-09 -5.47523697607016e-10 7.143757200498806e-10
1293 1.9428399864790445e-12 5.407968146492619e-13 1.334499450177236e-12 -1.3450178226789756e-09 -5.396803914381699e-10 -7.629772060569548e-10
1294 -5.416300802177939e-13 -3.997648319623668e-13 1.275018394279293e-12 2.2196728724790067e-09 -8.095631015982857e-10 4.2219611498829644e-10
1295 3.183561944468014e-14 -1.0833939234045462e-12 7.259209552503963e-13 -2.720122653307674e-09 -1.868083003061411e-09 3.002662519056613e-10
1296 1.9143695846700638e-13 -1.2629500957307064e-12 1.5203845179178215e-13 1.5337053866114305e-10 4.483772066038815e-11 -4.705111930585824e-10
1297 2.067049133382331e-12 -1.3540873958220833e-13 7.833596997260666e-13 -1.2321307805833101e-09 1.0923661816088524e-09 1.9220749240989904e-10
1298 1.0972967461719718e-12 -1.0438652566550766e-13 7.412815183944305e-13 1.6999082454999686e-09 1.8686775726121106e-09 -2.5117205259935683e-09
1299 -5.421133880860722e-13 9.90110201254071e-13 -2.607924413319178e-13 3.186240569736826e-09 -1.2511494947894022e-09 -2.850668257823236e-10
1300 5.610156672096602e-15 -2.599747568793865e-13 3.4680028788710516e-12 -1.6426123908533074e-09 2.1481942274600123e-09 8.50023253592813e-10
1301 1.083960066949445e-12 5.00572670627166e-13 9.11927678633347e-13 3.816741642875256e-10 -2.031199466309509e-09 -6.007607213755505e-10
1302 -1.084069264375348e-12 -2.1680829564764254e-12 -1.3108147510570612e-12 1.705947895624228e-09 9.858846362372509e-11 -2.4045663383252446e-09
1303 1.0840331271485473e-12 -1.8339925520743873e-13 2.725621524705734e-12 8.976782972835393e-10 -4.68546852534145e-10 -1.2658174091557241e-11
1304 -2.167408241637346e-12 -2.1664018520839087e-12 -3.991759165934627e-12 1.968517486757176e-09 -1.0390774277859718e-08 6.566102708204835e-10
1305 4.368086013552722e-13 1.0834504429438009e-12 3.1573165054312676e-12 4.0659594957987084e-09 -2.0164443637434655e-09 6.717600074779924e-10
1306 1.3572877648306963e-13 -5.420794212577151e-13 3.4236198146991843e-12 -6.553055068725888e-10 7.91760840081918e-10 3.7142167538215125e-10
1307 -4.995157289795731e-13 5.421472708560553e-13 3.0845556137622847e-12 -2.7770335125873657e-10 6.781301399671846e-10 5.231872062764929e-10
1308 -1.4160390225844486e-13 -1.9216072438676937e-12 -4.9437517186091965e-12 5.342239772628468e-10 -1.769617977242707e-09 -9.916830016028233e-10
1309 2.1675033827089296e-12 5.651504991601435e-13 3.3794437121766634e-12 1.1997421431041088e-09 4.294180927901745e-09 -2.7646787395227844e-09
1310 -7.029261965321059e-14 -5.421146934011202e-13 2.5398810645617575e-12 2.139498920307904e-09 -2.733124916621173e-09 -2.342066873555541e-10
1311 -4.0016258980253727e-13 8.473739604666063e-13 -1.939287704617322e-12 6.2635135815620824e-09 6.686017149722078e-09 1.15750934306291e-09
1312 -8.428471782967375e-13 -6.945507975176219e-13 -1.0605714787713982e-12 7.477335258130521e-10 1.6615176941026145e-09 -5.117644135476475e-10
1313 -6.356200941997309e-13 -1.0836747791465909e-12 2.5129699456553775e-12 1.380525520886567e-09 -3.3545602293682587e-10 1.3740424807573585e-09
1314 -2.533491441736465e-13 -5.422407623847877e-13 7.467618946882336e-13 1.0614334730441174e-09 -2.1428535030684023e-09 -2.1072997571318204e-10
1315 -9.318000731139748e-14 -1.9294823469248746e-12 4.2058022362622833e-13 6.698913051678155e-10 1.3643225521939105e-10 3.998946318415847e-12
1316 7.78122570166873e-13 -2.2490065056645093e-13 5.2122547662425e-13 -8.633943646069376e-10 8.530619636897942e-10 -1.9160043689531815e-10
1317 -1.0206210187790969e-12 7.719917937995414e-13 8.714584685300778e-13 7.329756883628662e-10 -5.693418524451164e-10 -1.0662260665350595e-09
1318 -8.069054631517141e-13 -6.346859084943777e-13 -2.5314139167356186e-12 3.3596886047426065e-09 -4.071963372771311e-10 -7.576797003686748e-10
1319 1.9439479960527454e-13 -5.421731162750228e-13 -7.367961780943877e-13 1.8358794323801454e-09 2.814169004605327e-09 -5.089446349348983e-10
1320 -6.960530666038336e-13 -6.213497794338183e-13 1.497896796096087e-12 8.46087681268472e-10 -5.987642553596194e-10 -1.5164139879475061e-09
1321 2.1680769715431234e-12 -5.381558009496111e-13 -1.1366019873977048e-12 9.45927896527327e-10 -5.25629415337745e-10 1.6323984206215339e-09
1322 -5.42086526095598e-13 2.317919436741807e-13 8.110290489230587e-13 -1.7724423423067106e-09 -1.902052829792756e-09 3.9616938012627524e-11
1323 2.733659370129231e-13 -4.741135136177729e-13 2.2323735844300772e-12 -1.0844911933255665e-09 4.862807055724603e-10 7.733581865825029e-10
1324 -1.6572428456425702e-12 -5.421768260968075e-13 1.403002943253513e-13 1.6669600689255349e-09 -7.526834725432915e-10 1.2322027415776036e-09
1325 -7.620728024180228e-13 1.2622866704670885e-13 -2.529176726971973e-13 5.935270435457817e-10 1.8301138490003621e-09 -5.2951999379389226e-12
1326 1.0841424743094038e-12 -2.1594827761365934e-12 4.284032776228859e-13 -6.498303472535059e-09 -5.01079276468039e-10 -6.771787026853172e-10
1327 -1.084154977124016e-12 -1.184761110830573e-12 -6.849518320652419e-12 2.928727727842507e-10 -3.845850275431864e-09 -2.4882709293034113e-09
1328 4.2176778093217186e-13 1.9736717598305575e-13 2.0756161306287877e-12 2.0142151949974188e-10 -3.207664405468351e-09 -1.4734154758309295e-10
1329 4.939862482018061e-13 -5.422194410844315e-13 5.915895789482919e-13 -8.957358520522448e-10 4.958740531021236e-10 2.0638287839744264e-10
1330 2.5963168884165165e-13 -1.0459753671746785e-12 3.3328021891983122e-12 -2.4623127393925965e-09 -1.838588249588913e-09 8.32236482081153e-10
1331 3.109056820637116e-14 -4.232884880140527e-13 3.1792218441628188e-12 -7.174555225864971e-10 9.671148193234593e-10 2.3054701672638949e-10
1332 -1.2206708025298076e-12 -1.083953103396662e-12 2.6164335075555574e-12 -2.5209777849525625e-09 -1.7837708273501886e-09 -3.6634426791117076e-09
1333 -4.0920108264162365e-14 -1.0837039507955286e-12 8.609684898162199e-13 3.318817643135752e-09 -2.6542103789605145e-09 2.6542605143669e-09
1334 -2.2568775583136476e-13 5.419032522165803e-13 2.697354832720799e-12 2.297892231176623e-09 7.720400998936847e-11 -2.9702261121296185e-10
1335 -2.448552113505155e-13 1.2363548144796508e-12 2.7542920519072312e-12 -1.5088139616289214e-09 -3.267691474154413e-09 9.344313239099735e-10
1336 4.460870760424815e-13 -1.1799248373650532e-14 3.282334613374889e-12 -1.897639392332802e-09 -3.3411009740879715e-10 -6.337117031102456e-10
1337 4.2619846094380827e-13 1.0837026673585142e-12 -4.4812335965352215e-12 2.5600943894500683e-09 3.2285766304771977e-09 -4.934507689278079e-10
1338 1.0072537562969e-12 -2.161602385928296e-12 2.8829683411302514e-12 1.5898768709896933e-09 3.456437432669765e-09 1.0931556454471689e-10
1339 -4.90198908767716e-13 -1.0841488817515095e-12 3.09653424209502e-12 1.4915773982847556e-10 1.369770295001492e-09 -3.793409349572928e-10
1340 -2.167037001633896e-12 -1.0825769575521978e-12 -1.3830163855160493e-12 1.6921949571224683e-09 -4.8039818483798455e-09 1.7507985996209138e-09
1341 6.674115183908933e-13 -1.7637798517378102e-12 1.115092852340551e-13 5.128759562572427e-10 7.358367210057928e-10 1.1410725553461916e-09
1342 -5.420907797840874e-13 -2.8417911532074395e-13 -3.519434390772228e-12 -8.989963283790499e-10 -1.0972730932507791e-11 5.006571900189643e-12
1343 1.422417532438686e-12 -5.418573892882222e-13 -4.096741505145243e-12 -4.1760562473171234e-09 1.379271694695234e-09 -2.2056871134408346e-09
1344 2.7139484404193073e-13 9.285253300980923e-14 1.2646665468354173e-12 -2.0510722210963183e-09 -6.895950443853918e-11 8.720221624149875e-10
1345 -3.4383714629352585e-13 -2.1543833345771806e-12 2.428024137167368e-12 3.4553471454504806e-09 -3.849279873962001e-10 -1.2811607077150697e-09
1346 -6.237772031295043e-13 -8.346728630856699e-13 -1.1999772786267788e-12 -2.6446144380103857e-10 -3.678970988651134e-10 -1.8100790743061567e-09
1347 2.2248296048216905e-13 -1.0560715190897168e-12 1.531511405664438e-12 -6.226734786212676e-10 8.130417247882853e-10 -3.23073463066594e-10
1348 -1.4355812473697388e-13 -1.0837534545750262e-12 4.972269072604042e-12 -5.584896099654463e-10 -2.722294438099347e-10 -6.763423293159766e-10
1349 1.0689498096562719e-12 -5.419562125308804e-13 7.766597744472185e-13 1.0340036858035453e-09 1.8016097968873989e-09 4.3030413155090197e-10
1350 2.167440954684642e-12 -1.2534716145327156e-12 -1.909688905383196e-12 3.5549640368766567e-09 2.5288361088118373e-09 -2.0367030523448225e-09
1351 -4.317431932856002e-13 5.478114188411557e-13 1.9027365426707485e-12 -5.905181265107035e-10 2.8149756717843507e-09 -3.3803873192853513e-10
1352 -5.416789880071395e-13 -6.630448279682743e-13 6.257380845057995e-13 -9.747818106639554e-10 1.4546666705454613e-09 -6.148643797292839e-11
1353 -4.891456581719035e-13 -1.6994840854367235e-12 -1.9702827806900777e-13 -5.877355507272819e-10 1.2476629647901257e-10 1.39058693856357e-09
1354 2.9909977633592884e-14 -4.175887347802629e-13 -2.8539172247920297e-13 -2.1226888598066126e-10 -9.550520739293092e-10 1.2607310122316458e-10
1355 -8.730005199690879e-13 4.073987816394244e-14 -3.323024704676025e-13 -1.243104110574438e-09 -2.5491753270993123e-09 -9.799603867213814e-10
1356 3.051522407335405e-13 -2.1660833476601426e-12 1.0807960781873286e-12 3.3472005513831253e-09 -3.3857619294363213e-09 1.0255818300602452e-09
1357 -8.691723582069024e-13 1.5993858327066328e-13 1.6055885653591243e-12 1.7950063333121664e-09 1.3359678926435282e-10 -1.2315159217935459e-09
1358 -7.524014731937158e-13 -1.0841959741223449e-12 3.6173030074389177e-12 -2.6578074418925447e-09 -3.872568826998932e-10 -2.803153730603315e-10
1359 -1.0724013677241389e-12 -1.0841680521368932e-12 2.14394000963769e-12 4.300114316924925e-09 4.496483455501117e-11 1.3417728742490382e-09
1360 -5.415239958274877e-13 -2.1683897110467483e-12 1.7115113885408071e-12 5.469788556291554e-10 1.3815742071233979e-09 2.3690913009392e-11
1361 -1.0399673770140398e-12 1.0294872546520628e-13 -9.82751160829556e-13 -2.6948952292494282e-09 -7.43894514656509e-10 3.187365655063276e-10
1362 2.5451441696125607e-13 -1.0841922185993456e-12 -2.4388767020553874e-13 7.039358306627973e-11 1.4460386508852767e-09 5.65551525544763e-10
1363 -1.0234446356514339e-12 -1.6238649568886153e-12 -3.3635031375462605e-13 2.497149785094879e-09 -4.5636408775894985e-09 -2.005807486857725e-09
1364 -1.0840159409083165e-12 5.419807928363754e-13 1.971876800053219e-12 4.835789188005338e-09 -3.814078528054578e-09 -9.468351035034237e-10
1365 4.868674704112315e-13 -3.27285641140395e-13 -5.67848628835654e-14 1.0254860304503763e-09 1.7473749750321427e-09 6.652062897753267e-10
1366 -2.3764033149583286e-13 -1.083835888607451e-12 2.005792672964676e-12 1.6434489598048996e-09 1.4403138988339688e-10 3.792740136634754e-10
1367 1.816219062155836e-12 5.413189677217694e-13 -4.47652322333888e-12 -1.974278474623507e-09 -6.65095942994479e-10 2.758117990220332e-10
1368 -2.720201859399546e-13 -8.813727735812462e-13 1.1868850235395637e-12 1.393197642620465e-09 2.6459285763860298e-09 4.713624581074651e-10
1369 2.168443473851854e-12 -1.169493067708784e-12 1.5426775812850363e-12 -6.941625948467634e-10 3.016372449460101e-11 4.330418099405383e-09
1370 5.345735693751357e-13 -2.3803770056645464e-13 2.2229923896713933e-12 1.8889213283448236e-09 -1.1763649585895012e-09 9.841191678600934e-10
1371 5.884595370054415e-13 2.484743312565761e-13 1.0087262919163546e-13 1.8535855292579255e-10 1.1123469322348559e-10 1.1479828026751534e-10
1372 8.951119956644221e-13 -1.258938354648365e-13 -8.109092925166178e-13 -1.7487609141826483e-09 1.4261516155631455e-09 -9.654984270641398e-10
1373 -2.82429352271352e-13 5.421509108001938e-13 -6.192426977184158e-13 4.1374263290623166e-10 7.1307602823114035e-09 -1.1277319652903641e-09
1374 2.07056906019105e-13 -8.936059833381419e-13 -2.2488597016771083e-12 2.661120595614691e-09 -1.1328969019452481e-09 2.966748712694832e-09
1375 2.1667555542817835e-12 -1.0839901724895277e-12 3.159816657588952e-12 2.641485896296899e-10 1.758009315887152e-09 -1.698403286443979e-09
1376 -6.029090060886074e-13 -5.421068216734522e-13 1.3016228229582954e-12 8.422041663224592e-10 -3.0286961439368762e-09 5.425703698971466e-10
1377 1.0982192384223166e-13 -1.3545960166421273e-13 1.5601826027615518e-12 8.487475725716378e-10 1.905232601839645e-09 2.436592859706498e-10
1378 -7.874838458164707e-13 -1.0842070386091852e-12 1.4629305276718538e-12 8.790785738392203e-10 3.2326479827847487e-09 -1.8596161707220672e-09
1379 -2.166324143442876e-12 -9.532973355432747e-14 -1.2569960179558918e-12 -1.7667912202356095e-10 -8.899635897311032e-10 -8.842099896517862e-11
1380 -7.889507805358412e-13 1.0608623681704105e-12 -6.676457599085296e-12 -3.584798606165462e-09 -8.899398011470799e-10 -1.2786099038479505e-09
1381 -5.33329004550789e-14 -5.42072448789747e-13 2.0803080354152703e-12 1.7891373095801536e-09 1.0048061466832413e-09 -1.0516597226246386e-09
1382 -1.0838715014242658e-12 6.656990722874354e-13 -8.058048462344948e-13 -2.2881879697627216e-09 2.916468666261738e-09 9.996659722755116e-10
1383 -1.1980718221165881e-13 -3.822382969377631e-14 -1.3470603390266914e-12 1.4770321608863953e-09 -2.5121179876812487e-09 -2.349144611338012e-10
1384 1.153804057569212e-13 -2.07480926995023e-12 -1.003300911288142e-12 1.005698916096094e-10 -1.6264407011738731e-09 -1.674894752879797e-09
1385 5.891009604105921e-14 -1.0113510501221092e-12 2.3988329077587076e-13 -3.7163640189413315e-11 3.144129661607586e-09 2.9974273507419626e-10
1386 -8.131941068300136e-13 2.336483728536072e-13 -8.336891778811787e-12 1.1138105235165776e-08 -1.8101659724554945e-09 -4.5522899252976547e-10
1387 -1.083700953549138e-12 -2.1683803238783094e-12 3.2844779456659417e-12 2.2202255119908436e-11 -1.4083592390963197e-10 -1.0772342020181775e-09
1388 2.1636087159381903e-12 -1.0249196177812807e-13 -3.807888283058198e-12 1.7967261195092767e-09 7.013242248619463e-10 -1.1442815012279986e-09
1389 -2.0157396880324807e-13 -1.083880184953051e-12 9.863748324966124e-13 -1.3765897776331138e-09 4.224181903418304e-09 -1.6027424715756505e-09
1390 -9.201212235125394e-14 2.708684508830528e-13 -6.097254579229714e-14 -1.4871044126591633e-09 -2.383947042002077e-09 -3.776186433654904e-10
1391 -3.963050079895801e-13 -1.5103623693181965e-12 2.861032051044768e-12 2.0987783068438483e-09 -1.012174646260679e-09 -1.2488435780162956e-09
1392 -7.350471236696942e-13 -2.168336251273516e-12 2.682545918417723e-12 2.3245424654149167e-09 -9.822665742766697e-10 7.629321997718674e-10
1393 3.093037012107503e-14 -3.6813433128197665e-13 8.667308611376434e-12 -1.5647763636808675e-09 -3.834391745895402e-09 2.707348093362811e-10
1394 -5.463685227432215e-13 2.6512339106485256e-13 2.340150868419115e-12 -6.548993778161879e-11 -2.3211749921054243e-09 -4.506322573057992e-11
1395 3.4916280088687307e-13 4.877409564896761e-13 1.850173912357909e-12 -2.4593958456784064e-09 -3.083133509891899e-10 2.383981642154067e-10
1396 -2.1344247498703584e-12 -1.08198163928181e-12 -3.511821247713379e-13 -1.3289678191999997e-09 -1.1378579374050854e-09 2.5625139483298146e-10
1397 7.138893716040075e-13 -3.6477010470185543e-13 1.78000205532968e-12 2.49715102040635e-09 -1.559951252818368e-09 1.5199791204576705e-09
1398 -5.423655961668421e-13 1.8465776094582935e-13 5.497534625898233e-13 -1.268573968142727e-10 -1.213850787776066e-09 -2.982177233441591e-09
1399 -1.8095961578146878e-13 2.9400887569885864e-14 -6.829310959265955e-13 4.3003964326226767e-10 -6.000114782611854e-10 -9.332419659765752e-10
1400 9.786857965951915e-13 5.406182319810456e-13 3.9183090511751414e-13 5.776595229391772e-11 -5.633526431051712e-10 1.495570123685137e-09
1401 1.2900699757025505e-12 -3.339584685699689e-13 1.4471593819780737e-12 -3.2033350368907088e-09 -1.217426569714729e-09 -6.677045170632826e-11
1402 -8.402137393763836e-13 -9.654232751525e-13 5.484706897230777e-13 7.926158037740942e-10 1.7096145958591972e-09 1.12021283461446e-10
1403 2.7104346277609663e-13 3.20888500346477e-13 -2.038793875695953e-12 -4.912395973631155e-10 1.4595707646488084e-09 5.720337338424508e-10
1404 -1.0839889953746972e-12 -5.419541385802744e-13 6.170729418723726e-13 3.271128382833465e-09 1.2715006997370616e-09 4.9262231860183e-10
1405 -1.7023323599407309e-12 3.565695455684023e-14 2.0034917077516228e-12 -4.156543771176581e-09 -4.577638618944916e-09 8.770966411540234e-10
1406 5.407238221610567e-13 1.5857112612679115e-12 1.6345672353867411e-12 1.552981349812015e-09 -9.742794030284977e-10 2.6351868405418094e-09
1407 -5.418529866047161e-13 -2.1683825174756097e-12 4.044883067731181e-12 1.7419632038330128e-10 -2.6920075542880367e-10 1.380879412976537e-09
1408 -1.083791499767767e-12 -9.562472001019378e-13 8.230278327802889e-13 9.707244339435089e-11 1.3245905658144362e-09 4.56900474377085e-10
1409 1.083221594667215e-12 -7.168781047889444e-13 1.4592855553232594e-12 6.269759630123699e-09 -3.231812085119356e-10 -3.756252103712467e-09
1410 -1.1489993903369187e-13 -5.421687978435617e-13 2.0944572767122897e-12 -9.599189117548974e-10 -1.3053051221634976e-10 4.938815010589869e-10
1411 1.503842056720377e-12 9.64724731454051e-13 -1.7365627520741128e-12 -2.8957607218116325e-09 3.4301399600308503e-09 1.728923459375086e-09
1412 1.6662719840669996e-12 -6.27181122034167e-13 -4.626231839860319e-13 -4.112350956568558e-11 1.3893524209704706e-09 2.3426324140811573e-09
1413 -1.0833210396370143e-12 -5.420874759373482e-13 -4.761241962329895e-13 7.087520437585178e-10 1.4000041479401418e-09 -2.647689900612696e-11
1414 1.0827900285403002e-12 -2.168206279974153e-12 -3.501133819287604e-12 1.171746322581192e-09 -5.0840865527248335e-09 -1.5395548132754546e-12
1415 5.419503584545378e-13 -1.014171240418371e-13 2.003960497330746e-12 4.723140478304991e-10 1.0414630796662712e-09 1.0551772963608568e-09
1416 1.0838336898517532e-12 -2.122743491188628e-12 -1.1746471982932671e-12 1.6676078038732829e-09 5.415344986319459e-10 1.9324376456078617e-09
1417 -1.3519025715827977e-12 -3.9370207337149687e-13 3.429648642397129e-13 -2.2843442478724548e-09 8.529847546791706e-10 1.8088620563595074e-09
1418 2.851346502454418e-13 1.2631440259770293e-12 1.84465390355051e-12 2.22734115605367e-09 7.72327628740915e-10 -1.215484921672744e-09
1419 4.255661006121233e-13 1.6376183562726312e-12 -1.2782208890684624e-12 2.7976823919835955e-09 -1.5679815179625954e-09 1.5713485663548258e-09
1420 -9.905023540251275e-15 -4.0391214133924503e-13 2.5754769123661632e-12 -5.919725962968921e-10 -5.055813237807146e-10 -4.24528868810094e-10
1421 5.411432419207024e-13 -2.681963120968574e-13 2.602242629875426e-12 -2.9487455120684647e-10 3.817789306232676e-10 3.8084646185796277e-10
1422 -1.4390527628245066e-13 -1.0839199674022094e-12 -1.2986699846800338e-12 2.182448547260618e-09 -1.829654465225603e-09 -1.7156062396465687e-10
1423 8.86494254350209e-13 2.8768661133562073e-13 -1.629609502122625e-13 -5.43332304670522e-10 -2.032932204487561e-09 -3.1397354398784695e-09
1424 -2.711830956784044e-13 -1.0040968480448897e-12 6.558913704284629e-13 -1.3197985403768553e-09 -2.284020964430443e-09 -1.055838709333623e-09
1425 -7.674103273839273e-14 -3.1625748624701774e-13 1.31593630138768e-12 1.4262282665415923e-09 -7.798229827183455e-10 -2.388293590591486e-11
1426 9.484716997115693e-14 -2.165812095370054e-12 7.109818662721394e-13 4.3205759470719806e-11 7.420130573457425e-10 5.361405305545174e-10
1427 1.2663781145213443e-12 1.041045070264535e-12 -2.4171892003053295e-12 4.304768648356885e-09 1.0403346817637296e-09 1.945899281710953e-09
1428 2.1673989859670074e-12 2.0951961649224597e-13 1.9294225585409802e-12 7.311453784011412e-10 -7.179343405321723e-11 -2.7507923499788917e-09
1429 9.42723048131327e-13 2.8566339934501297e-13 -2.057507828659763e-12 1.7451397229610266e-09 -2.60743746197758e-09 -3.884899707087487e-10
1430 -1.0828104877505961e-12 1.0767803797776975e-12 2.9037691716284552e-12 3.910677912678665e-09 2.9075380915572867e-10 1.5372965689332382e-09
1431 1.5060775386023673e-13 -1.5026370214938112e-12 -1.983891166051748e-12 -9.040828909524908e-10 -2.316713180645382e-09 3.2985547485032704e-10
1432 1.327225775012933e-13 -1.1837938970876943e-12 2.0038824932554e-12 -6.004872782263899e-10 -1.0463304247567026e-09 -1.2686259581897138e-09
1433 5.745449438627985e-13 -1.0834623677414975e-12 3.5064968131926824e-13 -2.6329529193304257e-09 2.28976390629659e-09 -1.9110815089580054e-09
1434 7.162938444333549e-13 8.125250401940177e-14 2.2044004650344075e-12 4.753657842610887e-09 -2.7180782280055926e-09 -7.572453983212598e-10
1435 -6.989015395158629e-13 -1.7675326730323447e-12 -2.4855879960793317e-12 -2.884798412392747e-09 -6.206484724455435e-10 1.0122837192914267e-09
1436 -1.80535802934322e-13 -1.723413598178036e-14 1.5039350324307584e-12 1.8403944924915117e-09 1.5283090934042216e-09 3.841350130851738e-09
1437 -1.3167122592659371e-12 -5.945030363852674e-14 1.534774468658787e-12 -1.031992973623078e-09 6.440890599184563e-10 7.053277356973892e-10
1438 -5.420277360721308e-13 -1.9066047917132795e-13 1.484331978795946e-13 -3.064036630081318e-09 -2.451767762422333e-09 -2.6262911369118555e-10
1439 -4.358990542586847e-14 -1.0841959989515705e-12 1.5355718192522569e-12 -3.131678066871439e-09 -2.5505180670853436e-10 2.746885729650866e-09
1440 2.167886079428407e-12 1.5411800160076065e-13 -4.0625677440564835e-13 1.1393766454018426e-09 7.266880755071844e-11 1.2961967540244836e-09
1441 -1.7554526181748052e-12 -2.1669202674211135e-12 -2.200202265991971e-12 -3.2471861522006517e-10 3.431190375135345e-09 -5.881862317299348e-10
1442 -1.0839937870343858e-12 2.6625264651538107e-13 3.78620630770008e-12 -2.2176215351638475e-09 -2.0601409833332344e-09 2.385078522733851e-09
1443 1.084215845749406e-12 -1.0841586456670706e-12 -1.4693105831330024e-12 3.2560040241988007e-09 -1.9239290324216147e-09 6.152711143565389e-11
1444 -2.1683547983528585e-12 1.0834393031716056e-12 8.238667475384273e-12 -4.2768527950362614e-09 -5.6535644907399925e-09 -3.843382597457512e-09
1445 -2.1681891450713673e-12 1.2598856840514658e-12 1.2678774186984006e-11 1.7072676269665265e-09 -5.345899955157123e-09 -9.646225112084227e-10
1446 6.696161918653137e-14 -2.0529339394264145e-12 -3.114717811996877e-12 2.794613900982702e-09 2.170808014732018e-09 1.0878439147750052e-09
1447 9.060992696546583e-13 5.366592245994377e-13 -6.870667870024215e-12 -1.1181952984816644e-09 2.619967670351084e-09 5.129996485557365e-10
1448 -1.0667581356732394e-12 1.552485965019653e-13 -4.3555353948027005e-13 1.6138474194989424e-09 -1.603669629669045e-09 2.225944273686392e-10
1449 1.435564663552929e-13 7.933031253206365e-13 2.0555762337172843e-12 2.244747286475114e-09 9.604656535903774e-10 -2.6746293775335468e-09
1450 4.3823738542281833e-13 -1.0835955306385526e-12 3.368375712802986e-12 4.333639340608131e-09 -1.0073478553529157e-09 -1.2049168406535221e-09
1451 -5.599362434868535e-13 -5.422055648029097e-13 -2.8394156790862165e-13 -8.169799647762216e-11 -1.8008787259281414e-09 -2.919342478131313e-10
1452 -8.066804795218142e-13 -3.9932158343625756e-14 -2.7632710435786645e-13 -8.840911008703761e-11 -6.573104681927923e-10 2.1060313386528216e-09
1453 8.40020183529325e-13 2.1672558884522677e-12 3.982187317893209e-12 5.036997068212483e-09 -4.197546267626196e-09 -6.843737247786577e-10
1454 2.1681222013379755e-12 -5.422312001858592e-13 -8.3970800861172e-12 1.207757080202709e-08 1.1460687032052506e-09 -6.1235589314695404e-09
1455 -2.1211359641858977e-13 -5.461715422282538e-13 -1.3945411999216284e-12 5.481533887766297e-11 -5.060178403097528e-10 3.6396120600965014e-10
1456 1.0839315458956155e-12 1.0832513682505588e-12 3.715876405257015e-12 -5.3296393797498316e-09 3.1747332336697073e-09 1.8447415629601323e-09
1457 -5.414737803518609e-13 7.424303399570769e-13 4.282834637795561e-12 2.764374515888373e-09 4.316852561159997e-09 -8.432526994642903e-10
1458 -2.1646415154601874e-12 -1.0588760353493326e-12 -3.1785717095645134e-12 -9.934538423810307e-09 4.025298836903638e-10 -3.0101044277224777e-10
1459 -3.2892957853526215e-13 1.4108186254675982e-13 1.7499605597459695e-12 1.6915195352424698e-10 3.845347337232688e-09 -1.227555029162786e-10
1460 2.787471919823033e-13 -9.030725313599688e-13 -7.878242328515808e-13 2.0527112991484494e-09 -1.4509064209617628e-09 -5.941663423120916e-10
1461 4.2709085002341323e-13 7.952381539361896e-15 -3.185605916443458e-12 5.413788426008076e-10 5.765707009924033e-10 1.4374287679230173e-09
1462 2.4171097480673533e-13 8.598263089495961e-13 3.914618034184747e-12 -2.8691491538084933e-09 7.06557105347159e-10 1.9533506523890282e-11
1463 4.741235494771689e-13 1.08410095950436e-12 6.562861571446798e-13 -6.000604669684945e-09 -3.733380458502357e-09 1.058914906889749e-09
1464 -1.0804539104846618e-12 -6.99682671851717e-13 2.1086325895127695e-12 6.749005387498708e-10 -3.906735841850101e-09 4.6560375912077135e-10
1465 1.4973108535765047e-12 1.007966261393056e-12 -6.208231763587001e-12 -3.2253573475020706e-09 -8.125888507678611e-10 -1.439900698565873e-09
1466 5.421236044617268e-13 -5.419981089410338e-13 -4.30145328478648e-12 -6.638803459432324e-09 -2.835705490944505e-09 1.1072087065712774e-09
1467 -1.6254386355049486e-13 -2.1667978304320256e-12 -8.446458178952339e-13 7.498930867242215e-10 1.692812913919588e-09 6.149267697732283e-11
1468 -1.5793345685321091e-12 5.420225819368694e-13 4.439454040676744e-12 -3.56846327154306e-09 -2.111963646942828e-09 -8.041287200451295e-10
1469 -1.3511012361149175e-13 -4.0558981220301786e-13 2.696973747807517e-12 -5.287161378049263e-09 2.156088335214692e-09 -4.135078904941866e-10
1470 -2.0308205826094703e-13 -5.292116174048467e-13 3.4872051688343404e-12 3.3851495772948934e-09 3.2870504637005307e-09 -1.772694378873055e-09
1471 -1.082135544355422e-12 2.405574122628238e-13 1.7828748828449527e-12 -1.8940024873029855e-09 1.0776805787286052e-09 -4.741619967146673e-10
1472 1.8234709376855614e-13 1.7461855203168474e-13 -1.3658168723366684e-12 6.50587734824708e-10 2.7473106773432508e-09 -3.6795819420239747e-09
1473 -1.5674885569850367e-13 -2.166655246347457e-12 -5.197889469921086e-12 -1.6315360321642672e-09 1.0896168391566051e-08 -1.942462144984651e-09
1474 7.163232595886796e-13 -1.0837032006685176e-12 3.0923633480383176e-12 -3.3244890222255135e-09 5.300603065889376e-10 2.7081441630704793e-10
1475 -4.610824584842852e-13 -1.2708394997253657e-12 1.355125348929598e-12 -8.529711769155775e-09 2.479889941259311e-09 3.4186728864503575e-09
1476 -1.0825674363811506e-12 -9.37312069075619e-13 2.2631503879686902e-12 1.3384816443283412e-09 -2.125908752011539e-09 1.915566008935738e-09
1477 8.317506285121778e-13 -2.526426706127151e-13 9.348051452685874e-13 2.0707775749507697e-09 2.4218183227704597e-09 -1.163713841588733e-09
1478 -1.083054577560131e-12 -7.841975442317266e-13 -2.3012348882564973e-12 3.395144904833566e-10 -7.3388402878431134e-09 -8.393831292365455e-10
1479 -5.734808159626757e-13 1.6735220673517767e-12 -1.523743141382097e-12 4.261058421668063e-09 -1.0462081315901612e-09 -2.6681182493388867e-10
1480 -5.74824403395898e-13 2.1168974927646243e-12 4.907444017754988e-13 7.572470906762048e-10 -1.3236502520342552e-10 -7.074284176065222e-10
1481 -5.687143479770031e-13 -1.1080991680569582e-12 1.8237145453233974e-12 6.045561888195244e-10 -5.558476184221075e-10 -1.1533398131297022e-09
1482 -8.974652013954425e-14 1.3687864626348642e-12 -1.2321323895186281e-12 9.932894667121727e-10 -2.4059805253378083e-09 -5.233522168226399e-10
1483 5.420581577961976e-13 3.323454466222758e-13 1.6288128838311814e-12 -2.3527568304301837e-09 -6.45222467877024e-10 -2.732305014312419e-09
1484 2.16838074996642e-12 -5.420243589507354e-13 -6.504596572290773e-12 -1.161189683862489e-09 5.914655527485245e-09 -2.845649986343484e-09
1485 -6.780153933037195e-13 3.324099209228575e-13 -5.794899044877408e-13 -1.9582503980489143e-09 6.731854266110518e-10 2.906884808145347e-09
1486 -8.259366124076496e-13 -1.2242812178680415e-12 1.4451063496402774e-12 -6.011409822795247e-09 9.363393524714751e-09 -8.927192184383766e-09
1487 -1.0593096464588283e-12 -1.0841988463980145e-12 -1.3243742370398216e-12 -7.0626389362729535e-09 3.0949347868296188e-09 1.127536730155737e-09
1488 -1.58547932273454e-13 -5.251518590357645e-13 3.996090971210168e-12 1.7225164457485996e-09 -5.307003195789818e-11 1.6194085856253566e-10
1489 -4.844272187378451e-13 1.0841042917768764e-12 1.8857222083736328e-13 -4.340544653168148e-09 1.9808271176828074e-09 -1.656394048110523e-09
1490 -4.222022017060799e-13 5.42166592271651e-13 6.942009611973315e-13 2.2186606358442986e-09 -1.1911697820376796e-09 6.550024846136276e-10
1491 -1.483798465140146e-13 -1.0235960985834685e-12 8.644820807029064e-13 7.345871746255945e-10 1.545691628374844e-09 5.766121553582334e-10
1492 9.106645270823008e-13 -5.418486603042824e-13 -3.424652345584125e-13 -3.0554261859961256e-09 5.753181749033496e-10 1.990215953039626e-09
1493 8.564768270670765e-13 -2.1136818287091875e-12 9.714955800597575e-13 3.399862252754715e-10 3.1239050143312634e-09 -3.295827761820402e-09
1494 2.1674105177592695e-12 -2.1474159546770333e-12 1.1552961343659331e-12 4.572661058747271e-09 6.832304896286513e-09 -1.7913781677225433e-09
1495 -1.388034019832498e-13 -8.11031046860368e-13 -3.3144820781320944e-13 -3.2985762744329715e-10 -7.670305772883428e-10 9.168513026784662e-10
1496 -1.083983652250054e-12 -2.166956810274716e-12 -2.504327203211437e-12 -2.4346124820258853e-09 2.068800697115305e-09 1.443912339547105e-10
1497 -3.1107057095337134e-13 -2.1043666583876396e-12 -4.610198674235994e-13 3.2968279939421852e-09 -2.1417094063385707e-09 5.965053909571243e-10
1498 -3.6683416986196985e-13 -8.313861662523168e-13 8.722230334715253e-13 1.0886846389743955e-09 -4.727864980271376e-10 6.859796712062032e-10
1499 5.571753755119396e-13 -1.3341737977311633e-12 -2.108665436226661e-12 2.7776949261300942e-09 -4.989629015265887e-09 -1.2516551352292756e-10
1500 -1.0842414065518489e-12 -1.5142622225296023e-13 -2.5178504903841636e-12 -4.006615683709822e-10 2.118169849528213e-09 1.523944851585649e-09
1501 2.1639511391563005e-12 6.522140111486193e-13 4.968745271886511e-13 -6.390325135381747e-09 2.0329366269219143e-08 7.072059339806331e-09
1502 -4.927854978590273e-13 -1.0837753592947319e-12 -4.241763359825572e-13 1.1922048481117128e-11 1.988904275878176e-09 3.931225407460378e-10
1503 -1.5858198814581904e-13 -1.0037166396566907e-13 4.156249357765899e-13 -1.2025249899314793e-09 -1.8125851369916218e-09 4.5052618695778716e-10
1504 -9.386997000893376e-13 -5.422369547156769e-13 -3.6608493537612655e-13 9.969940230082063e-10 4.934727407633143e-10 -9.548734226118376e-10
1505 -5.382625967610262e-13 -5.421248421524687e-13 1.8084387567493012e-12 -1.7956735644647704e-09 -1.3713745328377758e-09 5.794261584574431e-10
1506 -1.972684155310103e-13 -5.423951708777261e-13 1.7611879008836426e-12 -3.5874853089973404e-09 3.0026428305867267e-10 7.069858212523135e-10
1507 6.806169205888264e-14 -1.7718792969611797e-12 2.6332458200722246e-13 3.2489163300080485e-10 -1.9237107506172867e-10 -1.2499293090145724e-10
1508 -8.853688071310369e-13 -6.267727336125284e-13 2.895121424073346e-12 -1.0216176313168143e-09 -2.7264681185463234e-09 1.7741160245313958e-09
1509 -4.592699651992935e-13 -1.183145924213515e-12 2.3178057002108124e-12 1.4835149693580985e-09 1.919944050560202e-09 6.893973387429988e-10
1510 3.5562858193760025e-13 1.069134554196347e-12 8.43609782070934e-14 -3.7977559161414696e-09 1.136950947028733e-10 -1.8036661849392592e-09
1511 9.061524460675347e-13 1.83285227894144e-13 7.472504823129244e-12 -1.8236290284678811e-10 5.900550668503311e-10 -4.3305976817938656e-09
1512 2.167008865459852e-12 1.9098112791771306e-13 -2.486392939063606e-12 -1.0320601226811901e-09 -1.1650448694506194e-09 1.2174996456212527e-09
1513 9.813664741085231e-13 1.0642186817847635e-12 -5.101789273703487e-13 3.7120537996939703e-09 -3.1246402067287753e-09 6.391358281162574e-09
1514 -4.827796755733895e-13 -1.083476257092141e-12 2.504050765869867e-12 3.0014607183130115e-09 -3.884392890863875e-11 -1.7317293245742837e-10
1515 -1.0483947628162638e-12 -1.0824722468566226e-12 5.519265190977849e-12 3.9742023211251594e-10 6.019818633807464e-10 -4.2062224943712815e-11
1516 5.421483167572472e-13 -2.7052892666292353e-13 1.214180936536425e-12 -5.053064013687773e-09 2.533521040088797e-09 -1.484195840828616e-09
1517 6.046854920346473e-14 -1.9989817694441096e-12 -1.5343227453260511e-12 3.792329937975579e-09 -4.8022880805881445e-09 2.177995340815509e-09
1518 1.0616964309839065e-12 -1.0837757513566516e-12 6.253177715365945e-13 -9.579811267518382e-10 2.5517902994664536e-09 -3.6931911948024997e-09
1519 1.4855560535062146e-12 -1.8144179314351748e-12 -4.371197227110755e-12 2.0878237604346307e-10 7.116833593639953e-09 -3.893682000105777e-10
1520 2.057719964474492e-12 -1.0836541609365886e-12 2.493909029367249e-12 6.448375848475673e-10 2.3056224329980396e-09 1.8978607100276724e-10
1521 -8.922550812712634e-13 -1.2459318381737422e-13 -3.3691671159769026e-13 2.141033688968397e-09 1.7222466238581937e-09 -7.208308225808128e-10
1522 1.076113830279019e-13 -1.0840132617598507e-12 -1.6454605167382043e-14 1.551134183272176e-09 6.977421497980164e-10 1.4803665722476176e-09
1523 -2.353121306696144e-13 5.47978471145154e-13 -5.941182464069026e-12 -3.026950627667203e-09 4.9581513889775105e-09 9.454781734750615e-10
1524 -2.1655666478211527e-12 -5.414639443669589e-13 4.0202565909462656e-12 7.240596945658769e-09 -3.865717104511093e-09 -3.7676807338942376e-10
1525 2.7142326988442387e-13 -8.459952099502313e-13 1.6808846604274086e-12 3.5558219005599562e-09 1.3341869266579443e-09 -1.2906083146786496e-09
1526 -2.1302162504931018e-13 3.2840272134301785e-13 1.689789234917714e-12 3.6824976678162856e-09 -2.5449475386914844e-09 4.348245196301912e-09
1527 2.414651493810578e-13 -2.1684390711466315e-12 3.1025989136814404e-12 4.904599207663125e-10 -1.7047555633287126e-09 -1.0724914796570346e-11
1528 1.0727857201678125e-12 -7.124861642566663e-13 -7.386209222539952e-14 -7.917402849304155e-10 2.137888408297111e-09 -9.468646927269136e-10
1529 -2.168444122323488e-12 -1.0840099941751994e-12 4.0416381670948053e-13 1.366469746314148e-09 -4.006865238211004e-09 -3.308317455033029e-11
1530 6.924616710589138e-13 1.129657395485991e-12 2.1068737440872973e-12 -4.794909031320323e-10 -3.495033466962649e-09 6.983247442643059e-10
1531 -1.887273283446398e-13 -1.0842322318814995e-12 7.927746786740461e-12 -2.251535834955611e-09 3.361573989050329e-09 -2.4207082889429534e-09
1532 -7.840362863921825e-13 5.421628590854762e-13 1.2330348253368185e-13 -5.246386753583992e-09 3.689896811234299e-09 1.00844509155585e-09
1533 -1.0841807929636774e-12 -1.4921009612449093e-12 4.2668050603668244e-12 -1.4720307255177962e-09 4.476081808478344e-10 3.2224939845325814e-10
1534 -5.689381070462862e-13 1.0833557686544054e-12 8.649598759091815e-12 2.354360465598867e-09 -1.7114943993480007e-09 -8.444913120546222e-10
1535 2.1682085054853053e-12 -7.865072945558647e-13 -2.903131838038222e-12 3.3885132710027875e-09 1.3993735108889073e-10 4.2979054169652406e-09
1536 -6.700414714823634e-13 -1.0841131873865778e-12 -1.8436233988424353e-13 -3.3420891295663414e-10 -1.1831884961643505e-09 9.402108541893717e-10
1537 2.167033491015444e-12 -6.48612229768199e-13 2.0281487938838418e-13 -4.0195102779972455e-09 4.324923344193347e-09 -1.3701866394292703e-09
1538 1.353906388377395e-13 1.3069990274915728e-12 -2.400023407733631e-12 2.9161360378975178e-09 7.73082720826215e-10 4.5323496850280884e-10
1539 5.409938974558211e-13 -1.0839597072710353e-12 -1.8621059359283525e-12 2.012868537836165e-09 -4.139300158517549e-09 2.985378726043239e-09
1540 4.66374768016778e-13 -4.133466786372343e-13 -6.480268293947766e-13 -2.6993788944037934e-09 7.784120278642594e-09 4.247775351680047e-09
1541 -1.12404414674191e-12 -1.08411641658382e-12 8.719933625823091e-13 -3.8972332101527287e-11 1.6658811710987815e-09 -1.2891149445421507e-09
1542 8.395174364531968e-13 2.4056701524417345e-13 4.008087530266865e-13 -3.518378375796265e-10 4.5987912608633764e-10 -2.281961992733155e-10
1543 -9.062015583716283e-13 -4.0112414793703037e-13 -1.733197979446366e-12 2.360274425314539e-09 1.31489852024642e-09 -1.426267016635885e-09
1544 3.439032479253407e-13 1.1689965605931572e-12 2.7987215940961875e-12 5.416026684153612e-09 -3.6357465192417845e-09 -7.004203022070382e-09
1545 -2.0856354357045538e-12 5.420215973984924e-13 8.913459371889274e-13 -8.862932719504005e-09 1.9777122124463543e-09 1.0885807598680894e-09
1546 2.185510057570178e-13 1.0820385758789799e-12 2.2680641587522623e-12 -3.7959073477988856e-09 -3.7085132524672603e-10 -3.4671788560546297e-10
1547 -3.3523271566188913e-13 1.0726283922024365e-12 2.423077926200232e-12 -2.7960354804126365e-09 -2.075959932394951e-09 -4.423016940860361e-10
1548 1.4529858288177132e-12 -1.251042408898617e-13 5.345741077460177e-13 1.7419698901963035e-09 1.2971759706088483e-09 -1.4939212516938431e-09
1549 2.1511723818833574e-12 -3.419304131430787e-14 -1.8879791919594455e-12 5.340014526439812e-09 2.2455230276158103e-09 2.144970230257714e-09
1550 -1.083706670995068e-12 -2.625184250513461e-13 2.809910414825258e-13 -3.3439096194406247e-09 -7.297316355018293e-10 2.0676337706230853e-11
1551 -1.4741078841411966e-12 -2.1682494120441438e-12 -1.9281420563571906e-12 -3.1772698265087635e-09 -4.784115657172666e-10 -2.521512835981188e-10
1552 -1.0840217992535465e-12 -1.246614985871077e-12 -3.5877873043728883e-12 -2.1455954165064085e-09 -3.6587983084509256e-09 -1.8835680023405403e-09
1553 3.419027245747911e-13 -1.084079165161102e-12 8.458266939237883e-13 -3.346561841078822e-09 7.522275819375534e-10 2.0931087143868745e-09
1554 -1.1331016217229415e-13 -2.059799897364165e-12 2.077873575053193e-12 -5.051170901782799e-10 -1.9266926689101817e-10 -1.3010927924108337e-10
1555 2.337268757187897e-14 -7.654528896447351e-13 1.4069846975293268e-12 -5.2832486329422345e-09 9.703610498180346e-10 -7.810388699996313e-10
1556 -9.56377215718209e-13 2.892340473797876e-13 -2.2967636137102994e-12 -3.0302604126052175e-09 -2.84662861638161e-10 8.033293005445432e-10
1557 3.554324707907531e-13 -1.0830354376332253e-12 -9.716653899987969e-12 -9.685994176788379e-09 5.092509450113438e-10 1.6115810102208087e-09
1558 1.884711636243411e-13 -2.1678951360945564e-12 -2.560374914349634e-12 1.5046266379043906e-09 -8.407537804981384e-09 4.536769609275882e-09
1559 -1.223673698236806e-12 -2.1684393088412747e-12 4.6219915852577095e-12 -1.1479635782390514e-09 2.250273230171777e-09 1.2164010452994911e-09
1560 1.7358727101929901e-12 -2.551309442843915e-13 4.8942953269209646e-12 1.7860787454613602e-09 4.729849998251697e-09 6.389968915072569e-10
1561 5.421148389527864e-13 -1.550061993815723e-12 4.1157376182417925e-12 -2.0355765976175443e-09 3.043461116762672e-10 1.1018997352358268e-09
1562 1.0184417537230318e-13 -1.3708218161039058e-12 1.5896375564546227e-12 -2.2737425436551322e-09 7.013680236720856e-10 -2.7232581841331525e-10
1563 -6.34341083071417e-14 -7.745590356697167e-13 -1.7303889743730093e-12 -1.3404233345739888e-09 4.159597449378669e-09 -1.8551007888966185e-10
1564 -1.0841803238810178e-12 1.0841053969828574e-12 1.834376085736787e-12 7.186834463168364e-10 -6.021274714382557e-09 -1.241118646391515e-10
1565 5.415361096731319e-13 -1.0206119849966946e-12 -1.1795177059721405e-12 -1.45435085291069e-09 1.793394007076992e-09 5.163981672552738e-10
1566 -2.1461618937727357e-12 -5.420787264069824e-13 -1.9557925365176026e-12 2.7155391649616265e-09 -6.869446212355421e-11 -3.2064013146883857e-10
1567 8.247204579814833e-13 -3.4189844294783337e-13 -1.7840464325208938e-12 1.2909060156459476e-09 -1.4620272494612595e-09 3.38672353466761e-09
1568 1.0506076178505097e-12 4.396153482981747e-13 3.477746628389511e-12 -2.368014158573784e-09 2.4703638181667657e-09 -7.571864849009518e-10
1569 5.699552608608411e-13 -2.6242943361324617e-13 -7.38175082676971e-12 1.1211101721918386e-09 -2.2797021640202798e-09 3.2077581264166803e-10
1570 -1.461788070930712e-13 -1.0842155579200618e-12 -2.016726665912138e-12 -1.1677703777006067e-09 7.697553071698631e-09 -2.1244094729366303e-10
1571 -2.710198876440787e-13 -2.1678331231016482e-12 -9.321729757188987e-13 3.3641892022751854e-09 -1.3911478282036356e-09 3.7248725145671723e-09
1572 -5.892556413634498e-13 9.046133022040108e-13 2.916090885594236e-12 -3.8578490491816516e-09 -4.617083786285762e-09 4.1398519909183577e-10
1573 1.497344447869648e-12 1.0570634090989489e-12 -4.779250441073004e-13 -2.0778877862556843e-09 9.693819959069247e-10 5.720455189160743e-10
1574 1.7930518189191222e-12 -5.417427790434426e-13 2.0036057650798775e-12 1.4192910796126239e-09 -5.376191092361832e-09 1.5767731933811017e-09
1575 -2.0886894094182475e-12 -3.4544184200542726e-13 6.97378875705202e-14 -3.2686550628298098e-09 4.676874393658102e-10 3.893049670954514e-10
1576 -1.0371663739793383e-12 -2.710094834460271e-13 1.7396473092685432e-12 1.5903960130229587e-09 1.445486546912072e-09 4.463597495122392e-11
1577 2.8993538812931823e-13 4.056904342206499e-13 -1.048437915282975e-12 -1.647796217280573e-10 1.278009730871721e-09 3.7196039645565014e-10
1578 -2.168374988786064e-12 8.895688959895358e-14 3.5870673814179523e-12 -2.590216753013719e-10 4.3016243498183815e-10 -1.9938483502617964e-09
1579 -2.1582768163513167e-12 3.8599929965527755e-13 -1.5357807229460368e-13 1.773579315458032e-09 -1.7606986648164317e-09 1.5653202415204181e-09
1580 5.411602037171492e-13 -7.324060914491019e-13 3.1192411799997157e-12 1.187997815810821e-09 2.3270407787298208e-09 -2.868332215414179e-09
1581 -2.7112932038001775e-13 9.353673898395737e-13 2.489669698765475e-12 -3.3849517262156144e-09 1.7202891893934845e-09 -2.739898859213573e-10
1582 -1.8190728544382795e-13 -1.0840198970868226e-12 2.613184837933602e-12 -1.3161140509348384e-11 -1.9188772367169282e-10 -1.902413385565192e-09
1583 -1.6207557737567542e-12 6.496893065639743e-13 1.779590199479213e-12 2.2003112811351484e-09 -8.951389503241445e-10 2.0404162941633515e-09
1584 -1.7685722797328998e-12 -8.189417101014632e-13 1.914055800542645e-12 3.2770360903093898e-09 -8.903250941038969e-10 3.843519411480966e-10
1585 9.001509291675595e-13 1.0601752351275627e-12 5.9199267691324504e-12 3.1540472396473745e-09 -4.166655267552343e-09 -1.7487420188149401e-09
1586 -9.236665914682193e-13 -5.421340018473543e-13 -4.531013285870308e-13 -6.156211969432582e-09 -5.76367861333272e-09 -1.8854550777020172e-09
1587 -2.1596586072321682e-12 -8.745252875464677e-14 1.1329288366101942e-12 -1.0881911654744047e-09 2.5059164818588295e-09 -4.740735524744123e-10
1588 -6.63050119790525e-13 2.634556879087352e-13 3.3651837160390625e-12 2.9350546117024213e-10 3.1217484446686466e-09 3.5956813475776506e-10
1589 1.842532166336391e-12 -1.4591503844608646e-12 -4.26255923375932e-12 -4.6135300010105805e-09 -3.0401717083962103e-09 -2.0058125376183579e-10
1590 -2.7080123934279495e-13 -9.693767135870853e-13 9.847994254255657e-13 -1.236362343245448e-09 -4.1213205625346e-11 -3.07573349060383e-10
1591 1.0008947835702432e-12 -1.0838541207924029e-12 -6.011225782997682e-12 -8.245673332040517e-09 5.29339363411955e-09 -3.6320586844757414e-09
1592 5.420210715251026e-13 -1.0843813123585497e-12 -1.1185025670787836e-12 4.393987811327557e-09 -2.4755177150256414e-09 1.0568772648049172e-09
1593 -5.07369550569581e-13 3.406763415511315e-13 -8.696416522360849e-13 8.106653118755385e-10 1.3130704677348572e-09 -6.788236696966762e-10
1594 -1.7482616611943268e-13 -2.8608203200959257e-13 -5.327559968581709e-13 -2.3701053141609945e-09 1.3479469169208049e-09 5.776171307012762e-10
1595 5.406299591689544e-13 -3.2186757511336836e-13 1.3982141454917e-12 1.31121727949638e-09 5.70742181090241e-10 -2.720411610833725e-09
1596 3.2645093524764906e-13 1.5840632433393404e-12 4.79550869641095e-12 1.365184529671986e-09 -1.1032770279994502e-09 1.211691777446429e-09
1597 2.710746180987972e-13 -2.115929836839266e-12 5.463372618186719e-13 -3.4140601119102913e-09 -3.0340648492123777e-10 5.133037387515157e-10
1598 9.83092867124328e-13 3.1068279109161735e-13 2.140993015386415e-12 1.6367109377192197e-09 -2.382781898446744e-09 -1.423929842194774e-11
1599 -2.7138224887444244e-13 -1.0840181870861547e-12 1.4942203938086895e-12 2.4684146371895473e-09 -7.1147862668204e-10 -6.185566305327647e-10
1600 5.416017951077001e-13 -1.0840089238582871e-12 -1.0846158626537095e-12 1.1616764919460352e-08 -9.310501810925429e-10 -1.3688455679129817e-09
1601 1.688691657660897e-12 -1.0831363704961767e-12 -3.265890273090628e-12 6.9168287083936035e-09 4.305552325464129e-10 1.7693872617031602e-11
1602 6.977409634972652e-13 -1.0836909018960229e-12 -6.1771641168432005e-12 6.897240896125958e-10 -1.1503199814931556e-08 1.838927095935506e-09
1603 -1.0829328661406597e-12 -1.2865155147067382e-12 -9.98444618715802e-12 2.6464420309252643e-09 5.30054581191229e-10 -4.218737913619359e-09
1604 6.977634436922008e-13 1.08356387410453e-12 2.1440744807254493e-12 -1.692584834106538e-09 7.225375479164135e-10 4.98325264288187e-09
1605 2.7061914266476844e-13 -1.5826321978035162e-14 -1.244840448360856e-12 9.060769392959918e-10 -1.5222893279974146e-09 2.4076080917020456e-10
1606 -2.1670668063567555e-12 7.975804725428817e-13 1.6960752486967033e-12 7.328304096335153e-09 6.910348492089775e-09 -1.7532832781618932e-10
1607 -9.18841213359913e-14 -2.6215199236771202e-14 -1.931618670331717e-12 2.802469290113923e-09 3.2271112346525228e-09 -6.362292537057107e-11
1608 3.8610714228833664e-13 5.418040487842925e-13 -2.3711353628266974e-13 3.9601014848582884e-10 -2.943720298226596e-10 -6.352634977533273e-10
1609 8.839956599349153e-13 -2.166981670982768e-12 9.27267530955074e-13 1.5313070183069444e-09 -2.636770181915238e-09 -1.3206975603625556e-09
1610 2.167923862509457e-12 -1.0835359571887552e-12 -2.502980975961652e-12 4.101128367737396e-09 -5.800450519528239e-09 4.1271765031784865e-12
1611 2.1885580644679325e-13 -1.2032543087514286e-13 1.3126135868488197e-12 -1.5156989384836422e-09 2.126286308421471e-09 1.4561202684086363e-09
1612 2.5654170934893337e-13 -8.134033229507726e-13 9.882614458823136e-13 7.898932608039245e-10 5.603388267599212e-10 -2.3340577291781075e-10
1613 5.421244446455795e-13 -1.1567144526845203e-12 2.1647168497925436e-12 -1.4281927765322885e-09 2.2555734818444305e-09 -1.545678297978692e-09
1614 -2.8668185983386583e-13 -7.694955105067229e-13 1.502931097929291e-12 9.382330452549772e-10 -1.7765063231508834e-09 3.510612301179528e-10
1615 1.0841934264821293e-12 -1.08398062140131e-12 -3.5099528058313887e-12 6.307854923659857e-09 -2.3372359421321753e-09 -1.866255897403858e-09
1616 4.861315299360346e-13 5.934689604805381e-13 5.49598044013319e-13 -2.979812721753331e-10 1.0917494941218518e-09 3.907162951754035e-10
1617 -2.6937351391224607e-14 9.378410844494476e-13 -1.7276126632451133e-12 -2.175496148184883e-09 -4.396467843986063e-09 1.6472854205062645e-11
1618 -1.6712336246339826e-13 2.1670422023246712e-12 6.397614031034244e-12 -2.1015580108037594e-09 1.005420799000555e-09 -1.9119138921944147e-09
1619 -4.942044275187401e-13 -5.418703317748648e-13 1.3432533296682298e-12 -1.0564043914220295e-09 -1.190162816226514e-09 1.1605784169420058e-09
1620 8.554583810859413e-13 4.3762622611756606e-13 1.8838264565891548e-12 -6.029259628484058e-09 -1.2021462209360003e-09 5.952519830253381e-09
1621 -1.0653907931799508e-12 -2.045677445467919e-13 3.5761624383852276e-12 6.4040210278477325e-09 -2.487336508083828e-09 1.363929942874641e-09
1622 -5.396047349994235e-13 -1.1545755786655992e-13 3.503605682368841e-12 1.2264871630971414e-09 1.7512196193270028e-09 -1.0556177224049003e-09
1623 -2.3624076111368624e-13 -2.1667514587798362e-12 6.534041451358466e-13 -1.7329347804813072e-12 -5.537970291759451e-10 5.428852915702582e-10
1624 -5.421148405722118e-13 -1.084193319183022e-12 4.903179340567052e-12 -6.202389428181703e-10 4.328129926715774e-09 4.758257197491028e-11
1625 6.313374114553732e-13 -5.421364201807781e-13 -4.192433756521341e-12 -3.132510316818745e-09 -8.731129226008572e-11 -2.0706700940428883e-09
1626 -2.7101919497187444e-13 3.679498560877586e-13 1.4135294570280472e-12 3.2892165739183174e-10 3.0845724129647593e-09 7.267421773638084e-10
1627 -7.298432984151597e-13 1.3098808316092405e-12 -2.6978882851639505e-13 7.980835429304549e-10 2.235989745303857e-09 -1.6651479114761174e-09
1628 1.0562869718023962e-12 8.485084172498262e-13 -6.140281904273325e-13 6.056280049686674e-10 1.6225980914457526e-11 7.350403503661249e-10
1629 1.8826966846069206e-12 -5.419305217717409e-13 7.620937906550352e-13 7.162610808225071e-11 -8.772128044043156e-10 -1.376577647653043e-10
1630 -5.976080682203515e-14 -4.248108505652296e-13 1.844114045683148e-12 -2.242543647211369e-09 -2.5864580283151955e-09 -1.3998145989610168e-10
1631 1.0975525137970787e-12 6.226833984958397e-13 2.8632621744485384e-12 -4.863709793441603e-10 4.029273864000818e-09 -2.1209014128869425e-09
1632 1.0838167401179782e-12 1.173187431635841e-13 -3.1815915541601745e-14 5.086472486549036e-11 3.384489828791024e-10 -1.1605436367293892e-09
1633 1.456096303817426e-12 4.035125996828309e-13 4.171177028609887e-12 -3.6574239104713997e-09 -4.383954473936418e-10 3.6794996861096253e-09
1634 -2.163057268454032e-12 -3.9366085334782794e-13 -3.776427051716025e-12 5.1267133473878395e-09 2.5643216732210747e-09 -1.8681517174347618e-09
1635 5.426109226289332e-13 -1.3263625851288255e-12 -4.990664233007795e-12 2.0547439518219793e-09 4.105459880388793e-09 -3.006285172023382e-09
1636 -4.422702056016178e-13 -1.084046069840505e-12 6.198099305589683e-13 1.403354490756607e-11 -1.398585691485968e-09 7.87503570373841e-10
1637 -2.167336335984465e-12 1.0845039879909842e-12 1.4330536054432904e-12 -7.665732623817202e-10 -2.511737126212348e-09 2.6627408491328055e-09
1638 -5.747313525301694e-13 -1.0810141700547484e-12 -1.648551241131647e-12 3.7169940455882707e-09 -4.353889102072015e-09 1.4828284148780132e-09
1639 -5.301247321544385e-13 -5.419609440382633e-13 1.715749782435869e-12 1.9429190486336993e-09 2.5879168746624443e-10 -8.051496750620459e-10
1640 -1.6588954063304179e-13 -1.405660897390761e-12 3.379149886153905e-12 4.977121484589746e-09 -8.239817461425089e-10 -3.371775040082724e-09
1641 1.9210712549984504e-12 -1.0842283783523776e-12 -7.306120591545116e-13 1.1994827747494345e-09 -4.5018061630580245e-10 2.692699493665208e-09
1642 -2.1263912540185433e-12 1.0842303828406616e-12 -1.0168917090247058e-12 -7.236020282963975e-09 -2.2087966689812538e-09 3.8177444804303785e-09
1643 -1.825149309960516e-12 -2.708840232947503e-13 1.5219311212226438e-12 1.7484320886242894e-09 -2.102757515782898e-09 -3.4598914348508647e-09
1644 1.5060583833539178e-12 1.9609001128583463e-13 1.8303264200540907e-12 -2.069323742311446e-09 4.306089829835165e-09 -3.0679897128411892e-09
1645 -1.0836229405143866e-12 1.9522155847052055e-13 1.0121061263042263e-12 -4.6856073175178696e-11 1.4713169851379109e-10 7.095999524994776e-10
1646 2.1680013503044417e-12 -8.043899887364765e-13 -7.093678844258969e-12 -6.635762732252378e-10 1.71393601819635e-09 7.238906135063723e-10
1647 -6.070085639563069e-13 -2.1674584968361687e-12 2.2011976345422107e-12 -6.3732417308654475e-09 1.4765684854959154e-10 4.350289716193279e-09
1648 -2.168425820803234e-12 -1.5779739807199358e-12 6.282493966245583e-13 1.1635850315565706e-09 6.127352319367515e-11 1.013158808335885e-09
1649 1.0834596009411436e-12 1.209598238122931e-12 3.2685054835551583e-12 -5.954675882442486e-09 2.7114585128362942e-09 1.8802076570240436e-09
1650 2.712232556588257e-13 -2.167985572256403e-12 4.567698642748291e-12 -4.514767956267959e-10 5.948302919288705e-10 -2.940626661627333e-13
1651 2.168078495654704e-12 -2.1681000840268743e-12 -4.2475517147539684e-12 5.146592392359457e-09 8.430748525565721e-09 -1.8437122102019687e-09
1652 -1.3881053347227461e-12 -5.41280800258624e-13 3.714681655787374e-13 2.9786911984176367e-09 -3.4216554430597595e-10 8.893556882374767e-10
1653 1.0839060734359613e-12 8.242713174874602e-14 -7.319766970847721e-13 -2.8043593368429332e-09 -1.3443688690205437e-10 2.338356046850324e-09
1654 5.418146045753125e-13 -1.0032990870671697e-12 -1.0333676825542214e-12 -1.5689443774494426e-09 -1.2824386656697993e-09 -1.1153258937474892e-09
1655 -3.3853215963409156e-13 -1.0838802721962208e-12 1.9774577281171177e-12 -4.364165789490118e-09 -2.050686257538709e-09 8.644110772402125e-10
1656 1.0441796398329229e-12 -1.0840939764037806e-12 -4.048693817569318e-13 1.5488468768674367e-09 1.8030749931972975e-09 -4.276484013457628e-09
1657 -2.167911338251495e-12 2.0641026977275725e-12 4.971626874385576e-12 9.893739276884858e-10 -6.538361419689759e-11 -3.728811013232579e-09
1658 -2.1447020475754754e-12 1.2373834936910928e-13 6.030637952129353e-13 -6.096845461802957e-09 4.756134190465123e-10 -3.2181509130886554e-10
1659 -9.710058190282002e-13 -3.663306491373406e-15 -3.9005193138626036e-12 2.5659070247011675e-09 -5.287967857950258e-09 -1.0026982292774894e-09
1660 4.824477311883286e-13 -2.167080925455699e-12 5.374545816357333e-13 -4.647900926830492e-10 7.485944627181605e-10 9.689198354699922e-10
1661 2.1682007204858165e-12 1.0632785854474152e-12 -3.833233348869367e-12 -1.7235517917637395e-09 -1.6086019281660594e-09 8.835114023856646e-10
1662 3.931043537705992e-13 1.1155968764770184e-13 5.07559235335207e-13 -1.3446594595566677e-10 1.0017377642924423e-09 -2.041047307123571e-09
1663 2.1640577695125718e-12 3.933013323294688e-13 -2.000272976689702e-12 -5.5538444633454595e-09 1.135465868281463e-09 -2.2796574889844534e-10
1664 5.496582655109168e-13 -2.168209374419197e-12 4.572120599720024e-12 3.3446090759122927e-09 -1.0348090361604926e-09 -5.920970443119388e-10
1665 -6.487741921838929e-13 -2.1682493430626642e-12 3.365694691607002e-12 2.0107326403815324e-09 2.38286084809266e-09 -2.303741042961397e-09
1666 1.3878945547830284e-12 2.8240757770485856e-13 -9.792709133566989e-13 -3.1541258939652164e-11 -9.993384182309144e-10 -3.2433174205429907e-09
1667 7.713819330359782e-13 2.1676290875508413e-12 -1.4617881542092735e-12 6.636446838360882e-10 -2.8907593743525573e-09 -2.951357008113892e-09
1668 -4.947774499603721e-13 2.1684457550929564e-12 6.233777543662648e-12 -5.04815059741109e-09 -6.169174435276162e-09 1.5088186044471568e-09
1669 -2.3008910514469583e-13 -8.367449160015225e-13 -2.4793749622186986e-12 1.2967381324631072e-09 -1.7099094545276423e-09 1.3445967616333212e-09
1670 -4.161933825132203e-13 -2.1684992975773325e-12 8.94405327486996e-14 1.0444588053571612e-09 -1.5887724061476709e-09 2.098963642804879e-09
1671 6.353699889512343e-14 1.7141413548786022e-12 6.235037531304756e-13 3.689232737166086e-10 -7.02727614732407e-10 1.5793935253899064e-09
1672 1.0838265529261388e-12 -2.1667192229478288e-13 9.541706707157411e-12 -4.410560833415858e-09 -1.3693339004251275e-09 5.176424141496316e-09
1673 -7.684660597883758e-13 -9.253263526092097e-13 1.2697710952030595e-11 5.711514227665804e-10 5.706705887748022e-10 -2.8945771214269785e-09
1674 -8.311021250327264e-14 -5.421172874890803e-13 6.827223492709446e-12 3.4820026980508875e-10 5.537857243946965e-10 -5.231577406238789e-10
1675 8.58151897511183e-13 2.1660382641333397e-12 -1.6160137261693206e-12 -5.7396701744177285e-09 -2.524719326346869e-09 1.1921354033625454e-09
1676 -4.074339796956439e-13 -2.166837144120827e-12 -2.0980644420307015e-12 -4.5385580221457946e-09 -3.5763940774463254e-09 -1.8732289439367395e-09
1677 -5.231450572679303e-13 2.3151671801249502e-14 3.580360094434113e-12 -9.799901790398131e-10 5.270655534019829e-09 1.7167846141733289e-09
1678 -8.037002939943809e-13 -7.414198111738083e-13 3.7274100456339626e-13 2.011322253101682e-09 2.3001838900685703e-09 -6.747777606741006e-10
1679 2.613206995454932e-13 -1.7114081354775479e-12 3.6337276142360747e-13 -2.7666577834432705e-09 -4.761208313575049e-09 -7.873230049587828e-10
1680 -1.0844628425752893e-12 -1.0839245532880905e-12 2.5906474794425353e-12 -1.0543305259755408e-09 -1.9584015783601383e-11 1.2569518829840402e-09
1681 8.365538168456067e-13 1.0330170667546549e-12 6.991395058105003e-13 -1.2817829623164035e-09 -5.087489450401749e-10 9.775117284748471e-11
1682 -8.218167368926649e-13 2.168254539061776e-12 -1.6737455887829096e-12 -3.4741586753907166e-09 8.958810873470609e-10 -8.008695195151411e-10
1683 -7.944270208562097e-13 -9.304216688872834e-13 -6.30507198367695e-13 4.16114102156914e-10 1.8907306664477134e-09 -5.595011296445702e-10
1684 1.0843683029052619e-12 1.0844132322351435e-12 1.0910142738154168e-12 -2.65094338518333e-09 7.93343294447199e-10 -2.4244120991539296e-09
1685 -2.0916942303502156e-14 -4.579532085318246e-13 2.682482935995372e-12 -3.5495926235766678e-09 -2.7283415096312975e-09 1.829484468278756e-09
1686 2.044652543210015e-12 -1.0969410443357103e-13 -4.2024515904171444e-14 3.111924280415354e-10 5.737942878027575e-10 -8.04780839685617e-11
1687 5.420089905759421e-13 -5.420066506678929e-13 -1.3309430782694305e-12 3.3782399123642054e-09 -2.4909548099490567e-10 3.2536695259949455e-09
1688 5.413921477769622e-13 -2.1640418835869264e-12 -1.573072893350991e-12 -1.869015292674733e-09 9.727178256167164e-09 -4.216856974525841e-09
1689 -2.1665199306215484e-12 1.143285220908622e-12 1.4142381592267662e-11 -3.3434089703588234e-09 9.273828920732585e-10 4.814249468119718e-09
1690 -5.247090741003079e-13 3.402163867534883e-13 -9.4356836269313e-13 6.637737991355515e-10 4.038132581238055e-09 -2.385706478728275e-09
1691 2.167470812045708e-12 -7.767784029714643e-13 1.7884749099955422e-12 2.4029098923842704e-09 3.546506398174955e-09 -8.768906153917527e-11
1692 -1.0992092691988825e-12 -2.168003329258627e-12 -2.2200555197353932e-12 -3.0656726050010606e-09 -5.933561577234909e-10 1.3956100873335375e-09
1693 -3.2462706628752036e-12 4.550412209020321e-13 -1.53301457069402e-11 4.134641316020681e-09 6.563314661670862e-10 -1.0945020816262339e-08
1694 4.553119321021917e-13 -2.103083819019853e-12 -1.1386011277558522e-12 -1.0459875521715003e-09 -9.168575451941473e-10 1.7356146579316315e-10
1695 1.0841758779309388e-12 2.1678720820945978e-12 1.4645676726483386e-12 8.110678552540157e-09 -1.739323470065828e-09 -3.3201997222313476e-09
1696 -2.1684039256598867e-12 -1.6198043558630208e-12 -4.281053296241421e-12 1.5068154302675156e-08 4.3865513456399517e-10 4.483929544873749e-10
1697 1.1140568985821385e-12 1.7756994913326015e-12 6.241999195793173e-12 -9.63001670800617e-10 2.188537065835461e-09 4.122753187990178e-09
1698 -2.167625566954634e-12 -7.010435443360636e-14 -4.567103493418484e-12 -4.853652369305784e-10 -7.024239479427394e-09 -1.9895144114002924e-09
1699 1.9715330466897124e-12 -3.024646803240078e-13 -1.7328431909725905e-11 7.43521265733842e-09 1.6146093853571742e-09 7.640663525781981e-09
1700 2.027897106036489e-12 -1.0838097244102273e-12 4.9653051729698225e-12 -1.5085229394420325e-10 8.417075134034897e-09 -2.157723568580522e-09
1701 -2.164954632274968e-12 1.7031355841997408e-13 -3.0936441482351465e-12 -8.322186636172003e-09 4.596894502744834e-11 1.3502501662456424e-09
1702 -5.986750560659028e-13 7.040471588705305e-13 -7.011957697251312e-13 -1.2492292596213743e-09 -7.661753058145118e-10 1.109976028977883e-09
1703 5.421338674414033e-13 -7.86679551767805e-13 2.4975087030727332e-12 3.395333412514339e-09 2.0191831214702506e-09 -1.751182885278523e-09
1704 -1.931468079646889e-12 9.983134743505025e-13 -6.647391816400253e-12 8.95691520807532e-09 1.5042841930624376e-08 2.0210608962051463e-09
1705 -1.2336306360695204e-12 -1.3218560525960513e-12 1.6674674241096327e-12 4.267537328851697e-09 8.119733909089205e-10 -6.475060312626506e-10
1706 -2.1684060355410515e-12 -1.029211420079484e-14 8.172350437341018e-12 -6.26279204127531e-09 -1.1597261688927395e-08 -1.3866596753252873e-09
1707 1.0826631004534401e-12 -1.084147304750697e-12 4.303395329044217e-12 2.117899849304047e-09 2.669521100210038e-09 1.8958866663398317e-09
1708 7.956108571449872e-13 2.913760804514116e-13 3.175126839057743e-13 -3.1795770348064815e-09 -2.2551322444866796e-10 3.032060528500997e-10
1709 -1.0842238675953665e-12 9.330239885218557e-13 -1.0850406087920112e-12 -2.2412494240472423e-09 -3.3690819204837828e-09 2.5913966351521086e-09
1710 2.1684976783060436e-12 -5.402517925823881e-13 -8.587064272639956e-12 -3.7668310014628605e-09 8.922827740507853e-09 2.6194844756421952e-09
1711 -2.048427000382443e-12 -4.751961462652758e-13 -9.921171570397706e-12 -1.228367247636155e-09 -1.2386268506626663e-08 9.486714565358117e-10
1712 -5.635607979781008e-13 -1.0841575093133744e-12 -9.568145519542426e-12 -1.536078554469766e-08 7.352752473664763e-09 -3.6745276800728524e-09
1713 -2.2452698958447605e-12 -1.2498156494035682e-12 -1.5846857505275258e-11 1.820880116029338e-09 -5.896720130718073e-09 2.4790908435918308e-09
1714 -1.479298287781445e-12 -5.410656031709863e-13 -1.2385083104801281e-12 9.492063395373836e-09 -5.0946294797908275e-09 5.134567928046735e-09
1715 -2.7106247975950573e-13 -6.566386868842117e-13 1.0085480647940962e-12 3.199699670362745e-09 1.9521416793155987e-10 4.287674221340986e-09
1716 -5.419672490859719e-13 1.6835825433405052e-12 -1.3979707690541656e-12 -1.2315061391422592e-09 -2.6726717899769543e-09 5.706511715669623e-10
1717 -1.0845629939023629e-12 -4.710926499223909e-13 -1.19309181935053e-12 3.1539092829558944e-09 -2.4283583480335667e-09 -3.096826001537648e-09
1718 -2.1551481754066093e-12 -4.6301046897585915e-14 -4.3301122191991654e-12 1.8008453524162424e-11 -5.385640913958249e-09 6.992409970613459e-10
1719 -5.423701339746557e-13 6.306225972527493e-13 7.287347766385582e-13 -2.18490270069236e-10 2.77658383365847e-09 6.983865272532398e-10
1720 -4.849528756123654e-13 -8.488134451660197e-13 5.127849225068615e-13 -2.1191251287905086e-10 7.861986300475744e-10 2.142444723819599e-09
1721 1.0842038145046964e-12 1.0173942688256588e-12 -6.523946090296064e-12 -1.3821396889682206e-09 1.6904162102877256e-09 -7.494588328459149e-09
1722 -1.7758276921273645e-12 1.5944799810673919e-12 1.7342574209132043e-11 -4.342059753206667e-09 7.0643237440411516e-09 -1.0063481659557042e-08
1723 -1.0846071770862292e-12 -5.289521381514116e-15 -1.0988114309406578e-11 4.104970024147641e-09 -1.4336342249125522e-09 -4.85128314449936e-09
1724 -9.212775734330397e-13 5.407697722933168e-13 -6.261210514527198e-12 4.3967360011234195e-09 -3.593693530080953e-10 -3.170647440632028e-09
1725 2.1674635254039357e-12 1.9949426971700228e-12 -3.4476026497407276e-12 5.393548680130907e-09 1.6960113681865024e-09 -2.6902750251731467e-09
1726 -1.6296043372810628e-12 -1.084178592666285e-12 4.244754967279761e-12 1.2793185500371222e-09 -1.3387858632882655e-09 -1.8040885974592294e-09
1727 -9.820570402080042e-13 -1.7652941819156486e-12 1.0797008891060445e-11 1.349052505041737e-08 5.676555433376615e-09 8.793466479063569e-09
1728 -2.1675602382161504e-12 4.4852918154145014e-13 4.073460045946484e-12 -4.843676010656434e-09 -6.292592224569688e-10 -4.234542557727158e-09
1729 2.301761086191793e-12 1.316139249365392e-12 -1.0254633412193692e-11 2.2267407349824606e-09 -2.063488570420676e-08 2.9946659155023944e-09
1730 4.846012985063928e-13 -9.099128489173653e-13 -1.2033545359070516e-12 -1.897732963542148e-09 -1.3740923920183046e-09 -8.644437057657977e-10
1731 -5.419580029714402e-13 3.526872609821299e-13 -1.183935606544038e-12 1.3330926570029427e-08 1.8268533674217252e-08 6.770179974959208e-09
1732 9.581933437279764e-13 -9.89404855365355e-13 -1.7618391680787373e-12 1.2431029517294117e-08 1.873064124138778e-09 4.675833291038915e-09
1733 -4.92099352998668e-13 -1.0841540916904163e-12 -2.5652918265556203e-12 3.6447638575165246e-09 -2.6046922620698896e-10 -2.5027001968329042e-09
1734 2.1654758334491416e-12 1.2853367334102322e-12 3.6298560201943765e-12 -8.626214427476883e-09 7.788497431512766e-10 3.091818404009979e-09
1735 -1.549182660085457e-12 4.86593506714013e-13 -2.04464885814371e-12 -1.2308562249880897e-09 -1.7957479364843824e-09 -4.6426094327631533e-10
1736 -2.1684776799992215e-12 1.0747656440683518e-12 -4.4835947070911454e-13 -2.5003144941338934e-09 -2.272422684034355e-09 -1.9142286481988964e-09
1737 1.9105067424161087e-12 -1.2192255416451974e-12 -3.5333755174665708e-12 -4.978211718879832e-09 -2.1476474933610472e-10 -2.0183328752664424e-09
1738 1.0835558125866626e-12 -7.928047248691279e-13 3.761331706388855e-12 -8.894989617390794e-10 5.938768766033902e-10 -7.345227046001345e-10
1739 1.507592797887553e-12 2.4052947663850135e-13 -2.1558214292570064e-13 2.7837379297733836e-10 2.4116308189709044e-10 1.89983314035103e-10
1740 -5.7643247197422e-14 1.3046941748021737e-13 2.0476136939086796e-12 -2.151250005251069e-09 1.4700055286459286e-09 -1.5031084461382622e-10
1741 -5.606755794013753e-13 1.0690487205900041e-12 -2.208876625993401e-12 -2.678574029940893e-10 -4.901554290011723e-09 -1.6632875273003432e-09
1742 -5.689105804689451e-13 2.1831399700892058e-13 4.171369518115332e-12 -1.0526875932010959e-08 -1.4026182599573067e-09 -3.954501035504747e-09
1743 1.306963589183456e-12 3.8035179181374615e-13 -8.319421703789009e-13 -1.4400302208846634e-09 -3.9968720944854306e-10 -1.1832436770306652e-09
1744 -5.421292633194578e-13 1.7967450714800488e-14 -1.28844836308835e-11 -7.496172825650477e-09 -4.837930725154674e-09 1.176371917045677e-08
1745 5.421613138321167e-13 4.98456475207785e-13 1.4582105788778056e-12 -5.430707504304979e-10 2.5621657348175275e-09 -3.163238492287088e-09
1746 -1.8780826338644365e-12 -9.037409338533079e-13 6.77499130762064e-12 -4.966904459967563e-09 -7.524357370601223e-09 -4.396973049289139e-10
1747 -2.1680583455460886e-12 2.7426647347790703e-13 -2.397088175507e-12 2.2746275989838964e-09 -2.926142631671089e-09 -7.189308708671143e-10
1748 -2.4224002243540083e-13 -7.675960837379593e-13 -1.7097507383540586e-12 5.634410760365307e-09 5.528966062213827e-09 3.154415822977374e-09
1749 -2.296628060757665e-12 -2.1683228910619272e-12 3.679268160254502e-12 -3.4874779882481952e-09 -4.828758169323659e-09 2.5161462191755763e-09
1750 2.167905658953988e-12 1.083764570550537e-12 -9.053304349139564e-12 -3.6381063172579435e-09 -6.878120818327406e-09 1.0329818249279669e-09
1751 6.447050366678793e-13 -2.167929965569612e-12 8.605899094942415e-12 -2.7314055715193774e-09 1.3431675473785523e-08 -3.0467398874120835e-09
1752 -2.168419530700643e-12 -1.0582719672102471e-12 -1.5122594589026438e-12 -4.3121382897778925e-09 -3.235842615563319e-10 2.245262507142147e-09
1753 -3.4676703562775555e-13 -5.418957558074348e-13 -1.2450564279946214e-11 -1.3113476932248324e-08 -5.6001257485568015e-09 -9.388582974139882e-09
1754 -6.839803448332854e-13 -8.001874056859194e-14 -1.1965349533864736e-11 9.918300648434299e-10 2.0203906628781356e-09 4.9445091391585e-10
1755 3.8898797324563836e-13 5.421034156332874e-13 -8.641394067390493e-13 -1.8193012115867762e-10 -9.801791903829111e-10 -5.318525344892168e-10
1756 1.7844301075226898e-14 -7.426445206656147e-13 2.657446443400717e-12 7.329871776147416e-11 1.2304432585206807e-09 1.4265047536754524e-09
1757 2.1668636882583708e-12 -2.376285211490511e-13 1.357137580414561e-12 -4.183837379847126e-09 -3.5143321619137683e-09 -9.566695143005522e-11
1758 -4.009817907534629e-13 -6.787251263856801e-13 -3.3295264738189104e-13 -3.5990685068336575e-09 -2.9609909823324197e-09 -3.237002816420694e-09
1759 5.314427693908254e-13 -2.1684122117257793e-12 2.2294362555636944e-12 -1.4195229122654459e-09 1.017957622447381e-09 -8.965427618759665e-10
1760 2.167900213026126e-12 1.0836511384740577e-12 -1.0068349583772897e-12 -4.501961603237009e-09 7.615432238834083e-09 -3.1416518194865413e-09
1761 -7.536355427487121e-14 3.841941284787165e-13 -1.2195855698207216e-12 -2.889160683398043e-09 1.065829392579302e-09 -2.59104935324533e-10
1762 9.449909715480234e-13 -1.1025634717294812e-12 7.978401598316278e-12 -9.0688702168972e-09 1.103051048171086e-09 2.1264486635002136e-09
1763 -1.8729388195145167e-12 1.0843670872544484e-12 -5.107361538481987e-12 -1.3705509123475604e-08 1.4244824372253454e-09 6.018880792870569e-09
1764 -1.7671360153717228e-13 -2.1676473089138566e-12 8.908611747022973e-12 1.0707142924024698e-09 1.3397297107743423e-08 -4.683071491969407e-10
1765 6.006198727627641e-13 -1.9715262372443168e-13 7.158103094015078e-12 2.928455619130051e-09 4.534182741661956e-09 -2.881671987613382e-09
1766 1.9181130770862904e-12 -8.600003730728817e-13 -8.669995272209217e-13 -1.3334450512396235e-09 3.251026956004375e-11 -2.6550764557474312e-09
1767 3.9946882096731957e-13 -1.5166639978695626e-12 -6.9498940034547314e-12 9.37025611481939e-09 -1.4942154980948166e-10 -1.71495855685493e-10
1768 1.2709668164957904e-12 -2.1675777898278364e-12 -7.483261862688392e-12 8.256839725672989e-09 2.9178963268747586e-09 -1.1743611655591802e-10
1769 1.8794881418397851e-13 -1.082652917258072e-12 -3.3844109438835663e-12 -4.080562032925698e-09 4.3069838309367875e-10 -9.822685128430719e-11
1770 1.0842073070250736e-12 9.185861433416512e-14 -8.667728349479616e-12 5.758636421502607e-09 -7.43510103222729e-09 -2.2283870669674673e-09
1771 1.3031838633653618e-13 -4.013643488447184e-13 4.627056789806537e-12 1.5076933021684884e-10 -1.516022158058447e-09 -4.121537215584082e-10
1772 -2.1682237301784705e-12 -2.667586611167669e-13 -5.956926620524753e-12 3.9240160990088336e-09 -5.700527002681636e-09 1.99795847183986e-09
1773 -2.4157453685711607e-13 -2.1620996222478696e-12 3.2355594169081804e-13 -8.222463482904429e-11 2.4152851527218096e-09 -1.728966700238136e-10
1774 5.515450385283635e-13 -9.347841763973712e-13 4.997718540063874e-12 3.4932398459232177e-10 1.760203246437427e-09 7.444448413537367e-10
1775 -7.034110601422772e-13 3.274676429527915e-13 1.104480368492862e-12 -1.2232412686556277e-09 7.573428955323345e-09 2.844716223018228e-10
1776 -9.570847203227223e-13 -1.084442922274593e-12 -8.501289299279434e-12 3.6677667826223335e-09 -1.266639998425808e-08 -1.1548232465448146e-09
1777 -1.1648367182407405e-12 -2.449768921993255e-13 5.437055507417044e-12 3.7132003854779908e-09 1.311626718275942e-08 2.0015571502404115e-10
1778 -5.330086442962012e-14 -2.165335560828833e-12 -9.338636525793956e-13 -1.0286332430736114e-09 7.865412385149336e-10 -1.0164744927265034e-09
1779 -1.0842082090737838e-12 2.167930594879977e-12 2.6188526086803867e-12 1.6145974181459754e-09 1.0178792805984508e-09 1.673923764208517e-09
1780 -2.8413465471143647e-13 -5.416920095858322e-13 -1.2421311024358315e-12 -1.0894153099426594e-08 -1.5534696009265844e-08 -1.5993708053324701e-09
1781 7.62645922669144e-13 -2.7285899621625685e-13 5.864199632951505e-12 -1.4514913767102079e-09 -1.4532571773546368e-09 8.364055699910776e-10
1782 -2.168395196545703e-12 1.083452148139172e-12 2.874407554152594e-12 1.3143785430202188e-08 3.5258422983740497e-09 3.666740547516773e-09
1783 2.168311284629505e-12 -5.366687366871906e-13 3.6690337932848015e-12 7.669701143156806e-10 -6.828819400700328e-09 3.441622793436465e-09
1784 7.287453673053047e-13 -4.582961723186869e-13 -1.1251928462076614e-11 4.011348510476374e-09 3.6319372409321824e-09 5.057810114175511e-09
1785 1.0840755233546453e-12 -1.084202633860527e-12 3.704396879573293e-12 -2.2911269028649595e-09 8.801122255795511e-09 -1.3270474196284809e-09
1786 -2.0769129638919466e-12 5.415197556782303e-13 2.556568877840371e-12 2.5840495793598356e-09 -3.0996093789382396e-09 5.957375459052681e-09
1787 2.1684482616158715e-12 2.168307523125769e-12 5.65462872465767e-12 3.6384973573184414e-09 5.459103038134815e-09 -3.786787875281246e-09
1788 -8.541486264216515e-13 -4.810692809893653e-13 1.0356119238017547e-11 6.016412489154066e-10 7.202065223023344e-09 -5.365098638746235e-10
1789 -2.4108689139137754e-13 1.7969225543688736e-12 -4.390022468412932e-12 -4.988139270739286e-09 1.9365227317758366e-09 4.769873847115977e-10
1790 -2.1683491831023735e-12 1.0843479879578456e-12 8.044020768686012e-12 3.6097968191368986e-09 -1.658288646210754e-08 -1.0316100090420016e-08
1791 2.501190346292549e-12 2.168437431670257e-12 2.0608547539141132e-12 7.231871834343511e-10 6.84708897384605e-09 -3.579574441280458e-09
1792 1.083715405129322e-12 -8.768287059170148e-13 3.901057924276751e-13 2.570223145911556e-09 6.719847378468256e-10 -1.6670560350556505e-09
1793 -1.083436921447568e-12 -9.56183060344877e-13 -8.419808332891002e-13 4.092510925221442e-09 -7.0029174385212e-09 1.3250091204222523e-09
1794 5.906112805142115e-13 5.395851755212322e-13 5.147628976428084e-13 7.599845758871906e-10 2.043875959348778e-09 1.2898628166676412e-09
1795 -2.586962241433753e-13 -1.0841085749400731e-12 -2.4199418013714038e-12 4.322114021879785e-11 -1.4698119677267458e-09 -2.37217940299012e-09
1796 2.007094907385684e-12 5.692460334293154e-13 3.825855342886782e-13 -1.57318711966651e-09 4.64738021908832e-10 -5.724659213865015e-09
1797 -2.1640023408061785e-12 -3.816337037450903e-13 3.722222488354679e-12 7.394637260746483e-09 1.1400866408260994e-08 1.8891221343247583e-09
1798 -9.937740014858604e-14 -1.0838004869788956e-12 -2.774031003569584e-13 7.238105458232402e-09 2.551420239408895e-09 -3.307179267899561e-09
1799 1.18077234033413e-13 -5.792768085050828e-13 4.149393311428889e-12 1.6521267567125282e-09 -3.0399794634294223e-09 -9.396211402676202e-10
1800 -1.3000038356515566e-12 -7.638952190591419e-14 1.035362843935603e-12 1.4097443275822443e-09 -7.645620165156149e-09 3.338783537305242e-12
1801 1.0820440254884912e-12 -1.0829857594762233e-12 5.90971368056666e-12 -2.8050294340840586e-09 6.533452180147016e-09 -2.25303121886027e-09
1802 -3.4434323466386413e-13 -1.4337716734201427e-13 -3.6365405271992984e-12 -2.8637577657073725e-09 9.716145846083155e-11 -3.103156145374232e-09
1803 -6.802073483059439e-13 -2.292345055487669e-13 2.6295030242522095e-12 8.438925721381733e-10 -1.5317697121349915e-09 -6.527968791347472e-10
1804 1.080244438108023e-12 6.966243045655364e-13 1.1229412221780567e-11 3.096201319672635e-09 3.9041909507679347e-11 -1.877179455186359e-09
1805 -2.7176517825812176e-13 -1.0835211521447903e-12 -1.6050102500667644e-11 4.307142314815646e-09 -8.642072326191179e-09 7.101337326985143e-09
1806 4.437202618945348e-13 2.026353319569506e-12 3.104908223109286e-12 -5.846499309348474e-09 4.761281774688752e-09 1.2295273305096044e-09
1807 2.0151824077487276e-12 -1.0839565978490023e-12 1.0018912694339095e-11 2.391882619603346e-09 -2.2653427642410946e-10 -4.400178108353013e-09
1808 1.666137288037333e-12 2.2327915157174653e-13 -8.421382917457146e-12 -6.88698674457209e-09 2.2483401151369382e-08 -2.147510836599419e-09
1809 -6.010216802893151e-13 1.5969634642087258e-12 1.1766794642973987e-12 3.564618305762395e-09 7.666596170927082e-09 -2.70121574378978e-09
1810 -2.168111026275632e-12 7.837601590956923e-14 -1.8349594175452405e-12 1.7404705547443652e-09 -1.2902806831960145e-09 -5.483835944480586e-10
1811 5.89486681337919e-13 -1.1914132434304463e-12 4.7574357774269014e-12 4.133011901356009e-09 -3.077911898504242e-09 5.382836500972947e-10
1812 -4.3602849888195125e-13 -2.1408628431732698e-12 -9.711787980470224e-13 5.848654725653446e-10 -2.061967832601817e-09 -1.1739568703291083e-10
1813 -9.138209208353562e-13 2.168248541942731e-12 -9.12189829545185e-12 -2.7913563859550413e-09 -1.573303829035409e-09 -3.4808334715948983e-09
1814 -1.0850369442893961e-12 -1.084568776001635e-12 -5.574964328563117e-12 1.948836128346747e-08 -4.968215319008931e-09 5.439339381221627e-09
1815 3.976408113236427e-13 1.0074163034299705e-12 6.7628748745027334e-12 -1.609562319253585e-09 -7.4191635227730426e-09 -2.733968828686333e-09
1816 -5.421196457851138e-13 -2.1682026581510995e-12 -3.159232955676609e-13 -3.965244962292946e-09 2.3684018469111537e-09 3.0625774801035455e-10
1817 1.064135146102493e-12 6.178229621934804e-13 4.5799256748621704e-12 -2.0188320065845796e-10 -3.0689288026812134e-09 3.5368420115619205e-11
1818 2.1685165857295695e-12 -5.38088022862268e-13 6.965358727565926e-12 -7.653410447505313e-09 1.283052050629446e-08 3.0457406614698142e-09
1819 3.4197666091766237e-13 -2.1680368559250276e-12 4.505835797636894e-12 -4.937101423222534e-09 -1.2569528591857186e-08 2.0867710085571165e-10
1820 -1.0841045007849659e-12 -5.419678251456368e-13 4.001623676149751e-12 -1.9768080398653857e-09 -1.5886363303831346e-10 -1.0000028460704582e-09
1821 -2.2377252863693e-13 -1.2613411337836665e-12 -8.617031817113448e-13 -1.1366248632754873e-09 -2.765242946287224e-09 6.123766060767474e-10
1822 -1.4224262258487744e-12 5.471748555666259e-13 4.3980848780459805e-12 1.4061237098878052e-09 -6.4825357400340685e-09 1.73892728197783e-10
1823 -2.167090087816402e-12 6.946155499024466e-13 8.196579078955334e-12 7.396214610653091e-09 -4.947997328972526e-10 -1.1864832913497115e-10
1824 1.2859981052309091e-12 2.168325427840166e-12 2.465340941610451e-12 -1.1338249644397584e-09 -8.844799503256193e-09 3.0626544811021314e-09
1825 -5.420562816480885e-13 1.1174412167629844e-13 9.731334339491896e-12 2.6363699314615623e-09 -9.47515347179939e-09 -4.763390701626215e-09
1826 -8.275747423369817e-13 -1.0841654136413564e-12 -3.6891739425256586e-12 -9.053274091808832e-09 8.608838610762112e-09 5.634337948975821e-09
1827 -7.176912400625962e-13 9.673818227103309e-13 5.638475913591361e-13 -5.908354792805878e-09 -2.732009388602215e-09 -1.6602429477906152e-09
1828 1.083799777186726e-12 -1.0960281270289994e-16 3.7968575127310557e-13 -3.637876446334283e-09 -2.2428802926651824e-09 1.0302900340459574e-09
1829 -2.7125401099230054e-13 2.168285225824861e-12 -1.2760269130920246e-12 1.772322514405972e-09 -1.665983168213497e-10 -3.924611228617192e-10
1830 3.542218985224486e-13 -2.168229691064532e-12 5.47338893162003e-13 5.542774850775239e-09 1.2786705058479651e-09 -3.094243366421081e-09
1831 -4.1926015235519687e-13 -1.0823038925884732e-12 6.704130361832861e-13 -2.7558823474278294e-10 3.9050050688178287e-10 1.3717261563844629e-09
1832 2.7161215686737176e-13 -2.1683927584984037e-12 -2.34584530809689e-12 1.472438521333829e-09 1.5913684362919254e-09 9.7660612876312e-10
1833 -8.233404713841575e-13 -1.0839030900286152e-12 3.5380277788841776e-12 9.531305689703186e-10 -2.46121617277732e-09 2.618709506202825e-09
1834 -1.6415377858510805e-12 -5.420789742856944e-13 -4.919197344541543e-12 7.579902500972319e-09 -4.2809927845888755e-09 3.9133254117638595e-10
1835 5.405341581679049e-13 1.0771635557700725e-12 2.4225127707046796e-12 -3.977805979854128e-09 1.5880531789588799e-09 -1.3853955057963372e-09
1836 -1.0839503000363655e-12 -5.39005262364717e-13 3.5693661967056227e-12 4.2523677877926153e-10 -4.6778555630641515e-09 -2.4167584343071006e-09
1837 -3.1191708256087163e-13 1.4871764945570418e-12 3.4993591740964474e-12 -6.032300257564023e-09 -1.984117420197101e-09 -1.3019806978818737e-09
1838 -1.2307162865628144e-12 -3.5708110117155625e-13 -1.3330464828709419e-11 8.876903313259794e-09 -4.2395601011992e-09 7.370219147439137e-10
1839 9.832749699815332e-14 -5.683451169888485e-13 1.2909824748829314e-12 1.3052856667184576e-09 -1.2818332989843646e-09 2.7453468578978234e-09
1840 -8.583015680687961e-14 -1.084277006504724e-12 -1.4729047590278218e-12 2.1264633180665406e-09 -4.14391336507338e-09 2.6983636056725644e-09
1841 1.084262375252104e-12 -2.3014264317177655e-13 -2.60083704000755e-13 6.595016948676751e-10 2.2894355939260456e-10 2.2596811115800465e-09
1842 -5.421752807174546e-13 -1.0842208293350695e-12 1.5525865376915266e-13 3.344719314369249e-11 1.4394193433225512e-09 -4.847388834214239e-10
1843 1.084225532718661e-12 2.1681213309057317e-12 -1.4787423251516365e-12 -8.136756187861559e-10 3.2259834366826216e-09 4.905613701344933e-09
1844 2.1671000001944035e-12 1.550624484939263e-12 1.1915578967117541e-12 -6.523069236461334e-09 3.931065559153376e-09 3.156584006010965e-09
1845 -5.396971445466638e-13 -3.6651861662062263e-13 -1.2560809130976866e-12 1.6830405404700987e-09 3.5246300806539653e-09 2.220612337573322e-09
1846 1.251172206618131e-13 5.066646822965953e-13 -4.056723859778785e-13 7.60458587971607e-09 -1.3940087264450813e-09 -4.225548480380544e-10
1847 1.0841642102426739e-12 -1.9840472845912415e-12 -4.977419537239301e-12 8.096838856416654e-09 9.491359311011267e-10 2.530718668818045e-09
1848 8.706140077060175e-13 -6.983242053381684e-13 -1.7850285966003896e-12 -2.0384825509196877e-09 3.1612939894394356e-09 2.4315852706006887e-09
1849 6.376185468281082e-13 2.164226017301683e-12 2.6627890752930543e-12 7.165988813233824e-10 -7.705154205941339e-09 2.0265964588333473e-09
1850 -8.389665037097056e-14 -1.0838920165295034e-12 4.4749537805462136e-13 1.583781546273816e-09 2.946264355309827e-09 -4.515378556249069e-10
