LAMMPS data file via write_data, version 22 Jul 2025, timestep = 4000001, units = si

1850 atoms
1 atom types

-0.008 0.008 xlo xhi
-0.008 0.008 ylo yhi
0 0.07 zlo zhi

Atoms # sphere

1 1 0.0016 1600 0.0032504548336279 -0.002914219177135925 0.0019981900306911687 0 0 0
2 1 0.0016 1600 9.063358569871615e-05 -0.0020384770108418464 0.00400942297096234 0 0 0
3 1 0.0016 1600 -0.0009503622650177949 -0.0048245523417677185 0.003842649593257818 0 0 0
4 1 0.0016 1600 0.007007905975936254 0.0016521139797096558 0.0044606635911303314 0 0 0
5 1 0.0016 1600 -0.0039897304167749595 -0.0040839818943304036 0.0007994656859637214 0 0 0
6 1 0.0016 1600 0.005691401559848736 -0.0009848796170961274 0.0007999358558858011 0 0 0
7 1 0.0016 1600 -0.002926754328429857 -0.006578561664365229 0.0007996165289461526 0 0 0
8 1 0.0016 1600 0.0003162936815345856 0.0009645369229582994 0.004076100416869839 0 0 0
9 1 0.0016 1600 0.005027701304552598 0.005124821722375305 0.0007999358558858011 0 0 0
10 1 0.0016 1600 0.0037271573064877185 0.001999111011686725 0.0007991462046718697 0 0 0
11 1 0.0016 1600 0.003439777505380546 0.004654039394705167 0.001465752453527345 0 0 0
12 1 0.0016 1600 -0.0034052997519909475 0.0044355216420095935 0.003245182582424227 0 0 0
13 1 0.0016 1600 0.004774416850896098 -0.004358543851232341 0.0020013214839236506 0 0 0
14 1 0.0016 1600 -0.0014149015984203281 -0.0013166560871709823 0.0007995859321891731 0 0 0
15 1 0.0016 1600 0.0002894419288366704 -0.00402957387368002 0.002183425773184393 0 0 0
16 1 0.0016 1600 -0.006633104194610638 0.0027432996763647314 0.000799865670381078 0 0 0
17 1 0.0016 1600 -0.003754004357977461 0.004529358167683058 0.0016868632244151109 0 0 0
18 1 0.0016 1600 6.65757063551624e-06 -0.006102793490451193 0.003940689991429029 0 0 0
19 1 0.0016 1600 -0.001052124606518523 0.005512540076778768 0.0007997754736257144 0 0 0
20 1 0.0016 1600 0.005524764432269518 0.001588972400901163 0.0022354537767151844 0 0 0
21 1 0.0016 1600 0.00021018854341289998 0.000649032326988311 0.0024283844116624437 0 0 0
22 1 0.0016 1600 0.003019797646380264 -0.0008815193211089592 0.001702460935331402 0 0 0
23 1 0.0016 1600 0.004358526146377622 0.0026755204351182607 0.002103767433103506 0 0 0
24 1 0.0016 1600 0.0037965352168356256 -0.002692344316241054 0.0034849290420784973 0 0 0
25 1 0.0016 1600 0.003994066094679533 0.0016183653450902692 0.0032477045650273506 0 0 0
26 1 0.0016 1600 -0.0004530647582986706 0.005786641800292689 0.004401395756100107 0 0 0
27 1 0.0016 1600 0.0047438680246514 -0.005416116928332657 0.0007999330639918272 0 0 0
28 1 0.0016 1600 0.005808541393786647 1.1667162988826292e-05 0.004644854480737618 0 0 0
29 1 0.0016 1600 -0.0020561345868507597 -0.0054252974580443 0.0028560371137327026 0 0 0
30 1 0.0016 1600 -0.0035873380960848972 0.002042321941267282 0.0007997284539419504 0 0 0
31 1 0.0016 1600 -0.0010034169858678295 0.00023426977753512808 0.000799314018473956 0 0 0
32 1 0.0016 1600 -0.006623321221363787 -0.0028237238813496337 0.0030991211987001083 0 0 0
33 1 0.0016 1600 -0.0021416588416508925 0.001357900251583183 0.0007995529020327181 0 0 0
34 1 0.0016 1600 0.002063338227720451 -0.005497259421654161 0.0007995275138733819 0 0 0
35 1 0.0016 1600 -0.007045554530752392 -0.0014811033187252748 0.002339053178474095 0 0 0
36 1 0.0016 1600 0.00415262536524214 0.0008661186878090208 0.0018449626977743428 0 0 0
37 1 0.0016 1600 0.0032231229407195324 -0.004177450832788086 0.0029796744591287306 0 0 0
38 1 0.0016 1600 0.0015566454884914155 0.005231803202767635 0.003913530390686643 0 0 0
39 1 0.0016 1600 -0.005583268287485991 0.0011342480641339185 0.002143226490984465 0 0 0
40 1 0.0016 1600 -0.0014710414860813104 0.0028101177896256158 0.0007994172445692016 0 0 0
41 1 0.0016 1600 -0.0029947065670018983 -0.002681835602656641 0.0007990820961105548 0 0 0
42 1 0.0016 1600 -0.00016699301685330604 -0.007198114432607967 0.0018447049004757144 0 0 0
43 1 0.0016 1600 0.0005708724134670204 0.00434951338901435 0.0021246593223356912 0 0 0
44 1 0.0016 1600 0.006217036809711017 -0.0020142313950270285 0.00476289839520859 0 0 0
45 1 0.0016 1600 -0.0019416142883740513 0.0021715262788912595 0.003807570162879129 0 0 0
46 1 0.0016 1600 0.005318481079144776 0.00024175013744252613 0.0030762314252131243 0 0 0
47 1 0.0016 1600 0.007101032290469143 0.0011910828355881638 0.0007996283162947925 0 0 0
48 1 0.0016 1600 -0.006606262630562998 0.0028640114150583324 0.00361819078323927 0 0 0
49 1 0.0016 1600 0.002598613768927025 -0.003748516046941187 0.0007995441128446242 0 0 0
50 1 0.0016 1600 0.002837904475270225 0.0033294292215007315 0.000799935855885799 0 0 0
51 1 0.0016 1600 0.0022375911281974268 -0.0024644405631899587 0.0040975989680464 0 0 0
52 1 0.0016 1600 0.007085747367531574 -0.001282660770851491 0.003636912623332521 0 0 0
53 1 0.0016 1600 -0.006327251359163193 0.0012905231592243082 0.0035502118782932027 0 0 0
54 1 0.0016 1600 0.0033587865720552047 0.005025363571237192 0.0031945803900646948 0 0 0
55 1 0.0016 1600 0.005721309410224575 0.004371581436234793 0.003817911771294406 0 0 0
56 1 0.0016 1600 -0.0035386350729859563 -0.003168603424594154 0.004233245340376366 0 0 0
57 1 0.0016 1600 -0.004307088439357858 -0.005769798681025087 0.0007997742774219067 0 0 0
58 1 0.0016 1600 -0.006210828614987106 0.0036428131939353118 0.002278196544003851 0 0 0
59 1 0.0016 1600 -0.0054727774294978 -0.0012764351807021403 0.0007996405427591919 0 0 0
60 1 0.0016 1600 0.003634075954390918 -0.006216850162678058 0.00406380553849581 0 0 0
61 1 0.0016 1600 -0.004148150934789898 -0.001222106162720694 0.0030556809439404526 0 0 0
62 1 0.0016 1600 0.0005460796552937785 0.005587255746455995 0.0007999324671543204 0 0 0
63 1 0.0016 1600 0.0015688740601845837 0.0036931978521264207 0.004349443386363151 0 0 0
64 1 0.0016 1600 0.005236700007660991 -0.0017900673441350423 0.003430257203979447 0 0 0
65 1 0.0016 1600 -0.0015669287137207823 -0.005571008924659141 0.0013271807398676522 0 0 0
66 1 0.0016 1600 -0.0011335511699363233 0.00711031334666851 0.0007996712064025627 0 0 0
67 1 0.0016 1600 0.00482606910549015 -0.002777331069942474 0.0022400753480881427 0 0 0
68 1 0.0016 1600 0.001312394365795852 0.0016880980152967305 0.0029431155815172055 0 0 0
69 1 0.0016 1600 0.000509700012863151 -0.002449148702501381 0.0007992815225727526 0 0 0
70 1 0.0016 1600 -0.0029167598857315897 0.003494602056517395 0.000799265299579421 0 0 0
71 1 0.0016 1600 -0.00033574452387768767 0.0071926464045337845 0.0021836588821959498 0 0 0
72 1 0.0016 1600 0.001946072506468969 0.001870279039276392 0.0007999358558857908 0 0 0
73 1 0.0016 1600 -0.001304225771687851 -0.004169004082149854 0.002212251210914978 0 0 0
74 1 0.0016 1600 0.004034313923882175 0.0026218483323151966 0.004847131683552919 0 0 0
75 1 0.0016 1600 -0.002417711884643217 0.005350474447084376 0.002381068893372256 0 0 0
76 1 0.0016 1600 0.0037679759610808852 0.006116671143348283 0.000799935855885801 0 0 0
77 1 0.0016 1600 -0.0029105309832728374 0.0007241859206140483 0.0032630481804327626 0 0 0
78 1 0.0016 1600 -0.0035237044544440483 0.0021694850701074317 0.0035698129612431553 0 0 0
79 1 0.0016 1600 0.006930738996038491 -0.0019530419541575548 0.0011178472107870334 0 0 0
80 1 0.0016 1600 -0.007097599166554855 0.0012125138116921535 0.0008001530954686134 0 0 0
81 1 0.0016 1600 -0.0007323749528463088 -0.0006244096583902674 0.002121163136290497 0 0 0
82 1 0.0016 1600 0.0017142474347593263 -0.0006891044437269102 0.0007993820588992657 0 0 0
83 1 0.0016 1600 -0.004902335121651564 -0.00277066809810704 0.0007995234283176065 0 0 0
84 1 0.0016 1600 0.0004926819311218927 0.0008020766357615081 0.0007999000032974529 0 0 0
85 1 0.0016 1600 0.0010418905239511522 -0.00712427355409435 0.000799659001828992 0 0 0
86 1 0.0016 1600 0.0029357434438831253 0.0006086002317076052 0.0007999144420153839 0 0 0
87 1 0.0016 1600 0.0034308495783273727 -0.006330337891846898 0.000799650858352614 0 0 0
88 1 0.0016 1600 -0.0036009139373237597 -0.006235657941117944 0.002566384647190328 0 0 0
89 1 0.0016 1600 0.004438937457926769 0.0035975769312803258 0.0007994611661287156 0 0 0
90 1 0.0016 1600 -0.0020279871676423854 0.002183600859012664 0.002164895972345502 0 0 0
91 1 0.0016 1600 -0.0039367554718178445 0.0014068634404042083 0.0022257205065392394 0 0 0
92 1 0.0016 1600 -0.007064758256037736 -0.0013916610935544211 0.003935852315066983 0 0 0
93 1 0.0016 1600 -0.0016856885651866953 0.0042268530764790315 0.0015101730642504171 0 0 0
94 1 0.0016 1600 0.00046509991662610874 0.007185185070396158 0.0007993497496905026 0 0 0
95 1 0.0016 1600 0.0023137481887732132 0.006818561229734017 0.0007994527648361689 0 0 0
96 1 0.0016 1600 -0.007198471330506503 0.00016478239425054704 0.004279313367217761 0 0 0
97 1 0.0016 1600 0.0017607574802381578 0.0029278887626272283 0.002037723169065383 0 0 0
98 1 0.0016 1600 -0.006908388142761186 0.002028653148252766 0.0022045711623301743 0 0 0
99 1 0.0016 1600 -0.0008490016653585165 0.004614629998223744 0.002816891759159341 0 0 0
100 1 0.0016 1600 -0.005260240970770068 0.004916431407703664 0.0020623407396672027 0 0 0
101 1 0.0016 1600 -0.0015432570252098365 -0.0027655388943781094 0.0014660407720564243 0 0 0
102 1 0.0016 1600 -0.005545956691861888 -0.002072889386968217 0.0021852096331547604 0 0 0
103 1 0.0016 1600 0.0009689002547053445 0.006469580543581771 0.004738101510889536 0 0 0
104 1 0.0016 1600 -0.005790058225638866 0.00029132381057298895 0.000799561120589325 0 0 0
105 1 0.0016 1600 0.001568828933795684 -0.003073969543258772 0.0018215350157728522 0 0 0
106 1 0.0016 1600 -0.0002667339422426749 0.004030543813501544 0.0007994126226239949 0 0 0
107 1 0.0016 1600 -0.00562331691800971 -0.0008266636649322941 0.0035324402599078925 0 0 0
108 1 0.0016 1600 -0.002676993498396441 -0.0014531992215180564 0.0017725830888155039 0 0 0
109 1 0.0016 1600 0.003397037281153031 -0.0011649468578459779 0.003230147995691698 0 0 0
110 1 0.0016 1600 -0.0038869331615257433 -0.001066685812904657 0.0007998666835478878 0 0 0
111 1 0.0016 1600 -0.00272914026345328 0.005379430660730658 0.0007998925791332464 0 0 0
112 1 0.0016 1600 -0.002164742873621285 -0.003817377298219544 0.003578893288661089 0 0 0
113 1 0.0016 1600 0.0012756261096194684 0.006428458527027827 0.00195210362065233 0 0 0
114 1 0.0016 1600 0.004062482782221078 -0.0019124202098071536 0.0010515596100368744 0 0 0
115 1 0.0016 1600 0.0033442979819497715 -0.004934180834826902 0.0015752348189137387 0 0 0
116 1 0.0016 1600 0.00026592365454003556 -0.002218411695860492 0.0023631916669083655 0 0 0
117 1 0.0016 1600 -0.0040287095749453015 0.005962626972749749 0.0037926285542241893 0 0 0
118 1 0.0016 1600 -0.0006729084670521388 0.0016269399499153389 0.0015215687414700076 0 0 0
119 1 0.0016 1600 0.0006181508131534959 0.003115061473825464 0.0031414119388253245 0 0 0
120 1 0.0016 1600 0.0024003571212304954 -0.005500894185195302 0.003342281785322421 0 0 0
121 1 0.0016 1600 -0.006944694314878897 -0.0019020766864396106 0.0007994551856847096 0 0 0
122 1 0.0016 1600 0.0031203604020084894 0.0035630271494582347 0.0025915981400750562 0 0 0
123 1 0.0016 1600 -0.005475770366785614 -0.0046755966864390945 0.0007996326178654982 0 0 0
124 1 0.0016 1600 -0.0005875473402823538 0.00314237054212487 0.0020907250726682285 0 0 0
125 1 0.0016 1600 -0.0025495289412157426 -0.00018900510369512013 0.0007995800916096757 0 0 0
126 1 0.0016 1600 -7.592931341680246e-05 -0.005332310101103141 0.0007995074685652477 0 0 0
127 1 0.0016 1600 0.006970529035906246 0.0003118369599184036 0.003587376013505745 0 0 0
128 1 0.0016 1600 -0.0005522094281543968 -0.0033517817117425723 0.0033626840306074162 0 0 0
129 1 0.0016 1600 0.004223334962871539 -0.00034112064479444336 0.000798580925879859 0 0 0
130 1 0.0016 1600 -0.0025907633179507923 -0.006717738584086869 0.00370965874140793 0 0 0
131 1 0.0016 1600 0.0010684906057313913 -0.004214468152615411 0.0007988424559963972 0 0 0
132 1 0.0016 1600 -0.0030418898433929495 -0.005046585192410736 0.001654995038398763 0 0 0
133 1 0.0016 1600 0.002632902964267026 0.002394560769610875 0.0035700258208747147 0 0 0
134 1 0.0016 1600 -0.004111137239831171 -0.005911341773724843 0.004047397334583559 0 0 0
135 1 0.0016 1600 -0.004568520110114786 -0.0048775568083667285 0.0021015067559718003 0 0 0
136 1 0.0016 1600 -0.0042153422250331505 0.0005712044437708818 0.0007995848861265708 0 0 0
137 1 0.0016 1600 -0.006363003261259582 -0.0033697380330594637 0.0010582011090231633 0 0 0
138 1 0.0016 1600 0.007188541225812643 -0.00040642280011466737 0.0007998900234241877 0 0 0
139 1 0.0016 1600 -0.005049007072028294 -0.0046894662337654556 0.003615605295377466 0 0 0
140 1 0.0016 1600 0.004622818251997746 -0.0009254964369406839 0.002232113720217529 0 0 0
141 1 0.0016 1600 0.005326427339709005 0.0022661320161629084 0.0007997493238778945 0 0 0
142 1 0.0016 1600 0.004177013011284109 -0.0034882306698049807 0.0007996414122545932 0 0 0
143 1 0.0016 1600 0.0061999663039372654 -0.0011765283339336015 0.002309741181985352 0 0 0
144 1 0.0016 1600 0.0017039588757207617 0.0005758404603549347 0.0018203999289239149 0 0 0
145 1 0.0016 1600 0.005494139958767809 -0.0025803973211177764 0.0007997397162875451 0 0 0
146 1 0.0016 1600 0.005549499843897143 0.0006162908540351168 0.0007999358558858011 0 0 0
147 1 0.0016 1600 0.004422390305637453 0.005682601854758137 0.0021971462592976524 0 0 0
148 1 0.0016 1600 0.0021061881721588737 0.005232458462814226 0.000798523831605956 0 0 0
149 1 0.0016 1600 0.001010541629808427 -0.007128849467438357 0.00292570013091109 0 0 0
150 1 0.0016 1600 0.002974281023600884 0.0003077971464646777 0.002771230337087797 0 0 0
151 1 0.0016 1600 -0.0012583555235626683 0.007089384220610023 0.004863502493107556 0 0 0
152 1 0.0016 1600 0.006725021462545774 0.002572174134679011 0.0015138515885567468 0 0 0
153 1 0.0016 1600 -0.004751852210440128 0.0008266876126276588 0.0034743843250640656 0 0 0
154 1 0.0016 1600 0.002462545830677273 -0.0021122747925174873 0.0007999358558858011 0 0 0
155 1 0.0016 1600 0.0065445060873964706 0.003002141197356803 0.003736999328077521 0 0 0
156 1 0.0016 1600 -0.0004607310501471287 -0.0055048498563406625 0.0024806124718455766 0 0 0
157 1 0.0016 1600 0.006023235971078968 0.0038200394386463726 0.0007996797447826933 0 0 0
158 1 0.0016 1600 0.0009537858094266776 -0.005930376848069164 0.0018674385512646955 0 0 0
159 1 0.0016 1600 0.004782099645747343 -0.005383409942734692 0.004801963827094951 0 0 0
160 1 0.0016 1600 -0.0027898840021453723 -0.0035409295881110173 0.002132723778171171 0 0 0
161 1 0.0016 1600 -0.0052256263336447235 0.0019236062286966732 0.0007992888344237572 0 0 0
162 1 0.0016 1600 0.0010513752197519415 -0.003219023505121822 0.0033332274499227313 0 0 0
163 1 0.0016 1600 0.0021521006861194474 -0.006871489836739695 0.004128666744378589 0 0 0
164 1 0.0016 1600 -0.005022819604016607 -0.003526227251124158 0.004713290839493068 0 0 0
165 1 0.0016 1600 -0.004431241280452425 0.005675208805832234 0.0007996550832457146 0 0 0
166 1 0.0016 1600 0.0016490259701257932 0.007009128209777552 0.0033949461748375904 0 0 0
167 1 0.0016 1600 0.0009140856501452581 -0.0007665650641702398 0.002186348533632552 0 0 0
168 1 0.0016 1600 0.004297122384013561 -0.00026450437126291086 0.00419882320318025 0 0 0
169 1 0.0016 1600 0.0014944884476916149 0.00015465594721241616 0.0033579684487339027 0 0 0
170 1 0.0016 1600 0.001321170601149829 0.003839073651912233 0.00079933914106472 0 0 0
171 1 0.0016 1600 0.00653779505545741 0.0003649743296979367 0.002048112024707918 0 0 0
172 1 0.0016 1600 -0.0045052345708664005 0.0033474738322920297 0.0009135117076917271 0 0 0
173 1 0.0016 1600 -0.002486782087354214 0.006756974888099268 0.0015766212899210837 0 0 0
174 1 0.0016 1600 -0.0058808433439920425 0.004155057029624035 0.0007994516269644624 0 0 0
175 1 0.0016 1600 0.0019814600620774313 0.00505908801655885 0.0023824348627458597 0 0 0
176 1 0.0016 1600 0.00046865509690473966 0.002484966797655363 0.0007999358558858035 0 0 0
177 1 0.0016 1600 -0.0004564316581321891 -0.0037316194417629043 0.0007997642761855506 0 0 0
178 1 0.0016 1600 -0.001371405864041282 -0.007068423691055376 0.0007996822011826147 0 0 0
179 1 0.0016 1600 0.0031795281875133053 -0.004757141429103006 0.004534360944459156 0 0 0
180 1 0.0016 1600 -0.003786854535748648 -0.00019984455899566472 0.004231240591077295 0 0 0
181 1 0.0016 1600 -0.002782017177923927 -0.0022908298426426235 0.003131000113927162 0 0 0
182 1 0.0016 1600 -0.0014573425244567126 0.004233351957526118 0.004246249850813493 0 0 0
183 1 0.0016 1600 -0.005108033973299839 -0.00039191902575159027 0.0020815190385572156 0 0 0
184 1 0.0016 1600 0.0001282019392114449 -0.0008959740121283873 0.000799505138148815 0 0 0
185 1 0.0016 1600 0.0015449578328793174 -0.005508352211519656 0.004704517852006838 0 0 0
186 1 0.0016 1600 0.003156749297323108 0.0037788924313583976 0.004176325626713641 0 0 0
187 1 0.0016 1600 0.005822883022928244 -0.004234789298757523 0.0007995906118773304 0 0 0
188 1 0.0016 1600 -0.0005362666144492855 0.0018973275987049845 0.00309414893394152 0 0 0
189 1 0.0016 1600 -0.0009816584670315636 -0.00713320147103429 0.003219865665335924 0 0 0
190 1 0.0016 1600 -0.004985975983061463 0.0026142598898925788 0.0022515026471472475 0 0 0
191 1 0.0016 1600 0.000323064849923717 0.005687559113039283 0.0030023350807142943 0 0 0
192 1 0.0016 1600 -0.0035297603378179622 -0.00013147523800572357 0.0020622076876011535 0 0 0
193 1 0.0016 1600 -0.002051322033176941 -0.004128012288339788 0.0007990442993246782 0 0 0
194 1 0.0016 1600 -0.0008282289276248194 -0.007152841875234055 0.004811930840796538 0 0 0
195 1 0.0016 1600 -0.0057465111241005225 -0.0008367986075531053 0.006613294208416246 0 0 0
196 1 0.0016 1600 -0.006632600017898771 -0.002731263527599823 0.004695970411890902 0 0 0
197 1 0.0016 1600 0.004228807783005319 -0.005825351597023854 0.006236298869783494 0 0 0
198 1 0.0016 1600 0.0018859836909366904 0.006475047609595203 0.007791244204370745 0 0 0
199 1 0.0016 1600 0.006565564472656493 -0.0029561883902557064 0.006007883965604245 0 0 0
200 1 0.0016 1600 -0.0004041548157574636 0.005679343930044944 0.00599606628020991 0 0 0
201 1 0.0016 1600 0.0051417437200810935 0.0028261827978701493 0.008785429165793956 0 0 0
202 1 0.0016 1600 -0.004448335285780239 -0.0008793624275215163 0.005519453365387876 0 0 0
203 1 0.0016 1600 0.005620848203496556 0.002741057882880981 0.005016768040356124 0 0 0
204 1 0.0016 1600 -0.0016442584810299208 -0.0019199668583611616 0.005769636679988802 0 0 0
205 1 0.0016 1600 -0.0027082193228589336 0.006671958347113796 0.003233876609317274 0 0 0
206 1 0.0016 1600 0.003295185739348979 -0.0027643628546660686 0.0077201401730430195 0 0 0
207 1 0.0016 1600 -0.007163254352025116 -0.0007287199575807689 0.00734865047247522 0 0 0
208 1 0.0016 1600 -0.002140298088375028 -0.0006625070585031017 0.0030554489260439556 0 0 0
209 1 0.0016 1600 0.004498652853013909 -0.004040567873673369 0.003981121257653046 0 0 0
210 1 0.0016 1600 -0.005520135761197418 0.0020874131581119187 0.0074251479255630914 0 0 0
211 1 0.0016 1600 0.0001407203277651697 0.004345486813724676 0.004044311898384037 0 0 0
212 1 0.0016 1600 -0.0032294295696311884 0.004955807537463609 0.004747639283235041 0 0 0
213 1 0.0016 1600 -0.0011329262347008155 -0.005633869359377072 0.0052097486718257575 0 0 0
214 1 0.0016 1600 -0.005732928826261498 0.00435589354125601 0.003627812243776955 0 0 0
215 1 0.0016 1600 -0.0011572347428557715 0.0005209931938193468 0.003638354085129291 0 0 0
216 1 0.0016 1600 0.0009107707044544768 -0.0049185580988985326 0.0033592883944584804 0 0 0
217 1 0.0016 1600 0.006165443213684902 -0.003718958735163394 0.004660270901385098 0 0 0
218 1 0.0016 1600 -0.0012054292601053542 0.006159411670941855 0.0030402864609780965 0 0 0
219 1 0.0016 1600 0.0040935876276596865 2.533109127451414e-05 0.007077388961952482 0 0 0
220 1 0.0016 1600 0.006987985732776978 0.0017376695986719276 0.0028631654257945055 0 0 0
221 1 0.0016 1600 -0.0017591318310561579 0.0006064152035515279 0.0021588877785974204 0 0 0
222 1 0.0016 1600 0.0024657073799809167 0.006765023643779946 0.005219183550959702 0 0 0
223 1 0.0016 1600 -0.001558373446256586 -0.002518922704182272 0.004289281513621942 0 0 0
224 1 0.0016 1600 0.0015119649460221265 -0.002693573648956505 0.005508702014311959 0 0 0
225 1 0.0016 1600 0.006087661553831152 -0.003844701753263556 0.007249394652320825 0 0 0
226 1 0.0016 1600 -0.00292601148261689 0.0012506564728893689 0.004773110347371269 0 0 0
227 1 0.0016 1600 0.000748151877419101 0.0008890201083832125 0.006422816408723364 0 0 0
228 1 0.0016 1600 0.004698064543304149 0.005455879750794652 0.008120807541669517 0 0 0
229 1 0.0016 1600 0.0030529351443460396 0.006509563470812854 0.0021838103359644854 0 0 0
230 1 0.0016 1600 -0.0014500325464327274 -0.003768661578247466 0.006747217715018142 0 0 0
231 1 0.0016 1600 0.002964361186899472 -0.006561891077923007 0.005474344570916651 0 0 0
232 1 0.0016 1600 -0.00528132419545835 -0.0021611006567878372 0.007674464639534876 0 0 0
233 1 0.0016 1600 -0.004090397875435307 0.002310054875604175 0.005058824353521119 0 0 0
234 1 0.0016 1600 0.006696241037793458 4.0704769650877334e-05 0.007697902509331533 0 0 0
235 1 0.0016 1600 5.186984532318941e-05 -0.000518860333354825 0.0035111436271183082 0 0 0
236 1 0.0016 1600 -0.005029202249257749 -0.005152800891670607 0.008441245292604498 0 0 0
237 1 0.0016 1600 0.00015207186349125174 -0.002101382430274418 0.00958777456474836 0 0 0
238 1 0.0016 1600 -0.0032190856160195518 0.004936226244158584 0.0066178538989486654 0 0 0
239 1 0.0016 1600 0.0028530674126845115 -0.0009860603395106997 0.0070553194675669235 0 0 0
240 1 0.0016 1600 -0.0008662014299355984 -0.005257778583595714 0.006741474479836676 0 0 0
241 1 0.0016 1600 0.001668822415586016 0.0006863397900762609 0.005130373805728009 0 0 0
242 1 0.0016 1600 -0.0036316537391843616 0.0037139584450511616 0.005672500518117423 0 0 0
243 1 0.0016 1600 0.0061345450407295585 0.003769873216367228 0.0023946655041461066 0 0 0
244 1 0.0016 1600 -0.0035242093072392934 -0.006278588277593454 0.007736928573357812 0 0 0
245 1 0.0016 1600 -0.0006225605429550495 0.00478871037512288 0.00801009152194438 0 0 0
246 1 0.0016 1600 -0.007199732401836239 9.080176661094893e-05 0.008722164497124173 0 0 0
247 1 0.0016 1600 0.0034046360816586243 0.0011627448826999486 0.0046631950905885915 0 0 0
248 1 0.0016 1600 -0.0034496406943665243 0.0030609062112364853 0.0022437639581279942 0 0 0
249 1 0.0016 1600 0.0004981687039909839 -0.002254504098333615 0.008034045058471793 0 0 0
250 1 0.0016 1600 0.0011909371669691967 0.002267931193162542 0.007102044230039454 0 0 0
251 1 0.0016 1600 0.004956758149442989 0.0028990961206897905 0.00357013288048811 0 0 0
252 1 0.0016 1600 0.0071151993512814805 -0.0011044591057971383 0.006662492913399005 0 0 0
253 1 0.0016 1600 0.0016135654258144026 -0.007017168712903806 0.008894195369580735 0 0 0
254 1 0.0016 1600 -0.002436850469774668 -0.005135240308103393 0.0059906368168391065 0 0 0
255 1 0.0016 1600 -0.007196555119257679 -0.00022857709671014257 0.00582968325860184 0 0 0
256 1 0.0016 1600 -0.006953952721918355 0.0018689865188391522 0.004903206359238668 0 0 0
257 1 0.0016 1600 -0.002226992910469813 -0.0002002717309987837 0.004584422187789986 0 0 0
258 1 0.0016 1600 0.0016419601067516735 0.00026614046086341936 0.008876892328978956 0 0 0
259 1 0.0016 1600 0.004603975677476691 0.004159090650746842 0.002649586992261471 0 0 0
260 1 0.0016 1600 0.00030511931912061423 -0.004500363184256674 0.004778952517927228 0 0 0
261 1 0.0016 1600 0.0016642218106783762 0.007005054459560568 0.009284427960371785 0 0 0
262 1 0.0016 1600 -0.0034411258667733056 -0.004714182156544613 0.003224652528914933 0 0 0
263 1 0.0016 1600 -0.0010695641956993043 0.0032773458507529356 0.006771724447701447 0 0 0
264 1 0.0016 1600 0.0013508822187593946 0.0021145448818210414 0.0044845534827342385 0 0 0
265 1 0.0016 1600 -0.007190757679234529 -0.00037175004703941637 0.0011957057088729508 0 0 0
266 1 0.0016 1600 0.0003700797205536721 -0.006098589352978891 0.008482531522239883 0 0 0
267 1 0.0016 1600 0.002579053527793067 -0.004974223218461399 0.007364589386931231 0 0 0
268 1 0.0016 1600 0.004626632639539657 0.005517546079474393 0.004036239561628551 0 0 0
269 1 0.0016 1600 -0.006631440491391261 0.002804410984278379 0.006160430079964488 0 0 0
270 1 0.0016 1600 0.00522240874608656 -0.0003360435277701126 0.008192924060890124 0 0 0
271 1 0.0016 1600 -0.004876701905039362 -0.00314419973671244 0.003167135458130262 0 0 0
272 1 0.0016 1600 0.005526999720705711 0.0010718213173334826 0.007129784037115137 0 0 0
273 1 0.0016 1600 -0.005497098598352627 0.0017257874237898163 0.005546711436555338 0 0 0
274 1 0.0016 1600 -0.003977238657077285 0.006002591078596079 0.005698628352601016 0 0 0
275 1 0.0016 1600 -0.004266482638835224 0.0007082457798254758 0.005457119875373724 0 0 0
276 1 0.0016 1600 0.0066319822541050805 -0.002803220522976513 0.0034342983900451894 0 0 0
277 1 0.0016 1600 0.007167589944264053 -0.0006859454884654812 0.005119096722927084 0 0 0
278 1 0.0016 1600 -0.006567500570062847 -0.002952318045580929 0.0071487675103085995 0 0 0
279 1 0.0016 1600 9.322932523284926e-05 -0.0019606296987290097 0.0056070699873491505 0 0 0
280 1 0.0016 1600 -0.003037467265329141 -0.0015791066269434824 0.004540942694045509 0 0 0
281 1 0.0016 1600 -0.00396076504666831 -0.0024536681703587714 0.002052891172801234 0 0 0
282 1 0.0016 1600 0.004364358205446822 0.003338941703361809 0.006238553787936062 0 0 0
283 1 0.0016 1600 0.003989418328237244 0.0038073642215416775 0.009302367956260884 0 0 0
284 1 0.0016 1600 -0.0034680096193770147 -0.004760047469712284 0.008452401461763204 0 0 0
285 1 0.0016 1600 -0.0021265665480941424 0.00032047049368324993 0.00609370882528763 0 0 0
286 1 0.0016 1600 0.001302767799721804 -0.004321952625942456 0.006016649239829506 0 0 0
287 1 0.0016 1600 0.007125828295096783 0.0010324952719221337 0.008877491824088557 0 0 0
288 1 0.0016 1600 -0.006781993106552159 0.0012236792644715313 0.006356652229714642 0 0 0
289 1 0.0016 1600 0.0028534034133262825 0.0017624998687620662 0.0021175044598520007 0 0 0
290 1 0.0016 1600 0.005473184471589407 -0.004678305128365129 0.008468463405578901 0 0 0
291 1 0.0016 1600 -0.005665017788345005 0.00034753923730324656 0.0046975999395476855 0 0 0
292 1 0.0016 1600 -0.0005411945998147929 0.00038043578235388907 0.007454909066079953 0 0 0
293 1 0.0016 1600 -0.0059251769843543444 -0.004091410489144601 0.002417493102735764 0 0 0
294 1 0.0016 1600 0.0020439590410969446 -0.001795880969253259 0.0026570775822576183 0 0 0
295 1 0.0016 1600 -0.003981038193058316 0.0018146406150399252 0.006575851370476036 0 0 0
296 1 0.0016 1600 0.0027028349824886797 -0.00023545961971482637 0.004330830977151548 0 0 0
297 1 0.0016 1600 -0.004546430394450677 -0.0037799402014346653 0.006219235942638921 0 0 0
298 1 0.0016 1600 0.003284339509125754 -0.0032388489112127107 0.00502735958626301 0 0 0
299 1 0.0016 1600 0.00024371474449949617 -0.006052815010187709 0.005908538207105189 0 0 0
300 1 0.0016 1600 -0.003706951698762787 -0.004518288132880012 0.0050748833142455745 0 0 0
301 1 0.0016 1600 0.004601880212177057 0.0004194853162365875 0.005612597855076139 0 0 0
302 1 0.0016 1600 0.0035907271804195597 -0.006241111470765582 0.0024643528639948873 0 0 0
303 1 0.0016 1600 -0.0028063969904451747 -0.0007825532016780422 0.0077702112310550795 0 0 0
304 1 0.0016 1600 0.00454258130976933 0.004160336196701699 0.004878147715249274 0 0 0
305 1 0.0016 1600 -0.0037424540197931616 0.0045768034960415585 0.008085431557449802 0 0 0
306 1 0.0016 1600 -0.0027552696840593763 -0.006652496074276279 0.006384583520594626 0 0 0
307 1 0.0016 1600 -0.000968317053833302 -8.62544734180697e-05 0.008923971479597793 0 0 0
308 1 0.0016 1600 0.0018055442560319266 -0.003937873341019063 0.004547119330087254 0 0 0
309 1 0.0016 1600 -0.002453641106426576 -0.005243733901784341 0.0043947709408944146 0 0 0
310 1 0.0016 1600 0.001347115166704339 0.006362637145448536 0.006289117716953286 0 0 0
311 1 0.0016 1600 -0.004819262025213489 -0.001999004197395286 0.004282525420493824 0 0 0
312 1 0.0016 1600 0.005828725333159489 0.003179659663065045 0.0073320188602672524 0 0 0
313 1 0.0016 1600 -0.0038180757828526765 0.006104751031073406 0.0022133317679361017 0 0 0
314 1 0.0016 1600 -0.006565108567567969 0.002957491282306051 0.008734437869337024 0 0 0
315 1 0.0016 1600 -0.004203028050265555 -0.0011413892882216137 0.007078072990603105 0 0 0
316 1 0.0016 1600 -0.003967974583177949 -0.0019403081139478875 0.008560098378184652 0 0 0
317 1 0.0016 1600 -0.0011657808146668903 0.007105303152587403 0.00685380365741562 0 0 0
318 1 0.0016 1600 0.003112981951783924 0.006492738838757109 0.0037821324129486446 0 0 0
319 1 0.0016 1600 -0.006146810352895858 -0.0037507444665717295 0.0058286384254971554 0 0 0
320 1 0.0016 1600 0.0025946488815529497 0.0035688609796526 0.005659088230533536 0 0 0
321 1 0.0016 1600 0.0064216784269009826 -0.003256246274579887 0.001914510155020929 0 0 0
322 1 0.0016 1600 -0.0012462603400157464 -0.0019681325739040346 0.0028205079219206187 0 0 0
323 1 0.0016 1600 -0.0022357764480500928 -0.005345972018539875 0.007563830767119812 0 0 0
324 1 0.0016 1600 -0.007194245659095125 0.0002903662904796015 0.002651919273820035 0 0 0
325 1 0.0016 1600 -0.0013479623165857215 -0.003917311957296084 0.005098215811708858 0 0 0
326 1 0.0016 1600 -0.0029534413795076764 -0.001048881757725702 0.006062827149810508 0 0 0
327 1 0.0016 1600 -0.00583111269121868 0.0034015176108062673 0.00491037953810635 0 0 0
328 1 0.0016 1600 0.0012752304854344134 0.005000621047361273 0.008049951512312581 0 0 0
329 1 0.0016 1600 0.0008918605749453649 -0.0005796743818359204 0.005722840112516551 0 0 0
330 1 0.0016 1600 0.0018748982910046594 -0.0046146389727746845 0.002120096252603164 0 0 0
331 1 0.0016 1600 -0.0021635557792269956 -0.0068680506524341324 0.002175161524551471 0 0 0
332 1 0.0016 1600 -0.0013501952892166847 0.0012502196864132673 0.005048842539329646 0 0 0
333 1 0.0016 1600 -0.005800410971780882 0.000685805385310075 0.008225593017093523 0 0 0
334 1 0.0016 1600 -0.004398630830922484 0.0037108716190454127 0.004268598253049943 0 0 0
335 1 0.0016 1600 0.00586345509692846 -0.004179448385948241 0.0031586744663624033 0 0 0
336 1 0.0016 1600 -0.0027926659931204268 0.0066369965176295235 0.004830751444831197 0 0 0
337 1 0.0016 1600 -0.0011606366310905772 -0.006775402935727117 0.006329993261059732 0 0 0
338 1 0.0016 1600 -0.0005523146699479703 0.00013615309244890272 0.005874312033123751 0 0 0
339 1 0.0016 1600 0.0060014472806241646 0.003978269566509809 0.005956490329334007 0 0 0
340 1 0.0016 1600 -6.726523172432266e-05 0.007200126093109727 0.003760435258103509 0 0 0
341 1 0.0016 1600 0.002271303773616461 -0.006832802675793297 0.001780767631793506 0 0 0
342 1 0.0016 1600 0.0035969196242584696 -0.0016997335869192907 0.004723050376946408 0 0 0
343 1 0.0016 1600 -0.0006685607346118936 -0.002387473761836504 0.006947784826332304 0 0 0
344 1 0.0016 1600 -0.007001368981485309 0.0016817688132732059 0.007873311019577544 0 0 0
345 1 0.0016 1600 0.0003780833291956038 -0.0071903365752769835 0.009916744792192124 0 0 0
346 1 0.0016 1600 0.006727221044451654 0.002567104790187537 0.006158778544391202 0 0 0
347 1 0.0016 1600 -0.0007722590578509289 -0.0030846263203080206 0.008728788983246034 0 0 0
348 1 0.0016 1600 -0.002090996974987249 0.005303151610872575 0.008380078846529998 0 0 0
349 1 0.0016 1600 -0.004004009150593346 -0.0059842873595134195 0.005641614292268729 0 0 0
350 1 0.0016 1600 -0.0005404836332164555 0.0029245636003893713 0.004320483475163924 0 0 0
351 1 0.0016 1600 -0.002829848106066497 0.0033973484371938507 0.004325036351916868 0 0 0
352 1 0.0016 1600 0.0023092454526212843 -0.0013087779458873974 0.0055865478780371385 0 0 0
353 1 0.0016 1600 0.005585137907133523 -0.004544484047752662 0.005901752302014466 0 0 0
354 1 0.0016 1600 0.007026717032839372 0.0015719501828296188 0.007374686027344081 0 0 0
355 1 0.0016 1600 -0.005472102949286343 -0.0023252773651223258 0.006095009706458089 0 0 0
356 1 0.0016 1600 -0.0022523172829021863 0.0038700683551165884 0.00768906449246716 0 0 0
357 1 0.0016 1600 0.0015043011090795366 -0.0018403534105460968 0.006862042977694522 0 0 0
358 1 0.0016 1600 0.00594591988879952 0.0012873953772621998 0.005600434928607519 0 0 0
359 1 0.0016 1600 -0.0008647041147463001 0.003992820882733899 0.009375691668589566 0 0 0
360 1 0.0016 1600 -0.0008384964325596514 -0.0009744749352337213 0.004759585159514923 0 0 0
361 1 0.0016 1600 0.0008630184591180097 0.004966522700474636 0.005329183420946074 0 0 0
362 1 0.0016 1600 0.005074254122470969 0.005108557083036403 0.006605293139362913 0 0 0
363 1 0.0016 1600 0.001374774004470724 -0.0011310695462281761 0.004301075803018169 0 0 0
364 1 0.0016 1600 0.005316437918729752 0.0014444871118405804 0.004130883030333731 0 0 0
365 1 0.0016 1600 0.0047450660687207505 -0.005415672273213456 0.003202370750046967 0 0 0
366 1 0.0016 1600 -0.002481237102989604 0.00633390393762143 0.006370157230914876 0 0 0
367 1 0.0016 1600 -0.003962755605558661 -0.0024024760966887657 0.005571920559620683 0 0 0
368 1 0.0016 1600 0.0015546788103517708 -0.007030328143111465 0.0072956062287746985 0 0 0
369 1 0.0016 1600 -0.0048350450394459565 0.0033248970802136676 0.00826477262562176 0 0 0
370 1 0.0016 1600 -0.005327838603098622 0.004843651380140801 0.008357684270907433 0 0 0
371 1 0.0016 1600 0.005678034006414825 -0.00041118902741680267 0.006549816674541912 0 0 0
372 1 0.0016 1600 0.006265596081840229 0.0035474408028560622 0.009771420503894764 0 0 0
373 1 0.0016 1600 -0.001786194557750764 0.005457408474601269 0.0052220551443067425 0 0 0
374 1 0.0016 1600 -7.38632437261291e-05 -0.003508298023999358 0.005974302699965463 0 0 0
375 1 0.0016 1600 6.261910929827387e-05 0.007200489078087273 0.005834280419016471 0 0 0
376 1 0.0016 1600 -0.005003077856243129 0.005178225549140442 0.00478948207581661 0 0 0
377 1 0.0016 1600 -0.005639296446931675 0.004477550975628539 0.006078817391683158 0 0 0
378 1 0.0016 1600 0.003985083051581142 -0.004196843094707827 0.0075493941493008886 0 0 0
379 1 0.0016 1600 0.0033775784340133322 -0.0044327308923732415 0.006088331782373213 0 0 0
380 1 0.0016 1600 0.0029110280280059088 0.005246322176147695 0.0047642091630743875 0 0 0
381 1 0.0016 1600 -0.002050632099308241 0.0039558877282555365 0.0057054626834795175 0 0 0
382 1 0.0016 1600 -0.0031570804955107987 -0.0041372820418722304 0.007012187382275958 0 0 0
383 1 0.0016 1600 -0.0007810270816660327 -0.007158080798141419 0.008815415744612594 0 0 0
384 1 0.0016 1600 -0.0009240714394320412 -0.004736067310440256 0.008252131018445987 0 0 0
385 1 0.0016 1600 -0.005951306404464729 -0.0011831564912387963 0.005064836567250663 0 0 0
386 1 0.0016 1600 0.0007699221813605317 -0.0071590773893222244 0.0048803906382902055 0 0 0
387 1 0.0016 1600 -0.00521154175378195 -0.004968334362106327 0.005379815664855318 0 0 0
388 1 0.0016 1600 -0.004732026037480727 0.0054266751107156065 0.00699224335491842 0 0 0
389 1 0.0016 1600 -0.004957340742356953 0.00304442688628806 0.006273420484862811 0 0 0
390 1 0.0016 1600 -0.005106515480043048 0.002346859127614272 0.00382399521995683 0 0 0
391 1 0.0016 1600 0.004368141931610975 -0.005724438068020949 0.007826762817190573 0 0 0
392 1 0.0016 1600 -0.0020851381783115676 0.003591268111078141 0.002922590142008259 0 0 0
393 1 0.0016 1600 -0.0023819255909442692 0.0067947142252534915 0.012341975332320882 0 0 0
394 1 0.0016 1600 -0.005739455540339141 -0.0043472959794108364 0.007255773560182011 0 0 0
395 1 0.0016 1600 -0.0021228915431733275 -0.0045757234173212594 0.009298530917565603 0 0 0
396 1 0.0016 1600 -0.005053902461011742 -0.002717455796193549 0.011584136376638765 0 0 0
397 1 0.0016 1600 0.005524696310402413 0.0029209215678867397 0.012548543597628206 0 0 0
398 1 0.0016 1600 -0.004305280435995435 -0.005770948865480654 0.010881099124462093 0 0 0
399 1 0.0016 1600 -0.005069707006733016 -0.0007309291423229045 0.008358517978303878 0 0 0
400 1 0.0016 1600 -0.0036420254230182217 0.003246480441215686 0.007202228066072966 0 0 0
401 1 0.0016 1600 -0.0020012278207792757 0.006689982702324817 0.010787996784720305 0 0 0
402 1 0.0016 1600 -0.0018349467744890704 -0.00600109359377011 0.011406389309244187 0 0 0
403 1 0.0016 1600 0.0007548800811989274 -0.0013513645131425053 0.01086521539758594 0 0 0
404 1 0.0016 1600 0.006154974029343607 0.0015566067190763832 0.013096173652054515 0 0 0
405 1 0.0016 1600 0.0020252698522270573 0.0017284901253702422 0.008355231032660764 0 0 0
406 1 0.0016 1600 -0.002836741657992325 0.003838114738206453 0.009178090896140858 0 0 0
407 1 0.0016 1600 0.00311110546737289 -6.491715009687783e-05 0.008336790873925876 0 0 0
408 1 0.0016 1600 0.0015772408492984854 0.003241223440163026 0.00863899234095466 0 0 0
409 1 0.0016 1600 0.0017861233973909766 -0.005826195713181177 0.0062667732904658656 0 0 0
410 1 0.0016 1600 0.0014917167580153258 -0.0001939053148229852 0.007336014299657919 0 0 0
411 1 0.0016 1600 0.002878971906509295 0.004046809214533593 0.008175567753827238 0 0 0
412 1 0.0016 1600 -0.0009488289089187146 0.001688398307097563 0.006628616411141168 0 0 0
413 1 0.0016 1600 0.005588470388977776 0.0011305855367663533 0.00930868225997404 0 0 0
414 1 0.0016 1600 0.0024272951977227395 0.004385556851490234 0.012244824617082178 0 0 0
415 1 0.0016 1600 -0.0026239129196835224 -0.00324867129706909 0.00579332131423699 0 0 0
416 1 0.0016 1600 0.003054109777203259 -0.006520411431188967 0.0070705893639619695 0 0 0
417 1 0.0016 1600 0.005329780709378411 0.0023568085557133306 0.010302922416420921 0 0 0
418 1 0.0016 1600 0.0044089797433892325 0.0038344496687506705 0.007758893358736807 0 0 0
419 1 0.0016 1600 -0.006976266855997495 -0.0017829660372379824 0.006136621168438778 0 0 0
420 1 0.0016 1600 0.0042581706690183255 0.0038640190275568615 0.012291883235639872 0 0 0
421 1 0.0016 1600 0.004513157912110022 0.002273917146528272 0.007422336516859576 0 0 0
422 1 0.0016 1600 0.004388373037255431 -0.0022398825804203397 0.01167469584487393 0 0 0
423 1 0.0016 1600 -0.00046682098760061815 0.004016924906902888 0.005487391432189009 0 0 0
424 1 0.0016 1600 -0.0006785168682399653 -0.001581104020572039 0.011577801663152356 0 0 0
425 1 0.0016 1600 0.002228277620750697 0.005030883522787335 0.006195025736692052 0 0 0
426 1 0.0016 1600 0.003239267663136383 -0.0015894997543431804 0.00880341440771911 0 0 0
427 1 0.0016 1600 -0.0004546576312935571 0.007185877458719792 0.008284588304589328 0 0 0
428 1 0.0016 1600 -0.005318201765974363 0.0019942988027577438 0.009009408986373507 0 0 0
429 1 0.0016 1600 0.007089976991415333 -0.001255945269534811 0.008547655930167966 0 0 0
430 1 0.0016 1600 -0.0004783463994716291 0.00445447694608093 0.011893138965573044 0 0 0
431 1 0.0016 1600 -0.006237873042691223 -0.0035944640527643995 0.00857661904628428 0 0 0
432 1 0.0016 1600 0.004166804782372111 0.0058721261016444325 0.005532095929357546 0 0 0
433 1 0.0016 1600 0.0031189208391271565 0.001146737807809902 0.00938062346767563 0 0 0
434 1 0.0016 1600 -0.0018419765904699947 -0.002661998909643171 0.011368023313663688 0 0 0
435 1 0.0016 1600 -0.0032290086478500703 0.0006575849284756643 0.013489024501635794 0 0 0
436 1 0.0016 1600 -0.0015776727510408196 0.0004884758153799357 0.012045120859668624 0 0 0
437 1 0.0016 1600 -0.005381436162152602 0.0036158236747839702 0.012086108225266526 0 0 0
438 1 0.0016 1600 0.00021307617327946093 0.003319025014761851 0.007807380850093443 0 0 0
439 1 0.0016 1600 0.0033893699192559966 0.006352883725022478 0.00832461171071946 0 0 0
440 1 0.0016 1600 -0.000777658606670947 -0.007158179308605103 0.0117291303230727 0 0 0
441 1 0.0016 1600 0.003745956776295904 -0.0021488650952861473 0.01021328463469861 0 0 0
442 1 0.0016 1600 -0.007138962437885232 -0.0009407686849326737 0.011614995969110972 0 0 0
443 1 0.0016 1600 -0.005460837328400104 0.002010220768128106 0.010602744177016784 0 0 0
444 1 0.0016 1600 0.00460139364840048 -0.0033595714110409253 0.006333783317478924 0 0 0
445 1 0.0016 1600 0.005266523748409373 -0.0049098301931646705 0.010774474580401512 0 0 0
446 1 0.0016 1600 0.00015062744501298379 0.007198809551659149 0.009765400451922493 0 0 0
447 1 0.0016 1600 0.0024369498928270925 0.003929634871358906 0.009848577800946789 0 0 0
448 1 0.0016 1600 0.002349101066803028 0.0023656507873070116 0.012010589769591394 0 0 0
449 1 0.0016 1600 0.0001454538981075755 -0.00101582127306723 0.007068137294719974 0 0 0
450 1 0.0016 1600 0.00013827384484398064 0.005802766979817968 0.008984889798739371 0 0 0
451 1 0.0016 1600 -0.005236932879059095 0.0006753070993561893 0.006728406193130841 0 0 0
452 1 0.0016 1600 0.003296000495888545 -0.004856759371136264 0.008833263960271268 0 0 0
453 1 0.0016 1600 0.003553461593817963 0.005009751431015258 0.007091103204228965 0 0 0
454 1 0.0016 1600 0.0024234606817135577 0.00534711969074375 0.009107890658667373 0 0 0
455 1 0.0016 1600 -0.002990016979032735 0.0005556990651940345 0.008626722599020123 0 0 0
456 1 0.0016 1600 1.842879245376638e-05 0.0017514152401397543 0.008060107811226777 0 0 0
457 1 0.0016 1600 0.0015646993924902674 -0.0008493864710428399 0.012149901483470492 0 0 0
458 1 0.0016 1600 0.003645289531032917 0.006209633937425488 0.012044198232367395 0 0 0
459 1 0.0016 1600 0.00020806895059830808 0.0027445066321782827 0.009300501702357265 0 0 0
460 1 0.0016 1600 -0.0027524510235047398 -0.0034419075786120456 0.012427501887988903 0 0 0
461 1 0.0016 1600 -0.0012898564425205081 -0.0016370051774661407 0.010100901153901927 0 0 0
462 1 0.0016 1600 0.004422960705174136 -0.0008341580618391334 0.012437120788041224 0 0 0
463 1 0.0016 1600 -0.00036448666207561 -0.002961985975810439 0.01083331770697711 0 0 0
464 1 0.0016 1600 0.0006612383263893762 -0.005142334135165617 0.00975982293927795 0 0 0
465 1 0.0016 1600 0.002691497047386707 -0.005047796773001545 0.011459935333349467 0 0 0
466 1 0.0016 1600 0.006713510733252259 -0.0026023695879327604 0.01134100483121045 0 0 0
467 1 0.0016 1600 -0.0022657295155129524 0.00390038260295905 0.012246084261996224 0 0 0
468 1 0.0016 1600 0.0017617103237548832 0.0037614626945606626 0.007049807962853313 0 0 0
469 1 0.0016 1600 0.0027435226443483824 -0.006656838447746257 0.011406604040752092 0 0 0
470 1 0.0016 1600 -0.0014401949464868773 -0.0008500080625406673 0.006941002198963456 0 0 0
471 1 0.0016 1600 0.004439373085918944 -0.0038388848341796237 0.011653954823415361 0 0 0
472 1 0.0016 1600 0.007183978995606494 0.00048071376486883354 0.006213821328250444 0 0 0
473 1 0.0016 1600 -0.0010250634825220877 -0.0007388527395087397 0.012909637591129524 0 0 0
474 1 0.0016 1600 0.004587119954407502 -0.005550097225112179 0.009475170656744296 0 0 0
475 1 0.0016 1600 -0.005974408100700942 -0.0016179058732476285 0.010750415849728997 0 0 0
476 1 0.0016 1600 -0.004297661027216315 -0.0005858026846045642 0.011241348411525999 0 0 0
477 1 0.0016 1600 -0.0031560065136075157 -0.004818048234072984 0.011718161253069228 0 0 0
478 1 0.0016 1600 -0.0034742923195113943 0.006306403760915572 0.011280166856448172 0 0 0
479 1 0.0016 1600 0.00305433990553027 0.0028208063216676855 0.006996239931292142 0 0 0
480 1 0.0016 1600 0.004840029032103561 -0.003493545255842919 0.009337371304415023 0 0 0
481 1 0.0016 1600 0.0019338348887331716 -0.0033586555413817882 0.007126751361489731 0 0 0
482 1 0.0016 1600 -0.0015869105332985021 0.0012764215231581293 0.008360424494812543 0 0 0
483 1 0.0016 1600 -0.004347908115657329 0.004261720192490878 0.009531502136944127 0 0 0
484 1 0.0016 1600 0.0021633670290796157 -0.004434731147550467 0.009881519887296228 0 0 0
485 1 0.0016 1600 -0.005930642230410521 0.004083168935214738 0.009677324194224037 0 0 0
486 1 0.0016 1600 -0.0024819454039807553 0.0015431136548516402 0.007062426812521058 0 0 0
487 1 0.0016 1600 -0.0046502184505036815 -0.003621271479097229 0.008175668852720527 0 0 0
488 1 0.0016 1600 -0.0023848817041591214 -0.0019474720601955263 0.00878854606126727 0 0 0
489 1 0.0016 1600 0.0035017455517449073 -0.003222846363523503 0.012798682544047861 0 0 0
490 1 0.0016 1600 0.006887684355725344 0.002099770905775615 0.01004860984266472 0 0 0
491 1 0.0016 1600 0.004743412389339785 0.0054170133382078905 0.011191949484769901 0 0 0
492 1 0.0016 1600 0.001126640390668967 0.0009043648814452749 0.011567572148430369 0 0 0
493 1 0.0016 1600 0.001410943880469554 0.004324627253483412 0.011010829071860522 0 0 0
494 1 0.0016 1600 -0.004310116517654309 0.0012322382352780398 0.008028609421592925 0 0 0
495 1 0.0016 1600 -0.0006309982179359357 -0.0042048630078094645 0.009862057312667963 0 0 0
496 1 0.0016 1600 -0.003361652290348316 0.0045729291104363474 0.010751806636167274 0 0 0
497 1 0.0016 1600 -0.0022780561656335165 0.002372906380262444 0.005710472353904626 0 0 0
498 1 0.0016 1600 -0.0024346176389560626 -0.006114885228671637 0.008997480954394243 0 0 0
499 1 0.0016 1600 -0.004534604591998106 -0.0041839723152462946 0.011212360442709337 0 0 0
500 1 0.0016 1600 -0.00015441943584036932 -0.005966706234534253 0.01086266390028435 0 0 0
501 1 0.0016 1600 -0.002129485245233645 0.0068786454178449905 0.008109710660504454 0 0 0
502 1 0.0016 1600 -0.0034381061952538632 0.0025611762543002927 0.012415898632593281 0 0 0
503 1 0.0016 1600 0.00640408490920789 -0.000222904139034499 0.009557555922195241 0 0 0
504 1 0.0016 1600 -0.00445297521708158 -0.0019020725489971176 0.010346310882866446 0 0 0
505 1 0.0016 1600 0.0017777674872404893 -0.0012526900050558382 0.009358690389393699 0 0 0
506 1 0.0016 1600 -0.0020779514712311316 0.005115804295642838 0.009967997569350557 0 0 0
507 1 0.0016 1600 0.0031700254983222727 -0.00042210587349471583 0.00989488969737232 0 0 0
508 1 0.0016 1600 -0.0005379496558423899 0.007180120767691725 0.01120923015885973 0 0 0
509 1 0.0016 1600 -0.0012178378346913296 0.0028323403657670066 0.008330194572392887 0 0 0
510 1 0.0016 1600 -0.0028541596243382562 -0.001872700220768523 0.010336524367789432 0 0 0
511 1 0.0016 1600 -0.004526604866542636 0.0005498129746388956 0.012344668371368632 0 0 0
512 1 0.0016 1600 -0.0007764041314260793 0.0028810396344677706 0.011817190673365209 0 0 0
513 1 0.0016 1600 0.0037805158994400055 0.0016931712017090367 0.006124553262774427 0 0 0
514 1 0.0016 1600 -0.006164440777894132 0.003720108687349798 0.007386410162956898 0 0 0
515 1 0.0016 1600 0.0032551279496413643 -0.003306179745083042 0.009224449870598792 0 0 0
516 1 0.0016 1600 -0.0014604040983837898 -0.007050754358397707 0.01025945827554341 0 0 0
517 1 0.0016 1600 0.0016341179679141566 -0.006283984552132042 0.010315783662325807 0 0 0
518 1 0.0016 1600 0.0029708843410136067 -0.0003011703698013206 0.011477758171297365 0 0 0
519 1 0.0016 1600 -0.0005234186101477724 0.005233839223692836 0.010325148488203362 0 0 0
520 1 0.0016 1600 -0.002780528349492212 0.002489201752468829 0.008317647600267791 0 0 0
521 1 0.0016 1600 -0.0019352336628233574 -0.0030782192085277854 0.009826702368846956 0 0 0
522 1 0.0016 1600 0.0006633184301722743 -0.005181105914012611 0.007205525938066545 0 0 0
523 1 0.0016 1600 0.0037465044336446466 0.0024358264987268765 0.010089622369871027 0 0 0
524 1 0.0016 1600 0.0027538619916121377 0.0009955249132605074 0.007133974442761854 0 0 0
525 1 0.0016 1600 -0.0018529866429554103 0.0018459934431515905 0.01124509979214118 0 0 0
526 1 0.0016 1600 0.0004468932422458681 -0.0007655463141883588 0.008618349347398229 0 0 0
527 1 0.0016 1600 0.007171162746409606 0.0006497778462607637 0.012257439909355645 0 0 0
528 1 0.0016 1600 0.003179326689969868 0.0034550091879873013 0.01118370059040921 0 0 0
529 1 0.0016 1600 0.006845235055471522 -0.0022335198807576094 0.009790018166884443 0 0 0
530 1 0.0016 1600 0.007171155125378411 0.0006484052836672248 0.010657921711985416 0 0 0
531 1 0.0016 1600 0.0049798125336088465 -0.001173016869629866 0.005329108461135586 0 0 0
532 1 0.0016 1600 0.0031256150588776822 0.0064864571265688354 0.006649556832252349 0 0 0
533 1 0.0016 1600 -0.004405302759827739 -0.005186239014575886 0.0069686629320422295 0 0 0
534 1 0.0016 1600 -0.006929573557297867 -0.0019564151573391595 0.008346922729517772 0 0 0
535 1 0.0016 1600 -0.003518415994032626 0.006282075611223465 0.007587071102969076 0 0 0
536 1 0.0016 1600 5.943445690456625e-05 0.001915691574615438 0.00540742710658664 0 0 0
537 1 0.0016 1600 -0.001391407845984847 0.0025765116166352425 0.009899439830522225 0 0 0
538 1 0.0016 1600 0.0015432057777149313 -0.003941960571742885 0.011327919811541555 0 0 0
539 1 0.0016 1600 -0.0038353031901469502 -0.0026959221194196915 0.00715625692900913 0 0 0
540 1 0.0016 1600 -0.005906419129456627 -0.004118167456671091 0.012032297889667908 0 0 0
541 1 0.0016 1600 0.003851265382286052 -0.004366997986017376 0.010262938104299459 0 0 0
542 1 0.0016 1600 9.737054924989793e-05 -0.003725235536506045 0.007549385179212585 0 0 0
543 1 0.0016 1600 -0.0032363752102398586 0.00037496970716037253 0.010527947355282046 0 0 0
544 1 0.0016 1600 0.0032076060382128305 -0.006446132688444487 0.008660759369079911 0 0 0
545 1 0.0016 1600 -0.0033270718051196294 -0.006385467293116688 0.011987754814121126 0 0 0
546 1 0.0016 1600 -0.004868835104631544 -0.005304960095270837 0.012303661108017592 0 0 0
547 1 0.0016 1600 -0.0067624368152825985 0.0014563763778478813 0.009438803914130243 0 0 0
548 1 0.0016 1600 0.0057241022474149314 0.004367980690265803 0.011896703293821068 0 0 0
549 1 0.0016 1600 0.003393167222562421 0.002537721998898753 0.008533408244393243 0 0 0
550 1 0.0016 1600 0.004396793400888071 -0.000827632795972563 0.010837807745592086 0 0 0
551 1 0.0016 1600 0.005595053940748146 -0.0017924498202911857 0.008740502533054235 0 0 0
552 1 0.0016 1600 0.0035322180934338923 0.005035314520207868 0.010219188367050347 0 0 0
553 1 0.0016 1600 -0.002783846716600224 -0.0008891985182312279 0.013853206756575656 0 0 0
554 1 0.0016 1600 -0.0045830678840576315 0.00079850010427486 0.009775758086231623 0 0 0
555 1 0.0016 1600 -0.0050133956767240495 0.005168957628307599 0.011980147777751601 0 0 0
556 1 0.0016 1600 0.0010401994556796734 0.0012328217195650643 0.010000238283260944 0 0 0
557 1 0.0016 1600 -0.0012973775333624672 0.006385211855991055 0.009383945285718464 0 0 0
558 1 0.0016 1600 -0.0019283252285560248 -0.006937690716634961 0.007723429858780718 0 0 0
559 1 0.0016 1600 -0.001537411497131801 0.0038756332100137445 0.010822019285644906 0 0 0
560 1 0.0016 1600 0.006708700791630746 0.00261529215853708 0.008544722504378686 0 0 0
561 1 0.0016 1600 -0.0016340141541117494 0.005046321193738814 0.0067987007898523055 0 0 0
562 1 0.0016 1600 0.006124954438604747 0.0015574477347722185 0.011456824514992392 0 0 0
563 1 0.0016 1600 -0.0020730259667489045 -0.0007770276401877075 0.011201392281064067 0 0 0
564 1 0.0016 1600 -0.00290955353378397 0.006586153747740879 0.009475386900468716 0 0 0
565 1 0.0016 1600 -0.003994596874436925 -0.005991050501538471 0.009327659740007018 0 0 0
566 1 0.0016 1600 0.0006960848021750796 0.004346062087483116 0.00938971931137681 0 0 0
567 1 0.0016 1600 -0.006651913139395329 -0.0027564190327914627 0.011646812204558184 0 0 0
568 1 0.0016 1600 -0.0029802740258205083 -0.006554502779715747 0.010435390207677588 0 0 0
569 1 0.0016 1600 -0.0022096513979013256 -0.0034900659947624483 0.008127093529670879 0 0 0
570 1 0.0016 1600 -0.0035472538849307305 0.00029596409800337897 0.0068284426336144895 0 0 0
571 1 0.0016 1600 -0.00048198944046733843 0.0013175700736049402 0.009516287528692238 0 0 0
572 1 0.0016 1600 0.0017495454216798136 -0.006591232475050984 0.012658159006712976 0 0 0
573 1 0.0016 1600 0.005775582919021026 -1.3084122571033928e-05 0.012671958867485573 0 0 0
574 1 0.0016 1600 0.0012372364116941775 0.005653329546581168 0.010136612361678196 0 0 0
575 1 0.0016 1600 0.00479837630576218 -0.0027451437411998127 0.004870195470987393 0 0 0
576 1 0.0016 1600 -0.0034216373651058123 -0.0033201408328379007 0.009157377473137662 0 0 0
577 1 0.0016 1600 0.00542815138489603 -0.0020104471059350783 0.006616338676383164 0 0 0
578 1 0.0016 1600 0.005708929093007065 7.818471365502044e-05 0.01096629133190577 0 0 0
579 1 0.0016 1600 -0.0009683135211132524 -0.005727647822003797 0.00950655770307961 0 0 0
580 1 0.0016 1600 0.0043765686889994425 0.0006555822535208108 0.010238765425637486 0 0 0
581 1 0.0016 1600 0.0035014775496203516 -0.002201983593245426 0.0062378541843196664 0 0 0
582 1 0.0016 1600 -0.0036434751495502994 -0.0019751928892107603 0.011724429066717466 0 0 0
583 1 0.0016 1600 0.004727359516299609 0.000921913556476083 0.011906101917615873 0 0 0
584 1 0.0016 1600 0.0021694502966345 0.002352825632151081 0.00982996511285874 0 0 0
585 1 0.0016 1600 -0.004507307656922542 0.0032856166663896838 0.010788266544689562 0 0 0
586 1 0.0016 1600 0.0018147504193089389 -0.005443409749797995 0.008689552504141364 0 0 0
587 1 0.0016 1600 -0.0027124926829340643 0.0016938159853882315 0.009715702572522758 0 0 0
588 1 0.0016 1600 0.004916820882176351 -0.0029293964612290458 0.007842116248678772 0 0 0
589 1 0.0016 1600 -0.0009170072380584148 -0.0015533096742534887 0.008289453826383616 0 0 0
590 1 0.0016 1600 -0.007196413389774725 0.00022568419445082854 0.010521549574618563 0 0 0
591 1 0.0016 1600 0.0010611592958063374 0.003114490518385204 0.0057513122775920454 0 0 0
592 1 0.0016 1600 0.0022483439094006267 -0.001928332190969175 0.010729168374918828 0 0 0
593 1 0.0016 1600 0.0043233566234019 0.0009787785105374379 0.008341501893572438 0 0 0
594 1 0.0016 1600 0.00039090038498737446 0.004546086988939322 0.006797398936449433 0 0 0
595 1 0.0016 1600 -3.3565655652069754e-05 -0.007200020699862204 0.007382752424675199 0 0 0
596 1 0.0016 1600 0.004277548352841609 -0.0014784295518937018 0.007591723117585813 0 0 0
597 1 0.0016 1600 -0.0071071675699664 -0.0011559239673728623 0.009720189102182803 0 0 0
598 1 0.0016 1600 0.0011275273497996616 -0.003999684501169618 0.008741992926784056 0 0 0
599 1 0.0016 1600 0.006779765391799825 -0.0024247746780599734 0.007501168056779403 0 0 0
600 1 0.0016 1600 0.005049729089574677 0.0051323431760745015 0.009647635661467851 0 0 0
601 1 0.0016 1600 -0.002348620345393692 -0.0005575271740010626 0.009579409074335903 0 0 0
602 1 0.0016 1600 0.0002492459993790906 0.006047397656933671 0.007408571586209138 0 0 0
603 1 0.0016 1600 -0.0023126857250619142 -0.002192333222069176 0.007197333232181488 0 0 0
604 1 0.0016 1600 0.004355212538380099 0.002440558010853837 0.011568402369831613 0 0 0
605 1 0.0016 1600 -0.005596087957831231 -0.0019651544101827677 0.009230087646098813 0 0 0
606 1 0.0016 1600 0.006369493140339347 -0.0033459905548828294 0.008743121122803413 0 0 0
607 1 0.0016 1600 0.0031441296281133216 -0.0057948461104126775 0.010120049952618022 0 0 0
608 1 0.0016 1600 -0.0039436553374964135 -0.0006398482674712072 0.00949120720757546 0 0 0
609 1 0.0016 1600 -0.0029026200591078144 0.0030595011621391863 0.010993148817365182 0 0 0
610 1 0.0016 1600 0.005765344868025366 0.004313209221835316 0.008459076849986648 0 0 0
611 1 0.0016 1600 0.0019521166666814983 -0.0026386656243024076 0.00857958621469051 0 0 0
612 1 0.0016 1600 0.003058208711021723 7.857240871456402e-05 0.005858765639031763 0 0 0
613 1 0.0016 1600 0.0022451934274329128 0.0020150265155540535 0.005809779479916546 0 0 0
614 1 0.0016 1600 -0.003926934948738231 0.0026922942040316193 0.009419936917922391 0 0 0
615 1 0.0016 1600 -0.0022326059757555024 -0.0017469630978255227 0.012619952569779085 0 0 0
616 1 0.0016 1600 -0.0042206942749123694 0.005833255773223803 0.0089527112146123 0 0 0
617 1 0.0016 1600 -0.0021919834925369862 -0.002425776727419662 0.014067608569710616 0 0 0
618 1 0.0016 1600 0.005787147655747798 -0.004285126565980751 0.013580710135245309 0 0 0
619 1 0.0016 1600 -0.0043214922331747665 -0.0036110228855142363 0.012690904250640223 0 0 0
620 1 0.0016 1600 -0.003252872162176715 0.006423316339941154 0.01418107223110956 0 0 0
621 1 0.0016 1600 0.0009067350353395335 0.005678813122673624 0.014214690824292072 0 0 0
622 1 0.0016 1600 0.007123682292673535 -0.0010456435781432986 0.012356366824300552 0 0 0
623 1 0.0016 1600 -0.005662937526865799 -0.0008581801247010047 0.015448179463243911 0 0 0
624 1 0.0016 1600 0.004317401791668796 -0.0009028755596417994 0.014031836647623258 0 0 0
625 1 0.0016 1600 -0.002543594796267391 0.004399301100708045 0.016481934099647395 0 0 0
626 1 0.0016 1600 -0.003478245613113024 -0.00256356190036023 0.015151015183520947 0 0 0
627 1 0.0016 1600 0.003023472499882534 0.006535070873979567 0.009995036686419503 0 0 0
628 1 0.0016 1600 -0.004661006435679785 0.0038137570060124445 0.015801952423396316 0 0 0
629 1 0.0016 1600 -0.004005175472666133 0.002019179094841959 0.013809248142768507 0 0 0
630 1 0.0016 1600 0.0035513880512740687 0.006263908905493339 0.013640079824921669 0 0 0
631 1 0.0016 1600 -0.004467290481815038 -0.0007936690551776528 0.013211861940854818 0 0 0
632 1 0.0016 1600 -0.0030758836582882487 0.004506963582337311 0.013528624292372098 0 0 0
633 1 0.0016 1600 0.002481654659435079 0.0018281478997711402 0.01356829851163885 0 0 0
634 1 0.0016 1600 -0.0051993577894316545 -0.0022583970567904184 0.013109382780921552 0 0 0
635 1 0.0016 1600 0.00030182005881546374 -0.003480536589817636 0.01263672847751351 0 0 0
636 1 0.0016 1600 -0.003853450842387957 0.004089324630428633 0.012194484864583474 0 0 0
637 1 0.0016 1600 0.004145396668835229 -0.0058870926805751 0.01136397395495243 0 0 0
638 1 0.0016 1600 -0.0032051061802929005 -0.00012367303106585438 0.015193449986918689 0 0 0
639 1 0.0016 1600 0.006021620133862282 -0.003947225770592693 0.011865127563930915 0 0 0
640 1 0.0016 1600 -0.0008244324156413174 -0.003184397185440092 0.014541809757178729 0 0 0
641 1 0.0016 1600 -0.005479453557890748 0.00047749668256886026 0.011061528907442643 0 0 0
642 1 0.0016 1600 0.004994608556491609 -0.005186413093777578 0.015233061228417869 0 0 0
643 1 0.0016 1600 -0.0003088303368424561 0.0071934872211460825 0.014370313817233114 0 0 0
644 1 0.0016 1600 -0.006093782498873909 0.0038350836167185846 0.015090266163008124 0 0 0
645 1 0.0016 1600 -0.006140161640748465 -0.00376083010711191 0.01481666240745894 0 0 0
646 1 0.0016 1600 0.0005065005463886494 0.0016686101103227798 0.015621803452022843 0 0 0
647 1 0.0016 1600 0.0007967151214748554 0.004908249196308556 0.012746377743898196 0 0 0
648 1 0.0016 1600 0.0071314231913602415 -0.0009917132304939637 0.010757371619165103 0 0 0
649 1 0.0016 1600 -0.0017944615080275248 0.006972829924561151 0.01381931634818094 0 0 0
650 1 0.0016 1600 0.002438196838073393 0.003426134310959775 0.013524006172398337 0 0 0
651 1 0.0016 1600 0.002981328028502686 -0.0005807147053047149 0.013081966562300205 0 0 0
652 1 0.0016 1600 -0.004614574027820775 0.005527351394242874 0.010472832217298639 0 0 0
653 1 0.0016 1600 0.005824801865555638 0.00418460068258788 0.013482858953616136 0 0 0
654 1 0.0016 1600 -0.0006607086406827605 -0.007170344660795905 0.014203791278053594 0 0 0
655 1 0.0016 1600 0.0036949205111262095 0.0024601355006334392 0.014656416491881114 0 0 0
656 1 0.0016 1600 0.0020868325374968633 -0.0026912176098472544 0.015688262901567725 0 0 0
657 1 0.0016 1600 0.00634060962222898 0.0034125041717573607 0.014785786708511738 0 0 0
658 1 0.0016 1600 0.00013357179217584199 -0.004466166499704392 0.013884740413549184 0 0 0
659 1 0.0016 1600 0.001539622299866449 -0.0042887421513540394 0.014626245801297266 0 0 0
660 1 0.0016 1600 -0.0002460163591648441 0.0015648117463554407 0.011078857470211784 0 0 0
661 1 0.0016 1600 0.00041993907507432326 -0.0001265491592881214 0.016066719663541982 0 0 0
662 1 0.0016 1600 -0.006832140214808 -0.0022721071441990327 0.014464150768830425 0 0 0
663 1 0.0016 1600 -0.00028292151395791155 0.001003821133890437 0.014400372358771675 0 0 0
664 1 0.0016 1600 -0.0019054519429438635 0.0022865082204350817 0.012782141138424507 0 0 0
665 1 0.0016 1600 0.002865837709207002 -0.0034053859878197825 0.01448711482368987 0 0 0
666 1 0.0016 1600 -0.0032508303021181995 -0.0020264762868063306 0.016640732168694647 0 0 0
667 1 0.0016 1600 -0.003617061780632161 -0.002144619253470786 0.013315696537237071 0 0 0
668 1 0.0016 1600 -0.0006212660748508066 -0.0054978441327758155 0.012319392232390097 0 0 0
669 1 0.0016 1600 0.007184492599729086 0.00047454535546910255 0.016429548240112925 0 0 0
670 1 0.0016 1600 -0.0007446561489681697 0.004317484124475001 0.01620069803049332 0 0 0
671 1 0.0016 1600 0.004796276496074284 0.005319128525810685 0.01278799705408176 0 0 0
672 1 0.0016 1600 0.001282166773767804 -0.0024652067716933344 0.011884825110308165 0 0 0
673 1 0.0016 1600 0.007174928640009564 -0.0006006230699983221 0.01524474736171192 0 0 0
674 1 0.0016 1600 0.0033018560622713965 -0.0063988725194582385 0.012992961455643992 0 0 0
675 1 0.0016 1600 -0.004933164423157847 0.002079604583584035 0.012111512849530857 0 0 0
676 1 0.0016 1600 -0.005102636187542735 0.005079911305510341 0.014925890085468295 0 0 0
677 1 0.0016 1600 -0.001084734643287081 0.0071178923378944076 0.01576739163953178 0 0 0
678 1 0.0016 1600 0.0008053993552280306 -0.0017868399605299196 0.01537247262391132 0 0 0
679 1 0.0016 1600 -0.007079589428044396 0.0013126305542302495 0.013678686232996985 0 0 0
680 1 0.0016 1600 -0.0009757790613722763 0.0006034676456732304 0.01578712612524984 0 0 0
681 1 0.0016 1600 0.0053336200836683854 -0.002319543296228521 0.0103057288024006 0 0 0
682 1 0.0016 1600 -0.0032225101049234138 -0.0033227931595240408 0.010902776244155275 0 0 0
683 1 0.0016 1600 0.00293349250171817 0.004859527006137557 0.016202680353342058 0 0 0
684 1 0.0016 1600 0.0010476241907272997 0.0019048327584334265 0.012820195277765161 0 0 0
685 1 0.0016 1600 -0.002134187894349115 -0.006876495747009109 0.014752243514629457 0 0 0
686 1 0.0016 1600 0.005589401722265361 0.0010966358928964186 0.01451987876801601 0 0 0
687 1 0.0016 1600 0.000811466062017256 -0.00043733957227891834 0.01451407482966389 0 0 0
688 1 0.0016 1600 0.0002635640144620871 0.00017933991139549283 0.013143615036697 0 0 0
689 1 0.0016 1600 -0.0005347647247759075 -0.006302729325936755 0.015540976574612304 0 0 0
690 1 0.0016 1600 -0.00014252587153669715 -7.422705139260577e-05 0.011617682169771248 0 0 0
691 1 0.0016 1600 0.002418161317634207 0.005607738117877381 0.011213727388774321 0 0 0
692 1 0.0016 1600 0.00016798525490253896 -0.00010710742246600931 0.01004918515691429 0 0 0
693 1 0.0016 1600 -0.004992428466066438 -0.00266015618807879 0.014643900692464887 0 0 0
694 1 0.0016 1600 -0.0058385697148084495 -0.00018443265798692184 0.009650269000036496 0 0 0
695 1 0.0016 1600 0.004459443104383757 -0.0056531495159272815 0.016666471617156613 0 0 0
696 1 0.0016 1600 -0.006960202514504679 -0.0018435569982035468 0.012923774895662057 0 0 0
697 1 0.0016 1600 -0.001516353546809316 0.0005102954174061042 0.01043162775223592 0 0 0
698 1 0.0016 1600 0.0016946182743386676 -0.0014380415928059117 0.013631857971205351 0 0 0
699 1 0.0016 1600 -0.004269110232684143 -0.0012363638686288805 0.01473621233955587 0 0 0
700 1 0.0016 1600 -0.006987329433452216 0.001738641588202688 0.010997152194901568 0 0 0
701 1 0.0016 1600 0.000788983396934885 -0.005919028513786299 0.01374669043381599 0 0 0
702 1 0.0016 1600 0.0061828896137145475 -0.0036896089927079146 0.010294337575229724 0 0 0
703 1 0.0016 1600 -0.006101745207196495 0.0003797595510957623 0.014534578387931159 0 0 0
704 1 0.0016 1600 0.0071357040559923285 0.0009626618377103119 0.014906652812521877 0 0 0
705 1 0.0016 1600 -0.00715968492934793 -0.0007656143246115278 0.014891392987509038 0 0 0
706 1 0.0016 1600 0.0008824347457597855 -0.007145969192251803 0.011433896489277182 0 0 0
707 1 0.0016 1600 0.002794965422758104 0.00044024154142238616 0.014299390386699277 0 0 0
708 1 0.0016 1600 0.002537006450078271 0.0011946773537364814 0.010870440159421468 0 0 0
709 1 0.0016 1600 -0.0018811837817121482 0.005487913370431103 0.013117216192163168 0 0 0
710 1 0.0016 1600 0.0018172689229239978 0.0005089331641906473 0.012955440871246473 0 0 0
711 1 0.0016 1600 0.0010461353610733074 0.004014360178034531 0.014048835567003386 0 0 0
712 1 0.0016 1600 -0.0017180754074096842 -0.006992214335344315 0.013012744859355885 0 0 0
713 1 0.0016 1600 -0.0017946985893691075 0.0052892452118912655 0.011532573105847384 0 0 0
714 1 0.0016 1600 -0.0004887665927034888 -0.0015152076066185488 0.014201426807111008 0 0 0
715 1 0.0016 1600 3.310172335648678e-05 0.0036009042519110973 0.010640365535388266 0 0 0
716 1 0.0016 1600 0.003964658803924084 0.00220278107229918 0.013100819887256561 0 0 0
717 1 0.0016 1600 0.0027434870005646197 -0.0019260158004673154 0.012249722026921182 0 0 0
718 1 0.0016 1600 0.005612625173256275 -0.0015615432004685847 0.013220917321311016 0 0 0
719 1 0.0016 1600 0.0017179102022381583 -0.00012809556450714494 0.010497946085532242 0 0 0
720 1 0.0016 1600 0.0013255952593577854 0.0010707452938014594 0.014373627313002183 0 0 0
721 1 0.0016 1600 -0.003885163206515332 0.001812298410040041 0.010797017866146527 0 0 0
722 1 0.0016 1600 -0.0036131893032732344 -0.004987926941937248 0.013241827336852658 0 0 0
723 1 0.0016 1600 -0.002125937406920031 -0.005451096755127073 0.012879675434513498 0 0 0
724 1 0.0016 1600 -0.005532780260432379 -0.004607511970828961 0.013581112935765222 0 0 0
725 1 0.0016 1600 -0.00322782878761177 0.0014731403961255724 0.015095826241589323 0 0 0
726 1 0.0016 1600 0.0011690892490323348 -0.005507081783657761 0.01163489058791907 0 0 0
727 1 0.0016 1600 -0.0064144666579107 0.0009549681061646145 0.012268444030601488 0 0 0
728 1 0.0016 1600 0.00583586072631355 0.0014856359880346425 0.016762743616172648 0 0 0
729 1 0.0016 1600 -0.0009722364773459722 -0.005618306656177121 0.013974622348418522 0 0 0
730 1 0.0016 1600 -0.002833780440966985 0.006619630638132237 0.01654713700527338 0 0 0
731 1 0.0016 1600 0.0031876892948631504 0.0010395683629387826 0.012323560947112911 0 0 0
732 1 0.0016 1600 0.003508195229567184 -0.00482227815224198 0.01281659239879026 0 0 0
733 1 0.0016 1600 -0.006430745785897288 0.0032372541603177354 0.010939594905417634 0 0 0
734 1 0.0016 1600 -0.004927706871858398 -0.0033321219258947853 0.009724586407832888 0 0 0
735 1 0.0016 1600 -0.0018390052633758993 -0.004494119290533213 0.010870215235039697 0 0 0
736 1 0.0016 1600 -0.00306244076756256 0.0010768191741037133 0.01195454248801411 0 0 0
737 1 0.0016 1600 0.0011010244270459896 0.002467785458042445 0.011014842174812616 0 0 0
738 1 0.0016 1600 -0.0035325763342360975 -0.00464169115665455 0.01005211917639198 0 0 0
739 1 0.0016 1600 -0.005395718358503278 0.0013166058758398171 0.013447393256605303 0 0 0
740 1 0.0016 1600 0.002579446398831123 -0.00102692165968676 0.014899805528947332 0 0 0
741 1 0.0016 1600 0.003441997025478541 -0.004763859613067752 0.015105088303047149 0 0 0
742 1 0.0016 1600 0.001157482200147592 0.0034145220437680024 0.012302595595871687 0 0 0
743 1 0.0016 1600 0.0038751592245208893 -0.0009038330837996394 0.015870836470958348 0 0 0
744 1 0.0016 1600 0.001314160884538003 0.007079382771807042 0.01085710223491994 0 0 0
745 1 0.0016 1600 0.0025900286876885227 0.006718299262553919 0.01549107763884397 0 0 0
746 1 0.0016 1600 0.0006003699470493247 0.002490694095699078 0.014245205221868177 0 0 0
747 1 0.0016 1600 0.002186769912176136 0.006860466896022515 0.012180928956639539 0 0 0
748 1 0.0016 1600 -0.0009892377701313142 0.0024049657552475973 0.01408795158143909 0 0 0
749 1 0.0016 1600 0.0034717686151712547 0.004681458175148831 0.013419686574621417 0 0 0
750 1 0.0016 1600 0.007200295155595908 -6.995442914668694e-05 0.013685508936755738 0 0 0
751 1 0.0016 1600 -0.006733277265834065 0.0025501128241498627 0.01235243371288508 0 0 0
752 1 0.0016 1600 0.0046758472778492795 0.005475438426246187 0.01445978246997068 0 0 0
753 1 0.0016 1600 0.0060144922582465 -0.003958007713212829 0.015129820485343498 0 0 0
754 1 0.0016 1600 0.0029890372107721167 -0.0033005836947184257 0.011086931802765427 0 0 0
755 1 0.0016 1600 -0.000499829707950769 0.0015326255966027552 0.01265801132339592 0 0 0
756 1 0.0016 1600 0.0013668271726826405 -0.003053106723484978 0.010009590712602488 0 0 0
757 1 0.0016 1600 0.005088056567909931 -0.0030323843223588457 0.012874419691814977 0 0 0
758 1 0.0016 1600 -0.0031560901895287866 -0.00046849258140850374 0.012355292320763149 0 0 0
759 1 0.0016 1600 0.003183157330823016 -0.002003412117425306 0.013785513756074817 0 0 0
760 1 0.0016 1600 -0.0016324105167257478 0.003842314542488789 0.013713968020076255 0 0 0
761 1 0.0016 1600 -0.0003304085668884473 0.0036810536208185555 0.01479271363832924 0 0 0
762 1 0.0016 1600 0.0023542620312924163 -0.0010185500414298316 0.016483697001728803 0 0 0
763 1 0.0016 1600 0.001972242150178199 -0.0030156693019922375 0.01321874444411845 0 0 0
764 1 0.0016 1600 -0.0011834767361167192 -0.003867591327554843 0.012187499449231117 0 0 0
765 1 0.0016 1600 -0.0016116309937068026 0.0056610429906029285 0.016166945655466728 0 0 0
766 1 0.0016 1600 0.004273853576553569 0.0005655093678373283 0.013398140758368399 0 0 0
767 1 0.0016 1600 0.0020195401988313045 0.0023684274300574226 0.015001238505058679 0 0 0
768 1 0.0016 1600 0.007014423662912147 -0.0016224256884292325 0.01402420274239442 0 0 0
769 1 0.0016 1600 -0.003933768977111722 0.006030402957612014 0.012787620753547302 0 0 0
770 1 0.0016 1600 -0.007196974058471243 -0.00020983892736632106 0.013037012018255644 0 0 0
771 1 0.0016 1600 -0.0033673547771679757 -0.006364294194519114 0.015633144553679295 0 0 0
772 1 0.0016 1600 0.0021470337267773627 0.005633004391375554 0.013205833335846661 0 0 0
773 1 0.0016 1600 0.0005088143384806177 -0.003357835395852034 0.015419703445545243 0 0 0
774 1 0.0016 1600 0.0068344356407026 0.002265184512199864 0.015785516630477833 0 0 0
775 1 0.0016 1600 -0.0025818417799295923 0.00264459249292544 0.014187152009660989 0 0 0
776 1 0.0016 1600 -0.005850853181473311 -0.004196028242643609 0.01632850401023475 0 0 0
777 1 0.0016 1600 -0.004071255695543739 0.005938626570751257 0.015796308263706305 0 0 0
778 1 0.0016 1600 0.006496492967495863 0.0031045820120034536 0.01129114364684792 0 0 0
779 1 0.0016 1600 0.0007119214909277964 -0.007164863801420247 0.015025234230402917 0 0 0
780 1 0.0016 1600 -0.006557881686268824 -0.0029731248891732157 0.010015856096554797 0 0 0
781 1 0.0016 1600 -0.00017494572375955378 0.0034457206301510643 0.013186934282568667 0 0 0
782 1 0.0016 1600 -0.0005253303498235508 0.00633318179415137 0.013038980745971495 0 0 0
783 1 0.0016 1600 2.311860314941195e-05 -0.004440096983421314 0.011306577364955803 0 0 0
784 1 0.0016 1600 0.0002910359864300504 -0.007194450533648294 0.012918984719358019 0 0 0
785 1 0.0016 1600 0.005732756924100816 -0.001373749065343365 0.011636921357343401 0 0 0
786 1 0.0016 1600 0.0006234390200205311 0.00717368956681029 0.01230916592668905 0 0 0
787 1 0.0016 1600 -0.005619591863732454 -0.0008432311821167097 0.012104107430488953 0 0 0
788 1 0.0016 1600 0.005179317394526632 0.002576163796921367 0.014072026817506418 0 0 0
789 1 0.0016 1600 0.005069075074536339 -0.005113472557986875 0.012415971528927929 0 0 0
790 1 0.0016 1600 0.00032237385093692654 -0.001597171982705817 0.012825242114437661 0 0 0
791 1 0.0016 1600 -0.001796715059555552 -0.004087417701175578 0.013648523809799803 0 0 0
792 1 0.0016 1600 -0.002259603902417116 -0.0036321322728977887 0.015157293804883848 0 0 0
793 1 0.0016 1600 -0.000317021703861069 0.005541719302674283 0.01523536581296371 0 0 0
794 1 0.0016 1600 -0.0031394635772754886 -0.006479731195871522 0.013573285001507696 0 0 0
795 1 0.0016 1600 0.0049021951762191224 0.0038666159718135406 0.010615064114847864 0 0 0
796 1 0.0016 1600 0.0004023398679424132 0.005817398316518728 0.011491298917541576 0 0 0
797 1 0.0016 1600 -0.007165179262630968 0.0007139170563681151 0.015681541143003123 0 0 0
798 1 0.0016 1600 0.006659279846617556 -0.0027379630148100884 0.012933995038705407 0 0 0
799 1 0.0016 1600 -0.005309657969876162 -0.00486314704428206 0.00998911384838832 0 0 0
800 1 0.0016 1600 0.00446436152119592 -0.005649234863142106 0.013796732830383905 0 0 0
801 1 0.0016 1600 -0.006581105711910951 -0.002920939278771324 0.018945523684992863 0 0 0
802 1 0.0016 1600 -0.0009049360531668853 -0.003152893502026627 0.016138937813145095 0 0 0
803 1 0.0016 1600 0.0037173326780262626 0.0021748885302463133 0.016803578056351177 0 0 0
804 1 0.0016 1600 0.004305983133858518 0.0007689569735647012 0.018329287726660298 0 0 0
805 1 0.0016 1600 0.006453819901848141 -0.0031928055345172017 0.016737529679901865 0 0 0
806 1 0.0016 1600 -0.0020002274270366407 -0.004210678012553921 0.016629511771132262 0 0 0
807 1 0.0016 1600 -0.005476229553965393 0.0019856264311943605 0.016564353411864515 0 0 0
808 1 0.0016 1600 -0.0005549198541721174 0.0027294738936523948 0.016175777826773288 0 0 0
809 1 0.0016 1600 -0.0018680358989288325 0.003592972305830978 0.015276502588599044 0 0 0
810 1 0.0016 1600 0.0015460403372548163 -0.004362345198361303 0.01622399105281663 0 0 0
811 1 0.0016 1600 0.002397978801225617 0.002345560301190692 0.017812058990015717 0 0 0
812 1 0.0016 1600 0.005819934497962217 -0.00047993256995737174 0.014380745279117767 0 0 0
813 1 0.0016 1600 0.003099392346170891 0.0013168853348795538 0.015603352397648441 0 0 0
814 1 0.0016 1600 -0.004522808178640327 0.0009172595601087319 0.0158515740232221 0 0 0
815 1 0.0016 1600 -0.0035405920028911075 0.0030807201483570284 0.01845742175430059 0 0 0
816 1 0.0016 1600 0.0025050384751253317 -0.0006589367371676575 0.018152744900899315 0 0 0
817 1 0.0016 1600 0.0017042170270969406 -0.006995719539609874 0.016268502609756964 0 0 0
818 1 0.0016 1600 0.00622982485997429 -0.0036097240953941122 0.018277762221282766 0 0 0
819 1 0.0016 1600 -0.004503212433818739 -0.004231853921628687 0.014746449436376537 0 0 0
820 1 0.0016 1600 -0.003663712245328609 0.001860375264287747 0.016816419646299048 0 0 0
821 1 0.0016 1600 -0.004825464289073757 -0.005343701946317231 0.015891357832252612 0 0 0
822 1 0.0016 1600 -0.0038611315234323906 -0.0011284794827795168 0.017815162998415898 0 0 0
823 1 0.0016 1600 0.0067482246576398 0.0009791355953454658 0.018009758281397906 0 0 0
824 1 0.0016 1600 0.0009442481777901295 0.0031887544729261377 0.015858704489436944 0 0 0
825 1 0.0016 1600 -0.004185032806585989 0.00035438656016291095 0.0173101940096998 0 0 0
826 1 0.0016 1600 0.003912003826449746 -0.0004816264094543643 0.01741307079198838 0 0 0
827 1 0.0016 1600 -0.0027928186536025352 0.001134652108708189 0.019265202257090268 0 0 0
828 1 0.0016 1600 -0.006234981478476172 0.003592932625703706 0.01666476257426425 0 0 0
829 1 0.0016 1600 0.0018219344853506788 0.0015859997900383202 0.01652762258861925 0 0 0
830 1 0.0016 1600 0.006057924813755239 0.0038918522117425444 0.018096674813272488 0 0 0
831 1 0.0016 1600 9.191819578694782e-05 0.004317347728822765 0.017564084039504553 0 0 0
832 1 0.0016 1600 -0.007168967804649837 -0.0006677827058665701 0.01648829320734955 0 0 0
833 1 0.0016 1600 0.004500781305337598 -0.0036584961480186544 0.018746942816940986 0 0 0
834 1 0.0016 1600 -0.0007895516605164226 -0.0019315554568219652 0.017198491446917888 0 0 0
835 1 0.0016 1600 0.005687727179614656 -5.710912901940438e-05 0.017409933643685215 0 0 0
836 1 0.0016 1600 0.0007926073974032918 -0.004261463196823803 0.018377928291836106 0 0 0
837 1 0.0016 1600 0.004041902905620474 -0.0022968025711088804 0.015102602651830872 0 0 0
838 1 0.0016 1600 0.0008647918725657929 -0.0014019574962057248 0.01692403239368043 0 0 0
839 1 0.0016 1600 0.001075181316523926 0.007119325712517303 0.015169175504002624 0 0 0
840 1 0.0016 1600 0.006737154701666003 -0.0025415484451070656 0.015303925628497111 0 0 0
841 1 0.0016 1600 -0.002981739256423973 -0.006554054659663761 0.01878537303407638 0 0 0
842 1 0.0016 1600 0.0021566945812106354 -0.0038508185708055016 0.017649904295384912 0 0 0
843 1 0.0016 1600 -0.0065408013706364605 -0.0020656164186401934 0.0160236808788805 0 0 0
844 1 0.0016 1600 -0.005529904416325086 0.0011754216359505661 0.017942941369418014 0 0 0
845 1 0.0016 1600 -0.004729384212952828 0.004598011472088868 0.013446970238373662 0 0 0
846 1 0.0016 1600 0.004949529061260441 0.002105754230481145 0.015583881279430266 0 0 0
847 1 0.0016 1600 0.0037040009269039068 -0.004598805537968478 0.01760250602236591 0 0 0
848 1 0.0016 1600 -0.004512118072034685 0.000302995742907515 0.014375191001703569 0 0 0
849 1 0.0016 1600 -0.005847656788981458 -0.004201357714757903 0.01832831329873883 0 0 0
850 1 0.0016 1600 -0.0070206363655467095 0.001599836197037677 0.01879754213694801 0 0 0
851 1 0.0016 1600 -0.006991016369031711 -0.0017233280111506129 0.017967075729322556 0 0 0
852 1 0.0016 1600 -0.0013031199688810667 -0.004897654539890068 0.015363930934589301 0 0 0
853 1 0.0016 1600 -0.004030914200982859 0.0015621777020257673 0.018347147562691155 0 0 0
854 1 0.0016 1600 0.0030407730965038315 0.006527136604569511 0.018593768435811103 0 0 0
855 1 0.0016 1600 0.003363058740136833 -0.002258494537562593 0.01655076017601131 0 0 0
856 1 0.0016 1600 0.005728727739163582 0.0001899316584030042 0.015830276809004364 0 0 0
857 1 0.0016 1600 -0.005132865409842938 0.00504957548168113 0.016701326061197005 0 0 0
858 1 0.0016 1600 0.005507794666387581 -0.0015443416530779089 0.015532605732076208 0 0 0
859 1 0.0016 1600 0.0002280666063792206 -0.0006582818949048848 0.01818908579777968 0 0 0
860 1 0.0016 1600 0.0015876652403661268 0.004249532809666478 0.017002045291312644 0 0 0
861 1 0.0016 1600 0.002677036705430653 0.0033521409931189625 0.01902341759270396 0 0 0
862 1 0.0016 1600 0.00206844196270003 -0.002965965843656001 0.018979671872258113 0 0 0
863 1 0.0016 1600 0.001523914581314051 -0.005669929805017999 0.017144989231376008 0 0 0
864 1 0.0016 1600 0.005293833599903778 0.004880105512086266 0.017045278906162965 0 0 0
865 1 0.0016 1600 -0.002424707150401027 0.004093468470433687 0.018993051339634758 0 0 0
866 1 0.0016 1600 0.0011717717755788026 0.0033017401065954474 0.018221811322248895 0 0 0
867 1 0.0016 1600 -0.0021001141920353257 0.005403710233623017 0.017668191905937776 0 0 0
868 1 0.0016 1600 -0.0024606877338956986 0.000879446993387633 0.016367876494506592 0 0 0
869 1 0.0016 1600 -0.0016548728105486405 0.00092401219235503 0.013582480389376412 0 0 0
870 1 0.0016 1600 0.001513730343805247 0.007039267018325862 0.013631647535267286 0 0 0
871 1 0.0016 1600 -0.004769231846228007 0.005394486663441244 0.018688043793035007 0 0 0
872 1 0.0016 1600 -0.00206057004560269 0.0028816417430315698 0.016696493307900736 0 0 0
873 1 0.0016 1600 -0.005366621227124564 -0.0019279858096765787 0.01863206202742494 0 0 0
874 1 0.0016 1600 -0.0033136907623143026 0.002956356760814452 0.015704879592176306 0 0 0
875 1 0.0016 1600 -0.0012063961464458383 -0.0006336330821887655 0.01889731587645326 0 0 0
876 1 0.0016 1600 -0.0019285527590576438 -0.0029673504801366766 0.017633556092552294 0 0 0
877 1 0.0016 1600 -0.004772275886328585 0.002346530308602391 0.015174119720161725 0 0 0
878 1 0.0016 1600 -0.0030241314619910728 -0.006534297748407003 0.01718638341519738 0 0 0
879 1 0.0016 1600 0.001908030792606536 0.0002498009092035758 0.015617057943183429 0 0 0
880 1 0.0016 1600 -0.005865619852145008 0.0004280812224654887 0.01656868943935084 0 0 0
881 1 0.0016 1600 0.0013770541141551011 0.00026910936409691035 0.018804180991243667 0 0 0
882 1 0.0016 1600 0.004407761523592178 0.0007577848753080289 0.016531438214483773 0 0 0
883 1 0.0016 1600 0.0013901273347507576 0.005983242822340652 0.016251979745725013 0 0 0
884 1 0.0016 1600 0.007012140681901398 -0.0016303008069658328 0.016589394718706327 0 0 0
885 1 0.0016 1600 0.004522492708765356 -0.0037181356286514217 0.015657134330343776 0 0 0
886 1 0.0016 1600 -0.0017414662739002377 0.001960995311555756 0.015427649145571577 0 0 0
887 1 0.0016 1600 0.0029289515601488695 -0.005788827171988005 0.016220988576352697 0 0 0
888 1 0.0016 1600 -0.0033486676564199007 -0.0035352907485279536 0.017163012400693227 0 0 0
889 1 0.0016 1600 -0.0011866826561148904 -0.005576462208909336 0.016807804424045596 0 0 0
890 1 0.0016 1600 -0.00585225566993609 0.0007447064331538092 0.019476266779091207 0 0 0
891 1 0.0016 1600 0.001094274756499768 0.005818901164027736 0.017815664798016533 0 0 0
892 1 0.0016 1600 -0.0044582725231724395 -0.0031921134423095743 0.01826390401552968 0 0 0
893 1 0.0016 1600 -0.0017658593655676407 -0.006980433667485992 0.016305214072624603 0 0 0
894 1 0.0016 1600 0.004267593037813144 -0.003984397579940772 0.013978526574082158 0 0 0
895 1 0.0016 1600 -5.450637663892904e-05 -0.0021787133840281436 0.01859771233151048 0 0 0
896 1 0.0016 1600 -0.004073731339395459 -0.0013754012326436837 0.019395058206636312 0 0 0
897 1 0.0016 1600 -0.00427754933056397 0.0007926134964201761 0.01975343088146957 0 0 0
898 1 0.0016 1600 -0.0012104417836787046 0.001581129157001128 0.01707774669019446 0 0 0
899 1 0.0016 1600 -0.006124104492420255 0.0037870205391738973 0.013491979944649074 0 0 0
900 1 0.0016 1600 0.0011973068730263083 -0.007099961090110993 0.01778339492423097 0 0 0
901 1 0.0016 1600 0.0024510019161101773 0.003055580174486111 0.01637975908962863 0 0 0
902 1 0.0016 1600 -0.0061339218640700565 0.002426011713273209 0.014332473427376785 0 0 0
903 1 0.0016 1600 0.0027458763011103445 -0.006656273270970859 0.019070909968639967 0 0 0
904 1 0.0016 1600 0.0010497239460260978 -0.0029903099985795854 0.016879353591029635 0 0 0
905 1 0.0016 1600 0.004105849802955846 0.0035042646973300153 0.016002837499798153 0 0 0
906 1 0.0016 1600 0.002874575044060635 0.0037843141581033464 0.015020255545643745 0 0 0
907 1 0.0016 1600 0.00035097243110835015 0.0012417144257269588 0.01715546173977682 0 0 0
908 1 0.0016 1600 -0.004848996885209871 -0.0021648746453097013 0.01710154963858895 0 0 0
909 1 0.0016 1600 -0.0008751324824795716 -0.0003386556043485842 0.017075883339536076 0 0 0
910 1 0.0016 1600 0.004813920093377541 -0.0017230392060397272 0.016962145796904658 0 0 0
911 1 0.0016 1600 -0.002016491663471295 -0.0021226820998827838 0.015628154071647745 0 0 0
912 1 0.0016 1600 0.0027325228065045314 0.005353475374517028 0.014668935779256258 0 0 0
913 1 0.0016 1600 -0.004305386588812729 -0.000874844014396931 0.016293953470707504 0 0 0
914 1 0.0016 1600 0.002403661040208983 -0.00537601981714727 0.01383280852961772 0 0 0
915 1 0.0016 1600 0.005427776612009283 -0.0026645884056473767 0.014393390904176583 0 0 0
916 1 0.0016 1600 -0.0025190021721365 0.0019694337261829268 0.01792821513443191 0 0 0
917 1 0.0016 1600 0.00152727886210356 0.00015788837638513195 0.017185585661216786 0 0 0
918 1 0.0016 1600 -0.0014781706057822828 -0.00031577353041275776 0.014578115009482346 0 0 0
919 1 0.0016 1600 -0.004024304544380843 0.005970614905657111 0.017395160325814642 0 0 0
920 1 0.0016 1600 -0.0012409502043769784 -0.004321145016863501 0.018530609562830997 0 0 0
921 1 0.0016 1600 0.006969636966172234 0.0018075356428592937 0.019359960826920583 0 0 0
922 1 0.0016 1600 -0.004515302237277547 -0.0033503939983573856 0.016081030287633916 0 0 0
923 1 0.0016 1600 0.006629217519196465 -0.00281015962137729 0.020155445892237382 0 0 0
924 1 0.0016 1600 -0.007196690907373097 -0.0002058384364913402 0.01875695724511507 0 0 0
925 1 0.0016 1600 0.002055134212285028 -0.006900997080686331 0.014197314600049077 0 0 0
926 1 0.0016 1600 0.004238432883223585 0.0003785544284261171 0.014986382580814176 0 0 0
927 1 0.0016 1600 0.00029549133336413685 -0.004942765379452244 0.015402881734227665 0 0 0
928 1 0.0016 1600 -0.00043457306163026453 0.004912756952609174 0.013769284078848972 0 0 0
929 1 0.0016 1600 -0.0009312884197872525 -0.0025595088082283166 0.0130731643417897 0 0 0
930 1 0.0016 1600 -0.006403097490023528 -0.003292929810458648 0.013309574029436978 0 0 0
931 1 0.0016 1600 0.004503414878281465 -0.0032749075236095655 0.01719399765325383 0 0 0
932 1 0.0016 1600 0.006745145703867303 0.002519624255055685 0.017579601433255567 0 0 0
933 1 0.0016 1600 0.0015472359758159227 0.004611264291901544 0.015444830726960691 0 0 0
934 1 0.0016 1600 5.176813528059186e-05 0.002478352454745423 0.019746982565506867 0 0 0
935 1 0.0016 1600 -0.00015114345148003355 0.00571095821099234 0.01681743396285116 0 0 0
936 1 0.0016 1600 -0.005941546528193846 -0.001074340133800088 0.013887777431043857 0 0 0
937 1 0.0016 1600 0.0006127487099693183 -0.0026613626317810667 0.013983608741777084 0 0 0
938 1 0.0016 1600 -0.0021912625217465035 0.005616511789550832 0.019421333258443415 0 0 0
939 1 0.0016 1600 -0.0001951654898544643 0.002631138430394927 0.017731258865032865 0 0 0
940 1 0.0016 1600 0.004958616550471499 0.0030622928850329487 0.017283056759743082 0 0 0
941 1 0.0016 1600 -0.0022452450024419506 -0.000705400067166675 0.01633405144369637 0 0 0
942 1 0.0016 1600 -0.0033584828987178023 -0.005051696761158112 0.016547262499949318 0 0 0
943 1 0.0016 1600 0.003827683251709186 0.004259659923751444 0.01738554514918363 0 0 0
944 1 0.0016 1600 0.0062478249411573004 0.0035787122238597952 0.01648901683589153 0 0 0
945 1 0.0016 1600 -3.480405340338691e-05 -0.007199969267074677 0.016767632292051384 0 0 0
946 1 0.0016 1600 0.003697682272871583 -0.0006091180647673146 0.019217213305164217 0 0 0
947 1 0.0016 1600 -0.0068309730241056564 0.002276132830093177 0.01576451259990482 0 0 0
948 1 0.0016 1600 -0.006509497459757558 -0.003076906948193401 0.017263052217876496 0 0 0
949 1 0.0016 1600 0.003985365465971378 0.005997173932214451 0.01740393498485056 0 0 0
950 1 0.0016 1600 -0.005181987503465622 0.0023212236981407655 0.019157858573928738 0 0 0
951 1 0.0016 1600 -0.0006939510939612491 -0.0012333434207292399 0.01576242963194162 0 0 0
952 1 0.0016 1600 -0.005748144331102441 0.004336713897018356 0.01799432419131322 0 0 0
953 1 0.0016 1600 0.005001726930246277 -0.0010866021791468134 0.018423573691514393 0 0 0
954 1 0.0016 1600 -0.00327243132489125 0.004740458538988645 0.015099113214421412 0 0 0
955 1 0.0016 1600 0.0030041329573771178 0.000830152268192843 0.01729576620344625 0 0 0
956 1 0.0016 1600 0.0025217430560451554 0.006744056227874769 0.017089267936985755 0 0 0
957 1 0.0016 1600 -0.0017565475001333338 0.005120012593756836 0.014668779931776892 0 0 0
958 1 0.0016 1600 0.001732889785712743 0.004637466530665922 0.018899480060403505 0 0 0
959 1 0.0016 1600 0.0033990589671478964 -0.006347593651957669 0.017643852766856292 0 0 0
960 1 0.0016 1600 0.0015204243803906981 -0.00449972336613678 0.01282715216358728 0 0 0
961 1 0.0016 1600 -0.0032880699383559552 -0.003582980217095559 0.013933009110536207 0 0 0
962 1 0.0016 1600 -0.0016690767057295807 -0.0070032984857250425 0.017901672147742614 0 0 0
963 1 0.0016 1600 -0.00040761768519284006 -0.005646003183083354 0.018202735041810428 0 0 0
964 1 0.0016 1600 -0.0014935878388746694 0.007040735866857939 0.017312260690654654 0 0 0
965 1 0.0016 1600 0.001662065968059707 -0.005758593897119962 0.015245239033520284 0 0 0
966 1 0.0016 1600 0.004881493728168857 0.002475469857763491 0.019645238286918002 0 0 0
967 1 0.0016 1600 0.003983752552583943 0.005998056721879677 0.015804117231301443 0 0 0
968 1 0.0016 1600 0.005286381433135876 -0.004888348540874847 0.01809134794990583 0 0 0
969 1 0.0016 1600 -0.0005484846400541884 0.0007278826419957821 0.018374552663650488 0 0 0
970 1 0.0016 1600 -0.0015424502644867384 0.007032901500634134 0.01905723543537436 0 0 0
971 1 0.0016 1600 0.005678082512482009 0.0002623132774709002 0.018977553507393885 0 0 0
972 1 0.0016 1600 0.003423870390811413 -0.00633414213597815 0.014800777888725247 0 0 0
973 1 0.0016 1600 0.002593695082905178 0.005271325301206641 0.017710090739081655 0 0 0
974 1 0.0016 1600 -0.0040035932106629694 0.0035155658773654446 0.01437443221092966 0 0 0
975 1 0.0016 1600 0.00309612946755803 -0.004143795571116845 0.0193392384089436 0 0 0
976 1 0.0016 1600 -0.00018757154576812122 0.0071976894824921055 0.018222521798210725 0 0 0
977 1 0.0016 1600 0.004581786572910229 0.0037232542849576678 0.018690241377840634 0 0 0
978 1 0.0016 1600 0.004383631770499864 0.0039028701788974118 0.01447862596712482 0 0 0
979 1 0.0016 1600 -0.003751653914345323 0.006145549763190539 0.019667604317386813 0 0 0
980 1 0.0016 1600 -0.004282307311513506 -0.00578878962514107 0.014453841095760327 0 0 0
981 1 0.0016 1600 -0.0025707029376604656 -0.005251632969151 0.014426558977198297 0 0 0
982 1 0.0016 1600 0.00014089113417844982 0.007198860130256056 0.01978798247367375 0 0 0
983 1 0.0016 1600 0.00040095738032729084 0.005769391502753334 0.022602103804885677 0 0 0
984 1 0.0016 1600 0.002382510819991579 -0.0003621294929463054 0.024122687037588544 0 0 0
985 1 0.0016 1600 -0.0036026838282351295 0.0013242263792501339 0.021103045034916994 0 0 0
986 1 0.0016 1600 9.223370401063446e-06 0.0015165397804262804 0.02237518837065182 0 0 0
987 1 0.0016 1600 -0.003588258552849829 0.005897593512497652 0.02254638610079729 0 0 0
988 1 0.0016 1600 0.004146849886678441 0.005886425020443118 0.019872019719486635 0 0 0
989 1 0.0016 1600 -0.002904035087914132 -0.00041369162834227057 0.018879098589909677 0 0 0
990 1 0.0016 1600 -0.007032987009189633 -0.0015426284588909087 0.01961964261752948 0 0 0
991 1 0.0016 1600 -0.001134869830961876 -0.0006853189027272626 0.020501377780502646 0 0 0
992 1 0.0016 1600 -0.004631992253266763 -0.004476393745867581 0.017325809594855943 0 0 0
993 1 0.0016 1600 0.0005849272108184424 -0.0032483037368994674 0.019600606700218362 0 0 0
994 1 0.0016 1600 -0.002249366996203269 0.0003238544280453887 0.021047845508856362 0 0 0
995 1 0.0016 1600 0.0033749294227841554 0.004253002606274055 0.02152774725940092 0 0 0
996 1 0.0016 1600 -0.00045446421926810705 0.0037825515102345784 0.018968671201429678 0 0 0
997 1 0.0016 1600 0.002321590642038995 0.004212183181738594 0.02032474691121152 0 0 0
998 1 0.0016 1600 0.002459719061285518 -0.005246426892147013 0.018371121626917883 0 0 0
999 1 0.0016 1600 -0.0002105646911739195 -0.007197494935571454 0.01853686393926278 0 0 0
1000 1 0.0016 1600 -0.0023588981574643193 -0.005234883617056627 0.017841116947549945 0 0 0
1001 1 0.0016 1600 0.0004669833798474709 0.007185314957817938 0.016763024898396522 0 0 0
1002 1 0.0016 1600 -0.004890133480765856 0.0032606884483934607 0.020419424962498392 0 0 0
1003 1 0.0016 1600 6.379430659898464e-05 -0.001391751690396603 0.02147404431114384 0 0 0
1004 1 0.0016 1600 0.003349518428628057 0.0015159882787632428 0.0223540615378034 0 0 0
1005 1 0.0016 1600 0.0067744286650038 -0.002440087990945888 0.021712793902322707 0 0 0
1006 1 0.0016 1600 0.00027940908702874895 0.006685761307237156 0.02129662863805338 0 0 0
1007 1 0.0016 1600 0.003431226891327451 -0.004115941219473323 0.020903280414792173 0 0 0
1008 1 0.0016 1600 0.002554930211873644 0.0003449413919409168 0.021608237234845243 0 0 0
1009 1 0.0016 1600 -0.0003147419398715834 -0.003404605598692636 0.01760371768083889 0 0 0
1010 1 0.0016 1600 0.0050007970352278965 0.0032122944891333845 0.02106211102406747 0 0 0
1011 1 0.0016 1600 0.004092215172767248 0.0007753500787697127 0.019914587682766965 0 0 0
1012 1 0.0016 1600 -0.0036813991947875916 -0.003576134614119918 0.02030391670704648 0 0 0
1013 1 0.0016 1600 -0.007164273724830732 0.0007218836594745007 0.017454612782649277 0 0 0
1014 1 0.0016 1600 0.003081655062887459 -0.0038198885349805677 0.016345177130488633 0 0 0
1015 1 0.0016 1600 0.005674957904780765 0.004431765930825712 0.01961841416223002 0 0 0
1016 1 0.0016 1600 0.002554743864258574 -0.0014496296252789883 0.01996599505715803 0 0 0
1017 1 0.0016 1600 0.0008850652344022938 -0.0031078855905169863 0.023706416835767335 0 0 0
1018 1 0.0016 1600 0.0007796125809522799 0.001773632332039814 0.02099420614837277 0 0 0
1019 1 0.0016 1600 0.003412025188755822 0.0047724848371884935 0.018990398039642618 0 0 0
1020 1 0.0016 1600 0.004033122981347129 0.004419603282538484 0.02297605165788187 0 0 0
1021 1 0.0016 1600 -0.0013677937356518515 0.007069386904542316 0.020943105048553255 0 0 0
1022 1 0.0016 1600 -0.005760538537017292 0.004318899420720959 0.019593597077096528 0 0 0
1023 1 0.0016 1600 0.0027122899831883793 0.0011562981678891991 0.018834359416404167 0 0 0
1024 1 0.0016 1600 -0.0029177346123734947 0.006583048015399244 0.018374638216260345 0 0 0
1025 1 0.0016 1600 0.0019439492325699827 0.0038402660716133573 0.023609675731478603 0 0 0
1026 1 0.0016 1600 -0.0019785478990321493 -0.005458887502562004 0.019378924144390984 0 0 0
1027 1 0.0016 1600 -0.0015988109755879988 -0.0022269503586767655 0.01901280358808829 0 0 0
1028 1 0.0016 1600 -0.0006735697001881459 -0.007168605529339835 0.021653285523333843 0 0 0
1029 1 0.0016 1600 -0.007045929440028005 0.0014819887259152913 0.020392439562790583 0 0 0
1030 1 0.0016 1600 0.0014848024290018526 0.0031912284683087884 0.021228323731829733 0 0 0
1031 1 0.0016 1600 -0.002200006163072705 -0.0007279254210660653 0.022252017696139274 0 0 0
1032 1 0.0016 1600 -0.005860697121690165 -0.00025510265814417013 0.02248033746734991 0 0 0
1033 1 0.0016 1600 0.0013943649467008724 -0.0070640906397009245 0.019823187792294937 0 0 0
1034 1 0.0016 1600 0.0002995623158526219 -0.0007226321652130296 0.019786106207680374 0 0 0
1035 1 0.0016 1600 -0.007174277988753329 0.0006096657744064243 0.021727103570493886 0 0 0
1036 1 0.0016 1600 -0.004200283036179407 -0.005848317574025893 0.018026060742170714 0 0 0
1037 1 0.0016 1600 0.005536216886602976 0.004603556654700471 0.015488232567151665 0 0 0
1038 1 0.0016 1600 -0.001335056575961458 -0.005508262577569187 0.02223519068006712 0 0 0
1039 1 0.0016 1600 -0.0036048097842137274 -0.00039260085981907374 0.02059104848911789 0 0 0
1040 1 0.0016 1600 -0.0017968414005769967 -0.00012714538347902813 0.023953397929961703 0 0 0
1041 1 0.0016 1600 -0.0019753970622037485 0.002319628067168946 0.02358371131384937 0 0 0
1042 1 0.0016 1600 -0.0069012936757835005 -0.00011334186856043025 0.020326457822187453 0 0 0
1043 1 0.0016 1600 0.005653283787472668 -0.004459148031219987 0.023066743447906053 0 0 0
1044 1 0.0016 1600 0.0005436304256550004 -0.001939748341533909 0.024744856148166853 0 0 0
1045 1 0.0016 1600 0.002176904249004375 -0.0021307876876106514 0.01761966455615832 0 0 0
1046 1 0.0016 1600 -0.00041650004505495395 -0.0047715260869106105 0.021127646106050443 0 0 0
1047 1 0.0016 1600 -0.0021903120863274 0.0018474587112691215 0.020564462210039477 0 0 0
1048 1 0.0016 1600 0.004732999156818277 0.004777004381865935 0.020864239780529932 0 0 0
1049 1 0.0016 1600 -0.0034447493995948754 -0.00513422216339207 0.02002888149666982 0 0 0
1050 1 0.0016 1600 -5.905480304944281e-05 -0.004898042245732045 0.019573333338158163 0 0 0
1051 1 0.0016 1600 -0.004969818902657526 -0.002733127077368684 0.02276813009099883 0 0 0
1052 1 0.0016 1600 0.005898324228347106 0.0006272587210336894 0.024268452600421042 0 0 0
1053 1 0.0016 1600 0.004770917477139868 0.00023148167752457856 0.021534799936814647 0 0 0
1054 1 0.0016 1600 0.0023414059783072576 -0.005283018182141706 0.02168299073923646 0 0 0
1055 1 0.0016 1600 0.0024101047953050117 0.0028054432378180716 0.022475205743580785 0 0 0
1056 1 0.0016 1600 0.004721956431819018 -0.0033825749924440113 0.020307013719803455 0 0 0
1057 1 0.0016 1600 -0.004640786600651433 0.00550520851781666 0.02394667687226803 0 0 0
1058 1 0.0016 1600 -0.0015454459599214365 0.003186988419896719 0.019974845101412085 0 0 0
1059 1 0.0016 1600 0.005252359291419514 -0.0008988561530546812 0.01999253334033826 0 0 0
1060 1 0.0016 1600 -0.0016253886709587028 -0.007014408377968322 0.01950061246660829 0 0 0
1061 1 0.0016 1600 -0.00513736678525529 -0.0036324661291483396 0.019643822219656625 0 0 0
1062 1 0.0016 1600 -0.0013705955205519796 -0.00201969235249395 0.02180176042167221 0 0 0
1063 1 0.0016 1600 0.003528229652563267 -0.002671005483313717 0.022532272538497804 0 0 0
1064 1 0.0016 1600 0.0004203597147994425 -4.6126618354090234e-05 0.02226224502531332 0 0 0
1065 1 0.0016 1600 0.005391529845935069 -0.002417130365791833 0.019221309427272123 0 0 0
1066 1 0.0016 1600 -0.004304128905741275 0.0010220080680539657 0.022789780121901033 0 0 0
1067 1 0.0016 1600 0.0018441324601141862 -0.006568653270415342 0.02249519514987225 0 0 0
1068 1 0.0016 1600 -0.005725297257206522 0.0033484030371131236 0.022377233098295136 0 0 0
1069 1 0.0016 1600 0.0013062816620433143 -0.0004976792443173094 0.021009166571645987 0 0 0
1070 1 0.0016 1600 -0.0026741361393639107 0.006150740663516931 0.0208499857315954 0 0 0
1071 1 0.0016 1600 0.00610867057097435 -0.0020781354147965704 0.017831429033021266 0 0 0
1072 1 0.0016 1600 0.003550629821871801 -0.0026218528963591285 0.019526360333051915 0 0 0
1073 1 0.0016 1600 0.007200056702886115 2.396477917986329e-05 0.01940925976074796 0 0 0
1074 1 0.0016 1600 0.000874169441499203 0.0017696458086889886 0.018571947668069497 0 0 0
1075 1 0.0016 1600 0.0009422984942122443 -0.0024942981023069145 0.02223027986207723 0 0 0
1076 1 0.0016 1600 0.0030855032458532296 0.006505752724421486 0.02263165210438927 0 0 0
1077 1 0.0016 1600 -0.0034446348507873774 0.0045346919279856315 0.0177970106415342 0 0 0
1078 1 0.0016 1600 -0.0021216082002249986 -0.0044454820733494885 0.02060813204465453 0 0 0
1079 1 0.0016 1600 0.006271749866105447 -3.0137375515038335e-05 0.02104627475244121 0 0 0
1080 1 0.0016 1600 -0.005764662996271396 -0.004314377827282366 0.022738889901318806 0 0 0
1081 1 0.0016 1600 -0.001855912862682053 0.0054292196212210745 0.022906543207297552 0 0 0
1082 1 0.0016 1600 -0.004865363647389263 -0.00020211480809264703 0.018646875032869423 0 0 0
1083 1 0.0016 1600 -0.003733988372543332 0.0022948204198473517 0.019837455560671263 0 0 0
1084 1 0.0016 1600 0.0062939711225134315 0.0034958104065576593 0.023265353067561233 0 0 0
1085 1 0.0016 1600 0.005664342842468057 0.001222055864104209 0.020257595998090162 0 0 0
1086 1 0.0016 1600 0.007074901777299434 -0.0013373892636883377 0.02059362823455412 0 0 0
1087 1 0.0016 1600 0.004250549868878343 -0.005811579943022805 0.018887254536575377 0 0 0
1088 1 0.0016 1600 -0.005685708829075747 0.0044177507905720816 0.02118827822704644 0 0 0
1089 1 0.0016 1600 0.000356646416441032 0.003965867315106361 0.02376349169574348 0 0 0
1090 1 0.0016 1600 0.0038900808951031593 0.0023126702469373935 0.018388233514236872 0 0 0
1091 1 0.0016 1600 -0.0013207967137174802 -0.006027421054967794 0.02072209535886231 0 0 0
1092 1 0.0016 1600 -0.003626037537324684 -0.0019486487411297109 0.022396129819096337 0 0 0
1093 1 0.0016 1600 0.0023974766505220815 0.0001411176059373346 0.020029447490105837 0 0 0
1094 1 0.0016 1600 -0.0014202070181799425 -0.0036835653507802132 0.021827660142795004 0 0 0
1095 1 0.0016 1600 0.005240466271625358 -0.0022513631766905035 0.022638751836345835 0 0 0
1096 1 0.0016 1600 -0.005494621224584807 0.001789402711642586 0.020633811547732785 0 0 0
1097 1 0.0016 1600 -0.0030483655432161634 0.0036295879854953473 0.02039152620361481 0 0 0
1098 1 0.0016 1600 0.0035937429606082327 -0.0005755207737692032 0.02081287300275722 0 0 0
1099 1 0.0016 1600 -0.0018540084104585652 0.0016849308686794641 0.02212006281760122 0 0 0
1100 1 0.0016 1600 -0.003151180632779867 0.0025318890626862666 0.02251960199359322 0 0 0
1101 1 0.0016 1600 -0.004723973954673136 -0.005434103560382183 0.023210812087335782 0 0 0
1102 1 0.0016 1600 -0.0028926016583339545 -0.006593542290006512 0.02038200999126946 0 0 0
1103 1 0.0016 1600 -0.007089357737158602 -0.0012604355615285741 0.022675353799351056 0 0 0
1104 1 0.0016 1600 -0.004304615898683228 0.005771916736697568 0.021121340340878193 0 0 0
1105 1 0.0016 1600 0.00044002201982688046 0.005162013605856873 0.02083356558622173 0 0 0
1106 1 0.0016 1600 0.0016557186410334796 0.0024076258318762502 0.019813636647168186 0 0 0
1107 1 0.0016 1600 -0.0035675470547799192 -0.0044844436006883015 0.018572249645526243 0 0 0
1108 1 0.0016 1600 -0.0031287785120048903 -0.002348111725261954 0.018546491351588885 0 0 0
1109 1 0.0016 1600 0.0071513490977975405 -0.000837580654750233 0.022111194800725535 0 0 0
1110 1 0.0016 1600 -0.002034913899671465 0.0004469165249248366 0.017848157046987237 0 0 0
1111 1 0.0016 1600 -0.001215199619241095 0.0021038220250533084 0.018845030083475073 0 0 0
1112 1 0.0016 1600 0.0016236013590362824 0.007014685596049402 0.020360039338677315 0 0 0
1113 1 0.0016 1600 -0.006664452552709669 0.0024221840731069597 0.023289297892982713 0 0 0
1114 1 0.0016 1600 0.0011410960862471892 -0.004307775751112626 0.021274125092401692 0 0 0
1115 1 0.0016 1600 -0.002135912165574794 -0.002847039985980844 0.02066671269879341 0 0 0
1116 1 0.0016 1600 -0.0004702683220599768 -0.0020946497477052893 0.020139986635967316 0 0 0
1117 1 0.0016 1600 0.006497777796580307 -0.003102589398030124 0.023142306460966034 0 0 0
1118 1 0.0016 1600 0.0013776206767518373 -0.0015260766917058826 0.018885286368886273 0 0 0
1119 1 0.0016 1600 0.004506639413101702 -0.005615434633085763 0.023119321710986882 0 0 0
1120 1 0.0016 1600 0.0009257505331310138 -0.005711239438314076 0.02053695463680732 0 0 0
1121 1 0.0016 1600 -0.006948465590668292 -0.0018360491837861965 0.02118965261972599 0 0 0
1122 1 0.0016 1600 -0.003749616663429027 -0.0020582958619120343 0.020804954788050868 0 0 0
1123 1 0.0016 1600 0.005641605115865253 0.004473583692817898 0.022145659682297175 0 0 0
1124 1 0.0016 1600 0.004387568984507272 0.0017380016241051904 0.021157376334885812 0 0 0
1125 1 0.0016 1600 0.0033951977917107954 3.142819983123282e-05 0.02294843439006 0 0 0
1126 1 0.0016 1600 0.0024251569115785053 0.005732456886079848 0.01983777921327783 0 0 0
1127 1 0.0016 1600 0.0038187525510847958 0.0036911496598213416 0.02009665957578779 0 0 0
1128 1 0.0016 1600 -0.006495309778541513 0.003107432936503718 0.01869392080986829 0 0 0
1129 1 0.0016 1600 -0.005150333265070411 -0.0005012346798381735 0.020192515426662797 0 0 0
1130 1 0.0016 1600 0.003696265570378303 -0.0019463891702280404 0.018084075552034496 0 0 0
1131 1 0.0016 1600 0.0008950642739206946 -0.007139776670789903 0.021340917321360585 0 0 0
1132 1 0.0016 1600 -0.006829044660306568 0.0022830595646958886 0.017364241441297196 0 0 0
1133 1 0.0016 1600 0.007038972688139567 -0.0015155803039140802 0.01900456942214479 0 0 0
1134 1 0.0016 1600 -0.006504473003034981 0.003087485974289377 0.02029349691606711 0 0 0
1135 1 0.0016 1600 0.0010556939543836033 -0.005877348279073501 0.018805638086823135 0 0 0
1136 1 0.0016 1600 -0.00133147173281251 0.0007236896209579022 0.019769535259901917 0 0 0
1137 1 0.0016 1600 -0.004937898112246052 0.0029930162355479577 0.017684029188566708 0 0 0
1138 1 0.0016 1600 0.00544134511926096 0.0018940906970182662 0.01826379140200495 0 0 0
1139 1 0.0016 1600 -0.004299022105080835 -0.005775999001731898 0.02121953497110445 0 0 0
1140 1 0.0016 1600 0.004696353804939382 -0.003559537511360264 0.021896578794531687 0 0 0
1141 1 0.0016 1600 0.002370532238839868 0.0018623808431792138 0.021137071927489252 0 0 0
1142 1 0.0016 1600 -0.002447749634101136 -0.0035922973888508087 0.019285870779953175 0 0 0
1143 1 0.0016 1600 0.0011028504600594704 -0.001962839100914726 0.02039975773442611 0 0 0
1144 1 0.0016 1600 -0.00016868788400848172 -0.0071981306861372 0.020135866726163708 0 0 0
1145 1 0.0016 1600 0.007200287829411404 2.7678736040363005e-05 0.023536238360075457 0 0 0
1146 1 0.0016 1600 -0.0028310492937408164 -0.004973004183559629 0.021940734971928676 0 0 0
1147 1 0.0016 1600 -0.004550340992793951 0.002439397684671805 0.021749466695166475 0 0 0
1148 1 0.0016 1600 -0.001322520426012428 -0.007077658376918364 0.02311235700465964 0 0 0
1149 1 0.0016 1600 -9.28926684714523e-05 0.002201007196883394 0.023817497994976095 0 0 0
1150 1 0.0016 1600 0.0048770028881012836 0.0052966923109730845 0.018532720739902017 0 0 0
1151 1 0.0016 1600 -0.0024908138831743853 -0.0014103164094274856 0.020059987478972998 0 0 0
1152 1 0.0016 1600 0.004375356638688816 0.005718356584466229 0.02210703842801116 0 0 0
1153 1 0.0016 1600 0.0025671789545646233 0.004993703692022607 0.022693453631442397 0 0 0
1154 1 0.0016 1600 0.0027717716779182993 -0.005480777443319022 0.0201552335007161 0 0 0
1155 1 0.0016 1600 -0.00548329476147936 -0.002065386155783565 0.02022138868696437 0 0 0
1156 1 0.0016 1600 0.0001953972754527578 -0.004791852485969941 0.016991999929993378 0 0 0
1157 1 0.0016 1600 0.005364687063245041 -0.0021080416349879547 0.021034146130576303 0 0 0
1158 1 0.0016 1600 0.000307844142356325 0.0071937520918107425 0.023611151307844757 0 0 0
1159 1 0.0016 1600 0.002148246010300487 -0.0032248460551136896 0.020556094814168136 0 0 0
1160 1 0.0016 1600 -0.004215729424905635 0.00464591266347207 0.019988472983709222 0 0 0
1161 1 0.0016 1600 -0.0005135099632148454 0.0006422381732840802 0.021141839310939086 0 0 0
1162 1 0.0016 1600 -0.0025245635659487406 0.003981967468821225 0.02277269546654688 0 0 0
1163 1 0.0016 1600 -0.0007482749579228937 0.0058943425739526375 0.020052313089743982 0 0 0
1164 1 0.0016 1600 -0.0006693999918688103 0.005675812608745241 0.018330689315953483 0 0 0
1165 1 0.0016 1600 0.0008021787897469517 0.0038757656394650033 0.019953905082443244 0 0 0
1166 1 0.0016 1600 -0.0023123727398829523 0.0068187204483963594 0.022258063401030148 0 0 0
1167 1 0.0016 1600 0.00038210589799536274 -0.007186533567265656 0.022855366041780664 0 0 0
1168 1 0.0016 1600 -0.0014543446593017237 0.003941456341328027 0.017730064171044915 0 0 0
1169 1 0.0016 1600 0.00629930762186775 0.0030463410495824256 0.02011836467245524 0 0 0
1170 1 0.0016 1600 -0.004942214542996207 0.0005078510348165778 0.021415997792010224 0 0 0
1171 1 0.0016 1600 0.001396728818494231 0.007063548981710935 0.01877419770399732 0 0 0
1172 1 0.0016 1600 0.003329178600236313 0.0021812099295323135 0.019896692825040033 0 0 0
1173 1 0.0016 1600 -0.005833465879971208 0.0013441099523483922 0.02244840953747445 0 0 0
1174 1 0.0016 1600 0.006958702674284052 0.0018487070614707423 0.02095891035347958 0 0 0
1175 1 0.0016 1600 -0.0022290127652553715 -0.002733014877062964 0.022947909690457555 0 0 0
1176 1 0.0016 1600 0.002593344662306645 0.0011788205081638685 0.0237228543763547 0 0 0
1177 1 0.0016 1600 -0.0004529152336807558 0.0038384585755974307 0.02094506889330005 0 0 0
1178 1 0.0016 1600 0.0005030175660653837 -0.0056706851588979 0.022079453869346153 0 0 0
1179 1 0.0016 1600 0.0006902071264036683 0.005756487628000172 0.01936688525222363 0 0 0
1180 1 0.0016 1600 0.0032055158020697218 0.0064472495772459155 0.02103755303504469 0 0 0
1181 1 0.0016 1600 -0.005723094036758915 -0.0008793507935939526 0.01747833701898777 0 0 0
1182 1 0.0016 1600 -0.0031239602262282374 0.004766691123014674 0.021514268088897295 0 0 0
1183 1 0.0016 1600 -0.004991285425513964 -0.0051891490143437255 0.019250610901006698 0 0 0
1184 1 0.0016 1600 0.0015869187546147996 -0.004486397288104001 0.01974810920420515 0 0 0
1185 1 0.0016 1600 -0.0028466625181936857 0.006613568999734482 0.02377300638345287 0 0 0
1186 1 0.0016 1600 0.002017987293461667 -0.004979695666444085 0.02321982955768682 0 0 0
1187 1 0.0016 1600 0.005585435974911261 -0.004543679199343437 0.019624712571593653 0 0 0
1188 1 0.0016 1600 0.007180160260153248 -0.0005382001525264132 0.017745962173018794 0 0 0
1189 1 0.0016 1600 0.005595361602264662 -0.004531288253067512 0.01656308590937491 0 0 0
1190 1 0.0016 1600 0.0002598710275342199 0.00089237938223389 0.019764264056586392 0 0 0
1191 1 0.0016 1600 -0.0021432251837028194 -0.0013302512016313162 0.017803309663163545 0 0 0
1192 1 0.0016 1600 -0.0050090772640754 0.00517209183901431 0.022426089443170615 0 0 0
1193 1 0.0016 1600 0.007160037190292561 0.0007620136820450672 0.022115289490088726 0 0 0
1194 1 0.0016 1600 -0.0009381338199763341 -0.0036098975490174846 0.019930498434184686 0 0 0
1195 1 0.0016 1600 -0.007095295246702141 0.00034430081572515503 0.023302445383583514 0 0 0
1196 1 0.0016 1600 0.006907136166008038 0.0020338181400804084 0.023051914325841638 0 0 0
1197 1 0.0016 1600 -0.0008563259559680182 0.0028747132347198283 0.02258400193347095 0 0 0
1198 1 0.0016 1600 -0.007152603504029715 -0.0008269945586496117 0.026265929123946163 0 0 0
1199 1 0.0016 1600 0.0003963791620112292 0.004130963862032411 0.026317326989837 0 0 0
1200 1 0.0016 1600 0.003896113737794906 0.0005305135992897485 0.024387310790846495 0 0 0
1201 1 0.0016 1600 -0.0004246129306088435 0.0044085524376382265 0.02243948030672178 0 0 0
1202 1 0.0016 1600 0.00376579769465859 -0.002149530930689488 0.021039087677264492 0 0 0
1203 1 0.0016 1600 -0.002809941765378301 0.0037924201111407103 0.02774365977835648 0 0 0
1204 1 0.0016 1600 -0.004280562399161316 -2.350254090048396e-05 0.028605178053546964 0 0 0
1205 1 0.0016 1600 0.0019106604807064907 0.0055359989643374635 0.021339547437007472 0 0 0
1206 1 0.0016 1600 -0.004746303674792436 -0.0011439957802562375 0.02320640206121807 0 0 0
1207 1 0.0016 1600 0.0028459189327861554 -0.0036604733982757856 0.023587813786870155 0 0 0
1208 1 0.0016 1600 0.0008276032448272455 -0.0002753272226961133 0.024489289265581936 0 0 0
1209 1 0.0016 1600 -0.0031163026116303736 0.005037416966453557 0.023818934086428812 0 0 0
1210 1 0.0016 1600 0.0006929503497896176 -0.0013137788352308288 0.02328027472191611 0 0 0
1211 1 0.0016 1600 0.0035363779586206926 -0.004538515010560094 0.022442625041296318 0 0 0
1212 1 0.0016 1600 -0.003358585299116501 -0.004845531699725295 0.02689884618299489 0 0 0
1213 1 0.0016 1600 0.00408293180041375 0.004258490334409358 0.026502503000787284 0 0 0
1214 1 0.0016 1600 0.0064636732242554975 0.0031727091072062358 0.021707812460554914 0 0 0
1215 1 0.0016 1600 -0.00033224728215753554 -0.005862190227464545 0.0234305504069227 0 0 0
1216 1 0.0016 1600 -0.0009295910044345942 0.0056919990326018835 0.021628877144566273 0 0 0
1217 1 0.0016 1600 0.0003496194039973111 -0.0071916773524438446 0.028714400865506872 0 0 0
1218 1 0.0016 1600 0.004177688892675239 0.0019426154830502168 0.025084237772993765 0 0 0
1219 1 0.0016 1600 0.0015050291094238005 -0.00704096733358406 0.023985733419869173 0 0 0
1220 1 0.0016 1600 0.006005251061480336 -0.00397208986829796 0.021061100842191708 0 0 0
1221 1 0.0016 1600 0.0033729705152733378 -0.004871078091372865 0.027322963004526617 0 0 0
1222 1 0.0016 1600 -0.0030790478870962226 -0.004058732116067112 0.02322966257127688 0 0 0
1223 1 0.0016 1600 0.002687777097701729 -0.0025797768038442275 0.027461208490462168 0 0 0
1224 1 0.0016 1600 -0.0035338493400084788 -0.006274053865047362 0.022549837431003455 0 0 0
1225 1 0.0016 1600 0.00476279939044768 -0.001848866610216034 0.02607148377900808 0 0 0
1226 1 0.0016 1600 -0.00047864546309693204 -0.002720732496426857 0.022929790618628047 0 0 0
1227 1 0.0016 1600 0.0016704839893367384 -0.00032149080194266105 0.026710147195963634 0 0 0
1228 1 0.0016 1600 0.0014706753829485258 0.0016091982666500994 0.028032021439334982 0 0 0
1229 1 0.0016 1600 0.005674428277219044 0.001591340030045284 0.025525404753903216 0 0 0
1230 1 0.0016 1600 0.0017017426059193475 0.0016810671643275325 0.02645049500193184 0 0 0
1231 1 0.0016 1600 -0.0054789795899464425 -0.004671643592975461 0.026862668062013102 0 0 0
1232 1 0.0016 1600 -0.007058148722432999 0.001424174514805063 0.02448218434006054 0 0 0
1233 1 0.0016 1600 0.006835707359499259 -0.0022620070932478763 0.024460671885968188 0 0 0
1234 1 0.0016 1600 -0.002130579521979957 -0.006750799257645639 0.026815973978041766 0 0 0
1235 1 0.0016 1600 0.00215815890098196 -0.0022561210483792527 0.02324589339213142 0 0 0
1236 1 0.0016 1600 -0.0035863106714817236 0.003388409753205402 0.02381143676228738 0 0 0
1237 1 0.0016 1600 -0.004480622418858497 -0.0032748909669677983 0.02520484408562657 0 0 0
1238 1 0.0016 1600 0.007197959604204824 -0.0001789989465056271 0.02685592967921837 0 0 0
1239 1 0.0016 1600 0.0029101559374402515 -0.006586132302659517 0.024951647572388127 0 0 0
1240 1 0.0016 1600 0.003524751102554148 0.0024795826482763815 0.023725854025050074 0 0 0
1241 1 0.0016 1600 -0.0037833534535014032 -0.0032212098816836784 0.026643498411861283 0 0 0
1242 1 0.0016 1600 -0.0065304961206698025 -0.003032143760674635 0.022166119115818603 0 0 0
1243 1 0.0016 1600 0.001389162040698952 0.005790508275613873 0.027007714267889872 0 0 0
1244 1 0.0016 1600 -0.0037637426869893383 -0.0012775443130783395 0.025807011308677543 0 0 0
1245 1 0.0016 1600 -0.0061041535999464885 -0.003818981719644085 0.024241826872328245 0 0 0
1246 1 0.0016 1600 0.00378538498622347 0.006121357150798269 0.02595944103039091 0 0 0
1247 1 0.0016 1600 0.003083084862320236 0.004823415697571605 0.02419815816504212 0 0 0
1248 1 0.0016 1600 0.005818204805852443 0.00015717401534633946 0.022741367892000475 0 0 0
1249 1 0.0016 1600 -0.006387300741385686 8.303073219641874e-05 0.02733615357796026 0 0 0
1250 1 0.0016 1600 -0.006797134664950954 0.002375511582260694 0.021695831835403138 0 0 0
1251 1 0.0016 1600 -0.0014616501192702958 -0.002103333915154112 0.02420237591411564 0 0 0
1252 1 0.0016 1600 0.004804681791685799 -0.005362444371661394 0.024670529955296238 0 0 0
1253 1 0.0016 1600 -0.0035189245728005185 0.005165565473771003 0.028155942286963893 0 0 0
1254 1 0.0016 1600 -0.0008822996504711284 -0.001152126994235496 0.023053916295093766 0 0 0
1255 1 0.0016 1600 0.0014503007242304819 0.0054178258092944164 0.023757464894068794 0 0 0
1256 1 0.0016 1600 0.0006476387868447016 0.002720834295182177 0.027073296347502072 0 0 0
1257 1 0.0016 1600 0.0044123691277875125 0.0036634982521037344 0.024334151512984247 0 0 0
1258 1 0.0016 1600 0.003939506334321595 -0.0019722254013913314 0.023911037923967513 0 0 0
1259 1 0.0016 1600 0.004310526402314558 -0.005767571799917669 0.02048494690224366 0 0 0
1260 1 0.0016 1600 0.0032740142560355305 -0.005096150637842629 0.02420392349550687 0 0 0
1261 1 0.0016 1600 -0.0011848664616547723 0.0021277312950788007 0.02498393748893032 0 0 0
1262 1 0.0016 1600 0.003173663595892696 -0.006462984602076019 0.023378659906465923 0 0 0
1263 1 0.0016 1600 0.0012560505152861125 0.004431411485857688 0.025001880458663712 0 0 0
1264 1 0.0016 1600 -0.002759002015401651 0.0006226459779541723 0.022902516768720127 0 0 0
1265 1 0.0016 1600 -0.0031497909851720515 -0.00335280515461427 0.02179589966290321 0 0 0
1266 1 0.0016 1600 0.004985252947651262 0.0031522244733753974 0.02575016026572294 0 0 0
1267 1 0.0016 1600 0.0018823285986639114 -0.0028138575490044768 0.02609922761701791 0 0 0
1268 1 0.0016 1600 -0.002232012741078736 -0.0068455106757346115 0.024407472196151307 0 0 0
1269 1 0.0016 1600 0.0014822176690512774 0.004097090184787235 0.02749163757298961 0 0 0
1270 1 0.0016 1600 0.005897180851225109 0.0006985202333855742 0.02718319785974175 0 0 0
1271 1 0.0016 1600 0.006985699949513153 0.0017459969219585205 0.024623345573914084 0 0 0
1272 1 0.0016 1600 0.005823455117756791 -0.0009851120130158378 0.026999383508006132 0 0 0
1273 1 0.0016 1600 -0.0010138303651741252 0.0005752459517530758 0.025506058994911627 0 0 0
1274 1 0.0016 1600 0.0007427377101603278 0.00291722093062774 0.02261871973788475 0 0 0
1275 1 0.0016 1600 -0.0031760105263714594 -0.0064614486969541965 0.025640399263039463 0 0 0
1276 1 0.0016 1600 0.004802792233452812 -0.004244414452809649 0.02581500271605189 0 0 0
1277 1 0.0016 1600 -0.0010836071100360635 0.0003721614702964726 0.022611701078201384 0 0 0
1278 1 0.0016 1600 -0.0043826202227629455 0.0008751779800331063 0.024838157020462964 0 0 0
1279 1 0.0016 1600 -0.006930176602930543 -0.0019526404205389705 0.025151007503173013 0 0 0
1280 1 0.0016 1600 0.0011178338758563232 0.007112781880843177 0.02498823337007207 0 0 0
1281 1 0.0016 1600 0.0047086786053040204 0.001234967251175018 0.023149821961473544 0 0 0
1282 1 0.0016 1600 0.0026086567640867726 0.0022508968931807156 0.025050001571920704 0 0 0
1283 1 0.0016 1600 -0.002197119121366706 0.0016806435470224919 0.026304649320998866 0 0 0
1284 1 0.0016 1600 -7.472759054802826e-05 0.0057292795323913796 0.024128885707922453 0 0 0
1285 1 0.0016 1600 -0.0034603466519985155 0.0017965158083172149 0.023906339323064064 0 0 0
1286 1 0.0016 1600 -0.000743204013831363 0.002248632668377869 0.021116123893113597 0 0 0
1287 1 0.0016 1600 0.0014988866667368299 0.0023317638319325434 0.023901208236436464 0 0 0
1288 1 0.0016 1600 -0.0004498682865194597 0.006923445926906572 0.025245405494968492 0 0 0
1289 1 0.0016 1600 0.005330986295184346 -0.002718816213898503 0.02416676699336577 0 0 0
1290 1 0.0016 1600 -0.001131301116310089 -0.0066567397698262774 0.02555286792072037 0 0 0
1291 1 0.0016 1600 -0.001278459647655053 -0.0043096203843177245 0.023293205130279847 0 0 0
1292 1 0.0016 1600 -0.004920993360149901 -0.003171609357298779 0.021230537216488272 0 0 0
1293 1 0.0016 1600 -0.001365396761773365 -0.0028571341304303682 0.02563610933293506 0 0 0
1294 1 0.0016 1600 -0.002781789571453827 -0.0013397719589187574 0.023610740126384283 0 0 0
1295 1 0.0016 1600 5.58509026006878e-05 -0.004305018743528681 0.02703392869980234 0 0 0
1296 1 0.0016 1600 0.004017571757655645 -0.0001528695942953284 0.02743177870987184 0 0 0
1297 1 0.0016 1600 0.007089713519076563 -0.0012558631500327645 0.025678005555653256 0 0 0
1298 1 0.0016 1600 -0.006322703604601342 0.001682946983517708 0.027166378080730108 0 0 0
1299 1 0.0016 1600 -0.005720548386061122 0.004372331709435426 0.023614711431100315 0 0 0
1300 1 0.0016 1600 -0.0016269128484679251 0.005571724244445645 0.024483558997467594 0 0 0
1301 1 0.0016 1600 0.005669792971167081 0.0044383291815081 0.026410638179410702 0 0 0
1302 1 0.0016 1600 0.0022029686385363826 -0.003474623507995181 0.02213502824240313 0 0 0
1303 1 0.0016 1600 -0.006758146641421548 -0.0024836167852717223 0.023651687786148266 0 0 0
1304 1 0.0016 1600 0.00039181897809246357 -0.003223224654727941 0.025687560488917762 0 0 0
1305 1 0.0016 1600 0.0058698335492214735 -0.0041695598177245805 0.024625174297208594 0 0 0
1306 1 0.0016 1600 -0.0013220941899780038 0.0070777306957812754 0.02391313112971275 0 0 0
1307 1 0.0016 1600 -0.0023786168877037266 0.0010731988040532101 0.02483620041376379 0 0 0
1308 1 0.0016 1600 0.005549495754264025 -0.0012684881137431348 0.024805097330500826 0 0 0
1309 1 0.0016 1600 0.005749025643417128 0.0017103978339450335 0.021996823274759814 0 0 0
1310 1 0.0016 1600 -0.0041136943182788445 0.0038472752733384884 0.022371488511750623 0 0 0
1311 1 0.0016 1600 0.0030690722868912195 0.006513238128697032 0.024583812888679876 0 0 0
1312 1 0.0016 1600 0.004714388701453209 -0.0006050462892902308 0.023612674530519143 0 0 0
1313 1 0.0016 1600 0.0016621766917873189 0.0031935272683322317 0.025930250576447583 0 0 0
1314 1 0.0016 1600 -0.0015078353928131376 -0.003967566540701438 0.02701800411870145 0 0 0
1315 1 0.0016 1600 0.001888348124618659 0.006948025276764399 0.023595959419996097 0 0 0
1316 1 0.0016 1600 -0.0023523928542119135 -0.004411173729933958 0.02573360544006258 0 0 0
1317 1 0.0016 1600 -0.0037971696868970665 -0.00036719989437751467 0.022179083789003164 0 0 0
1318 1 0.0016 1600 0.00014762716299475075 0.003654861757951161 0.028272146433271406 0 0 0
1319 1 0.0016 1600 0.0033309181744892997 0.0019415369261200786 0.026443403406113838 0 0 0
1320 1 0.0016 1600 0.00012122484238996044 -0.004138876376352275 0.022495242917736743 0 0 0
1321 1 0.0016 1600 -0.003264434365044605 0.0028501371992935105 0.026533280535321384 0 0 0
1322 1 0.0016 1600 -0.006156432397820312 -0.0009609522597087177 0.023939652263459683 0 0 0
1323 1 0.0016 1600 0.0009757746784373531 -0.004709159555199802 0.025789466859587322 0 0 0
1324 1 0.0016 1600 0.002253540362311486 -0.0019270857444815181 0.021510690363916448 0 0 0
1325 1 0.0016 1600 -2.8991532866339772e-05 -0.0032204494268964195 0.02118748185335442 0 0 0
1326 1 0.0016 1600 -0.002190939995875168 -0.0010165844127950454 0.02706062507595489 0 0 0
1327 1 0.0016 1600 -0.004324038391312474 -0.004408926384315148 0.022049847490156264 0 0 0
1328 1 0.0016 1600 0.0042144650613269545 0.0058377201054649755 0.023694280523346305 0 0 0
1329 1 0.0016 1600 0.006353639551182499 0.0033875561598750745 0.027405408473959936 0 0 0
1330 1 0.0016 1600 -0.0020047257623270033 0.0031544993125033898 0.02150647052533994 0 0 0
1331 1 0.0016 1600 -0.004798017989035441 -0.0006873022641370499 0.02473869545044326 0 0 0
1332 1 0.0016 1600 -0.005295656163028046 -0.0022697477603341827 0.024264216605396096 0 0 0
1333 1 0.0016 1600 0.002192953607220922 0.0029881190069483286 0.028399632115885195 0 0 0
1334 1 0.0016 1600 -0.0021300876626581303 -0.0035420573158825674 0.0244090831338097 0 0 0
1335 1 0.0016 1600 0.0043803649258434725 -0.003979096937300588 0.02390825471940672 0 0 0
1336 1 0.0016 1600 0.002050761599065398 -0.0007892040824581829 0.0226170181259448 0 0 0
1337 1 0.0016 1600 0.0001355133904700056 -0.00579162541746913 0.02496359764978305 0 0 0
1338 1 0.0016 1600 0.0022036549927924357 0.0068548167789199465 0.026134245871346266 0 0 0
1339 1 0.0016 1600 -0.0006108639603917669 0.0019418636489587815 0.026465492209425068 0 0 0
1340 1 0.0016 1600 0.003645780155530331 -0.0062078713501881825 0.02187170792131675 0 0 0
1341 1 0.0016 1600 0.0040211641763864174 -0.005972239752313609 0.025924902066729934 0 0 0
1342 1 0.0016 1600 0.00169340076469876 -0.005589052530600738 0.02466273815810402 0 0 0
1343 1 0.0016 1600 -0.0010297498026124242 0.005629082794740175 0.025985821473048315 0 0 0
1344 1 0.0016 1600 -0.0012421223245966712 0.0039254390050192395 0.023726961367786844 0 0 0
1345 1 0.0016 1600 -0.004273862504197021 0.002659477226841155 0.02528175405979567 0 0 0
1346 1 0.0016 1600 -0.0055759729485730086 -0.0005903840616932137 0.026133039838477815 0 0 0
1347 1 0.0016 1600 0.005410975962089267 0.0047507055633938065 0.023717292919920484 0 0 0
1348 1 0.0016 1600 -0.005554546251892573 0.00194600742746366 0.024641324394162244 0 0 0
1349 1 0.0016 1600 -0.0002736174224497005 -0.007195156244855257 0.02431443068222606 0 0 0
1350 1 0.0016 1600 -0.000305739457487883 0.0005840266169450505 0.028439754656095075 0 0 0
1351 1 0.0016 1600 -0.00366919166520957 -0.006195054963463277 0.02414204017128739 0 0 0
1352 1 0.0016 1600 -0.0004203908038176114 -0.0027778712569410564 0.027009071057478448 0 0 0
1353 1 0.0016 1600 -0.004487924654715851 0.003675922961740434 0.027455018504888466 0 0 0
1354 1 0.0016 1600 -0.005481472981488087 -0.003097832574155819 0.02714898556214747 0 0 0
1355 1 0.0016 1600 0.004540235760315745 0.0055883078808236725 0.02726533393754342 0 0 0
1356 1 0.0016 1600 0.00027545200570698315 0.0014849169243952773 0.025214559910345373 0 0 0
1357 1 0.0016 1600 -0.005425574888847759 -0.004733256324367145 0.02076850622319071 0 0 0
1358 1 0.0016 1600 -0.0006351812665700327 -0.0008587184057385798 0.024774252788074175 0 0 0
1359 1 0.0016 1600 0.005363802830411566 0.0024213069235497577 0.024000166071857412 0 0 0
1360 1 0.0016 1600 -0.005578038539844602 0.0009962155186957358 0.02592816248939366 0 0 0
1361 1 0.0016 1600 0.006252100367177736 -0.0012497654216213202 0.0233681275927708 0 0 0
1362 1 0.0016 1600 -0.006383102950984918 -0.0033320502838701505 0.020601616827399232 0 0 0
1363 1 0.0016 1600 -0.0022863980955732345 0.006275840912129355 0.02673505603711785 0 0 0
1364 1 0.0016 1600 -0.0005373009447943934 -0.0033971896318874344 0.02437841230976906 0 0 0
1365 1 0.0016 1600 -0.002695572980228539 0.0026526233449443697 0.025020582902802683 0 0 0
1366 1 0.0016 1600 0.002420345237474733 -0.006781272571290038 0.021017848445984116 0 0 0
1367 1 0.0016 1600 -0.007156092094476072 0.0007958471711778294 0.026127976959401458 0 0 0
1368 1 0.0016 1600 -0.0003980928781301444 0.0006452056886280901 0.02403111613020275 0 0 0
1369 1 0.0016 1600 0.004634748210533412 -0.003146653694767204 0.026998155004694453 0 0 0
1370 1 0.0016 1600 -0.003108512802398907 0.0006980106455892306 0.02757391178868845 0 0 0
1371 1 0.0016 1600 0.001702131239398698 0.006996077762962447 0.02195926877291809 0 0 0
1372 1 0.0016 1600 0.005940086116375943 -0.004069405146962128 0.026938798480755356 0 0 0
1373 1 0.0016 1600 -0.004590787654709966 0.004150418151640489 0.024795928201226607 0 0 0
1374 1 0.0016 1600 -0.006400453603216646 0.00329801198869802 0.026981280947149987 0 0 0
1375 1 0.0016 1600 -0.0024234405644952763 -0.005506926858826475 0.023407893344452684 0 0 0
1376 1 0.0016 1600 0.0017551928140349838 0.0008979780983643203 0.02505638246806449 0 0 0
1377 1 0.0016 1600 -0.0007576424231896024 0.007160033834794971 0.022418730768246922 0 0 0
1378 1 0.0016 1600 -0.004796839591541602 0.0024600284345916794 0.023329843578367773 0 0 0
1379 1 0.0016 1600 -0.003621614951917266 -0.002347784047282395 0.027974008492195973 0 0 0
1380 1 0.0016 1600 -0.00048544503032429997 0.004470610332639033 0.025026527670833475 0 0 0
1381 1 0.0016 1600 0.006102031603685002 0.0038221524580741412 0.024821032806473544 0 0 0
1382 1 0.0016 1600 -0.0018053628164376066 0.004628383050597198 0.020618908603681138 0 0 0
1383 1 0.0016 1600 0.004470394943175833 0.0008343979249916035 0.0262574945772588 0 0 0
1384 1 0.0016 1600 -0.004569412230578213 0.005564636326573948 0.025543555959310883 0 0 0
1385 1 0.0016 1600 -0.0005958904850713268 -0.007175751901286371 0.026968279959572038 0 0 0
1386 1 0.0016 1600 -0.00639671720180504 0.0033053315423099056 0.024595955230103612 0 0 0
1387 1 0.0016 1600 0.005081594196005826 -0.00510139994007822 0.02171776757650067 0 0 0
1388 1 0.0016 1600 0.002421649519885792 0.0053847525200579885 0.02554225202523797 0 0 0
1389 1 0.0016 1600 0.0070791088537124295 0.0013161534670990908 0.0263000230604483 0 0 0
1390 1 0.0016 1600 -0.004967441902906653 -0.001332931682658817 0.021547001181540865 0 0 0
1391 1 0.0016 1600 0.004199376067382392 -0.001123638740040418 0.022188251154786856 0 0 0
1392 1 0.0016 1600 0.0026961580687862143 -0.0010031864137380864 0.027731410251272574 0 0 0
1393 1 0.0016 1600 -0.005840812411392818 0.00421045945818897 0.025792360084556976 0 0 0
1394 1 0.0016 1600 0.001055055041482216 0.0008775710841876486 0.02340365061019938 0 0 0
1395 1 0.0016 1600 -0.0032594824042746656 -0.00025324059233066564 0.02468296154489928 0 0 0
1396 1 0.0016 1600 -0.0013643003540150004 -0.0053724567959893745 0.0245986835824365 0 0 0
1397 1 0.0016 1600 0.0026527329003839047 -0.002397592777339149 0.024760668299516266 0 0 0
1398 1 0.0016 1600 0.0006141517504441436 -0.004669622516070675 0.023921843381270288 0 0 0
1399 1 0.0016 1600 0.0009605417123514124 0.007135706489707479 0.028021876328799673 0 0 0
1400 1 0.0016 1600 0.003988284410545857 0.0029805755206987177 0.02227887363643697 0 0 0
1401 1 0.0016 1600 -0.006815961987440335 0.0023208101965069257 0.025784835023550286 0 0 0
1402 1 0.0016 1600 -0.0035879725233445535 -0.0026928303006637706 0.023888624019865502 0 0 0
1403 1 0.0016 1600 -0.004586046814883214 -0.003935119020177967 0.02375161425462778 0 0 0
1404 1 0.0016 1600 0.0011577316186752954 0.004417959911586067 0.022201715642619368 0 0 0
1405 1 0.0016 1600 -0.00223178588252885 -0.006845439597165005 0.02181679086876491 0 0 0
1406 1 0.0016 1600 -0.0030089761008777246 -0.0026215060252440118 0.025378415260708963 0 0 0
1407 1 0.0016 1600 -0.00558104674518972 0.000567106922041764 0.023823999078849346 0 0 0
1408 1 0.0016 1600 0.00030267514819374837 0.003079967540677214 0.0250945188163299 0 0 0
1409 1 0.0016 1600 -0.0021590211867007127 0.0041598390198619405 0.025016831112839418 0 0 0
1410 1 0.0016 1600 -0.005129529142712282 0.005052569796944652 0.026951998417017987 0 0 0
1411 1 0.0016 1600 0.0019490489473376331 -0.006281977716959722 0.026207013641482254 0 0 0
1412 1 0.0016 1600 -0.0055364110613307285 0.000967728042477009 0.028361948314826038 0 0 0
1413 1 0.0016 1600 -0.002206392965691638 -0.004475371097012452 0.031679699386571794 0 0 0
1414 1 0.0016 1600 -0.001657965832253427 0.00274911069863246 0.027365935601187535 0 0 0
1415 1 0.0016 1600 0.0004593033864874209 -0.0008514594816727242 0.02761090402974169 0 0 0
1416 1 0.0016 1600 0.0014457514077507237 -0.005537489110618776 0.027644376056236982 0 0 0
1417 1 0.0016 1600 0.00468074302379462 -0.002719434615600704 0.029075551961472827 0 0 0
1418 1 0.0016 1600 0.005065764477068739 -0.004285960715905259 0.028311567791236263 0 0 0
1419 1 0.0016 1600 0.0035207833023113925 -0.0015293886895558473 0.02903490036998875 0 0 0
1420 1 0.0016 1600 0.0028254597105398715 0.00211106336230424 0.03200992912247521 0 0 0
1421 1 0.0016 1600 -0.0029399990028477576 0.006572564268851437 0.030717074300639673 0 0 0
1422 1 0.0016 1600 -0.00432269712528442 0.0014931148710997926 0.031211069034692684 0 0 0
1423 1 0.0016 1600 -0.0011503466802425136 0.0033755438593278007 0.025984401622164477 0 0 0
1424 1 0.0016 1600 -0.004224414873189605 0.004223318600074648 0.02994551029409722 0 0 0
1425 1 0.0016 1600 -0.0012066122004892007 -0.0011379609599839742 0.030962064807554406 0 0 0
1426 1 0.0016 1600 6.917729060091783e-05 -6.715708958380897e-05 0.03094276324790424 0 0 0
1427 1 0.0016 1600 0.0020499575189498985 0.0033605154259430206 0.02996787009473843 0 0 0
1428 1 0.0016 1600 -0.0008701097825285864 -0.00011547122078795463 0.027111719805932542 0 0 0
1429 1 0.0016 1600 -0.005821963124234062 0.004236149777971855 0.02814102957710111 0 0 0
1430 1 0.0016 1600 0.0008043313052860941 -0.004336447047737015 0.031204728831412624 0 0 0
1431 1 0.0016 1600 -0.0008880679281526279 0.004322654837051547 0.02725178630210068 0 0 0
1432 1 0.0016 1600 -0.0014561176437810485 -0.002999037236229995 0.0283307337571007 0 0 0
1433 1 0.0016 1600 0.0031889206451851063 -0.006455595906954612 0.027202918284364386 0 0 0
1434 1 0.0016 1600 0.0008377810261401357 -0.0034125193330484262 0.029873247610033734 0 0 0
1435 1 0.0016 1600 0.005330912301356322 0.0021797457024780777 0.026972557187837115 0 0 0
1436 1 0.0016 1600 -0.002191363392891879 -0.001246808130125924 0.025339556452142167 0 0 0
1437 1 0.0016 1600 0.0050191517941116665 0.0031038016758667877 0.028240508510353507 0 0 0
1438 1 0.0016 1600 -0.0034900213656152493 -0.004686188046567558 0.02464283866129138 0 0 0
1439 1 0.0016 1600 0.0007532831767609138 0.006108251446777989 0.030816511924994492 0 0 0
1440 1 0.0016 1600 -0.0009515727472241477 -0.0015349729094618556 0.027929102129950426 0 0 0
1441 1 0.0016 1600 -0.003332927252715359 0.006382196859820291 0.02917798011502542 0 0 0
1442 1 0.0016 1600 0.002352259071739633 -0.004544391040864852 0.028510437085579727 0 0 0
1443 1 0.0016 1600 0.006853122008900362 -0.002208239886625455 0.026941494035005377 0 0 0
1444 1 0.0016 1600 0.005366406526672929 -0.0004040199423345848 0.03116858699596098 0 0 0
1445 1 0.0016 1600 0.003620778829748488 -0.0036012752833412 0.0282642393226199 0 0 0
1446 1 0.0016 1600 0.0007349295108933717 0.004412414783116927 0.02955313710253938 0 0 0
1447 1 0.0016 1600 -0.00141121918091665 0.0036974321945622635 0.028630019275264672 0 0 0
1448 1 0.0016 1600 -0.0054463180761078304 0.0023970228942898596 0.032123454557366385 0 0 0
1449 1 0.0016 1600 0.002742587041252649 -0.004985270354035098 0.025708816093354528 0 0 0
1450 1 0.0016 1600 0.0022463829578496233 -0.0017939200901819533 0.029965145926516425 0 0 0
1451 1 0.0016 1600 0.00010182905395422316 -0.004829838675715699 0.029632235080216736 0 0 0
1452 1 0.0016 1600 0.0021979491060858786 -0.003006817077736482 0.028923100026194422 0 0 0
1453 1 0.0016 1600 0.0005406022959830475 0.0071797281818114745 0.026478745806049926 0 0 0
1454 1 0.0016 1600 -0.0029892657031773983 0.0007337299545458995 0.029169459698472924 0 0 0
1455 1 0.0016 1600 -0.005176921290334457 -0.0050043052618078485 0.0247844472638013 0 0 0
1456 1 0.0016 1600 0.0035915481895924368 0.0037448561962167915 0.028572443897887417 0 0 0
1457 1 0.0016 1600 0.0037307244289786733 -0.004520518050721295 0.030293249698660214 0 0 0
1458 1 0.0016 1600 0.0071596181270141565 -0.0007627428081240243 0.029669267403001572 0 0 0
1459 1 0.0016 1600 -0.0027657464070099756 -0.0014949866348242403 0.031130477521520275 0 0 0
1460 1 0.0016 1600 -0.0022003157124208003 0.0028824886909103757 0.029757819923940863 0 0 0
1461 1 0.0016 1600 -0.0010742449037619204 0.0036713384744719918 0.03161553299013207 0 0 0
1462 1 0.0016 1600 -0.0040681627470042815 -0.005937655958112952 0.0292122060965561 0 0 0
1463 1 0.0016 1600 0.004114113707060739 -0.0017441807857704321 0.02756481181462938 0 0 0
1464 1 0.0016 1600 -0.004392436768574824 0.0030839731400403576 0.03105605804196549 0 0 0
1465 1 0.0016 1600 0.005742488092124844 8.72674439041282e-06 0.02574834317038401 0 0 0
1466 1 0.0016 1600 0.0028739865262875594 -0.0017599696469807833 0.031436398042970354 0 0 0
1467 1 0.0016 1600 0.0004049737250161267 -0.006009532503825597 0.026525237368539675 0 0 0
1468 1 0.0016 1600 -5.212137620618737e-05 0.0014958092565295136 0.031387441121219 0 0 0
1469 1 0.0016 1600 -0.0017975027299875093 -0.00023228905861399864 0.028410013440919358 0 0 0
1470 1 0.0016 1600 -0.004915361280374528 -0.003032134644029529 0.030132454965794586 0 0 0
1471 1 0.0016 1600 0.0006122554022884126 -0.007174158739486452 0.03029243916113096 0 0 0
1472 1 0.0016 1600 0.002747076422209511 0.004957430327896747 0.03150629222886619 0 0 0
1473 1 0.0016 1600 -0.00438275144943462 -0.0040241779232081856 0.0312721462365165 0 0 0
1474 1 0.0016 1600 0.005534727208254113 0.004605310967378574 0.02804255978242188 0 0 0
1475 1 0.0016 1600 0.0030672160214111803 -0.00047218319563066774 0.030337489831124425 0 0 0
1476 1 0.0016 1600 -0.0015990352557230406 -0.0017513756427866352 0.02937607840161073 0 0 0
1477 1 0.0016 1600 -0.003096245063707669 -0.0010815323130732707 0.02879901933351852 0 0 0
1478 1 0.0016 1600 -0.00269054309924675 0.0021077106990524696 0.02840612596297356 0 0 0
1479 1 0.0016 1600 -0.0027661465180093417 -0.0028362079921974985 0.029234568386860237 0 0 0
1480 1 0.0016 1600 -0.004746632295561963 0.000989694040864894 0.029752830424698465 0 0 0
1481 1 0.0016 1600 0.0008245106685325412 -0.004078482648887621 0.028418584642449507 0 0 0
1482 1 0.0016 1600 -0.0018550775260409219 -0.0027114150138777596 0.030629992129378964 0 0 0
1483 1 0.0016 1600 0.0032807023569316773 0.003546673358943939 0.030972883869571036 0 0 0
1484 1 0.0016 1600 -0.0015204342442523288 -0.0070376171668359465 0.028266665778068925 0 0 0
1485 1 0.0016 1600 0.007106639553857671 -0.0011559195456468062 0.02811945816190163 0 0 0
1486 1 0.0016 1600 -0.0057479263306553655 -0.0006607979665577494 0.028599885237797364 0 0 0
1487 1 0.0016 1600 0.0028316166875613676 0.0015765995146293818 0.028872180829203297 0 0 0
1488 1 0.0016 1600 0.003915350387111476 -0.000901791357021416 0.025099681943845625 0 0 0
1489 1 0.0016 1600 -0.005362740833939982 -0.00013617359486632177 0.030707931435230276 0 0 0
1490 1 0.0016 1600 0.006629273974451161 0.0028082107775041928 0.025939988627465608 0 0 0
1491 1 0.0016 1600 -0.0035451576763509862 0.0020321585955222357 0.029920904763501694 0 0 0
1492 1 0.0016 1600 0.002756166042551118 0.004961030890188943 0.02705525066152399 0 0 0
1493 1 0.0016 1600 -0.0006212642711062782 0.0026455712226343404 0.029662181212270138 0 0 0
1494 1 0.0016 1600 0.005853841096351342 -0.0028740647198349984 0.027998714246910826 0 0 0
1495 1 0.0016 1600 0.003333902650872736 -0.002990245993478265 0.030049049048970104 0 0 0
1496 1 0.0016 1600 -0.0016633655416829543 -0.003932983895076759 0.029614952847072145 0 0 0
1497 1 0.0016 1600 -0.005215056198626326 -0.0015362915536921986 0.027371632344966246 0 0 0
1498 1 0.0016 1600 -0.005720387465218252 -0.004373184366912067 0.03046720290006831 0 0 0
1499 1 0.0016 1600 0.0032450900661358233 3.195819495863357e-05 0.028820661244764213 0 0 0
1500 1 0.0016 1600 -0.004385583222187266 -0.004032847584778336 0.02788351125873901 0 0 0
1501 1 0.0016 1600 -0.007041452474720065 -0.0015013380153027288 0.029240563514976208 0 0 0
1502 1 0.0016 1600 0.002177833551915484 0.004517042214517534 0.028869822297102422 0 0 0
1503 1 0.0016 1600 -0.006930456099880847 -0.001951753210712196 0.03079868572332809 0 0 0
1504 1 0.0016 1600 0.0020563723542123017 0.0060637417342515034 0.028479730783603004 0 0 0
1505 1 0.0016 1600 -0.0005873335137044886 0.006763867811812276 0.028524028276153517 0 0 0
1506 1 0.0016 1600 0.0005358019222773886 0.002997002092352703 0.030709323992892387 0 0 0
1507 1 0.0016 1600 0.0059003921317865495 -0.004126428205356388 0.03142615480050394 0 0 0
1508 1 0.0016 1600 0.0023196791118204278 -0.00681617472425033 0.028496684594436463 0 0 0
1509 1 0.0016 1600 -0.0008840586338574895 -0.0014551533459175032 0.026237713085295225 0 0 0
1510 1 0.0016 1600 0.0004344058613403288 0.0008832493286734502 0.02705348858765057 0 0 0
1511 1 0.0016 1600 0.0065602969912866085 0.002966914949789952 0.028935159823855264 0 0 0
1512 1 0.0016 1600 0.007185309040791816 0.0004614665136087438 0.02832186969824679 0 0 0
1513 1 0.0016 1600 -0.004905355988789399 0.005270996812764491 0.028946531905444318 0 0 0
1514 1 0.0016 1600 -0.002268896811751038 0.004678505010581051 0.02652629464515396 0 0 0
1515 1 0.0016 1600 -0.006816436938699237 -0.002318827664886788 0.026735352883464472 0 0 0
1516 1 0.0016 1600 0.0031380971093751165 0.006480671130163407 0.027377506526410193 0 0 0
1517 1 0.0016 1600 0.0026621830993161857 -0.005194486219737503 0.03127479483737862 0 0 0
1518 1 0.0016 1600 0.006812800172657974 -0.002329975749054476 0.029165689076546538 0 0 0
1519 1 0.0016 1600 -0.0029833950880517506 0.005490549051316646 0.025347476870144138 0 0 0
1520 1 0.0016 1600 -0.004503191269909269 -0.0056183507252107155 0.027706108755839415 0 0 0
1521 1 0.0016 1600 0.004594788512162845 0.005081196967842021 0.02505282602993398 0 0 0
1522 1 0.0016 1600 -0.0007272795388777387 -0.00042952670243546137 0.029603394784627816 0 0 0
1523 1 0.0016 1600 -0.004204677082522398 0.001780053461721533 0.02800665339781688 0 0 0
1524 1 0.0016 1600 -0.0022187483172648463 0.004740663197231653 0.03194172362704585 0 0 0
1525 1 0.0016 1600 0.0018814826474174706 -0.004147567206042083 0.02698282185065469 0 0 0
1526 1 0.0016 1600 -0.0027525340289506974 0.004299275217503184 0.02926081080767976 0 0 0
1527 1 0.0016 1600 0.0001310481252404035 -0.003007681925587186 0.03202434067952632 0 0 0
1528 1 0.0016 1600 -0.0049401339208545135 0.002339487618686712 0.026700583131181628 0 0 0
1529 1 0.0016 1600 -0.0038186600294501678 0.0031656588393482745 0.028815707958148293 0 0 0
1530 1 0.0016 1600 0.004168395349044956 0.0010022717819213065 0.029695573405947896 0 0 0
1531 1 0.0016 1600 0.0030656414648546865 -0.0015701554628148953 0.026279033770395203 0 0 0
1532 1 0.0016 1600 -0.002961635547392882 -0.004739826033447765 0.029142809597558904 0 0 0
1533 1 0.0016 1600 0.0034834730343154237 0.005335340745038633 0.02843941995227437 0 0 0
1534 1 0.0016 1600 -0.003866009883888 0.00607456726991367 0.026886628153209968 0 0 0
1535 1 0.0016 1600 -0.005814771584520604 0.004246077709181397 0.029772182985443034 0 0 0
1536 1 0.0016 1600 -0.005533945505329033 0.002656491853827339 0.02816301581772285 0 0 0
1537 1 0.0016 1600 0.007194381757898451 0.0002867438534985763 0.030876432843938983 0 0 0
1538 1 0.0016 1600 0.004411149821516539 0.004390057018067603 0.03172833519596253 0 0 0
1539 1 0.0016 1600 -0.002140575154648795 0.005219588380263901 0.03041733855883333 0 0 0
1540 1 0.0016 1600 -0.0037569843364823273 -0.0008782311910748016 0.027356231302151906 0 0 0
1541 1 0.0016 1600 -0.002591573058719247 -0.006717479067841197 0.029460999420863384 0 0 0
1542 1 0.0016 1600 0.006464550806251335 -0.0031704068229845925 0.02572400129693814 0 0 0
1543 1 0.0016 1600 -0.0031747865504621986 -0.006462441366958267 0.02799316075828855 0 0 0
1544 1 0.0016 1600 -0.0037860112859870215 0.004317777741541336 0.026168532263876613 0 0 0
1545 1 0.0016 1600 0.00487504176034023 0.0041622665525878014 0.02943117855133293 0 0 0
1546 1 0.0016 1600 0.003467178963980226 0.004740370167173049 0.02992430599136284 0 0 0
1547 1 0.0016 1600 0.004042493232647845 0.001890462150984713 0.02787532358843748 0 0 0
1548 1 0.0016 1600 0.0019215468553421408 -0.002652973979139099 0.03236892422451343 0 0 0
1549 1 0.0016 1600 -0.005298741482045896 0.0048749280762063404 0.0311497683988223 0 0 0
1550 1 0.0016 1600 0.0008214082757532641 -0.007153108310808152 0.025479892832129963 0 0 0
1551 1 0.0016 1600 0.0016359803245935757 -0.0003734632075758125 0.031045267365601953 0 0 0
1552 1 0.0016 1600 -0.0046911717516397965 0.00039838342205052646 0.02711768080949156 0 0 0
1553 1 0.0016 1600 -0.0006733018872536871 -0.005827966706135419 0.03061343080305416 0 0 0
1554 1 0.0016 1600 0.0028483668500859983 0.003365374737496102 0.02698988417831183 0 0 0
1555 1 0.0016 1600 -0.002145709101249788 -0.00524448895425109 0.02786282001303619 0 0 0
1556 1 0.0016 1600 -0.001369242622171854 -0.005725137398223219 0.029176438071935384 0 0 0
1557 1 0.0016 1600 0.001828378464810462 -0.0037684671989563815 0.024816869128723745 0 0 0
1558 1 0.0016 1600 -0.0053652224804337555 -0.0015151653579421303 0.02989691853596393 0 0 0
1559 1 0.0016 1600 -0.0001774050890994198 0.005779788906595353 0.027331073083988307 0 0 0
1560 1 0.0016 1600 0.003186843149335358 0.006456531103809629 0.029541391681591863 0 0 0
1561 1 0.0016 1600 0.0005682746176248763 0.005743298188549435 0.025606574823947507 0 0 0
1562 1 0.0016 1600 0.001980990132935924 0.0005451146694473702 0.029750639098762785 0 0 0
1563 1 0.0016 1600 -0.004621778047093974 -0.005520874375123473 0.030654178278289267 0 0 0
1564 1 0.0016 1600 -0.0007563355988112329 -0.004336381466485721 0.025654776709811842 0 0 0
1565 1 0.0016 1600 0.0055950695940221356 0.002625550651727793 0.030203575795871962 0 0 0
1566 1 0.0016 1600 -0.006242707372074819 0.0035874625923605482 0.031254343237182604 0 0 0
1567 1 0.0016 1600 -0.0002000828755751775 0.007197344052945176 0.03156593095673893 0 0 0
1568 1 0.0016 1600 0.0058988860024710614 0.004128647315179286 0.030659822003834415 0 0 0
1569 1 0.0016 1600 0.006932715509340666 0.0019402956937593658 0.02776587016864997 0 0 0
1570 1 0.0016 1600 -0.0008097213964836265 -0.004461911401397313 0.028369905212815613 0 0 0
1571 1 0.0016 1600 -0.0019345099729321882 0.005306357012166715 0.02795932148817452 0 0 0
1572 1 0.0016 1600 -0.0005423570698940989 0.0050384910511849165 0.02870083189206035 0 0 0
1573 1 0.0016 1600 0.0016100809720104331 3.515869297301144e-05 0.028280399580312168 0 0 0
1574 1 0.0016 1600 0.0029738575762010104 0.001773015888432501 0.030453368557161044 0 0 0
1575 1 0.0016 1600 -0.004499771974983722 -0.004410622825410887 0.029433907617934903 0 0 0
1576 1 0.0016 1600 0.003247843498358045 -0.003608756299589349 0.02634850859590411 0 0 0
1577 1 0.0016 1600 0.0014059093047101583 0.001655182454138526 0.030748636644336396 0 0 0
1578 1 0.0016 1600 0.0071961320771165484 0.0002403993853480143 0.02512173180416129 0 0 0
1579 1 0.0016 1600 -0.0008853809821739969 -0.007145574132523203 0.029730940924540095 0 0 0
1580 1 0.0016 1600 -7.341515886049441e-05 -0.001817060196489148 0.030059671387357025 0 0 0
1581 1 0.0016 1600 0.005901636683364197 0.004124576835406347 0.03225957197530031 0 0 0
1582 1 0.0016 1600 0.0011898237439131368 -0.005911709218042019 0.029178727653751155 0 0 0
1583 1 0.0016 1600 -0.007023287022574031 0.0015861933639235058 0.028601244433964855 0 0 0
1584 1 0.0016 1600 0.002701733057827973 0.000748149835643507 0.027303259113615762 0 0 0
1585 1 0.0016 1600 -0.0028148556767576536 -0.0037311344173496072 0.02790955629241704 0 0 0
1586 1 0.0016 1600 0.001347844526162058 0.004335924643248778 0.031035839634458526 0 0 0
1587 1 0.0016 1600 0.0051622942568751535 0.00016981089753339773 0.028501724719541068 0 0 0
1588 1 0.0016 1600 -0.0021532545725027616 0.0068706484921705595 0.0282141308838759 0 0 0
1589 1 0.0016 1600 0.003057299712424894 0.00028083493068408475 0.025751362805786614 0 0 0
1590 1 0.0016 1600 6.084148767827944e-05 -0.0026502807776068392 0.028700537330517653 0 0 0
1591 1 0.0016 1600 -0.005079990485221866 -0.002553733350531153 0.028599004241730345 0 0 0
1592 1 0.0016 1600 0.00024731949460676003 -0.00028746654756878995 0.02597987289451279 0 0 0
1593 1 0.0016 1600 0.003896457845919483 -0.006054765009646072 0.030715428715872423 0 0 0
1594 1 0.0016 1600 0.0012441848977353589 -0.005849917834307523 0.0309295969328706 0 0 0
1595 1 0.0016 1600 0.004094140922329714 -0.0029741612527849058 0.025148582326874145 0 0 0
1596 1 0.0016 1600 0.004151494164432339 -0.005882724491100478 0.028345255927772556 0 0 0
1597 1 0.0016 1600 0.003059662262715722 0.003749090957278822 0.025383289088414692 0 0 0
1598 1 0.0016 1600 -0.0062897503754780065 -0.0035041607004056693 0.025799150541036993 0 0 0
1599 1 0.0016 1600 0.0039040477844556605 0.0005718078566815018 0.031214542323784327 0 0 0
1600 1 0.0016 1600 -0.006666113449244791 -0.0027211833543243583 0.028276200295680797 0 0 0
1601 1 0.0016 1600 0.0012161976351382502 -0.007096982436581221 0.027372881761965017 0 0 0
1602 1 0.0016 1600 -0.0021705543424426163 0.006865230643864698 0.025252469469137055 0 0 0
1603 1 0.0016 1600 -0.007200358405185695 1.148724531083929e-07 0.02871147695554236 0 0 0
1604 1 0.0016 1600 -0.003764563793343695 0.0013607070684560816 0.026231622738522472 0 0 0
1605 1 0.0016 1600 -0.005329600199150766 -0.002117873984489922 0.03137842327451425 0 0 0
1606 1 0.0016 1600 0.0006780571089750804 -0.0017872015942657395 0.02633201923560223 0 0 0
1607 1 0.0016 1600 -0.0023290484010154468 -0.0026008016788029104 0.02688704067820334 0 0 0
1608 1 0.0016 1600 -0.002698710487696259 0.00017289683470574692 0.026119284793038267 0 0 0
1609 1 0.0016 1600 -0.001590076130458625 0.0011861594027876585 0.027699554013179632 0 0 0
1610 1 0.0016 1600 0.000913269265444246 0.002508906608286255 0.029231579357980857 0 0 0
1611 1 0.0016 1600 -0.004477201347470743 -0.00563900638191845 0.026075411860571638 0 0 0
1612 1 0.0016 1600 -0.007199025165941893 -0.00013223868544969412 0.02482580578150576 0 0 0
1613 1 0.0016 1600 0.0053861851973961575 -0.0014141285425429931 0.028477276581270375 0 0 0
1614 1 0.0016 1600 -0.00020527815935148528 0.005040942360871817 0.03152497060480374 0 0 0
1615 1 0.0016 1600 0.0011033720037889726 -0.00280111191591568 0.027496472410539298 0 0 0
1616 1 0.0016 1600 -0.000966166866675823 0.007135114586395513 0.02701457908458523 0 0 0
1617 1 0.0016 1600 -0.005425301220316973 -0.00215872853033396 0.025854931110760107 0 0 0
1618 1 0.0016 1600 0.0048989113372325055 -0.005276971454546905 0.027067060179732726 0 0 0
1619 1 0.0016 1600 0.0021960657338081675 -0.0035102800651344215 0.03104640107441304 0 0 0
1620 1 0.0016 1600 -0.00026521582666237605 -0.005913338975605759 0.027974735392642114 0 0 0
1621 1 0.0016 1600 0.0017080500842537492 0.006994824070960802 0.029846976200736473 0 0 0
1622 1 0.0016 1600 -0.00718790585803209 -0.00042106936247891184 0.030411305189749237 0 0 0
1623 1 0.0016 1600 -0.0011095916312363699 -0.00551676442942994 0.026674978356233822 0 0 0
1624 1 0.0016 1600 -0.0033079755773233513 0.0036158275125439056 0.03232340355970473 0 0 0
1625 1 0.0016 1600 -0.005902889973654425 -0.004123088600834439 0.028381812437493048 0 0 0
1626 1 0.0016 1600 0.0018075807185421685 -0.0011833436385671105 0.025369400930492624 0 0 0
1627 1 0.0016 1600 -0.0003946133462222041 0.00215425739052353 0.028146679100697097 0 0 0
1628 1 0.0016 1600 0.0045679291928879045 -0.0005656124453867972 0.029791751675542193 0 0 0
1629 1 0.0016 1600 0.007054376270117561 -0.0014408699931509731 0.03111453277804633 0 0 0
1630 1 0.0016 1600 -0.003598034740798252 0.0010320316621760198 0.0337236816230916 0 0 0
1631 1 0.0016 1600 0.005372644462421759 -0.002032057694419958 0.033190974270721756 0 0 0
1632 1 0.0016 1600 0.004805974024723807 0.004701323181424912 0.033272689443283286 0 0 0
1633 1 0.0016 1600 0.006591006639570519 -0.0028983923396837773 0.030644679248728043 0 0 0
1634 1 0.0016 1600 0.00480792442137849 0.0013501417962801124 0.03228071207005442 0 0 0
1635 1 0.0016 1600 0.002792861127504654 -0.006636313753075534 0.03468186665469237 0 0 0
1636 1 0.0016 1600 -0.0006455882491511805 0.0057195643287929615 0.030144643286168945 0 0 0
1637 1 0.0016 1600 -0.0017484019793891066 -0.0049210536342915185 0.03328623112859035 0 0 0
1638 1 0.0016 1600 0.005423016556918385 0.004736198266280873 0.0347484134294718 0 0 0
1639 1 0.0016 1600 -0.0022351400366293415 -0.0021277415003999557 0.0338157472258838 0 0 0
1640 1 0.0016 1600 0.0018308174124365769 0.0008592966673499518 0.03206976955719618 0 0 0
1641 1 0.0016 1600 -0.003865053157581732 -0.0002918801108501363 0.030126680478648707 0 0 0
1642 1 0.0016 1600 0.005880200538801732 0.0011990765056791623 0.033458386872343204 0 0 0
1643 1 0.0016 1600 0.0032827762654131206 -0.0029529132231009268 0.0331543504674515 0 0 0
1644 1 0.0016 1600 -0.0014134800359357268 0.0022373972051340863 0.030992375339847354 0 0 0
1645 1 0.0016 1600 -0.004429293048138109 0.004692197907671355 0.03364740454447412 0 0 0
1646 1 0.0016 1600 -0.007192004946000569 0.00033962160712298895 0.032720416933142406 0 0 0
1647 1 0.0016 1600 -6.553103305334189e-05 0.00542255969956716 0.035351738271171815 0 0 0
1648 1 0.0016 1600 0.002440330412363178 -0.00677384276992249 0.03166248578287233 0 0 0
1649 1 0.0016 1600 0.005332810437731923 0.0011482534275167018 0.030782966628584464 0 0 0
1650 1 0.0016 1600 0.00045986029118052585 -0.003811260472439178 0.034210639427044685 0 0 0
1651 1 0.0016 1600 -0.0038110367734472774 -0.001884380114686341 0.02998380296816612 0 0 0
1652 1 0.0016 1600 0.005031536996916095 -7.144261270574905e-05 0.0329841070332384 0 0 0
1653 1 0.0016 1600 0.004655250471845829 0.0026865763766134292 0.03393452284858316 0 0 0
1654 1 0.0016 1600 0.004262621210731951 -0.0011810034089503247 0.03212559695860171 0 0 0
1655 1 0.0016 1600 -0.004605184945449528 0.005534723582758972 0.03499606620305285 0 0 0
1656 1 0.0016 1600 0.0010374575472359823 0.00013884862269921883 0.03488061156751218 0 0 0
1657 1 0.0016 1600 -0.001632326585910816 0.0003753121889160385 0.03447825886118304 0 0 0
1658 1 0.0016 1600 0.0010924728858819682 0.0022735141129905465 0.03219054585486156 0 0 0
1659 1 0.0016 1600 0.0013810797774760361 0.005474378885940995 0.03215919266571195 0 0 0
1660 1 0.0016 1600 -0.00233646559220345 -0.005465664498670296 0.030424235749176572 0 0 0
1661 1 0.0016 1600 0.007194899591761401 0.00027567392847113666 0.032788109100621236 0 0 0
1662 1 0.0016 1600 0.004684965812518272 -0.0010218586773211556 0.034223607186753296 0 0 0
1663 1 0.0016 1600 -0.0033904091431980463 -0.006351879515561285 0.031247769097345453 0 0 0
1664 1 0.0016 1600 -0.004279269054515129 0.005790490394548113 0.030324129627791744 0 0 0
1665 1 0.0016 1600 -0.0029617510635960125 0.0023788162745007344 0.03136961823364718 0 0 0
1666 1 0.0016 1600 -0.004481179107980741 -0.005635542997376682 0.03224371846929273 0 0 0
1667 1 0.0016 1600 -0.004108415449563764 -0.0059128368975034035 0.033774680300955824 0 0 0
1668 1 0.0016 1600 -0.0023805708051823924 0.006795171656748696 0.03425386845587159 0 0 0
1669 1 0.0016 1600 0.002154245311390448 -0.006870196138235692 0.03323367013449865 0 0 0
1670 1 0.0016 1600 -0.0014919675745675074 -0.005865524291322745 0.03202062501242624 0 0 0
1671 1 0.0016 1600 0.0020233069718673807 0.004348097481102283 0.03354580961131324 0 0 0
1672 1 0.0016 1600 -0.0065926251960394516 0.002894829715167702 0.02941427860864176 0 0 0
1673 1 0.0016 1600 -0.0015332710510469287 0.0013864081810529812 0.02928560286268651 0 0 0
1674 1 0.0016 1600 -0.002914558517220841 0.0038706215687742914 0.030793617860302866 0 0 0
1675 1 0.0016 1600 -0.0015226160764599084 0.006310334102793762 0.03141139675963327 0 0 0
1676 1 0.0016 1600 -0.0011046732548374485 -0.007114838496797306 0.032941943611423184 0 0 0
1677 1 0.0016 1600 0.00413991024957401 0.0025942321503475653 0.029539295477219 0 0 0
1678 1 0.0016 1600 -0.006409284891344416 -0.000693312007775941 0.031782175658530254 0 0 0
1679 1 0.0016 1600 0.00011317133540708167 -0.0013993151612291933 0.03182782297184866 0 0 0
1680 1 0.0016 1600 -0.0016336606449219198 0.007012224227844557 0.029720664727165974 0 0 0
1681 1 0.0016 1600 0.0030079244647025554 -0.005666723627559545 0.02944291813616483 0 0 0
1682 1 0.0016 1600 0.006246872873916345 0.0005499563131577503 0.02961448596664993 0 0 0
1683 1 0.0016 1600 -0.0033597055417383965 0.006368095166762275 0.032247299456145496 0 0 0
1684 1 0.0016 1600 -0.00026218261750594576 -0.002160632081769775 0.034590630374986706 0 0 0
1685 1 0.0016 1600 0.004269283000280633 0.0057977106385123985 0.03506766392320396 0 0 0
1686 1 0.0016 1600 -0.0009517796414868295 0.0041501957470709795 0.030093995913724997 0 0 0
1687 1 0.0016 1600 0.004314956992292941 0.002335258286777427 0.031120445258319588 0 0 0
1688 1 0.0016 1600 -0.0059145180448461725 -0.002375393424877626 0.03439992916363548 0 0 0
1689 1 0.0016 1600 0.0009726905273794947 -0.007134106690332614 0.032187689701296165 0 0 0
1690 1 0.0016 1600 0.004279633155418535 -0.0018647227087777922 0.03067939569387329 0 0 0
1691 1 0.0016 1600 0.004891753566744404 -0.004632724379937654 0.03462627592453534 0 0 0
1692 1 0.0016 1600 0.0005014474276432802 -0.0004799494856055488 0.033506000813876 0 0 0
1693 1 0.0016 1600 0.006943807083689269 -0.0019039333550103284 0.03346460744380456 0 0 0
1694 1 0.0016 1600 -0.0026771177847174322 0.0012133824512949082 0.03242804923759682 0 0 0
1695 1 0.0016 1600 -0.005702501313776745 0.0008287569274426194 0.03193791261432747 0 0 0
1696 1 0.0016 1600 -0.0020940459124547672 0.001756320646352831 0.03381546807108188 0 0 0
1697 1 0.0016 1600 0.002919070948316147 -0.00031244365769648075 0.03211632174224929 0 0 0
1698 1 0.0016 1600 -0.0042196700107253685 -0.0007051328876922965 0.033531361257116976 0 0 0
1699 1 0.0016 1600 0.002651870333457885 -0.0007361266102240281 0.03469780084935931 0 0 0
1700 1 0.0016 1600 -0.002921664414593343 0.0008284258348491697 0.030770638840475203 0 0 0
1701 1 0.0016 1600 -0.0007119170494231389 -0.0031057704286698755 0.033380576886901804 0 0 0
1702 1 0.0016 1600 0.0021260641685465066 0.0025513404299697174 0.03337984009892489 0 0 0
1703 1 0.0016 1600 0.00017096955414275228 0.0012227321412736382 0.02982692524267041 0 0 0
1704 1 0.0016 1600 -0.004224258801776281 0.0004134805640636652 0.03238758127176762 0 0 0
1705 1 0.0016 1600 0.005953926616131451 -0.002301782443378887 0.034656969011319386 0 0 0
1706 1 0.0016 1600 -0.002109071715861031 -0.0006136526623478913 0.033314505040162465 0 0 0
1707 1 0.0016 1600 -0.0055123253333027155 0.0037186993795544016 0.034310104665555057 0 0 0
1708 1 0.0016 1600 -0.003355981843770319 -0.0035584426211820066 0.033996384566937175 0 0 0
1709 1 0.0016 1600 0.001456581517141941 0.007051346678300212 0.031900648814300984 0 0 0
1710 1 0.0016 1600 -0.004603753722742042 -0.0030105879451606077 0.032490112812816406 0 0 0
1711 1 0.0016 1600 -0.0032169120243958392 0.0020179356371791924 0.03492477802144713 0 0 0
1712 1 0.0016 1600 0.005808245316965636 -0.0015232852592494302 0.030114110566781458 0 0 0
1713 1 0.0016 1600 0.004939712612636491 -0.003429804229769667 0.032512471585180086 0 0 0
1714 1 0.0016 1600 -0.0011511589580603468 -0.006104725469729784 0.03418182860036697 0 0 0
1715 1 0.0016 1600 -0.006889315419183546 -0.002092450219909161 0.032391842846854695 0 0 0
1716 1 0.0016 1600 -0.00133150173082021 0.0006666286918807475 0.030699955081530884 0 0 0
1717 1 0.0016 1600 0.0053796820507938155 0.00169948784288044 0.028916819871231333 0 0 0
1718 1 0.0016 1600 0.004812574570961825 -0.0033661718177859356 0.030532806812084017 0 0 0
1719 1 0.0016 1600 -0.006332527196069093 0.0007856600396221282 0.029801948996972326 0 0 0
1720 1 0.0016 1600 -0.005676216448401482 0.002161522122898681 0.03368910995924497 0 0 0
1721 1 0.0016 1600 0.003184887387806069 -0.0013621303441182547 0.03329413985089437 0 0 0
1722 1 0.0016 1600 -0.00614240656973758 0.0020836952270214385 0.030717604016032674 0 0 0
1723 1 0.0016 1600 -0.00394115851170219 0.0021754644037441 0.03261817816344456 0 0 0
1724 1 0.0016 1600 0.00042135768557281463 0.0009629891217200266 0.03281967773875983 0 0 0
1725 1 0.0016 1600 0.0037602999021446037 -0.006140073652949797 0.03230720070021713 0 0 0
1726 1 0.0016 1600 0.0020592696071998384 0.0054646251035506375 0.030153295717849225 0 0 0
1727 1 0.0016 1600 0.0021686969472785866 -0.006865815309091029 0.030088574773090977 0 0 0
1728 1 0.0016 1600 -0.0060650296180879215 -0.003275189080528292 0.03308561857351497 0 0 0
1729 1 0.0016 1600 -0.0009327241425191806 0.0026212187045343643 0.03449595982872385 0 0 0
1730 1 0.0016 1600 -0.0030180419651539355 -0.003833319040960084 0.03045984784725652 0 0 0
1731 1 0.0016 1600 0.0052740078130135955 -0.004901655609290049 0.03304318023866018 0 0 0
1732 1 0.0016 1600 0.0032641727471300493 0.006417633233641092 0.03398820834168718 0 0 0
1733 1 0.0016 1600 0.001211729894463117 -0.001423910063970803 0.03458498871501701 0 0 0
1734 1 0.0016 1600 -0.002200477441819807 -0.003436667512504261 0.03289646350523845 0 0 0
1735 1 0.0016 1600 -0.0029479616583892886 -0.005792171189909737 0.03267979346472177 0 0 0
1736 1 0.0016 1600 0.000754333103804998 0.002081252123366738 0.03508201290636736 0 0 0
1737 1 0.0016 1600 0.004515908711080948 -0.004900725584331368 0.031634306278132004 0 0 0
1738 1 0.0016 1600 0.0011315319113289807 -0.002306577867897113 0.030991497766944157 0 0 0
1739 1 0.0016 1600 0.0029519293499091904 -0.0023031456881088125 0.034578455042272346 0 0 0
1740 1 0.0016 1600 -0.001971504352634813 0.002752308465251493 0.032569416084140296 0 0 0
1741 1 0.0016 1600 0.0036493234830974786 -0.003148741632522226 0.031609438432874795 0 0 0
1742 1 0.0016 1600 0.002916034761997424 0.005022406891329686 0.034689565790758756 0 0 0
1743 1 0.0016 1600 0.0018175381967942303 -0.004671084025637231 0.030012687171962316 0 0 0
1744 1 0.0016 1600 -0.000707370193476653 -0.0014820018363628125 0.03319884439235972 0 0 0
1745 1 0.0016 1600 -0.0028467650041901515 0.004697787321266001 0.03341254829569609 0 0 0
1746 1 0.0016 1600 -0.0001649357115588319 -0.005075586826677441 0.03345509113770323 0 0 0
1747 1 0.0016 1600 -0.00561420531239477 -0.004508178738247012 0.03217126940914784 0 0 0
1748 1 0.0016 1600 0.00010600690426596946 -0.00579614986324813 0.032052562177494685 0 0 0
1749 1 0.0016 1600 0.0015487488019459675 -0.0011003411867304483 0.032467784300762 0 0 0
1750 1 0.0016 1600 0.005114542314545028 -0.005067976266502692 0.02970637152127333 0 0 0
1751 1 0.0016 1600 0.0032812764988436336 -0.004428308954989007 0.032535532501204854 0 0 0
1752 1 0.0016 1600 0.006968974167103533 0.0018098882311702277 0.030285730050805915 0 0 0
1753 1 0.0016 1600 -0.0006792321993698113 -0.0001136533466035412 0.03235608970519753 0 0 0
1754 1 0.0016 1600 0.006460897061095539 0.0013803545771974295 0.0318933954261549 0 0 0
1755 1 0.0016 1600 -0.00046081875576006845 -0.007185290687436996 0.0314789820536801 0 0 0
1756 1 0.0016 1600 -0.0034490671020871973 0.004150448971876818 0.03479001892307706 0 0 0
1757 1 0.0016 1600 -0.004921483115878312 0.0038907309474478717 0.03235325320460664 0 0 0
1758 1 0.0016 1600 0.0011929780287691625 -0.004031775197224485 0.03272651818246123 0 0 0
1759 1 0.0016 1600 0.0006953849233858396 -0.0022433153508462727 0.033311537146761064 0 0 0
1760 1 0.0016 1600 0.0022032908537634546 0.0035778435023263366 0.0321551484158837 0 0 0
1761 1 0.0016 1600 0.005948434654241996 0.0025545108263528133 0.0348672761521192 0 0 0
1762 1 0.0016 1600 -0.00648437539357358 -0.003129575521115153 0.029812242962368084 0 0 0
1763 1 0.0016 1600 0.006236899858779386 -0.0009444791078019959 0.03239721001540956 0 0 0
1764 1 0.0016 1600 -0.005767034271876684 0.0005735501645184778 0.033515955680892835 0 0 0
1765 1 0.0016 1600 0.00658780565209778 0.002905552487879764 0.03142732131992675 0 0 0
1766 1 0.0016 1600 0.0034989655718784714 0.0038016526665150163 0.033835325992006046 0 0 0
1767 1 0.0016 1600 0.0032949622092198778 0.005149127628734422 0.032997182806464596 0 0 0
1768 1 0.0016 1600 -0.001021292699966928 0.00712738463494261 0.033475580424572195 0 0 0
1769 1 0.0016 1600 0.0034260996797637997 -0.004124805634578452 0.0342341246763699 0 0 0
1770 1 0.0016 1600 -0.0006638012509743626 -0.004394281486849504 0.03209611930277731 0 0 0
1771 1 0.0016 1600 -0.0007610285575647231 0.00560968357695204 0.03392308500328765 0 0 0
1772 1 0.0016 1600 -0.0071270481152608985 -0.0010224332457207418 0.03355731912613242 0 0 0
1773 1 0.0016 1600 0.00041930370833359625 0.003724868463024021 0.03218652605091033 0 0 0
1774 1 0.0016 1600 0.004013008094207315 0.0030559390653599463 0.03251650243753552 0 0 0
1775 1 0.0016 1600 -0.0071377764977465265 0.0009458636291199528 0.03124081981584587 0 0 0
1776 1 0.0016 1600 -0.001754675208166668 -0.00376917790420187 0.03439664038992115 0 0 0
1777 1 0.0016 1600 0.00032762540576996126 -0.0071925465108183635 0.03365064321983825 0 0 0
1778 1 0.0016 1600 0.0008638708133547598 -0.0005936521859788062 0.029630060417355 0 0 0
1779 1 0.0016 1600 -0.0022754715523376464 -0.0004277425744567145 0.030006738064892024 0 0 0
1780 1 0.0016 1600 0.0005066093320785559 0.0048186400328660275 0.03335085925912315 0 0 0
1781 1 0.0016 1600 -0.006008316671350273 -0.00396751195418693 0.03452694804817697 0 0 0
1782 1 0.0016 1600 0.00628983147753377 -0.00042139376394331843 0.03390829913006167 0 0 0
1783 1 0.0016 1600 -0.006328246829327404 0.003434342690137833 0.03296357730909258 0 0 0
1784 1 0.0016 1600 0.005694863991070023 0.0026067384157532594 0.0327209738490975 0 0 0
1785 1 0.0016 1600 0.00482870841877802 0.00534113704223921 0.030511537679104063 0 0 0
1786 1 0.0016 1600 0.001481942709589025 -0.0016206819107525757 0.028570472671793048 0 0 0
1787 1 0.0016 1600 -0.001682144091508433 -0.0021406699733728064 0.032114592025645435 0 0 0
1788 1 0.0016 1600 -0.00429180864700769 -0.0022667413662448856 0.03387180434925898 0 0 0
1789 1 0.0016 1600 -0.0032089942446379286 -0.0015923646989207656 0.032664699136317955 0 0 0
1790 1 0.0016 1600 0.004221030400116538 -0.005832995438827099 0.033808215399983285 0 0 0
1791 1 0.0016 1600 -0.0035125496894694254 -0.0042980835402699116 0.03258638290677507 0 0 0
1792 1 0.0016 1600 -0.0018724362866715922 0.004743331745511137 0.03468074888388102 0 0 0
1793 1 0.0016 1600 -0.005029868308316967 0.0025764899638790672 0.029679109605536415 0 0 0
1794 1 0.0016 1600 -0.0030601856036016643 -0.0003404615261344762 0.03457173472849409 0 0 0
1795 1 0.0016 1600 0.0059244373456045895 -0.0036855046953591744 0.03385422534250445 0 0 0
1796 1 0.0016 1600 -6.477342934168244e-05 0.007200040958185574 0.0299718762343306 0 0 0
1797 1 0.0016 1600 0.0009195796179711515 0.0033256809441135613 0.03409010251878778 0 0 0
1798 1 0.0016 1600 0.003620486064543431 0.0016356836729134027 0.033314297045240464 0 0 0
1799 1 0.0016 1600 -0.00639443237862576 -0.00330949725751095 0.0314540832705426 0 0 0
1800 1 0.0016 1600 0.006137615287000642 -0.0037646120202857276 0.02937840440748005 0 0 0
1801 1 0.0016 1600 -0.004146749643271499 0.0029418942805493056 0.03400741481459282 0 0 0
1802 1 0.0016 1600 0.002684064698773081 -0.005417008241621419 0.033651720897304276 0 0 0
1803 1 0.0016 1600 -0.0010983540811871557 0.001411866682488049 0.03259491582185374 0 0 0
1804 1 0.0016 1600 0.0013489901282254361 0.005335180747741886 0.034609202523175245 0 0 0
1805 1 0.0016 1600 0.0004580855477237473 0.00718547429810989 0.03413348026995167 0 0 0
1806 1 0.0016 1600 0.0006434799548626896 0.005975617798829595 0.029224669723181676 0 0 0
1807 1 0.0016 1600 0.004530893803906455 -0.0029690046370696188 0.03417750380591368 0 0 0
1808 1 0.0016 1600 -0.0005341174152501025 -0.0036176177499999402 0.030703343359020478 0 0 0
1809 1 0.0016 1600 0.007052506603156974 0.0014506421311171796 0.034517522653702774 0 0 0
1810 1 0.0016 1600 -0.0019806877341646593 0.005960553670401811 0.032948869514494876 0 0 0
1811 1 0.0016 1600 -0.0002728596492292836 0.0011856617809900421 0.034243800920481404 0 0 0
1812 1 0.0016 1600 -0.0029084144608648556 -0.005045604302287883 0.03438102903078174 0 0 0
1813 1 0.0016 1600 -0.0037643217082625174 0.004964736031531308 0.03159402930783666 0 0 0
1814 1 0.0016 1600 0.006503078885089441 -0.0030908245680993877 0.0324863699655972 0 0 0
1815 1 0.0016 1600 -0.005451197384705042 -0.001440823014161389 0.03282290475816808 0 0 0
1816 1 0.0016 1600 0.00289076189906149 0.00659433692609916 0.032442594072826736 0 0 0
1817 1 0.0016 1600 -0.0011735724930754612 0.004316414833380035 0.033076283487268224 0 0 0
1818 1 0.0016 1600 0.0046299803337297605 0.0011472281637031022 0.034455404316335564 0 0 0
1819 1 0.0016 1600 -0.00217177754511095 -0.0001599415192150046 0.031781623814929924 0 0 0
1820 1 0.0016 1600 -0.0022886193454729007 0.0033301908140094933 0.03402725950275384 0 0 0
1821 1 0.0016 1600 0.0016603333013406978 0.006386249205822533 0.03344381856565991 0 0 0
1822 1 0.0016 1600 0.0036162905471394512 0.006226023081533274 0.031065125495940964 0 0 0
1823 1 0.0016 1600 -0.0003993298242081326 -0.0005837750483022139 0.03482417114640018 0 0 0
1824 1 0.0016 1600 -0.001937684398174836 -0.006934600172063347 0.030917224830080973 0 0 0
1825 1 0.0016 1600 0.0020759864829668793 6.0563982866707065e-05 0.03343418314636386 0 0 0
1826 1 0.0016 1600 -0.0004087683237511003 0.004132689650693473 0.03446948588597602 0 0 0
1827 1 0.0016 1600 -0.004800939989892683 -0.0043104579224231806 0.03353481083222744 0 0 0
1828 1 0.0016 1600 0.0036421419875298186 9.896679034462717e-05 0.03375882567326604 0 0 0
1829 1 0.0016 1600 0.0011493982898551868 -0.005845294696508096 0.033944947772099776 0 0 0
1830 1 0.0016 1600 -0.0031869214007486926 -0.0029072062208423607 0.03175343142569754 0 0 0
1831 1 0.0016 1600 0.0016350682522408386 -0.005544463027470613 0.03245053393757501 0 0 0
1832 1 0.0016 1600 0.004344735475567016 0.003637143247789821 0.03518345691934185 0 0 0
1833 1 0.0016 1600 0.0019972645680460892 -0.003436398522476272 0.033974932568719196 0 0 0
1834 1 0.0016 1600 -0.003760817180249561 0.006139791967420377 0.03377918201352247 0 0 0
1835 1 0.0016 1600 -0.006935309223746254 0.0019346298306056934 0.03248224915047816 0 0 0
1836 1 0.0016 1600 0.006172695888679165 0.0037066288070957657 0.03377999158074291 0 0 0
1837 1 0.0016 1600 0.005551203749226857 -0.00215396402795738 0.03160583422014504 0 0 0
1838 1 0.0016 1600 0.00018490738672643023 0.006297156154593283 0.032831177219208904 0 0 0
1839 1 0.0016 1600 0.0012615514912384359 -0.0070886612948719875 0.03494556931010057 0 0 0
1840 1 0.0016 1600 -0.004223910916731031 -0.0009714424645580245 0.03152994145313363 0 0 0
1841 1 0.0016 1600 0.001993891252369211 0.00132987983886003 0.034404648781026184 0 0 0
1842 1 0.0016 1600 0.003145001563190709 0.002446626713115206 0.03460893127686743 0 0 0
1843 1 0.0016 1600 -0.004868393704904435 0.0012010630929214718 0.03468148693269964 0 0 0
1844 1 0.0016 1600 -0.003219043783735977 -0.00236627539559438 0.03505464453613763 0 0 0
1845 1 0.0016 1600 0.004275928215269718 -0.0019981088930085406 0.03542337001951938 0 0 0
1846 1 0.0016 1600 0.006187543810047006 -0.0036816815183662926 0.035432353475951785 0 0 0
1847 1 0.0016 1600 -0.006663271944338505 0.0027279066968129905 0.034813688297019155 0 0 0
1848 1 0.0016 1600 -0.002910731068729106 -0.003897404975158616 0.03549526866400961 0 0 0
1849 1 0.0016 1600 -0.005613458574098944 -0.0008066335774663477 0.03431038481641875 0 0 0
1850 1 0.0016 1600 -0.0070655435292086835 0.0013852851477133136 0.033979254737399246 0 0 0

Velocities

1 -1.0861581973358805e-12 -2.249781886227129e-13 -1.0827353867159399e-12 -5.881183427329404e-10 -8.395593049559385e-10 -5.670380086774535e-10
2 4.4922035033234877e-13 -1.0836078761803902e-12 1.971336532776816e-12 -7.039050242545899e-10 -6.397772809001715e-10 -4.2966717863179387e-10
3 -2.7117700181020525e-13 3.250429882190816e-13 1.083282082497203e-12 -1.591867549888674e-09 1.5617245609996959e-09 2.0152601825500703e-09
4 2.1633822759585146e-12 8.998553578428494e-14 3.3411396397712293e-13 -3.032792233965448e-10 2.690556712213868e-10 5.037068392781301e-10
5 -9.242773167246167e-14 -6.290732536415954e-13 1.5219809317373123e-13 7.882883930384033e-10 -2.2563736059568937e-10 -3.2567565656943473e-10
6 -1.633972317560088e-40 -1.2534602373073007e-40 -8.128040231484527e-14 1.5667891381876725e-37 -2.042418261908413e-37 0.17318254508556946
7 1.0967757016578481e-13 5.612439612793969e-13 -1.8422576242066706e-13 -5.159159627859928e-10 1.1723008674064e-10 1.1146573502876986e-10
8 -1.3555477490708982e-13 -1.1013347727912811e-13 4.3606693848478147e-13 7.601790608895799e-10 2.9451997194416685e-10 7.660323277534476e-10
9 -1.634209661045714e-40 -1.2524608160887284e-40 -8.12804023585941e-14 1.5655398904946628e-37 -2.0427149344188214e-37 -2.505548999310587
10 1.5076355723233283e-13 -2.3304190701506404e-13 2.7057523028707974e-13 2.6687779761492033e-10 1.627944604559312e-10 -1.2369936161902597e-09
11 1.0815954902228843e-12 1.0225396529929193e-14 3.860071792262718e-13 3.110560415512054e-10 -1.2959777687587343e-09 3.555200451637396e-10
12 6.831224671441046e-13 -2.1684055640841986e-12 1.0841862131185432e-12 1.0617508292466047e-10 6.656822039964852e-10 -1.7609843137354468e-10
13 -1.429519257975653e-12 7.68123439403259e-15 -9.264313924166264e-13 8.711055894414849e-10 7.989911706787715e-10 -2.01593936060461e-09
14 -2.195558889022863e-14 3.4560160172515224e-13 2.4634588836964203e-13 -4.850080181764382e-10 2.469474156738577e-11 3.582056390584941e-10
15 -9.761026452024825e-14 -1.709338717881176e-13 9.907223265597207e-13 2.3223309119863405e-10 -2.2331160929178333e-10 -7.084310745151663e-10
16 1.0539523937788089e-12 -1.913433886455129e-13 -2.420586486598272e-13 2.1874159372739347e-10 1.3061315218981808e-09 1.0959463222103032e-09
17 2.0178702347817378e-13 -1.7370039534254254e-12 2.361690736746647e-13 4.631465441636417e-10 -4.227068640742349e-10 3.364685448743913e-10
18 -6.849754874963772e-13 2.1674396574264406e-12 2.1272428474999154e-12 -4.795579940133436e-10 -8.759231572895416e-10 -9.55739857974465e-10
19 -1.4000993450143152e-13 1.7712822165875156e-14 3.563118319935988e-14 -5.542243031076169e-11 -1.2133163308659083e-10 2.889464065631208e-10
20 -6.601428020773644e-13 -2.1612320473611266e-13 9.466362083014141e-13 1.3806842463919107e-09 -1.664740795403255e-10 9.186447103213062e-11
21 -8.781015211181524e-14 -9.227759995298313e-14 3.5269601297345525e-13 -1.234031078299257e-09 8.369561250696854e-10 5.810132910786142e-10
22 3.173275404796884e-13 -2.7112376176909456e-13 -5.419556707305536e-13 5.484585604781693e-10 1.1676592276357256e-10 5.945649715154797e-10
23 3.585332409239217e-13 -6.74937132834371e-13 1.0841212072477247e-12 -4.237068789174165e-11 -1.0476088295400142e-09 -3.391583590976407e-10
24 -1.084150473684881e-12 -1.0840777717105247e-12 2.199805843608752e-13 9.97369521936014e-10 3.262659861385123e-11 -1.9293413310017875e-09
25 -5.616787502562569e-13 -2.0488384643084903e-13 5.006540488210304e-13 2.0248730216872502e-10 5.512363749695057e-11 -4.777434107049646e-10
26 6.298135014517553e-14 -1.63622040854688e-12 -1.2311470981680116e-12 -3.2833184995394823e-10 1.6353055505895809e-09 -5.410077797663198e-10
27 2.3393248625972114e-13 4.845119371129892e-13 -2.710521266257522e-13 -6.434999845326741e-10 2.8573706935770523e-10 1.0025225501882164e-09
28 2.1398612914546855e-12 -9.752006184613581e-14 1.5178407974374602e-14 -9.012521591984508e-11 -4.2164363133915484e-10 -5.33263278587203e-11
29 -5.382497877173062e-13 -8.054092300486613e-13 1.078682110881946e-12 2.723632202374728e-09 -1.405784358894325e-10 6.056191057759273e-10
30 1.960194522968337e-13 4.1202047810320953e-13 1.1559420895179076e-13 -3.5429413093942625e-10 2.911875469400285e-10 -8.129881284120039e-10
31 3.233533930250238e-13 6.891465148903305e-14 -4.8315640634493046e-15 -1.689203533344859e-10 2.6395782328048994e-10 2.534922048733272e-10
32 8.719755691103125e-13 -9.773263087705679e-13 -5.850996169554559e-13 -1.0598277394797428e-09 3.103836296233956e-10 -1.5471408671158874e-09
33 -6.638912761772072e-14 3.936916860515267e-14 -2.946582939122899e-14 -8.504183875204177e-11 4.373759550440982e-11 2.26415261432891e-10
34 -2.6262272053215937e-13 -2.7545388431831144e-13 -1.6919417964147182e-13 3.6605564170337544e-10 -3.7988827174460587e-10 -9.402877867459033e-10
35 1.1647374681468558e-12 -4.447687692726697e-13 -9.881664342153033e-13 4.971744557937969e-10 8.896776909563148e-10 2.335692739917003e-10
36 -4.7461498593193e-13 -2.705222740279087e-13 1.9930978730737911e-13 -1.8613332712165947e-10 -2.4683298546186485e-10 2.8696015566238455e-10
37 -1.4592936450299964e-12 2.168113490307704e-12 -1.0835535462331839e-12 -1.3642092752706595e-09 -2.0858467922200947e-10 5.33036258365965e-10
38 -3.919016114706094e-13 -1.8872028063065993e-12 5.963573600301761e-13 5.589752421135109e-10 2.0071144267165258e-09 -8.580326935669732e-10
39 3.718907435673011e-13 -5.415654385929868e-13 6.805449487239848e-13 3.900465539672369e-10 -1.165370261381858e-09 -1.013010194353357e-09
40 -3.460054656124194e-13 -4.2019612685603835e-13 2.7118708871831876e-13 4.278889707183665e-10 -5.435909459296023e-10 -2.1074075719029975e-10
41 2.2165218846912526e-13 5.009031933023244e-13 2.707814502231491e-13 -6.383117846671512e-10 2.8573161524153484e-10 -2.1663203073943115e-10
42 3.3492315669618286e-13 1.6053407398833894e-12 -9.920123181997248e-14 -8.190434928451168e-10 5.32858573818835e-10 -3.877039672086046e-10
43 -8.750245027678545e-14 3.011712875189429e-13 -5.925686583542775e-13 -1.9074803606118465e-09 2.3032483891153722e-10 -1.7990731592884218e-10
44 1.1264502431209861e-12 -1.0181189812455403e-12 1.3107823485972325e-12 1.4888546011332206e-09 -1.6612972297050623e-10 1.6863636832500867e-10
45 -5.425756847806151e-13 -1.1868214746994481e-12 1.0840972137786641e-12 2.841776091293089e-09 -1.479466182914286e-09 -1.488252093446563e-09
46 9.565390068096482e-13 -1.5371966758540312e-13 1.5432874788766263e-13 2.523061725219202e-10 -3.622625763737472e-10 -9.523876186415004e-10
47 1.119348958951277e-13 1.0914693603833269e-13 1.1474824812972382e-13 -1.6516094605841021e-10 1.194030571169341e-10 -9.729442158101376e-11
48 9.791667303631441e-13 -9.726160645673415e-13 8.724970252883536e-13 1.5052565521435895e-10 -1.1385641427037818e-09 -6.018396820913802e-10
49 4.2829876797640866e-14 -1.370408346679833e-13 -2.7103687267178474e-13 1.2371968096054574e-10 7.6995469497127e-11 1.1761713279523268e-09
50 2.3006567245304e-41 -4.074982669254132e-41 -3.726321334170867e-14 5.093610785936025e-38 2.8757545388405874e-38 -0.005722900200912328
51 -1.0807937168053719e-12 -6.705399499220343e-13 2.1683658897292934e-12 -4.202595844097941e-10 -2.7300272425349595e-09 1.8054627324364258e-09
52 1.5346204094215672e-12 -3.4934101513110566e-13 2.665330551057769e-13 -1.472778466266036e-09 5.930886500467663e-10 8.334137085481281e-11
53 6.490208884178708e-13 -5.416348345219173e-13 7.053884307461371e-13 -2.6122403757118115e-11 1.4560468699639642e-09 3.340040620169895e-10
54 -5.989845652904368e-13 -2.1621263021993647e-12 1.0013282055770208e-12 1.0207479513143643e-09 9.88631118045885e-10 1.2983971229982292e-09
55 3.6428751539926874e-13 -1.4828175573570832e-12 -3.047759507270103e-13 -1.549872231329547e-10 -5.452910021126728e-10 1.8170652998295747e-09
56 -4.812016347223906e-13 2.5428532408138533e-13 2.1678577294812416e-12 9.095111966419985e-10 4.7068811391671556e-09 -1.2005916862989594e-09
57 -1.0875245391073128e-13 4.443220031947595e-13 -2.7089349714516097e-13 -5.305396384851849e-10 -4.82184042053786e-11 3.3043252646011253e-10
58 1.3254464301243014e-12 -4.3313420702122606e-13 -4.97233762069979e-13 -4.697308567930271e-10 1.1132784420544348e-09 4.1257454367839997e-10
59 -6.712947174379366e-14 -4.0768608816670845e-13 -1.917634709477516e-13 4.4566705313403593e-10 -2.0360244195365217e-10 -3.403557849637305e-10
60 -1.0771454296457495e-12 1.7036424570967874e-12 1.8450520008347662e-12 3.1699796448394263e-09 -7.73382272078082e-10 1.0645947522277884e-10
61 8.921605773541941e-13 5.420892908476841e-13 7.052906958443143e-13 -4.102767603623407e-10 7.277142967558508e-10 5.114138231136822e-10
62 -2.7103492266169826e-13 1.0867477667199265e-14 2.7086348400048056e-13 -1.0210963894072227e-10 -3.028367971766478e-10 -2.6932676631207565e-10
63 5.068359025976456e-13 -8.979049845071047e-13 7.976763601001068e-13 -1.197397389576099e-09 6.822813212316457e-10 1.350022622120589e-09
64 7.039157180391311e-13 -5.097602524516293e-13 -4.968203598785264e-13 4.195258373871143e-10 4.445843754564849e-10 -1.1937887925534322e-09
65 1.9894239991572462e-13 5.714455633743434e-13 5.4200560157429e-13 1.4414210959914994e-09 5.434007691527371e-10 1.186914752176686e-10
66 -1.968731595148116e-13 -4.821927792657293e-14 1.550199055619175e-14 5.074383673290347e-11 -2.6187962136994726e-10 -2.265908278212946e-10
67 -1.3077403207461467e-13 -1.6151490314935428e-13 -4.633224213067045e-13 -1.581843440476245e-10 2.4715667447530065e-10 4.352674393788911e-10
68 1.6610952691371122e-13 3.3934843575029406e-13 1.6287887914486343e-13 1.009150997114051e-09 -4.915392594488431e-10 -2.079802619006458e-10
69 -2.497140947677869e-13 -5.038722394973119e-13 -2.706012775645693e-13 6.35265052969504e-10 -2.7405962453308655e-10 7.3614212002282e-11
70 2.1652746764166145e-13 -5.821818086094259e-13 2.6288866430851766e-13 6.748167955175377e-10 2.0956969821547838e-10 1.7251428685639147e-10
71 5.478616516739633e-14 -3.9795825554791807e-14 1.2686939428463534e-13 -1.2107597406190907e-10 4.746529042192008e-10 9.833356728487735e-11
72 1.1152361316667752e-40 2.6705723518045666e-40 1.278006702238079e-13 -3.3381384020129076e-37 1.3940129934744498e-37 0.8629321002998185
73 1.4282939230740263e-13 1.5668894285261244e-12 1.0834845704912123e-12 -1.1885373662921625e-09 1.14066612002368e-10 -1.028509664713438e-10
74 -8.759506213176545e-13 -1.0830916954786667e-12 1.3109151227641995e-12 -2.498069641654466e-10 -1.2403021776439817e-09 3.0566820229680825e-10
75 8.706415725863981e-14 -2.0225633311089866e-12 -3.642174139250636e-13 -6.677382162586391e-10 1.1873099551489595e-09 4.0327310173495317e-10
76 -2.135242394930959e-40 -4.833900203102507e-41 -7.907932175477664e-14 6.042235810825661e-38 -2.6689913985324752e-37 1.1737481586162888
77 9.602173779688504e-13 -1.4251941450481352e-14 -3.519153045889798e-13 -3.8901399996756694e-10 7.962296524023122e-10 -3.758964602978337e-10
78 8.535172260364202e-13 -5.775714599016281e-13 9.748161460625943e-13 1.298039522813426e-09 1.2245729793227244e-09 1.1885045903682082e-09
79 7.357808213243901e-13 3.525123063657684e-14 3.987581485877524e-13 -2.0979560621331628e-10 5.901024609895055e-10 -2.7910568846090646e-10
80 1.6040601313928708e-12 -5.419254603973038e-13 2.205656879572898e-13 -4.847029923869643e-10 -1.9605643380067973e-10 -3.3405990116308977e-10
81 2.7071140151105074e-13 -2.710350341055189e-13 5.264448529313624e-13 2.4067802120677003e-10 -6.193664204669063e-10 -1.1441099528958202e-10
82 2.1292265510129693e-13 -2.66105682203335e-13 -1.5725562913511034e-13 3.289125362536972e-10 2.4781537764658707e-10 -1.2112740911208993e-11
83 -4.4441452866089526e-13 3.046787855401935e-13 7.199963981802968e-14 -4.4822961586702746e-10 -4.897544097707203e-10 1.4505371748494678e-10
84 -5.46697237062723e-13 -6.769556896030684e-13 6.560757394600148e-14 8.315884207922806e-10 -7.198825030627209e-10 -4.875110005606982e-10
85 1.0441671225063996e-13 3.916780740755261e-13 -2.70927729129289e-13 -4.4410235784954595e-10 -3.327081467469525e-11 -4.0252201490761804e-10
86 -5.450421657171407e-13 -2.7558077357635734e-14 -1.9431066041395903e-13 5.520620801079265e-11 -7.367590262588857e-10 3.893371689469794e-10
87 3.6261797930508767e-13 -3.13293279108639e-13 2.7103650330004455e-13 2.7910791010121695e-10 4.3546349440316036e-10 -1.438234318385105e-10
88 8.805581819857947e-13 1.59905000603854e-12 -4.3407144866439696e-13 -3.2434059982357403e-10 6.082784015475486e-10 2.751415507446149e-11
89 9.041286668887869e-13 -7.786681629211136e-14 2.290523841569499e-13 9.485463966453339e-11 1.148511820445778e-09 -7.914139644429972e-10
90 7.458325100883843e-13 3.117071896333803e-14 4.049100891372152e-13 2.5069279022968563e-10 6.394631972413723e-10 -1.116236368169083e-09
91 2.44829201611939e-13 4.325084457659979e-13 8.645732168502649e-13 3.210454826900763e-10 4.0899013991695707e-10 -2.400289048239107e-10
92 1.5914454059191914e-12 -1.9332133479458877e-13 1.9624914347973977e-13 -7.471283455495228e-10 -3.748859061835967e-10 -5.997894617060028e-10
93 -5.42062456350555e-13 -1.0943661480728276e-12 3.419520382458434e-13 1.8693293079240717e-10 -4.11197008731907e-10 1.0758520823568414e-10
94 -1.356154893133823e-13 -8.493859018299712e-14 4.203251800226211e-14 3.7573171176539414e-11 -2.281315404253725e-10 -1.507969102616171e-10
95 1.278990522472278e-13 -3.184929791946976e-14 3.564321772004179e-14 1.899218348526124e-11 1.6064745947360849e-10 1.704978926495849e-10
96 2.027251324183193e-12 -6.786316931237487e-14 2.12892723562457e-13 8.283442722039702e-10 -2.1825289865335504e-10 -6.764886416978896e-11
97 4.804902996659606e-13 -9.323430569378922e-13 5.195239188479921e-13 -1.5091107392603133e-09 2.9840312802796017e-10 -6.364583763550712e-10
98 2.164962107817789e-12 -7.247734215636766e-13 4.935512312714997e-14 1.7778928312327992e-10 -1.1806975349636373e-10 -1.0622648254620141e-10
99 -2.035438876367907e-14 -1.9217961322393683e-12 -1.0816000698526348e-12 -4.751688328670784e-10 1.599375882440589e-09 -1.836016426609245e-09
100 5.961226993411268e-13 -1.5556464969315702e-12 -1.334667248049316e-13 3.9233180305879286e-10 -1.3810794442818837e-10 -9.190914985723636e-10
101 -5.105594879066733e-13 -9.531364279507965e-14 3.4884210020992854e-13 7.258764912853445e-10 -7.058849423491836e-10 -5.627599292426504e-10
102 -1.57897657677573e-13 -1.0310989220007529e-12 4.2563355207040314e-13 -3.216393102565361e-10 -1.7881954246100713e-09 3.746120478286241e-09
103 2.713845437359697e-13 -2.002944288925277e-12 2.1672087130348176e-12 -7.068463060157821e-10 2.9105000483358427e-09 2.6722176153615453e-09
104 3.46393100443927e-13 -1.3515837466285736e-13 2.390827984121437e-13 1.6039785214023455e-10 3.930315209127916e-10 -1.3345983960997132e-10
105 -5.414502607368348e-13 -1.0839402409885238e-12 -2.8249740634485534e-13 6.448882546584867e-10 -5.016975551908983e-10 1.585127932923493e-10
106 8.206742973090884e-14 -5.104795647146707e-13 2.7068660571506743e-13 6.158231504195675e-10 1.0201399639579587e-10 4.1367764636198417e-10
107 2.942949613172265e-13 -3.79192119076522e-13 7.814823504736804e-13 -2.592342720973146e-10 -3.5044581588941063e-10 1.2213442022240084e-09
108 2.4786931902726727e-14 -4.6869407326473985e-14 -1.3043647260478202e-13 6.163333819787038e-10 -4.0499842734129095e-10 2.2097276176382051e-10
109 1.7903739347057968e-13 -5.411832228001393e-13 5.800027275604321e-13 -3.3485834296961326e-10 -8.274238816185549e-10 1.8863060960076717e-10
110 1.4830705025364467e-13 -2.0290784892791451e-13 -7.415184820563367e-14 1.7999770479129518e-10 1.6401330618302306e-10 5.171299943059094e-10
111 6.3685493708382e-13 -7.079897539855873e-13 1.3327487772827053e-13 8.878315511392146e-10 7.927379290489583e-10 -4.2935375171888444e-10
112 -1.0841833240071262e-12 -5.712444092474705e-13 1.084191871873799e-12 7.526377507157234e-10 -8.016788413592545e-10 -4.387583183556698e-10
113 5.359663073298425e-13 -5.4878896786978e-13 5.408912789559273e-13 2.035194117269119e-10 5.375965256597332e-10 4.864919441128348e-10
114 -3.968987336116329e-13 -5.309518631072597e-13 -3.5191789762180775e-13 4.998862715405645e-10 -6.981783418125218e-10 4.2354661524535725e-10
115 -6.066901283958047e-13 5.844739870744513e-13 1.1415057635702264e-13 -1.0274673505192694e-09 1.0867376194706065e-10 1.8000908137760708e-09
116 -2.2700439159391491e-13 -7.549480886086037e-13 6.819791883844985e-13 -7.379853206455966e-11 4.2474234799010605e-10 -2.4173386619592543e-10
117 -7.663874960804982e-13 -2.0599086897883115e-12 -7.729394093593255e-13 1.3586504719838528e-09 -4.070683661515139e-10 -1.3962583922442808e-09
118 -8.599012806267461e-13 -5.422030707088987e-13 -8.673528056295115e-15 1.9676117657684154e-10 -6.227487809395025e-11 -1.1202367641468019e-10
119 2.061386958929439e-13 -1.634065316791544e-13 1.0841084810166103e-12 6.035251662076083e-10 7.738687616552619e-11 3.026450727948031e-10
120 -1.0837348324641146e-12 1.1731779217398888e-12 8.447901872387237e-13 -2.3725797149790043e-09 -1.1389450316420764e-09 1.3160227914140985e-09
121 2.535530407187658e-13 7.526605212187748e-14 -2.684036079553192e-13 -1.2613228660538624e-10 2.90778820240885e-10 -6.914140160391434e-11
122 4.042284510669383e-13 -1.0837156575993958e-12 1.9429875526905543e-13 6.255467769764014e-10 -4.0470497533696e-10 2.0394337232090682e-10
123 2.960139958036469e-13 -5.6690361785723417e-14 -1.483332690534482e-13 1.425007345846528e-10 3.347825903022772e-10 -2.8437401895826987e-10
124 -1.8640535823220248e-14 -1.9618871091659757e-13 1.0831958669374664e-12 -1.3724931797438602e-09 9.545231776692524e-11 -9.155316277835379e-10
125 -7.008402307994829e-14 -2.044073154394606e-14 -4.207343473533443e-14 5.848017768209448e-11 -1.2186405196693689e-10 -1.0282020213237528e-10
126 -1.055589734295801e-13 6.562887401098e-13 2.695069199854913e-13 -8.731704928714062e-10 -1.4393435470410607e-10 -2.5238249113702695e-10
127 1.7695115853113164e-12 -4.696983152491269e-15 -7.121059850813775e-14 9.38353631214499e-10 1.0183529779334168e-09 -4.735221336438879e-10
128 -2.709140050789783e-13 1.7533356793066754e-13 9.922882841135466e-13 1.3511419431832717e-09 -1.5374045338370005e-09 -2.0169806749459504e-09
129 -2.771381236622118e-13 -1.353232116169996e-13 2.6985011916220183e-13 2.21518495418924e-10 -3.234591250596583e-10 -4.190502394296235e-10
130 1.0360798136409925e-12 2.1683758160409127e-12 -8.777962443528979e-13 -8.666062836271434e-10 5.157240326892967e-10 -3.8194926146425317e-10
131 2.4138393002882295e-13 -3.721653802925357e-13 -9.637668498709541e-14 4.914497877605837e-10 3.4279086947531123e-10 -8.73285626478904e-10
132 -4.161866269485683e-13 -2.813884239880956e-13 5.413350871872909e-13 -5.055574041462787e-10 -1.0100460330813602e-09 1.0063858963677738e-09
133 -9.380579907804323e-14 -1.083752625475347e-12 1.0059436754141188e-12 -3.916658322960029e-11 7.22144734816172e-10 1.1646836644940255e-09
134 7.419476286495497e-13 2.1661766362607934e-12 -4.022951690758309e-14 -5.137738585243958e-10 -4.853831572422664e-10 7.615171184470256e-10
135 -9.41652476185121e-13 -1.6704438438775608e-12 -1.0838514088439783e-12 2.3507023136302574e-09 -1.1941262463027644e-09 1.782102969958108e-10
136 -3.20392221279619e-13 2.5631999030413198e-14 2.7093619950658846e-13 -5.10581693659159e-12 -4.068642007060338e-10 4.656920039139244e-10
137 2.590986519557819e-13 3.5054134113914057e-13 -1.0223216000458963e-13 -3.197904329006988e-10 1.679803073869761e-11 1.919452934954814e-10
138 3.8695207344738514e-13 -1.3548358832842522e-13 2.1358957180496759e-13 1.0267471197139033e-10 4.2632763797604083e-10 3.77012882909101e-10
139 5.414161117916325e-13 -2.057634428479816e-12 7.951702814429136e-13 -2.2023011378606763e-09 3.899130574950774e-09 1.5858581555732104e-09
140 2.530701394248458e-13 -2.6070263816126966e-13 1.796891414341153e-13 -1.2014921644763924e-10 1.0090118114493288e-09 5.305303685928175e-10
141 2.227617942875044e-14 7.289293462327628e-13 2.516924936337004e-13 -9.079297089195777e-10 2.8207243541896178e-11 -2.151476592550992e-09
142 -3.073510794213842e-13 4.3633258087903433e-13 -7.792903938916839e-14 -5.768255408566708e-10 -3.911852507091381e-10 -4.08082747260394e-10
143 1.4712942400628027e-12 -5.146082889581397e-13 -7.537210334622411e-14 9.059665106354245e-10 -7.08914404232221e-10 -5.756087158841991e-10
144 -5.27505805136633e-13 -1.2342150109498054e-13 -2.0452206958125445e-13 -1.3775851723276482e-09 8.463811439362435e-10 9.473865700756217e-10
145 -3.507331331956267e-13 -1.1848927168076865e-13 2.7085237105462127e-13 1.5987618920467246e-10 -4.469760239083499e-10 -1.0345078286712661e-10
146 -1.6308442076565327e-40 -1.26484209648785e-40 -8.128040228245603e-14 1.5810161338319678e-37 -2.038508214765254e-37 2.7927159477361636
147 -7.025443066603668e-13 -8.608970750352932e-13 2.540316330112599e-13 -5.479873831932893e-10 -2.534083255600489e-10 -3.6808181060118237e-11
148 6.17533995769366e-13 -1.6020096162616125e-13 -5.972962192242109e-14 2.0314994553988432e-10 7.55270712595882e-10 4.475051666693369e-10
149 -3.587233697170447e-13 1.2908339915283281e-12 1.0836555368255266e-12 1.6611830799296147e-09 -2.170133734591272e-09 2.6863894743745737e-10
150 5.824015005719253e-14 -1.355973662600421e-13 -4.650528618925067e-15 -6.451051596830361e-11 2.9691774128694565e-10 5.4724180556495155e-11
151 5.209438559601836e-13 -1.061058980407331e-12 -2.0322165500965735e-13 7.612331151696521e-11 9.700923566695734e-10 4.2335081357654966e-10
152 6.917553739439601e-14 -3.1619120258606894e-13 -1.6149873844202757e-14 2.2427606916688206e-10 2.3420020309708845e-11 3.772541698942804e-10
153 9.979260400440672e-13 -2.710745137559985e-13 6.18126481229088e-13 -2.1282518540161105e-09 2.334558282632421e-09 -8.027537667371458e-10
154 -1.6205504030883915e-40 -1.2675571858051356e-40 -8.128040229477688e-14 1.5844099171566532e-37 -2.025641255999463e-37 0.13633349061420166
155 1.2815498913106796e-12 3.978348103773562e-13 6.904171978525673e-13 -1.1035535607935432e-09 4.1254972570948517e-10 2.1134645789249944e-10
156 3.9595475613049185e-13 8.277734774374314e-13 1.0834230163212541e-12 7.147695074909718e-10 -4.658485640871361e-10 2.415899671033363e-09
157 -5.958354568306473e-13 -1.815305808773506e-13 -1.6574496983752819e-13 2.0833029411893365e-10 -7.0437114077567e-10 8.632546864826644e-10
158 2.709970012201313e-13 1.6140513370804425e-12 5.398269547734798e-13 -1.930727385834883e-09 1.5377160757497628e-09 -8.087956317887183e-10
159 -7.635759877443878e-13 6.911617358556567e-13 9.374836595097526e-13 -1.232818192947426e-09 3.2572646903901794e-09 9.349899560362136e-11
160 -2.485822711687303e-13 5.140217779099743e-13 9.194513165388663e-13 1.3816985918986584e-10 -2.050039377460261e-10 -1.1861827458224825e-09
161 1.2434945366399777e-12 -1.4427028772407004e-13 5.516973358780125e-14 1.5148435134502328e-10 1.5673685381506314e-09 -1.3453045664303171e-09
162 -9.247228462991787e-13 -1.0370645616582696e-12 1.0838315232333178e-12 1.122431454781872e-10 -1.2797743435841512e-09 -2.5889813088095345e-10
163 -3.5987581988355605e-13 2.168281424772491e-12 1.5709880766109719e-12 1.0567548328620614e-09 2.2645761044427805e-09 -8.499127147666117e-10
164 1.9757635695759603e-12 1.0841271682869924e-12 7.788883993685241e-13 -4.732598400444636e-10 -7.539073776382843e-11 -3.4223445070815696e-10
165 -1.3573062050877457e-13 -3.597591492963615e-13 -1.8744563544915512e-13 4.696311817072214e-10 -1.9864890944818524e-10 -3.6267687514562356e-10
166 -5.015677817384045e-13 -1.0696875421440331e-12 -1.767241055768082e-13 -6.017771349573934e-11 -1.5034740430984023e-09 -3.3861615077593236e-10
167 2.701886669244006e-13 -2.3854073660317403e-13 7.623594871823491e-13 3.082535338861776e-10 -2.2677083858400775e-10 -1.3993812162712706e-10
168 1.0245661508682282e-12 -1.2499003776888202e-15 6.670852515617049e-13 2.12383854766351e-10 1.5163153584649484e-09 -2.0878188039617872e-10
169 3.5264762303009855e-14 5.572314073732731e-14 3.4688023047523834e-13 -1.0452667169287432e-09 -6.533216241203463e-11 6.154687850914632e-11
170 3.3451603247849296e-13 -6.395003860119055e-13 -2.7084698512447307e-13 7.976959661087448e-10 4.2085993980635353e-10 -5.045499243027307e-10
171 8.85090704185491e-13 1.0720433253576746e-13 3.5954699938307967e-13 -4.388396849671344e-10 1.2696128923970516e-10 1.5625817146515951e-09
172 1.5568937342271183e-12 -1.083832911170508e-12 -1.632596714720127e-13 2.3652608042103397e-10 -5.354357868801352e-10 5.434857157249502e-10
173 9.90886455336414e-13 -1.99306338910484e-13 2.7063293654017237e-13 -7.468374409392017e-10 1.0702309365564924e-09 1.092533704251197e-09
174 1.9990312770981635e-13 -4.588475708362675e-13 -2.7064096518914337e-13 5.290464022104561e-10 1.6502960150335747e-10 -3.0131830399801353e-10
175 -5.033422440937146e-13 -1.1693298152677014e-12 1.9485896582608546e-13 1.0748564046269696e-09 -2.0042430428538265e-09 -1.5093492374823605e-09
176 -3.4846892204708285e-41 3.259817939532624e-41 -1.2969922179706009e-13 -4.0746783887623867e-38 -4.355761003095012e-38 -0.18047366299436812
177 -9.284717447345283e-14 2.1008645808340848e-14 2.707630417741427e-13 -2.99686095644935e-11 -7.050934709329474e-11 5.684098654786008e-10
178 1.0426507263429165e-13 8.194235359263536e-13 -1.205787304416434e-13 -6.642866060758364e-10 -2.332458240275193e-11 4.951961305023467e-11
179 -1.0841415279619378e-12 -1.2781907792592686e-12 1.845961095197332e-12 -1.7978188569883346e-09 3.859968278802112e-11 7.858753550214255e-10
180 1.0831968097780584e-12 3.520967732021989e-14 7.356132066588225e-14 5.292830320697573e-10 1.536668152314391e-10 -2.9953218033410827e-10
181 -1.080146072921339e-12 6.306298481231574e-13 -2.478795365544253e-13 -1.4003850949671102e-09 -1.850139408339989e-09 6.97498814419711e-10
182 4.888248384645831e-13 -1.4441571010999797e-12 -1.2486462522097528e-12 7.96984476602926e-10 -6.515357268197821e-10 -1.3738405187515912e-11
183 -2.656282759440921e-14 -1.3487175543069867e-13 8.111680742633653e-13 -5.963133649005095e-11 6.907916911557276e-11 5.749281855052087e-10
184 -3.6244372526998755e-14 1.4952953930572594e-13 3.948532583510455e-14 -1.5879439976440752e-10 1.9717264818212645e-11 -5.517371539906842e-10
185 4.365173896991911e-13 6.378437338212715e-13 1.8647890443681534e-12 -1.1471080036215493e-10 -1.3986921704524978e-09 7.61683059061604e-10
186 1.8818782192405592e-13 -1.0834533423976398e-12 5.922867709307283e-14 -8.677043237868355e-10 1.5690514319951508e-10 -1.2670055410659998e-09
187 -1.3219641643078896e-12 -3.96634072128227e-13 2.4190116775508315e-13 4.851385784235109e-10 -1.6361652270207072e-09 -2.6034074395443984e-10
188 -2.0649755142867582e-13 -5.406868253140943e-13 1.08217392341887e-12 1.71399591230211e-09 4.270538023850152e-10 1.7846743705838628e-10
189 -3.237595360934135e-13 2.1526766785971695e-12 4.386696595222585e-13 1.36367684627559e-10 -1.276684198847572e-09 6.845236974804674e-10
190 1.295752206106131e-12 -2.208489917342678e-13 1.7036156756001568e-13 -1.6774885594399977e-09 -2.3035455056015664e-10 -7.740461750202708e-11
191 -1.3560261484143917e-13 -1.938006472706162e-12 -3.645441988088915e-13 -6.258572615706609e-12 -3.2080741520923084e-09 1.7628422801139e-09
192 -6.659732326284543e-14 6.756818011721017e-14 3.796412714143582e-13 5.209863051002846e-12 5.173149827361658e-10 -2.3600033744316335e-10
193 -1.7215718323874577e-13 3.5651869351604116e-13 2.675609040464586e-13 -4.845231475382322e-10 -1.867457840269379e-10 3.839804315183012e-10
194 -8.804350025537966e-13 1.8752355772463736e-12 1.8598082106129265e-12 1.2382335982961691e-09 1.9131985229797024e-10 1.2157378308623255e-09
195 2.1681531892384106e-12 -2.4304835820490286e-13 1.5889019416162762e-12 9.889262694452666e-10 -8.523182425599422e-11 -1.5653924539531686e-10
196 1.4619617234776332e-12 6.5724480787693e-13 1.0907781401357467e-12 -8.429063410116261e-10 4.003514450335547e-10 5.082478764714746e-10
197 1.9238529325227216e-12 1.4761327623265072e-12 2.1646440777061293e-12 -8.523436898528355e-10 -3.106292184613899e-10 2.4998367538721393e-09
198 -5.417994841686927e-13 -2.9346852089695835e-13 -1.8680218266501322e-12 -7.110277551074002e-09 -1.02027247299802e-09 -3.044047523808402e-09
199 1.206861472995887e-12 -1.084105991197654e-12 -4.233125620985872e-14 -1.3360802740492497e-10 -3.3356378644427565e-11 7.407010477859925e-10
200 1.572066681103026e-13 -2.1678849375460744e-12 1.2119034650846323e-12 7.905419461561257e-10 -1.499740515264237e-09 4.847015941029532e-10
201 -2.1642460427185015e-12 4.820200819573673e-13 -3.1600812256592386e-12 -4.056839626670934e-10 1.1036733293882389e-09 2.5244640411052564e-09
202 1.795360896938692e-12 8.013569786361855e-14 1.2354184308086762e-12 -1.1354716310463477e-09 1.3526339091831283e-09 2.9607066634447137e-11
203 6.793011528912566e-13 -1.0840371215863717e-12 2.1670174175702204e-12 1.711315916008776e-09 -2.921240810423464e-10 1.4634665703584216e-09
204 7.420359875945392e-13 -4.61176361263393e-13 2.1680386967149663e-12 1.978039570535982e-09 -1.4616011130647771e-09 1.2397125274983409e-09
205 6.910139235984266e-13 -2.1602589614491278e-12 -4.239158485480761e-13 4.431656979870494e-10 3.935716424897232e-10 -2.302604651338507e-10
206 -1.0837289066559401e-12 -1.0840388291650192e-12 -2.167775300660953e-12 -1.120977914262674e-09 2.2543267439958816e-09 1.136563440631963e-09
207 2.1677401194377543e-12 -9.257449765309016e-14 8.910458468157154e-13 7.147020613656499e-10 -4.5606962443527774e-10 -1.3854500652823462e-10
208 3.9079441972056773e-13 2.434787016588457e-13 -1.2726765080494708e-13 -7.39587870599607e-10 9.97105448589652e-10 3.372998533009954e-11
209 -2.1351117464414443e-12 -2.0283748940265097e-12 5.039233338144647e-13 -1.6196564132181403e-09 7.06262211099586e-10 -8.490161083887122e-11
210 1.044646084022886e-12 -2.5769342865735797e-13 2.1460458480631047e-12 -5.039819939830956e-10 -3.8847939230277835e-10 8.819302241729291e-10
211 -1.161915328828921e-13 -2.1580462148132666e-12 -5.915769227635609e-13 -5.220595667204824e-10 -1.817294249507563e-09 1.6636190641498807e-10
212 1.0840059366713755e-12 -1.0565963758158484e-12 1.0256249071012878e-12 -1.4865627867487613e-09 -7.639341656105379e-11 4.0956502145828324e-10
213 1.1595947014704472e-12 1.4553424147938657e-12 2.167097075239175e-12 7.924276558320678e-11 7.420288944779066e-10 -3.1627668976935823e-09
214 8.405594429369392e-13 6.162043224685628e-13 6.559794637825309e-13 3.9978945697997537e-10 -1.4637223792151312e-09 1.3233415958411267e-09
215 3.1791578847473417e-13 -2.7094368424314543e-13 9.9986335715327e-13 -6.548609066005327e-10 3.166015625074878e-10 -3.442009074790902e-10
216 -2.2059518997376684e-13 5.578854439403453e-13 3.682815110647604e-13 -1.6213605514748864e-09 1.9121630943032897e-09 -9.688911811206488e-10
217 4.4274978140196145e-13 -9.406797058011748e-13 1.6665234640524232e-12 -2.146426788061561e-10 2.51945246860869e-09 6.228445417911971e-10
218 -8.814053474560393e-14 -1.3157179354556784e-12 -2.2198766944933593e-13 1.1226258689032934e-09 -9.7293614345836e-10 7.502130127498772e-10
219 9.808052584428643e-13 1.6490222012837835e-13 1.0912119488449698e-12 -1.0737971633932021e-09 -1.8159193449904326e-09 1.2875073129755505e-09
220 1.0071849068511622e-12 -1.2855322277639524e-13 8.888739221041297e-13 6.263473645666468e-11 1.1772749287753678e-09 4.361755096501788e-10
221 -1.9665545971387474e-15 -2.1442236967937156e-13 1.3019086515786433e-14 4.523310273007417e-10 -4.0902117681886213e-10 5.854550188862115e-11
222 -4.4878260241130915e-13 -3.4604520052257966e-13 -4.222569263163671e-14 -1.3813084820954429e-11 -4.1784392235397437e-10 -3.482209085680061e-10
223 5.517403274694254e-13 1.0833282092021139e-12 2.1680470123827295e-12 -1.8921375926974113e-10 2.1192886005008943e-09 4.184305500724315e-11
224 -5.423458724185168e-13 -1.0837654805354377e-12 2.1685392906061884e-12 -9.949919804840851e-10 -4.3652544126484435e-10 1.6312207527408132e-10
225 1.651940130497134e-12 -1.0840651064895648e-12 -2.581761504856693e-13 1.9855104955217416e-11 -3.7481586273631803e-10 2.1823532563270856e-10
226 1.0834478364834376e-12 -2.376989146978344e-13 1.934799942521925e-12 1.6143684558480968e-09 -6.913117341823621e-10 -3.562561859455463e-10
227 2.711441885229663e-13 -2.984803743201515e-13 6.777198342249869e-13 1.1339887330697134e-09 -5.242951327149276e-10 -7.337440906336482e-10
228 -1.138581548752958e-12 3.6667621752351193e-13 -3.505499571829128e-13 -1.0767088043806258e-09 -2.8690684342697443e-09 1.9769241484284324e-09
229 -4.300011293833085e-13 -1.1627504834394947e-12 5.672439146142572e-14 1.8450735389358836e-09 -9.971419926532098e-10 2.1888625513560992e-10
230 4.5363159499759195e-13 -1.0359467690804508e-12 2.1664965159512266e-12 -2.367047607404257e-10 -7.911386819119714e-10 -4.5474498908046723e-10
231 7.89071295243174e-13 9.237430505176188e-13 1.1465691279534881e-13 -9.026900149330508e-10 2.384868653321391e-09 -1.3482760598939563e-09
232 2.16798353800233e-12 -7.243488679207348e-13 -1.0625579944934788e-12 6.30648445520089e-11 3.4577791768143007e-10 1.8549484343352705e-09
233 1.5929283490168605e-12 -1.08327032525961e-12 1.3382447984181814e-12 -1.1614350094248183e-09 -2.2527819496669794e-10 7.112014263876734e-10
234 8.690411036077604e-13 1.9996707508188427e-13 -1.239920048378996e-12 8.652366952339244e-10 -5.644131530879434e-10 -5.933472000584313e-10
235 2.981560787165009e-13 -2.711586073082695e-13 9.48952810571811e-13 -3.884837303637653e-11 4.596346439615014e-10 5.541754770866992e-10
236 2.16840445159853e-12 -2.14583120720162e-12 -3.505762535963579e-12 9.064830616363807e-09 1.667458399027006e-08 -3.385635761770233e-09
237 -3.655914000080182e-13 -2.984089798872791e-12 4.3358413535876146e-12 -1.1061409969285348e-09 -3.5626852510088017e-09 1.5240177306614511e-09
238 1.0831603904746905e-12 -2.1677453881412997e-12 -2.892827962090942e-13 -1.565340394423238e-09 5.264894868424361e-10 3.1541483120252184e-10
239 9.176477344657324e-13 -5.400750331554964e-13 5.3487583822376015e-14 -1.1823706143273442e-09 2.547641994570257e-09 1.104073961378031e-09
240 -8.465545985487622e-13 -2.0489196320542596e-12 2.1687216719848514e-12 2.7784045813349884e-09 -4.485638075611213e-09 -1.0600957559428907e-09
241 -5.332084820529147e-13 -2.707569536165682e-13 7.768557050877703e-13 -1.1915686547452352e-09 1.4238447309365222e-09 4.612747895499624e-10
242 1.0838867004213462e-12 -1.084008446369899e-12 1.300827979597301e-12 9.906372994224964e-10 2.0789015190830464e-11 -4.433780939032126e-10
243 8.2905599534616e-15 -4.10667353592261e-13 8.532045305096346e-13 1.7117696435522372e-10 1.3242991757023382e-09 4.0032032819734627e-10
244 -3.2586552418263944e-12 2.168445381491878e-12 7.241987940851568e-13 1.3325252201156133e-09 1.2555093784472385e-09 4.863167008491608e-09
245 2.309582399788816e-13 -1.968198200442858e-12 3.063004358387465e-13 2.7969128057310245e-11 -6.690994979535999e-10 -9.751472880250213e-10
246 2.1673916131287952e-12 -2.842890265569795e-13 4.2931030659432513e-13 -1.596121740847025e-09 -2.440104149710808e-10 -4.5889500361344643e-10
247 -3.725648610745221e-13 -5.419727804608169e-13 1.5472295480851193e-12 1.9402029887424848e-10 9.25527867763741e-10 -1.189732769081436e-10
248 -5.4246001533705237e-14 -2.723003783285214e-13 5.026395592637028e-13 -1.29902311778488e-09 -7.302840505266263e-10 2.1488933434245402e-10
249 7.56543441603919e-13 -1.4281641349549032e-12 2.708475296805956e-12 2.345991460034207e-09 2.290180876465389e-09 -4.151137478512369e-11
250 5.342222040981653e-13 -1.0839845687371785e-12 9.669113582194101e-13 -5.65628800170233e-10 -2.990211067155414e-10 1.2509056897224868e-10
251 -1.2291149383001878e-13 -5.3152970756388e-13 1.0826010708944204e-12 -2.030808471216809e-12 3.972485952989566e-10 8.211323723494987e-10
252 9.318482240309526e-13 1.9353456565505554e-13 -7.957403669053715e-13 -8.269860000678387e-10 -9.075111849810739e-10 -4.4139451623738746e-10
253 -5.788234313386946e-13 -1.2551322876969094e-12 1.0850824754123155e-12 2.171967784718357e-09 -3.575612841081054e-09 8.080224459043471e-10
254 1.0845732818882118e-12 1.7447430355526155e-12 2.1681517068020524e-12 4.190553295014495e-09 -2.0992148408868827e-09 3.4366245082846624e-10
255 2.1312060863523474e-12 6.88863289668691e-14 1.1778786505069497e-13 -9.43715428604735e-10 1.6838896489525866e-10 2.1521826423948847e-10
256 2.1659777548669885e-12 -4.553655976058896e-13 -5.429702973733946e-14 -9.395291875928025e-10 3.330373280017378e-10 1.3387069347216646e-10
257 1.0840125519400283e-12 -3.818563631299695e-13 2.0415064503859037e-13 1.564713205599884e-09 -1.885112226122132e-10 2.107692451471002e-10
258 -5.412867414107786e-13 -9.353817707122419e-13 -2.322606764330549e-12 -1.3792770899988106e-09 2.018120986566965e-09 4.4734113943184673e-11
259 -5.456111793925303e-13 -1.0028801750030631e-12 1.083810289898248e-12 -1.7776110364622814e-10 -1.0283994051218261e-09 5.297271053601824e-10
260 -2.794859727985887e-14 5.703531847704416e-13 1.5885054279092476e-12 2.9027558297543806e-09 -1.445683194320681e-09 -5.939572790917956e-10
261 5.369390602132088e-13 1.0557248789224368e-12 -3.8735310305012395e-12 5.098913767174018e-09 1.126497237332198e-09 2.447452040961945e-10
262 -1.0842279389045882e-12 -1.2556203234699084e-12 7.146298055617621e-13 -2.2088042889384857e-09 -6.056641680737525e-10 5.098904525442957e-10
263 -5.995857266341192e-14 -4.5211677732239954e-13 -1.8520597425252637e-13 -1.0498748772073734e-09 -4.287228392631712e-10 -2.8206799858443566e-10
264 2.2657508833447728e-13 -1.0687591495578426e-12 1.2187470026979729e-12 8.569306739040888e-10 -3.665667475655688e-12 -1.8148978790187951e-09
265 6.235201844830995e-13 -8.610483531846678e-14 7.347372117258246e-14 6.975548804537587e-10 5.178987701585024e-12 -1.527117602747068e-10
266 -1.0979178781296884e-13 2.1673202044249007e-12 2.4865824572727096e-12 3.715558218987402e-09 3.5806296823552547e-10 -2.5654529602383467e-09
267 1.081983659636087e-12 -1.183699680074877e-12 2.0722085694114144e-12 -6.872782057248189e-11 -3.0775034062885244e-10 -5.1882818658135455e-09
268 -1.4577844445984363e-12 -2.159061501899674e-12 -1.4972524621658732e-13 5.726191434323995e-10 3.3199678079650945e-10 3.415397836448917e-10
269 1.294647379467138e-12 2.7259526396038037e-14 1.427944656277727e-12 1.7315979215107814e-09 -2.068657519804095e-09 8.006898990856742e-10
270 -1.3633734765091069e-12 -1.3453544468067762e-13 1.0574449049167828e-12 -1.8952783795316234e-09 2.135477076689391e-09 5.947237771008778e-10
271 1.6198038641378776e-12 6.344943939802084e-13 1.0756977199297672e-12 -6.6665035981268915e-12 3.58172285991454e-10 8.235539421573129e-10
272 2.6432520265114264e-13 3.3159025968375127e-13 -3.5096915824801704e-13 1.3365306956910772e-09 9.655469430342505e-10 2.515001818671084e-10
273 2.1683966897619145e-12 -5.37594184039424e-13 4.549022481499143e-13 3.316814887860802e-10 -8.841158845591413e-10 -6.468458781117703e-10
274 1.2688265956277135e-12 -2.1672649640961712e-12 -5.258934644407032e-13 1.5713050050689505e-09 -1.1587729139607137e-09 -1.5897429708014477e-10
275 1.4482876112437729e-12 -2.7182205295723523e-13 6.279721835105489e-13 4.0878305737495137e-10 2.535239525623341e-11 4.329813928061554e-11
276 6.183389422677473e-13 1.0837820594163422e-12 1.3814640381046678e-13 1.862982920275365e-09 -5.846529272890501e-10 -1.7413536832777971e-09
277 1.9607194955006483e-12 -2.5528090278150433e-13 -3.518677480176256e-15 1.1177237711569233e-09 -9.662355241894896e-11 7.307545811436776e-11
278 2.1684593126210194e-12 -3.8670263829419473e-13 -1.1137937667424444e-13 7.950850510746786e-11 3.763820121074219e-10 -1.4374432229519378e-09
279 -7.218943841413554e-14 -1.0826019526150828e-12 1.6100810362959265e-12 4.4895746649484606e-10 -8.526317418560466e-11 -5.692561785971132e-10
280 -9.4511978411529e-13 -5.409669536450418e-13 -2.036774861927871e-12 1.9477229167823e-09 6.977114997448175e-10 -2.2214956005938355e-09
281 4.877396455939315e-13 9.238281996149956e-13 1.0832684609220116e-12 1.3608546560401458e-10 5.973915951881643e-10 1.0060230448760647e-10
282 -1.1119212807008265e-12 -5.254167355431201e-13 -7.488340353629807e-13 -1.1002353043582846e-09 2.369957480272761e-09 1.931525120003427e-09
283 -2.168411658375162e-12 -1.071029989332099e-12 -2.2846417251734616e-12 1.503652928102552e-10 1.1399158836041314e-09 -4.502434355566078e-10
284 3.2520123407125544e-12 -2.1683295154825532e-12 -3.937291307340455e-12 1.624768555499377e-09 2.5179748739692073e-09 4.866095328846413e-09
285 1.0841677576926445e-12 -9.864601558228278e-13 1.1563065837735156e-12 -4.862188672060019e-10 -5.045758251592019e-11 -3.452910583422714e-10
286 -7.880704601067306e-13 -2.168324912594054e-12 2.1682811757458108e-12 -6.1393344818996e-10 -3.774563054043034e-10 -1.8317263557842332e-09
287 9.223442854462456e-13 5.418579642482401e-13 -3.259050446267127e-13 -2.4146067774069377e-10 -5.447238141899215e-10 -5.933450807405931e-10
288 2.1679060126064954e-12 3.6472216632560655e-13 -5.626908902357594e-13 -1.2061621185445027e-11 7.043804659312954e-11 -3.3251741171734787e-10
289 -2.434123490264775e-13 -5.41951665575041e-13 7.895226035734864e-13 6.734672540543943e-10 3.5396063939929244e-11 2.4966969228895593e-10
290 -5.339304188802725e-14 -2.1630156313732005e-12 -2.1816001439964528e-12 7.208867471576856e-10 -4.192406282039202e-09 2.2020466647728845e-09
291 1.3703616710018055e-12 4.065014809391693e-13 1.9607815277119877e-12 1.5492086673008294e-10 -1.6281846761996424e-09 1.4775319390379885e-09
292 4.564786002325136e-13 -1.2343519694454414e-12 2.1677386963709885e-12 2.8281022455085123e-09 -2.61413590330188e-10 -1.8249739023641427e-09
293 -1.168711869450345e-12 -1.4960508180595659e-12 -2.6944333266058116e-13 3.8260632373909447e-10 6.959152435593135e-10 -7.182158271134437e-10
294 -6.759165157825634e-14 -5.416116532686716e-13 5.009993046721515e-13 -1.7331159003169037e-10 5.413834684567938e-10 -4.9469648246018e-10
295 1.8652723139086647e-12 -5.423154509215352e-13 1.6365117843155627e-12 3.7368904505602186e-10 3.7049548132209517e-10 -4.5012252466149156e-10
296 -9.834632778827366e-13 -2.1816693596971965e-13 7.560642256992434e-13 9.303666635623848e-10 -9.429682187246745e-10 -6.411393919188446e-10
297 1.723223125147831e-12 1.0842277656611826e-12 -4.879679805117232e-13 9.90431404513139e-10 5.052278667779491e-10 1.8878408331649642e-10
298 6.350185387901983e-14 -1.0841692141747766e-12 1.4306950472586991e-12 1.64538421188807e-09 3.771733699385155e-09 -1.1253666467445341e-09
299 7.202716282067827e-13 -2.063262228077184e-12 2.1684918749552293e-12 1.88025655462024e-09 -4.4171012283806437e-10 -1.1691975155158123e-09
300 1.0841036204843458e-12 2.1680528021075817e-12 7.554380757430835e-13 -1.5831639910311339e-10 -5.731071137904049e-10 5.763447472939701e-10
301 2.1670875643653876e-12 -1.3043088416668722e-13 -2.0694590193630968e-13 -3.213027362733634e-10 3.105272706230347e-10 3.0968836200327193e-10
302 7.809138216808614e-13 -1.2697169403860923e-12 9.810196882501874e-13 1.5610337158420416e-09 -2.509640771231835e-10 -4.827965532551252e-11
303 -1.0723403034255054e-12 -1.883839037237623e-12 2.168032188232113e-12 5.520283631911126e-09 -1.9053262119501345e-09 3.498186867610111e-10
304 -2.1637077266584036e-12 -2.1665251779057887e-12 -3.2638432897248636e-13 -5.438988579090025e-10 -1.7984967589630304e-09 -4.1588119137602735e-10
305 -8.213212777588382e-13 -2.168273936412619e-12 2.088494232104252e-12 2.1603571948591433e-09 -7.117698154921671e-10 -4.74285135938481e-09
306 4.871608266097621e-13 1.5136562485827663e-12 -5.659770794690004e-13 -1.2701268914779193e-09 -1.892432972504118e-09 -4.555514525260909e-10
307 2.762171210543577e-13 -1.4562725282702855e-12 2.2456302169904947e-12 -1.7585806834097585e-09 1.0466846958037624e-09 -1.3357529187508911e-09
308 -5.426828987429225e-13 -2.1670898995439215e-12 2.1585640316546942e-12 3.3728812683943746e-10 9.206332205433515e-10 -7.570502588169477e-11
309 9.072188720835936e-13 9.569720505730181e-13 2.1663945082129998e-12 -5.225704272850265e-09 2.230616451476947e-09 3.8526792672268015e-10
310 -5.408514142665561e-13 -2.1323708271917037e-12 7.247244226007823e-13 3.261102510146109e-09 1.8289531219380435e-09 -2.0282180059887686e-10
311 2.108107451282298e-12 -2.4948575474892764e-14 1.3786393718990095e-12 9.252360761362826e-10 1.134700213945639e-09 -1.949768648623037e-10
312 -2.015792173255476e-12 -8.783145664706494e-13 2.1671284060923134e-12 -5.0873158440232e-10 -2.557436014210308e-09 1.0526782143298147e-09
313 -2.0999394927124828e-13 -1.2665784260110643e-12 3.1977764371228196e-14 9.920832748526062e-11 -2.399834179395727e-10 -1.1123143020103793e-09
314 1.0954166187990079e-12 -1.0805762682411111e-12 2.2724469163247098e-12 -1.5910969027949604e-09 -2.5953236183140687e-09 -5.765527141291995e-10
315 2.132588128642224e-12 5.422365214023869e-13 -1.334699430905978e-13 1.1848694045194064e-09 -8.520666024303708e-10 2.6426971678882133e-10
316 2.168442432538705e-12 -2.387181256197477e-12 1.2734119189544144e-12 4.273292716574698e-09 -2.19206306306712e-09 -3.248883813681381e-09
317 4.604538485644897e-13 -1.2788910539131298e-12 -6.233014705833752e-14 -1.7411728102581488e-10 1.1698428776154616e-09 1.911523244120904e-10
318 -9.645612507905312e-13 -1.4633073982869952e-12 1.0841249218779952e-12 -1.4427285142449693e-09 3.216471658913437e-10 -4.0033379606892125e-10
319 1.826815650649418e-12 9.069474478544466e-13 6.423995754346333e-13 1.113426025945126e-09 -2.3983939740573313e-10 2.264800711161842e-10
320 -3.140383284808554e-13 -1.0828397712466536e-12 1.516713252886134e-12 3.4271031930441904e-10 -2.2558768294347524e-10 1.917957661336159e-09
321 -5.530166828781122e-13 9.69948967185175e-13 1.5265317179701427e-13 -2.3253766852844233e-09 1.3623351733413806e-09 -7.882133236412164e-10
322 -5.415196716784999e-13 2.55846429996727e-13 9.43600758968514e-13 -1.1226713600889776e-09 -2.1108847302033898e-10 -6.960436868098326e-10
323 -3.0362419293057197e-12 2.1602653304827253e-12 -5.401537405619603e-13 -4.365597042723107e-09 -1.0432635115347504e-09 -4.511002384499142e-09
324 3.0196572534764566e-13 -3.289350071855926e-13 9.920608354915677e-13 6.594352366356447e-11 -9.763542483494258e-10 -5.693073001138069e-10
325 -5.414641733090294e-13 7.904990059644675e-13 2.1678757172080057e-12 1.901765574812855e-09 -1.1807819692193297e-09 -1.947766860102005e-09
326 6.450190189305433e-13 -5.423321675058365e-13 1.0101906763447252e-12 -3.9485097115332714e-10 -1.4336784430942757e-09 -1.371088723322883e-09
327 1.8084876846399974e-12 2.9358580004698644e-13 2.166892820827622e-12 -1.529996999928005e-09 5.99986338057284e-10 -6.96319239200815e-11
328 -5.424126876938399e-13 -9.942489496732709e-13 3.878182678557736e-12 4.423954181814987e-10 -2.9379530851266064e-09 2.7105750684538573e-09
329 2.7109242805156045e-13 -7.057845412761719e-13 2.167192741418201e-12 3.460935392146323e-10 8.098964555296704e-11 4.795120219534899e-10
330 -5.413387747715237e-13 -7.728658258025251e-13 -6.691274073523739e-13 -1.792406456407481e-11 -7.530543686918512e-10 1.8322686130829168e-10
331 2.2064375213265928e-13 1.3795951302473134e-12 -1.8583078905030623e-13 -2.4268758177703153e-10 1.0647462939906067e-10 3.093150147664469e-10
332 5.416878877748611e-13 -5.426257294723664e-13 1.9700528251349032e-12 1.637268909325826e-09 1.652297835969054e-10 2.7955455795947987e-10
333 2.163141480434083e-12 -8.137834386982829e-13 1.7248979463845812e-12 1.8534727232080102e-10 -1.9883232162675145e-09 9.347817360011995e-10
334 1.0429135556382061e-12 -1.083127697645801e-12 1.7125037337459159e-12 -1.4142199345222967e-09 5.764301166348214e-11 -3.6206778370075163e-10
335 -7.571833665585814e-13 -1.19091019175439e-12 -6.228858514978529e-14 1.086903624565653e-09 -8.047740900499232e-10 1.7485162533386446e-09
336 1.082997775467885e-12 -1.8405367131793195e-12 7.433093820849602e-13 -9.548266402431181e-10 3.479967946186985e-11 4.827648607277109e-10
337 -5.22358157064643e-13 2.1678878572818425e-12 2.168036685192457e-12 -1.9438991644516287e-09 7.562754733197474e-10 -1.2627608250893632e-09
338 8.497638169155064e-14 1.9484418150288068e-13 2.728994268418626e-13 -5.212511049262251e-10 3.921769432325954e-10 6.966932462890484e-11
339 -1.4500978158805099e-12 -2.159126320103821e-12 9.681837245308886e-13 -1.6252341314500716e-09 4.5483212174398165e-10 1.477104429451754e-09
340 5.6311253819813425e-14 -9.783671050630521e-13 -1.0272618746630926e-12 1.301140341767015e-09 -2.2144384891695236e-10 6.21734636956355e-11
341 6.487923652556791e-13 -1.662534152364266e-13 1.9802869051846525e-13 3.527885390729821e-10 -6.655316190100865e-11 -6.63994641242596e-10
342 3.535037412983847e-13 -5.414590045655212e-13 1.720102731514027e-12 -8.532270025926757e-11 8.941121637101912e-10 2.6413058998791706e-11
343 -4.335822149322566e-14 -1.0845935399374663e-12 2.169214831158727e-12 7.672107411534809e-10 -1.233091984809729e-10 6.100240511517256e-10
344 1.6865035683926699e-12 -5.417064166590306e-13 6.217672279812649e-13 1.955190054176793e-09 -1.024889945229182e-09 -3.729122855699134e-10
345 -5.476411139442558e-13 2.0105442300334813e-12 1.4257323793734057e-12 1.2536987127383067e-09 -3.4015925848769514e-09 1.8435782410150867e-09
346 8.529000809949987e-13 -6.440659241221894e-13 1.0165061377523948e-12 3.1201815642548513e-10 1.33402280763242e-09 1.3693088759331453e-09
347 -3.659856504881218e-13 -3.2521000290769005e-12 4.334859822060932e-12 1.4866805927412877e-09 3.4899245695394947e-09 -9.383789265835538e-10
348 1.0841277644329644e-12 -1.165122572570981e-12 -3.4471683226254683e-13 -7.390780767458801e-10 2.8385289671902176e-10 -1.3473796959623897e-10
349 1.711711855119108e-12 2.006115469855185e-12 -3.103600818490852e-13 9.039308479767688e-10 1.6350547161539232e-09 -6.30128901929743e-10
350 -2.67232139913295e-13 -1.0712834654623341e-12 2.503961584870658e-13 -2.020065862844138e-09 -7.5036736196963e-10 -4.021718308212033e-10
351 1.084145964422646e-12 -1.084252301383244e-12 1.6846974645352026e-12 -8.467209846835509e-11 -5.922808104417319e-10 -1.3192846892639487e-09
352 1.8912453523491425e-13 -5.871217671970268e-13 2.1673100872051215e-12 7.765939377815003e-10 -6.10381658628384e-10 -4.4409526431380705e-10
353 2.0549816157798607e-12 3.9242462935590034e-13 9.5424542941956e-14 8.408195444814464e-10 -4.718168055821418e-10 -2.0894321632094355e-09
354 1.807931304229937e-12 5.402564376376995e-13 -3.2432204422878737e-13 1.1808598444910095e-11 -2.6304405979314906e-10 -3.1309209303601797e-10
355 2.0086975932335345e-12 -5.71804312514759e-13 8.00312820680243e-13 -2.926587442254647e-10 6.085449082086748e-11 -1.0099267819116863e-09
356 -1.0841996412912316e-12 -5.457076277422825e-13 1.9426113938394548e-12 -1.6994862827232517e-09 1.1848086309194556e-09 -2.573007097275092e-09
357 -4.399908111227236e-13 -6.385798028203689e-13 2.1779603289366962e-12 5.0062157100901175e-11 2.045139044607034e-10 -7.751504161058054e-10
358 1.4635291620193697e-12 -5.420509657653167e-13 3.906013043699589e-13 6.727916277685197e-10 -9.033429535503311e-10 5.06648812970064e-11
359 6.712269220425552e-13 -2.162178293226087e-12 4.3325474353737156e-12 -2.8617219879598387e-09 8.439717226573485e-10 3.4755322726278406e-09
360 2.7132562241290914e-13 -2.5611936806191085e-13 5.791102115459782e-13 -3.771155846117151e-10 -1.029396317558281e-09 -3.0998986819326634e-10
361 -2.4287826104887876e-13 -2.1676860116315627e-12 2.153699699610198e-12 8.276149669372439e-10 -5.87650722283956e-10 -1.871448160445045e-09
362 -1.6982082041938328e-12 -3.679346343596563e-13 2.167612233960336e-12 -5.967672617910852e-10 3.261257526853707e-09 -1.0112303960122702e-09
363 5.404025881275744e-13 -4.5223745948395317e-13 1.9706176717141096e-12 -2.698213777091447e-10 8.23192757525303e-11 8.273836513429812e-10
364 1.592300323093324e-12 -5.416580415836001e-13 6.593501017365017e-13 5.288462704021705e-10 1.2433164281075274e-09 7.162048898478285e-10
365 -1.1620663928417378e-12 -1.6145733767076972e-12 9.894063247374025e-13 9.578941392669336e-10 7.680277755669668e-10 2.4370977826711724e-09
366 4.760045885080964e-13 -1.8181883962792118e-12 -4.14988821702362e-13 1.4609619801586959e-09 -7.004952469247091e-10 6.804974930341841e-10
367 2.1671358299539483e-12 -1.082870733200158e-12 2.166787816474843e-12 2.8229162182228136e-10 -1.861530960164638e-09 1.3518675306399639e-10
368 -1.440327681155021e-13 7.57996743657354e-13 5.19127551711024e-13 1.9421042252123987e-10 2.785479413389203e-09 -3.154730106245487e-10
369 -2.1662863408989966e-12 -1.0848774243774564e-12 2.616843906540263e-12 -3.4753486119538955e-09 3.745408799031631e-09 1.935424412127131e-09
370 -9.467012223661621e-13 -2.1655358616090543e-12 2.0086800160965797e-13 -8.946391036624231e-10 4.910868548867283e-10 -2.662284329074886e-09
371 3.2723472775124453e-13 1.1576196052904297e-13 -1.0886163713049838e-12 -8.012326647313045e-10 1.3184510952822683e-09 7.004436530716744e-10
372 1.4838480725716373e-12 6.053599499927706e-13 3.275815930992357e-12 -2.547130961651275e-10 5.050122912702424e-09 -3.303284153748185e-10
373 5.416964616239073e-13 -1.2966279422099443e-12 3.774434844654214e-13 8.690332150384091e-10 5.003573093074284e-10 -6.655690612308151e-10
374 -2.248580649616044e-13 -7.944618407053054e-13 2.1646693775432253e-12 -1.050561731598379e-09 1.0672368102530666e-09 3.31140451797937e-10
375 -8.94016913024577e-15 -2.1238750799806443e-12 1.3242258334811785e-12 -1.7091021673009574e-09 -2.1557787819863524e-09 8.598028062287027e-11
376 -1.8105213024420324e-13 -1.1305873206703824e-12 -1.3171675334369328e-12 3.0576965221344e-10 2.0930076385744144e-09 -1.0697906195390587e-09
377 2.16839928976047e-12 -1.069984716400929e-12 -9.78851280545993e-13 2.4227180537429205e-10 1.3245757914331018e-09 6.047874123863585e-10
378 2.1675430205321297e-12 -6.618414331984479e-13 2.1249192819830577e-12 -2.597505900050604e-09 -6.649553753775427e-09 2.78634522325696e-09
379 2.1148005083748246e-12 -2.1495311562441957e-12 -2.1681213894679587e-12 1.716862173644776e-09 4.529587720005234e-09 -2.5099849588928765e-09
380 -9.829355023922983e-13 -2.1679052543800214e-12 5.754485277405381e-13 2.2089306378324846e-09 -2.396857506430267e-09 2.1117105296554876e-09
381 3.239391311049951e-13 -1.9730869632372767e-12 6.167417361007832e-13 -5.808893000809929e-10 1.1763623965101651e-09 4.707142273376255e-11
382 5.95350772581365e-13 -2.167016099768468e-12 2.168391563026601e-12 1.1513949335809275e-09 -2.392027298775243e-09 -1.376295659207319e-09
383 -8.110273566033289e-13 2.168330394437364e-12 2.5030063266913983e-12 2.4699282731308066e-09 4.8455232450641614e-09 1.9991969674882988e-10
384 3.2929394554805203e-12 -1.5430906185042165e-12 4.337467699134852e-12 -2.5865519039433235e-09 1.0708145191992988e-08 3.9592310566799786e-10
385 2.1654802272423666e-12 1.7571957114202075e-13 1.877960135718548e-12 -3.801299409406101e-10 -7.718701625976498e-10 -3.1187449911068237e-10
386 -2.771871145225068e-13 2.1643315689221382e-12 2.1674558046525284e-12 2.5280539194186706e-09 -8.360777905136252e-10 -3.9382438545123233e-10
387 2.1025872338892676e-12 2.167199231382605e-12 3.351049152318524e-13 -2.1634363644753576e-10 -3.3424447929793875e-10 2.3032456094924914e-10
388 1.4621663243811913e-12 -1.9369632921189028e-12 4.5022248227782e-13 1.8278218801037023e-09 -2.495769834135708e-09 -2.1433225587590084e-10
389 2.1683015890109456e-12 -1.814019757801509e-13 1.4505467711102654e-13 -1.8671205549307267e-09 -1.2248959294513655e-09 -2.1733076909207915e-10
390 1.3616968050793334e-12 -1.0842833671387057e-12 1.0474753519817844e-12 2.461199983193019e-09 1.6887538393585076e-10 9.935609886895105e-10
391 2.1663928075043946e-12 -6.157477726829363e-13 2.5879908763236722e-12 3.562088922315815e-09 6.565132593065407e-10 -1.6818230577249082e-09
392 1.0833406230674218e-12 -1.0794984659982523e-12 -1.4863681035631175e-13 -2.9289128560273016e-10 1.4769666966074131e-09 1.8378240461956103e-09
393 1.412738139346637e-12 2.168320837977605e-12 -4.3355561824622435e-12 3.2966657504890327e-09 4.451404917167747e-09 3.19433115984438e-09
394 -2.1686255831241375e-12 2.1683692119611414e-12 2.168621274313081e-12 -2.369814361529619e-09 -6.4171872952159825e-09 1.4436063240515156e-09
395 1.0821985556316487e-12 -8.937185553384175e-13 4.337359297613048e-12 2.9113808374215618e-09 -1.2625731090711298e-08 -1.1031778622204949e-09
396 1.647024012171017e-13 -2.9114070036814145e-12 -1.6513808045011213e-12 1.1462838997685072e-09 -3.4068260115853468e-09 -1.7179675393271388e-09
397 1.4151557558391117e-12 -8.500995987510177e-13 -4.3358615725688315e-12 1.1389423304356546e-09 2.370406143987349e-09 1.0513478937843151e-09
398 -2.0289184977399997e-12 2.1691273562918477e-12 -4.336798320355474e-12 1.9700915172327233e-08 2.6914491664393728e-08 -1.2808798109616778e-08
399 1.60758531620248e-12 -8.074224515898546e-13 9.341294645342446e-13 2.2699360366071416e-09 -4.842945566344091e-10 -1.5441755414301919e-09
400 -8.103472835847985e-13 -1.0839949270378197e-12 1.2839052134532941e-12 -8.9337417294973e-10 -3.2182104614281457e-09 2.379652694792937e-09
401 1.0841313278520379e-12 5.85559484598824e-13 -3.3197759240200356e-12 -3.343244940146827e-10 1.483403775477475e-09 -3.4733834366298895e-09
402 5.825965038982732e-12 -2.1679217560282707e-12 7.672736845980373e-12 7.554323259592186e-09 2.774542961917078e-08 -4.956203816801127e-09
403 1.828162240440462e-13 -7.874074372745449e-13 3.0003931072555554e-12 -1.16492530941117e-09 4.629564757768195e-09 -9.352305263977134e-10
404 2.1680460227287745e-12 1.6233601597796574e-12 -3.3677726000155942e-12 -4.105221622748947e-09 -1.585356827012753e-09 3.003635438333526e-10
405 -3.0831383365127353e-13 -5.427449867262969e-13 -3.8710540079078665e-12 1.0605019345803808e-09 3.308942483210115e-09 -1.7821826312739844e-09
406 -5.944444605394072e-13 -1.1973045030564972e-14 2.2451871332161984e-12 -1.5967074529287698e-09 -8.277757149201994e-10 8.720534079954866e-09
407 -1.5182220271217888e-13 -4.061986616431531e-13 -2.090953482478741e-12 5.90851371222762e-11 -1.8498458259896843e-09 1.6753062395897466e-09
408 -1.626135253645993e-12 1.5790727167667493e-12 4.335535931924649e-12 4.6481001481729947e-10 -3.895979283797013e-09 3.715021158635166e-09
409 5.424048500485246e-13 -2.8158848626138337e-13 2.167978224167623e-12 5.932396986379088e-10 7.861630772304002e-10 4.135649148650145e-09
410 -1.990700075272085e-13 -6.342526573541984e-13 1.2517970499753743e-12 -1.5634073612910615e-09 3.565997205449061e-10 1.7256087969856284e-10
411 -1.0843685007064255e-12 1.2495301687214107e-12 1.7511103506103082e-12 -5.6118433634251485e-09 4.289855327968688e-09 -3.0879965916496058e-09
412 7.684700408107079e-13 -1.962019109201305e-13 2.1684012537846072e-12 -1.919628868438739e-09 -5.361769937489639e-10 1.2997982240388226e-09
413 -1.1012198320779661e-12 5.426913812831646e-13 1.099210841759623e-12 1.160291797093761e-11 1.5136887381485284e-09 1.0452044105682308e-09
414 -1.0846141043915434e-12 -1.1393399855240243e-12 3.7708647711202316e-12 -8.318291930055086e-10 -7.187176815411992e-10 5.307199045231186e-10
415 1.0778091809320805e-12 -1.5727433529575615e-13 2.1685617308134233e-12 1.3052875586783081e-09 7.010712414970926e-10 4.5766170064144287e-10
416 9.245925404617253e-13 1.8547428728079677e-14 5.833435870105173e-13 1.9286320944076482e-09 -2.289313044457302e-09 -1.1719971242211596e-09
417 -2.1679986083683302e-12 1.0835388137396967e-12 9.892078301686051e-14 -1.3842008315827752e-09 -2.691272227202545e-09 -1.7613868891109792e-10
418 -2.1682715842666464e-12 3.353325602580231e-13 6.681276859054647e-13 1.1210595624783137e-09 -2.2983263239863356e-09 2.705914110139624e-09
419 2.167424591302927e-12 5.115495038235387e-13 4.052445963112586e-13 6.749162520112686e-10 -3.1036570313313936e-10 1.8706284991773395e-11
420 -2.1681739758485963e-12 -1.084181064125167e-12 -1.5392408785894948e-12 -7.712825130749101e-10 1.7296622053138824e-09 2.309667245654679e-09
421 1.2371631201383867e-13 4.549960766379878e-13 -1.467204628916931e-13 -4.2306889447470765e-10 -1.683146669813904e-09 -5.206402742697431e-10
422 2.023421073417864e-12 -3.6120227668880783e-13 -9.071697301521943e-13 -5.73364301148749e-10 1.7519256498644158e-09 -2.0056372214706717e-10
423 -2.5184743667339445e-13 -1.248132790140681e-12 -1.392662381018194e-12 -9.53565462897837e-10 9.52893688869335e-10 1.0532207293735413e-09
424 2.2665807774908338e-12 1.6262822775759205e-12 1.048874425935805e-12 -7.288203221037903e-10 -2.9603916305529326e-09 -2.6043259958047234e-09
425 -1.0788833834707001e-12 -2.1671447108258877e-12 -8.160810256431043e-13 -2.9828568618402716e-09 1.211236195971853e-09 -7.166483745330868e-11
426 -3.1120852171941325e-13 -5.412842007816268e-13 -2.6871269160299916e-12 6.647368489011013e-10 -8.285813703389551e-10 -1.1321138003354626e-09
427 1.3188808032548676e-13 -7.823497677301945e-13 5.69760849907116e-13 -4.5799608105034974e-10 -2.0971379311022832e-09 3.1440144941488983e-10
428 7.767966387024316e-13 -1.084223621425516e-12 4.270824613826945e-12 1.995642106589177e-09 -3.5440541403781495e-10 4.662891537710902e-10
429 1.8712504621607156e-14 4.557413152846313e-13 -3.7732084347659135e-13 -2.0558558868212244e-09 -8.840252898382471e-11 -3.407072869981031e-10
430 2.913041336155243e-13 -2.167791555149121e-12 -1.5202422745438502e-12 -1.956480175782101e-09 -4.831475752077613e-09 -3.851886132429806e-09
431 -2.1729713796809627e-12 -3.6436023058307024e-13 -4.001390315221038e-12 2.0865577261122762e-09 -4.846101198762007e-10 -6.565092599218858e-09
432 -2.163004159735033e-12 -1.2840521232115487e-12 2.0725548863169896e-12 -3.2911152211728618e-09 -3.8802507804204576e-10 -1.4165257582599511e-09
433 -1.0840463180975428e-12 -5.409222916991724e-13 -4.249297854852411e-13 1.5603456566376247e-09 1.5459456545402443e-09 -3.295107555376443e-10
434 4.226536268207204e-12 -3.0063683873724677e-12 1.3010769487299933e-11 4.10806130071099e-09 8.422164250492757e-10 6.064228925847972e-09
435 1.082441794051097e-12 -4.181978377966962e-12 -1.2599555370179347e-12 1.526672249892408e-09 -3.40897173473334e-09 -1.749558039938158e-09
436 -5.421159332353216e-13 -2.4391952352065327e-12 -1.2115929845751938e-12 -3.2895032310368076e-09 1.2692157667025103e-09 -6.346351741510764e-10
437 8.805159838193532e-13 4.924094841837035e-13 -4.334689798328996e-12 -6.569397493201081e-09 -3.442542986062084e-09 -3.0182193934879344e-10
438 -7.860841367241813e-13 -1.0841111722893669e-12 -9.955929809309418e-13 -3.013391345636601e-10 -2.6414893357721915e-09 4.1791228344422475e-10
439 -1.0838957120434292e-12 -1.5621963998947644e-12 -1.3959314112214267e-12 2.376224604602983e-09 6.552759132098826e-10 -3.0115159283157587e-10
440 2.777208059856881e-12 2.166995380079521e-12 4.336272132193891e-12 -2.4712867461700444e-09 -3.1235700382320986e-08 7.651920853023365e-10
441 -9.24909911052424e-13 -9.931014979302959e-13 -2.6138507592982394e-12 -1.2587952139606998e-09 8.102348122776212e-10 -1.5117688826664459e-09
442 2.152657407947046e-12 1.7542233304052498e-12 -3.481072623351979e-12 6.735205713362966e-09 5.392902617496739e-09 2.2013564757872456e-09
443 -2.162770045521622e-12 -9.80360098462735e-13 -1.5102463832573754e-12 -1.9640204983040165e-09 -4.586119593265677e-09 -7.077464364102837e-10
444 2.167074202643593e-12 -4.592182705921387e-13 4.599210454096403e-13 -1.8715680997970043e-09 2.6659763073753032e-09 3.436603098035965e-09
445 1.8674647651505843e-13 3.99500743818271e-13 -2.1480877302430207e-13 2.758668936137207e-09 -3.2043898399198276e-09 -5.190793410303217e-10
446 1.3446277322459588e-13 -2.14714973628482e-13 -9.701494014563228e-14 1.2905487600575923e-10 2.7400856737560246e-09 1.2033575693144996e-10
447 -1.0659627074155934e-12 -1.3962905751297466e-12 3.503555350519469e-12 -4.245407657813088e-09 6.078136366066189e-10 -4.27507433119209e-11
448 4.236639968833072e-13 -1.0841075203500156e-12 2.1367614764435466e-13 3.185400875732702e-09 6.026632705879424e-09 -1.0514512772011753e-09
449 -3.913076503010214e-14 -9.469472416013353e-13 2.1637411247043307e-12 -5.837806040705789e-10 -4.607973651276949e-10 -9.429511379482135e-11
450 1.6230633515225202e-13 1.1627499658624992e-13 1.0368200815369207e-12 -1.3131897847226818e-09 -3.4374068121159747e-10 1.5108787932693144e-09
451 2.0383909266933343e-12 -2.7492482296559004e-13 2.1555764787513775e-12 -8.175810786508064e-11 1.7211086324716146e-09 4.6206359767628636e-10
452 -2.022664425299156e-13 -2.1657131362899715e-12 1.139112461086173e-12 3.041017053045825e-09 2.7105226338383527e-09 -9.3461044738412e-10
453 -1.0840814706787525e-12 -1.4591732468953375e-12 1.6097055224638352e-12 3.4559203090381723e-09 -3.7547071729688e-09 1.3590243287259714e-09
454 -1.0825261111810767e-12 -2.166617629845203e-12 7.278982049602964e-13 6.990597041775792e-10 5.540698887886007e-09 -2.791350656163725e-09
455 3.263974861356621e-13 -7.91680846724884e-13 3.984050490448964e-12 -4.3160817535583705e-09 1.485327002394236e-09 -2.9630456093779177e-09
456 3.728710101398639e-13 -9.814356702449214e-13 2.003456905139366e-12 -3.530303627863153e-09 -1.7566911994615792e-10 1.848066514137544e-09
457 1.3057683603837077e-12 -2.7764013650276435e-13 -3.309068216086707e-12 -2.5747161866295986e-09 2.2812726585208501e-10 2.320549686210043e-10
458 -9.783787035038355e-13 -9.543040021320653e-13 3.0334899998490967e-12 -5.104676703204688e-09 -1.1626569381129825e-09 -4.433274144502003e-10
459 -1.8778269085725833e-12 -1.0842125287096277e-12 3.2463333164970654e-12 -1.9096266400669694e-09 1.3430310615032629e-09 3.2011369091034963e-10
460 2.9004446075824867e-12 -6.264524959516841e-13 1.301069031489156e-11 -9.196471698142624e-09 -1.9281999068798303e-09 -5.064957525024662e-09
461 5.449989891404232e-13 -7.758989254086869e-13 2.6772341593700413e-12 -5.4528897633231985e-09 4.261019299158175e-09 -2.457142080693527e-09
462 2.1677493840566426e-12 -2.702406194040726e-13 -4.271323307856447e-12 -3.1651418643959733e-09 -6.557509029787386e-10 7.352791947225082e-10
463 1.5030530442585132e-12 1.084214253355319e-12 4.336969303009281e-12 -2.1516953632791374e-09 6.5675411787320985e-09 -2.24136755934822e-09
464 2.4122467412252614e-13 8.353566060004469e-13 4.336761436877171e-12 1.442461997937563e-09 4.336404466318674e-09 9.62179625904185e-10
465 2.3623487693175956e-12 1.3170512311526272e-12 -6.18345595175503e-13 -2.4911437671406986e-09 2.7904728892712816e-09 -1.5983220860585728e-09
466 2.1675791131487154e-12 -8.17570582505497e-13 9.737984840519821e-14 9.245004628707553e-10 4.904190760095284e-10 -2.0557989567926642e-10
467 1.0839433607968115e-12 2.09738139611617e-12 -4.056584672637095e-12 -6.699453363288949e-09 2.2010523849261284e-09 3.0791454758173833e-09
468 -4.2076088319040625e-13 -1.0842112753239672e-12 8.871341590213177e-13 -2.7473717322329856e-10 -1.747699223069903e-09 1.2631135493830063e-09
469 -1.0843895510651646e-12 -1.917474690680468e-13 -1.311678751125021e-12 -5.823626672560203e-10 -3.0919368496680688e-09 8.352484380480981e-10
470 -1.267654772783623e-14 -5.28270313211898e-13 2.1681842229389997e-12 -1.7384210778338825e-09 7.637624366224384e-10 -8.966669402844212e-10
471 2.0326319846301824e-12 9.601054344402242e-14 -3.291554735962686e-13 -3.846103774901482e-10 5.680033051625078e-10 1.4472985845968601e-10
472 1.9710899441081797e-12 -2.2800040018706643e-13 6.386251645311642e-13 -6.399310860244616e-10 7.475764640959919e-10 5.588205342007246e-10
473 2.709972961662605e-12 -8.128091736348718e-13 4.340459563948762e-12 -8.619136495032059e-09 5.169990593045653e-09 2.2324310614999995e-09
474 4.5169442870109404e-13 -1.8759887492129858e-12 -1.635500116747804e-12 -4.2483349245838966e-09 2.009616258367294e-09 1.1816976244376367e-09
475 2.166923075636004e-12 -1.6245568426849065e-12 1.057488775728404e-12 -5.143729289305565e-09 1.007787317321223e-09 -4.0682798349924955e-09
476 2.1685572046391433e-12 -4.607952995571126e-12 3.2777630158254576e-12 3.444365673767518e-09 -1.234250448238294e-09 -3.741704222398111e-10
477 -1.0841820450476894e-12 1.4556991573716097e-12 5.080586493286831e-12 1.6100046683597874e-08 -1.4382290586083832e-08 -1.3042052698535036e-08
478 1.0843804870387302e-12 1.4412780548305265e-12 -1.5388185384187677e-12 1.456499993194742e-09 7.329176112341494e-10 2.3776835734059013e-09
479 9.129954710084085e-13 -1.0840074060059563e-12 1.4539508563442333e-12 6.396576282391513e-11 9.635046611260012e-10 -3.122855359558482e-10
480 -1.8224958779275396e-12 -9.657079984818463e-13 6.553626030544163e-13 2.093660974030488e-09 2.674784122043264e-09 -2.519689950982319e-09
481 5.435679355867346e-13 -1.1827482602478626e-12 2.0557466952495548e-12 -3.236429206840838e-10 1.582617649593945e-09 6.41870185226523e-10
482 5.421870529385584e-13 -1.6263875740929416e-12 1.975183482620608e-12 1.1005699166202324e-09 -5.118481187505797e-10 1.574217880283345e-09
483 4.77043380320082e-13 -2.1677044645731496e-12 4.33686707964299e-12 -1.7310675899923053e-09 3.734960002135123e-09 2.1720313164022806e-09
484 1.0842895352032116e-12 -1.511018263582693e-12 1.6543113354672416e-12 -2.1322764958564303e-09 -1.7129033837868344e-09 -2.3807051005728025e-09
485 -1.3975960895744902e-12 -2.0048213052782127e-12 3.403538433778482e-12 2.854193646678366e-10 -5.413594847168765e-09 -2.7146805309877666e-09
486 7.95755474262881e-13 -9.158687051708884e-13 1.2556854737300834e-12 1.0805532268621076e-09 -6.982597468212963e-10 1.7356978277399664e-10
487 2.491932672317122e-12 -1.084191298731587e-12 1.7844636613387975e-12 6.049928708478734e-09 1.0934116941586583e-08 -3.5414523241572398e-09
488 1.0870680677996162e-12 -3.643270682800112e-12 4.3373132068844744e-12 -4.413551335460295e-09 -8.772214395875196e-10 3.1019449443439545e-09
489 3.234854487504969e-12 1.1094986828963278e-12 -4.337444558318439e-12 -4.399300678967356e-09 8.363390209247066e-10 -2.826908211484253e-09
490 1.0921962531661234e-12 4.680717692258145e-13 7.011996400019565e-13 1.0529588439216625e-09 1.4852159158368852e-09 -1.7539907432490643e-11
491 1.56077039936514e-12 -7.047068376796058e-13 9.141778842293295e-13 -1.891517610944403e-10 1.690852902987879e-09 2.1757680693079837e-09
492 1.4274615935292914e-12 3.6405645737335975e-15 -9.943245384450215e-13 -8.063462005946647e-10 2.058496602493249e-09 -1.7482069166931765e-10
493 -5.512650186439033e-13 -1.9898188615034584e-12 4.14960814176312e-12 1.9407888447315733e-09 1.2775934999692502e-09 2.815107566436741e-09
494 1.6909842789612573e-12 -5.421924492585248e-13 3.243511549248361e-12 -7.302718832166564e-10 -1.0306978593292217e-10 -2.693174695147553e-10
495 -2.84404525188169e-13 -2.16821094704867e-12 4.338108443237225e-12 -1.8945635807101697e-09 -4.3647490025702974e-09 1.9402444120936784e-09
496 1.0830735217946198e-12 -2.155635380890349e-12 6.827521136598061e-13 -6.650513946730625e-10 -3.9379639830270336e-10 -3.486835277945732e-09
497 7.636585134150865e-13 -1.083974711544488e-12 2.1683571731442516e-12 -9.920220778390934e-10 3.227846045252969e-10 2.019848125273584e-10
498 1.0850803641498718e-12 8.694459953718648e-13 4.337025694641939e-12 -2.3493784650281e-09 1.543115954271478e-08 1.3648521243919215e-09
499 6.501875617256967e-12 -2.1665987622896265e-12 4.336088779752558e-12 -9.982658542714877e-09 6.419111158274381e-09 1.2641293729284012e-08
500 4.0848716632132715e-12 9.299979264831561e-13 4.336515938063047e-12 -2.4271926746703518e-09 1.7722120256751773e-08 6.303153724119719e-09
501 9.987079522494703e-13 -1.6284534497986681e-12 -4.0149702158437244e-13 6.456515604787072e-10 -8.802129464164823e-10 4.1371837306076237e-10
502 1.0268409489828769e-12 -3.2474126402854517e-12 -3.851132179810721e-12 -1.4349983281587058e-09 -8.864936486420378e-09 -5.230818618797927e-10
503 1.09994489593618e-12 2.1221562820124345e-13 -9.67445880696705e-13 1.2889967105970145e-09 1.592641727362133e-09 4.1747426297212535e-10
504 2.1683907137249295e-12 -5.9589816330274395e-12 1.87558787045121e-12 -2.808260554152466e-09 -5.02327811161495e-10 -1.5397678646154852e-10
505 5.420950297936956e-13 -5.421621623462374e-13 -2.5504042622129216e-12 1.1756345323682348e-09 1.4702763200891113e-09 1.1167241028972542e-10
506 1.004620525084458e-12 -1.312690455751528e-12 1.8317851219841316e-12 7.318844619729722e-10 -1.1513295758400485e-09 4.815176073237226e-09
507 -6.393516169144884e-13 2.0092075082933646e-13 -1.9619389772197842e-12 -8.790963625340032e-10 4.992837443367294e-10 1.4668589586777683e-09
508 2.727532295158126e-13 -2.0035241451249677e-12 -1.5089909996988624e-12 2.008965982452311e-09 -3.651944408361845e-09 5.601238749450218e-10
509 -5.741994550233773e-13 -1.084311819748234e-12 9.773155820576906e-13 -1.6613710941215946e-09 4.4271804862983745e-09 -1.0451877568907065e-10
510 3.2490383901467125e-12 -1.6148970259829977e-12 4.336855844911522e-12 -3.800675605678683e-09 -2.305256645135139e-09 6.072220357625619e-09
511 -2.123426138930546e-12 -1.33433631384213e-12 6.389725493469822e-13 -7.758414479558525e-09 -6.005288029162084e-09 -3.0638928976830134e-10
512 -3.180448326758421e-13 -1.1369158522504507e-12 1.0237347174203516e-12 1.2184931498061572e-10 1.1152912620162747e-09 2.119803521211002e-09
513 8.306356468835948e-13 -5.391649368827717e-13 5.28168911862641e-13 -1.5720472493280863e-10 1.762022330651429e-09 2.2810229353095e-09
514 2.5149843753671777e-12 -2.6064290991671185e-12 2.166140344621362e-12 8.757612813717151e-10 2.47412534689868e-09 -3.337658066579375e-09
515 1.6512780266017142e-13 2.185145177048592e-13 1.9541406353505966e-12 -2.3867807778783653e-09 -1.1943729699816913e-09 6.942378761060162e-10
516 -4.645363039923471e-12 2.1665906178779276e-12 1.0980573197576497e-12 -2.3863722311081512e-09 -8.871968095982647e-09 5.874682528095718e-09
517 -5.137062407756721e-13 3.844933895134043e-14 1.606629725487146e-12 -3.293253897448214e-09 2.6869464068945217e-09 -4.9550968856664454e-09
518 8.172261524993281e-13 -7.36612726071024e-14 -3.546716432061715e-12 8.02505507220312e-10 1.3252731054801122e-09 1.9047678582173285e-10
519 2.5881050195269274e-13 1.5052649804263971e-12 2.299970016893047e-12 -1.3020453520426905e-09 5.724795423425759e-10 -1.2009431013862426e-09
520 -1.084163429085121e-12 -1.0843475733182194e-12 3.908931043608451e-12 1.3858070034888076e-09 -8.670755070889348e-10 2.8309018075047406e-10
521 2.7564585679650063e-12 -1.0842052022862179e-12 7.848612285415283e-12 -4.562896160762855e-10 2.2450142780772575e-09 -3.9834640941634854e-09
522 8.849428908453569e-14 -4.311083979572447e-13 1.5850484542417387e-12 -5.980039033942427e-09 1.1681247944496119e-09 2.206956078210274e-10
523 -1.0841582521274224e-12 -5.573316374301352e-13 -1.189866471580681e-12 -1.4213088181204395e-09 9.632407207547835e-10 1.5807616194608087e-09
524 -2.864698057245374e-13 -5.654771915347091e-13 -9.506013390599517e-13 -2.0670957192806664e-09 -5.865401679360938e-09 7.541995696024826e-11
525 -5.413952184193208e-13 -2.111377446179626e-12 -3.7462101989090497e-13 3.5842740639805668e-09 1.055538124090805e-09 1.309378520678983e-10
526 2.462660695329006e-13 -1.3553445602476974e-12 6.129301828267033e-13 1.092032690623171e-09 1.55101728218666e-09 1.6679209839413493e-09
527 2.1650135892810317e-12 4.864542336253979e-13 -2.311528172723437e-13 -2.23392353163906e-10 3.3793543827229776e-10 -5.1552892368813974e-11
528 -1.0838242756529236e-12 -3.8387519778603264e-13 1.685619152642654e-12 3.2268867588508963e-09 1.0683861561781486e-09 -8.680952414060226e-10
529 4.678979207682038e-13 4.3796093720047855e-13 1.2710416202622676e-12 9.568781986718604e-10 1.5381040403983113e-09 -5.519412464073458e-10
530 1.9693270695364878e-12 2.005923583693166e-13 -2.4553140525724616e-13 -1.4897668670489847e-11 -2.069265033903484e-10 1.7407553235061385e-10
531 5.527834378028924e-13 -5.414749010969979e-13 1.1033571283590963e-12 -1.311560431134888e-09 -5.690663660824125e-10 -5.610019452626668e-10
532 -8.08536400506473e-13 5.066129118553539e-13 1.3091807116428457e-12 -2.0152262593627564e-09 -3.251607925766354e-10 -1.164431530002985e-09
533 -3.0345227930249322e-12 2.068099720127238e-12 -2.168415705635055e-12 -1.1891567583331352e-10 -1.0579860784703139e-08 -1.6422260224470758e-09
534 2.152262215174604e-12 7.502771793052063e-13 8.145050177596412e-13 -6.25091243443564e-10 -1.019398740832658e-09 4.864375441560516e-10
535 1.0823286578925033e-12 -2.166323820186182e-12 6.55300070055873e-13 -1.6611546308317243e-09 2.096990863136441e-09 2.025292369441939e-10
536 2.3474011604540423e-13 -4.710983253653421e-13 1.9994716788316075e-12 -1.0610735294204345e-10 8.367426455631211e-10 5.755768400755737e-10
537 5.430820814623109e-13 -1.085119954217715e-12 4.3366891703168924e-12 1.6575809546801793e-09 -2.00141680384671e-09 -3.84200520339081e-09
538 2.687976337291032e-12 2.168316209735494e-12 -4.329970359816372e-12 -5.551675212357935e-10 -5.505642535875691e-09 8.373774513343468e-10
539 1.4779431483284835e-12 5.151514886611495e-13 -1.22976757118223e-14 -9.456870763162834e-10 -1.785944484474299e-09 -1.4112918742680266e-09
540 2.1695489193254808e-12 -8.899713485472678e-13 -5.396994569542008e-13 -1.443931826954716e-08 -1.0993333524329693e-08 2.9625395019037965e-09
541 7.403292488781479e-13 1.5060401371120814e-12 3.908238528878887e-13 2.5524618535948275e-09 1.9515462176277966e-09 7.32136990667348e-10
542 -2.992321726280756e-13 -1.0831833086515128e-12 -6.934418605048236e-13 2.6523935939703646e-09 -5.724527996693218e-10 7.999744346269962e-10
543 8.935689340197307e-13 -2.9312984138445285e-12 4.335755868497393e-12 -1.5208316041775647e-09 -4.2550636712972254e-10 1.4966587972079268e-09
544 9.675817133409329e-13 -2.168172068990708e-12 9.667084566354536e-13 6.369874098837647e-10 2.234037913859286e-09 8.648375873373882e-11
545 -1.6892675436191135e-11 2.1683035927197363e-12 4.3355864618999565e-12 -2.4738957286537168e-08 -6.278000536551633e-08 1.3025505722495476e-08
546 4.36138534469248e-12 -6.505744419098874e-12 1.3010626081638578e-11 8.446451267029057e-09 -1.6084545056651796e-08 -9.554080331944276e-09
547 -2.1681902950399573e-12 1.9960592983108135e-12 2.803759520510076e-12 -6.197866639939788e-09 -3.626724327128341e-09 -4.078290700977495e-09
548 4.538475882774814e-13 1.5682369975361485e-12 -2.1894724973458195e-12 2.695550163734247e-09 -1.2017838590313942e-09 -7.380063098536214e-10
549 -9.378876282800846e-13 -1.083932959826089e-12 -3.772760960520248e-12 1.3964139351177357e-09 -2.2110665883794645e-09 1.8574285394127177e-09
550 2.0123788014414192e-12 -4.336667045387127e-13 -1.489982571586966e-12 2.739083457882368e-09 7.681592411046921e-10 -5.055999045735931e-10
551 2.5589651948888555e-13 -2.6305443698961645e-14 -5.698893335198514e-14 2.7067833554161965e-09 7.310161670411127e-10 7.73093998910709e-10
552 -1.0838719169758125e-12 -1.3839734853442599e-12 1.0820181276209955e-12 2.7712125061562764e-09 1.53235271450178e-09 1.8020668551123439e-10
553 3.252163053896244e-12 -6.761133854415816e-12 5.497978954700254e-12 1.5612028179582125e-09 2.435466998703074e-09 -1.3482468310826573e-08
554 3.5197573006182905e-13 -2.4041485812149694e-12 3.1325003168221795e-12 2.597311066918293e-10 -3.771797800263301e-11 -8.440350733357282e-10
555 1.2632666052005647e-12 -2.1631956443917403e-12 -2.4526979436780014e-12 6.574585744914524e-09 -3.241870197649705e-09 -9.605780780765116e-10
556 -1.1107280988923421e-13 -5.494631881485925e-13 2.420844990746342e-12 3.5277009886652057e-09 2.030945228030987e-09 4.571903702959208e-10
557 -5.416801670194293e-13 -7.864437658814918e-13 -7.993924052584888e-13 -6.71419259331798e-10 -1.1237010399663354e-09 6.093433859601303e-10
558 -3.1135767137717464e-12 2.1670309977364353e-12 2.1694486636337413e-12 1.5109172301211212e-09 -4.383154544874989e-09 4.129705484541237e-09
559 3.6886429964613256e-13 -1.0833917682094786e-12 4.726539437889004e-13 1.3129274023337076e-09 -3.8938694004377826e-09 -1.6447618616745254e-09
560 1.1312018557398815e-12 1.0841132291195856e-12 -1.931487572089997e-12 -1.2848903702641786e-09 -2.7331452834457795e-09 -8.544591252812135e-10
561 5.419544650787918e-13 -1.7680803079219562e-12 -6.141336914453089e-13 -7.690036510796985e-10 -2.9183746881761247e-10 -1.3465117776462469e-10
562 1.9993076882980824e-12 1.7274009969920376e-13 -4.27182762105523e-12 -3.024267840296088e-09 -3.0128253855902193e-09 5.868377988828816e-10
563 -7.13525684312118e-13 5.843227394049153e-13 3.3897194695225335e-12 1.2334621750086278e-09 5.39748440302363e-10 -8.747055071724734e-10
564 1.0805318763560381e-12 -5.259221323109155e-13 1.6917411077908725e-12 -3.242168579260042e-09 1.7454767577193523e-09 9.299992981851901e-10
565 -2.1679962368521365e-12 2.167344055990707e-12 -1.2138520149712732e-12 -1.6324489284894292e-08 -2.375626363431575e-08 2.5293423788881784e-09
566 -5.080944666607423e-13 -1.5872251666351869e-12 4.336132309894959e-12 -1.7813885948695822e-09 1.2606519800906318e-09 1.63824426012097e-09
567 1.7598874575776427e-12 -1.0857034806459404e-12 -1.9459834731320155e-12 1.249121920643657e-08 5.312596341822185e-09 -1.3884630547397843e-09
568 1.7245122786049787e-11 -6.505251736669043e-12 1.3006796114221339e-11 2.0141484936512995e-08 1.576152243387103e-08 -2.4069553552139882e-08
569 3.246330888391871e-12 -7.30582367274102e-13 4.336419073494898e-12 -1.8604494936546733e-09 5.31935003153046e-09 3.207344283191073e-09
570 1.1057355543654073e-12 -4.109522628397831e-13 1.297606120486304e-12 -3.015750887040642e-13 1.936906373216394e-10 -5.617649799114167e-11
571 -1.4107823079118018e-13 -1.3817017557273708e-12 3.0275552949517084e-12 2.5468152130658247e-09 -1.2463417029837916e-09 2.0227050293058233e-09
572 -6.859882340787757e-13 4.948299886041028e-12 -1.1657209633482446e-12 -6.231869573547218e-09 5.262151109777008e-09 -2.8349811767306943e-09
573 2.1672529029409305e-12 1.8877898455313817e-13 -2.4777516489001686e-12 3.984979213312202e-09 -1.6117273233923657e-09 -4.592494392892188e-10
574 7.393833469060728e-14 2.518337366215658e-13 4.10369082046634e-12 1.752916864323834e-10 -2.2035293468030697e-09 -2.2258781204705943e-09
575 -5.96123177896609e-13 -1.084035828262249e-12 5.102751633327211e-13 1.016973480520454e-09 1.953948580201514e-10 -1.3013711991464853e-09
576 1.0840601300118873e-12 -1.083606232636242e-12 3.1599647901573574e-12 -5.010014245445416e-09 -6.6902803820354915e-09 4.4385212310473984e-09
577 1.4212092545981612e-12 5.24310633810718e-13 1.6174107017757482e-12 -1.1287485662492114e-09 3.07008762269628e-09 -1.3903160348457428e-09
578 2.1654243599804785e-12 -3.8054567934587856e-13 -7.000940643306606e-13 -6.576846178073091e-10 -3.2997033051476444e-10 6.557101113065022e-10
579 9.12535666573187e-13 -8.871153317595602e-14 4.3365548415948705e-12 5.815433510063672e-10 -1.3262269217743563e-08 -4.4628920576046224e-09
580 1.0314152280553181e-12 -2.7576924320705005e-13 1.1817144374839897e-13 -7.958369487494696e-10 -1.358815944443007e-09 2.0470251473381396e-09
581 -1.0693165725681494e-12 -1.0842949768277303e-12 -6.987860126687886e-13 1.491564466722326e-09 -3.1900397136203582e-09 3.2201549271244177e-10
582 -1.499486015666374e-12 -4.654269952487287e-13 4.3367412496505354e-12 -3.3241248945290558e-09 -4.677085526208055e-09 4.002471682899014e-09
583 2.168397624651517e-12 2.6968294949076744e-13 -4.312267498407929e-12 -4.410524686334923e-09 -3.4629965829176757e-10 1.3061268915931188e-09
584 -1.08328521890411e-12 -5.070818146745848e-13 4.3299688198652975e-12 3.517094487919665e-09 1.5230682614182891e-09 -2.0459073589843869e-10
585 2.16751900127561e-12 -1.6773412125450443e-12 3.0223064580331947e-12 2.143474762347484e-09 -2.756769178731163e-09 -2.478252736101945e-10
586 -1.8147973041279464e-13 -4.984399785182379e-13 3.341443218604572e-12 1.3504493079409699e-09 1.5341778339245998e-09 -3.833152649060951e-10
587 1.0762938202475205e-12 -5.276757067251012e-13 1.5948488605375113e-12 2.329389816000999e-09 7.462609217214483e-10 3.821603852311993e-09
588 6.098865114788074e-13 1.0808815250931388e-12 -2.2922932047057687e-12 -8.534267750285303e-10 -3.7638943819008e-09 -2.3325578571648017e-09
589 -3.1296237610536035e-13 -1.7192611819753004e-12 4.336369268411631e-12 -1.771349225299276e-10 -9.172358069012703e-11 6.213544544691027e-10
590 -2.8742223070395793e-13 4.437010092389218e-13 -4.336418007903236e-12 -8.13471161936258e-09 -4.282224615702665e-09 9.073879056095759e-10
591 1.022453453172552e-12 -1.0842472481623847e-12 1.8725527068453894e-12 1.0801351900261381e-09 5.57524395123133e-10 -1.5413097846509173e-09
592 8.107679242551883e-13 1.013108675838612e-12 -3.894813168319736e-12 -2.7606197418283955e-09 -6.931328067416205e-10 -7.070511247594344e-11
593 -1.9301194591440042e-12 -1.703739841679466e-14 2.1837175145332928e-13 1.7448659932573694e-10 -1.6741494780021948e-09 -8.353432362480275e-11
594 -1.8475978582367811e-13 -2.168416716505743e-12 3.3632170748849653e-13 5.559123387016e-10 7.263737187062219e-10 -1.819709311826933e-10
595 -2.1496816019190347e-13 8.604222837417488e-13 2.169542264531051e-12 2.8003451701341165e-09 -3.5959696658109624e-10 1.331565957461425e-10
596 1.3037120666241538e-12 5.40605979367238e-13 1.1457055273769261e-12 1.5821803145274148e-09 -3.875422851355378e-09 8.843654278816075e-10
597 1.6612593889280623e-12 -5.422628836838281e-13 6.301849600864244e-13 2.02635256889426e-09 -3.7334058383072995e-11 -5.853833687972535e-10
598 -5.415737792314657e-13 1.8969661695115478e-13 2.1486500712510363e-12 -3.602713307074473e-09 -2.311545694194343e-09 1.055139326886068e-10
599 5.036719915569282e-13 -1.0775772010850733e-12 8.063543743962348e-14 3.810694672489031e-10 -1.7156600858397217e-10 1.0710020005577546e-09
600 -1.5243138644748703e-12 1.7306912538291262e-13 4.555490953388926e-13 1.277003293231201e-09 2.1565921999413907e-09 -1.6588609785811115e-09
601 1.149585100749954e-13 -1.3526833589986743e-12 4.290364998108593e-12 2.5224319657699425e-09 1.8002539191772216e-09 -1.7420196740499118e-10
602 -2.7977898148912e-14 -2.108869260616537e-12 2.1621728791148135e-12 -1.2957427626050778e-09 4.698114346599999e-10 -1.893657467767164e-09
603 -6.015301906169587e-13 -1.0831127449796918e-12 8.558859700144753e-13 -1.9781020241696586e-09 -1.0273620185631759e-09 -5.897672836904733e-10
604 -4.4059103616939934e-13 -1.0202983127731076e-12 -4.3367829729883805e-12 3.4579137629673937e-09 1.4641942154812873e-09 1.8635696986687255e-09
605 2.1678948303813486e-12 -3.247494219386881e-12 2.1914215082041312e-12 3.5096248239821295e-09 9.180738627626781e-11 -4.639829243697715e-09
606 -1.405252066523772e-13 -7.326107599260813e-13 -4.866511548125137e-13 -7.164237939838853e-10 -1.846439867697642e-09 8.446088869243597e-12
607 1.0773277478054286e-12 -2.1678043353925795e-12 -5.048169948783077e-13 -1.5601347431071624e-09 -1.4761602988220742e-09 1.5193251824909028e-09
608 1.3869885540195231e-12 -2.1874185558259324e-12 4.242262529447855e-12 -9.071947370451912e-10 -2.1709448975711283e-09 1.3966521158149902e-09
609 1.0839948749618636e-12 -2.120623730893766e-12 -4.3798260842466127e-13 1.5772560610244775e-09 5.6350230050415785e-09 3.1143163514331654e-09
610 -2.1600655943124107e-12 1.0977382508011482e-12 1.7345161973241414e-12 -1.7528187955608606e-09 1.117423378983552e-09 -2.4792398810878402e-09
611 -5.247242492610649e-13 -7.970878253390362e-13 -1.016022848523245e-12 -2.5592701164866377e-09 -3.814196989749445e-11 -2.801129719354015e-10
612 1.0805462868191934e-12 -7.871618141187125e-13 2.167174602246617e-12 1.2181408388740257e-10 2.7462158720660937e-09 -2.3672081061949084e-10
613 -2.926326789217416e-13 -1.0838949790471794e-12 2.35250861263883e-13 6.53012507667664e-10 -2.1375237161483918e-09 -1.5916679198723286e-09
614 2.1564800338094926e-12 -9.720499679972532e-13 3.9348445227102926e-12 -1.094525226146873e-09 1.7257315867360742e-09 -4.562294562663364e-09
615 3.2526307535524395e-12 -2.9696971156188216e-12 1.3009194598549574e-11 -6.403912916667264e-09 -2.179051262261977e-09 -3.8688311593042935e-09
616 1.0584066468602969e-12 -2.1667736702586954e-12 1.7732069943316257e-12 2.6335213294987186e-10 -2.608297872727603e-09 1.2833153060101995e-11
617 1.4304875233412148e-11 -2.275176503898619e-11 1.147942820606542e-11 3.166206790309584e-08 1.908239020056829e-08 -3.425421086795073e-09
618 2.1670159188496063e-12 -1.46422293849874e-14 -1.886877232313684e-12 -4.745157467564222e-09 4.887576355161156e-10 -1.7847179272935483e-09
619 -2.168060134700012e-12 -2.1609027804722644e-13 4.336399518659549e-12 4.8585952540350895e-09 -1.0307235207195407e-08 8.151815306225131e-09
620 1.0845064722560193e-12 -7.383253852547918e-13 -4.335933685117237e-12 4.108809546318608e-09 3.324447230026194e-09 3.153383800537e-10
621 1.1280596032377184e-13 9.881600920462345e-13 3.742584010970645e-12 -4.021910431636759e-09 -2.508829105772881e-09 3.793999804316542e-09
622 2.166666391756299e-12 -1.375263019378002e-12 1.5300006238126375e-12 5.040618789198234e-09 1.031170115960406e-09 1.2975376670406067e-09
623 6.505006483965645e-12 2.4203550947897957e-12 -4.4434433114898895e-12 2.827805745262528e-09 -6.382055389314487e-10 8.984951978359708e-09
624 2.1679002693677682e-12 2.552026233508265e-12 -4.336722024428069e-12 -7.868101921341297e-11 1.1882095268737519e-09 -1.992475661475247e-09
625 1.084173586472491e-12 1.990376979861742e-12 -7.001570685933825e-12 7.0801085287124914e-09 -9.736344379751726e-09 2.601745500925199e-09
626 5.423389369670499e-12 -3.949360627757156e-12 -2.4838204725352482e-12 -5.658707281672487e-09 1.4121213599420952e-09 9.509136383478872e-09
627 -7.281383163268433e-13 -2.1651919952476833e-12 -4.2960018327369597e-13 -2.9658626009509983e-09 -7.480514168627613e-09 4.063097983621379e-10
628 4.063556399333403e-13 -4.541622866829775e-13 -6.7423305129769495e-12 2.5010514662694563e-09 1.6538214386821617e-09 -2.5321007425191074e-09
629 -2.167891382163557e-12 -1.0866803268798004e-12 -4.335111505285052e-12 -3.6699820990832382e-09 2.3279210809531232e-09 4.571055911857576e-09
630 5.896435309779218e-13 2.0853936698400328e-12 2.0131131447793029e-13 1.2596994863108135e-09 2.893419394639289e-09 -4.031628580820693e-10
631 -7.714291426700037e-13 -5.822535639812702e-12 2.2385084024423196e-12 1.4804367487017772e-09 -5.0913947191176296e-09 -3.5666809901088814e-09
632 -1.084049844476846e-12 1.7363230987444275e-12 -4.3344430252735435e-12 -2.7058006486835525e-09 1.7340196701708673e-09 6.168423282614252e-09
633 1.0224362714978153e-12 5.431799204120932e-13 -2.235333628600199e-12 3.281708677804156e-09 3.9975762731715e-09 4.104806240730878e-09
634 2.1685132710323275e-12 -3.0652779309146302e-12 -4.335848732710162e-12 -2.343605959205995e-09 -9.774875888598897e-11 -1.1579143152925297e-08
635 7.455497728098433e-12 -1.0832381130342176e-12 9.393922175136558e-12 -1.1515348124739468e-08 1.2944864456440339e-08 7.240366164251864e-09
636 2.6173321769281307e-13 -2.1685451766042515e-12 -4.336192791227032e-12 2.9344205719381857e-09 -1.8727016821775397e-09 2.1559923488979825e-09
637 -8.595086035050955e-13 1.0131287447333185e-12 -1.4768997124196103e-12 -2.8872692467092723e-09 8.333482832702477e-10 -1.1911619278228623e-10
638 4.969336210493145e-12 4.933723436317446e-12 4.336638223243028e-12 -1.4196972947849731e-08 -1.719082204382172e-09 3.78665642484889e-09
639 1.6719310866296805e-12 -4.413314040831722e-13 -1.838409475446349e-14 1.7774799970284967e-09 -1.1683137918179137e-09 -6.6024894754734e-10
640 8.143270288633543e-12 -8.741428177609062e-12 2.1653678850849062e-11 1.494960839451341e-08 -4.6799224152092356e-09 -1.4749408758129112e-08
641 2.1675865617428915e-12 -3.288219546688578e-12 4.333498323371304e-12 1.4718658400190937e-09 2.0150053220798434e-09 -7.521224409650145e-10
642 2.1670117262997942e-12 2.111408321390941e-12 -3.6045906288556517e-12 -2.56865930521012e-09 -3.1814419519870094e-09 -5.476286483006726e-09
643 6.680871214204215e-13 1.1200364945741237e-12 -1.8914988478059167e-12 1.8303414240414085e-09 8.65730386355981e-09 1.0500229014557071e-09
644 2.1677450331020276e-12 -6.214612929982086e-13 -4.535125996189108e-13 -3.9103577672147045e-09 2.536628932378129e-09 8.773874100644103e-10
645 6.503859385600002e-12 -1.273273697078883e-11 -1.160913385130929e-11 4.286661312577848e-09 1.2856142937319633e-08 -1.8320536652939066e-08
646 3.0444504166206146e-12 3.839895392282367e-12 -4.339518615118926e-12 5.175430545485183e-09 2.5748916679308914e-09 4.126528608162197e-09
647 -1.2183243351982933e-12 -1.8228515769845975e-12 4.333114395135769e-12 -1.364694629712431e-09 -3.925389395422453e-09 8.69703442123081e-10
648 1.7250181349981157e-12 5.420440536262587e-13 -6.515849679336762e-13 -2.7294060998556094e-09 -4.3709614284491736e-10 -9.744243009930371e-10
649 5.413639560294926e-13 5.450058379831275e-13 -3.8385671567235575e-13 1.3871008520277218e-09 -6.435734923048543e-09 8.778695566624154e-10
650 -1.0446951603731805e-12 1.0814474714110111e-12 1.2094329123450239e-12 7.409343153215749e-10 2.123411960895403e-09 -1.7139547644597062e-09
651 1.0835061478341822e-12 -2.4030450645362363e-13 -4.336390163627346e-12 8.750641699075751e-11 1.025803732296934e-10 4.915696025206392e-10
652 1.6489196533663072e-12 -7.691622134249553e-13 8.87414428202866e-13 -3.0926240467283787e-09 2.4277111155825843e-09 8.687224431385116e-10
653 -5.111927245092021e-13 2.167705363609451e-12 -4.3343161959776435e-12 -3.0472311294567155e-09 -1.273097786576453e-10 4.5578410205067354e-09
654 8.011550096197625e-12 1.5188004745811453e-11 3.1002162926765595e-11 2.628067971057062e-08 -1.4131831282931073e-08 -2.5123573344969563e-08
655 2.4341696114250183e-12 3.2530817287291825e-12 -4.183566237915544e-12 -5.913826804788833e-10 1.719023051255715e-09 4.370470271799018e-10
656 1.4095307573519655e-11 7.878079701432555e-12 -8.673299593398174e-12 -1.905604665345419e-09 -3.7079504477615313e-09 -2.473829443672012e-08
657 2.168523395955015e-12 1.0844703343055922e-12 -2.2078028281775093e-12 4.922694920745706e-09 -5.011794339085947e-10 3.4282954757800835e-10
658 -6.138489057596135e-12 6.505334448312033e-12 1.3011045587852423e-11 2.3725520316303463e-09 -2.5097093175107524e-08 -2.3501715925370898e-08
659 -2.710588768076892e-12 -2.1673714416209745e-12 4.3372009173081835e-12 5.090108972172413e-10 2.5291067015236147e-08 1.5737339891733704e-08
660 4.887918095648513e-13 -1.5171165151841727e-12 1.237779045346293e-12 -2.579114019641186e-09 2.7258324058347656e-09 9.70755450625948e-10
661 -1.3285677161915754e-12 6.049296256973245e-13 3.5198976175778653e-12 -4.883038321975006e-09 2.0331258823252885e-09 -1.5160739033763553e-08
662 6.974504746549083e-13 6.703625252872682e-13 -4.332397725983206e-12 -1.368341232135704e-08 1.0747183784624363e-09 2.0554892440789527e-09
663 4.053205939109666e-12 -1.6515919852019806e-12 -4.3354773256774945e-12 -7.96959575006105e-09 -1.4013575963560182e-09 3.353117458027045e-09
664 -5.411753734275158e-13 -3.2524913426685027e-12 4.331157960915587e-12 -6.092951324145897e-10 -5.818210862660714e-10 9.97420940170554e-10
665 -1.0856112957082584e-12 -1.0920013142835823e-12 -7.130998294985926e-12 5.664895166859243e-09 2.650324843352394e-10 -1.1505188693209549e-08
666 4.517279765965087e-12 7.586410298279867e-12 -8.671884183053227e-12 -7.1196733306571005e-09 9.139080033860259e-09 2.058213197715262e-08
667 3.672673380481708e-12 -5.859478390101023e-12 4.3365199810632345e-12 2.3072715862391517e-09 -7.58004239665173e-09 1.1308767462285159e-08
668 9.486051039298866e-12 -2.1684019622473426e-12 3.2117367122052227e-12 -2.5806261871917697e-10 -1.1666518780912683e-08 8.745136527150664e-09
669 -2.1665563835175607e-12 1.865387908899884e-12 -5.599334811489351e-12 -1.7547940105273758e-09 -6.679145047901459e-09 -2.4444304380268966e-09
670 -1.3136841954737232e-13 -2.166652857804406e-12 2.157044646684682e-12 -4.009193234374618e-09 6.4794441202861154e-09 -2.995998802311711e-09
671 2.081837563774503e-12 2.646680857579232e-13 -3.635548094430242e-12 -6.811044147995303e-10 -8.70324431922796e-10 -1.2942985241523807e-09
672 5.654157400337649e-13 8.688326097244622e-13 -3.4231969916714683e-12 3.5312326836930032e-09 1.291917228676438e-09 -3.8828590161109756e-10
673 6.918218200332649e-13 1.3156643391228697e-12 -1.534174474621759e-12 -2.25078996788142e-09 -1.7593427262572594e-09 -1.3986289217384846e-09
674 8.957488207987062e-14 2.165669936629474e-12 -1.4039240674474618e-12 6.892609087754376e-10 -4.505918485968206e-09 -1.407899318232768e-09
675 -3.076763234510185e-13 -1.084294602307304e-12 -4.301357764248231e-12 8.336553329052849e-10 8.050221252072405e-09 -2.5966251937337872e-09
676 1.2185227896246238e-12 1.2457356935230666e-14 -3.6025923729786756e-12 3.093245274077717e-09 2.6982631644164196e-09 6.498687615703594e-10
677 5.227865610455742e-13 -2.6859781675585494e-13 1.7515469491442637e-12 -1.0863320441834514e-09 -6.9042262118158824e-09 9.268814676598109e-10
678 1.7684972017488086e-11 7.052307798413319e-12 -3.78228137848778e-12 -3.706408210173879e-09 1.711473765397028e-08 2.119897715011319e-08
679 -2.168570606645348e-12 9.711655431723412e-13 -2.8429918220136526e-12 6.988694640606582e-09 1.1418515350366983e-09 2.368686352674927e-10
680 -3.2258882222910117e-12 -4.205230537298019e-12 8.674348084968342e-12 3.1605707823787704e-08 -1.0972586169643898e-08 1.954054934238436e-08
681 -2.0644760221364896e-12 -1.0520445004367471e-13 2.0025493412484688e-13 -3.7567115800457765e-09 -3.9574712857565256e-09 2.11523529950684e-09
682 5.000569982687153e-12 -1.0805258925818159e-12 4.337185679195047e-12 1.4807029094930562e-09 -8.899867767584772e-09 -5.09730975008927e-09
683 -1.0830602228346788e-12 2.1680111590466773e-12 -5.795629807338508e-12 -4.793275367755312e-10 1.3888107646884312e-10 -3.3885149988732206e-10
684 5.469881516468106e-13 -5.422778534580643e-13 4.3589387521748563e-13 1.2838672845523375e-09 8.713800265458061e-09 1.6296123376840854e-09
685 1.4093858394067258e-11 1.003517313352692e-10 -2.045534146414209e-11 -2.5443058068053345e-07 -3.437471095608013e-08 5.0288553210583827e-08
686 8.08183522376074e-14 3.6631248071938615e-12 -4.167922441172924e-12 2.55659888052332e-09 -7.438614784179371e-10 -2.100947477865548e-09
687 -1.2046139020464522e-12 -4.037992013100329e-13 -4.339268116295692e-12 -3.1844858080314174e-09 -8.454835929116395e-09 1.8641492043856597e-09
688 2.581249290586008e-12 4.408424032422906e-13 -4.337080804036697e-12 6.675962101914789e-09 3.78424076662581e-09 -9.337832694338829e-11
689 4.8948693821397726e-11 -1.5169935313919604e-11 8.152505960813755e-11 3.351897741914622e-08 1.0746788484692914e-07 1.5890236454675535e-08
690 1.6855784282777216e-15 1.474103843496666e-12 -3.3215578800616335e-12 -3.3817953816251003e-09 1.885911548335073e-09 6.841693624012608e-09
691 -1.0816651947652703e-12 -1.9756910065625107e-12 4.331114710279146e-12 6.652877546543338e-10 9.088297371620482e-10 -7.81166724622737e-10
692 -3.844984278658201e-13 -9.49282915807965e-13 1.8071982504788265e-12 -1.3930333157015117e-09 -1.6557221555546917e-09 -5.2763103516301e-10
693 6.50543385342725e-12 -1.4544268900168715e-11 -4.706706971042775e-12 1.6851005760301496e-08 5.645921321897752e-10 1.316937226884334e-08
694 6.833298889864088e-13 -1.6214568521048786e-12 2.6390362848414968e-12 9.820354313116131e-10 -4.4170014479600466e-10 1.8801977833466808e-10
695 2.167389027826262e-12 2.1686767921094944e-12 6.287543410114325e-12 4.672090930646365e-10 1.2236731488274956e-08 -2.8102670456824737e-09
696 2.169284055507034e-12 -2.6579855862780542e-12 1.7988691958978045e-12 -6.617677179216452e-09 -4.903524544471963e-09 -5.180199387830848e-09
697 -1.7196515882503193e-13 -1.2242910687598325e-12 1.4452802339855115e-12 -4.9879954854523696e-09 -1.5621333823767337e-09 3.2327878638180434e-10
698 2.1641633701058795e-12 -1.4040967622644203e-12 -4.1795833202333165e-12 2.786776218146217e-09 2.1076728857727082e-09 -3.5968880149761816e-10
699 -2.7092694444419306e-12 -7.0470917225008965e-12 1.61802350874241e-13 -1.5272112066006071e-09 4.908413746923527e-09 5.1465019212934176e-11
700 -5.717991687698442e-13 -5.420608155015923e-13 -4.182306487010016e-12 8.57909353941043e-09 3.5032723616441433e-09 -8.212631977942491e-10
701 -2.514992120971144e-13 2.1693366693904923e-12 9.479756609377783e-12 6.900758818294955e-09 9.261742876084562e-09 2.3443803677067152e-08
702 4.0478099358510897e-13 7.338110624985694e-14 1.5242453831866496e-12 -7.296128488224138e-10 2.7862271540065313e-09 -3.1787756383526595e-10
703 -2.1709579992290038e-12 -6.48504441016527e-13 -4.336877118169657e-12 -3.736364943389789e-09 5.344313587665522e-10 -2.1492798181267814e-10
704 2.167477959679596e-12 7.232121680182864e-13 -1.5917510899456538e-12 2.622231631616503e-09 -1.3685412104202492e-09 -7.795483486112217e-11
705 5.112973293582939e-13 -2.2909181255690287e-13 -3.903901911625977e-12 1.0126870069571162e-08 5.659414812992142e-09 -3.6008732224896e-11
706 -5.15032222506085e-12 2.169269058279634e-12 4.332016526372674e-12 2.432855931847283e-10 -4.36747275897285e-09 1.5112299296971546e-09
707 1.08298508209756e-12 1.4804218078710398e-12 -4.33704312900741e-12 -1.8992261876503377e-09 -2.942042510910334e-09 -4.901390462762601e-09
708 -9.908661388006947e-14 -7.777962845165986e-14 -2.6131158601741976e-12 1.5907814893090333e-09 1.5116852339735656e-09 5.582486012764912e-10
709 -5.448432550012736e-13 2.1680002582159745e-12 -3.988251828151761e-12 -3.0716830293781235e-09 -7.417268796402402e-09 -4.152132490636437e-09
710 1.6272050267205103e-12 2.629987430813033e-13 -4.3364951498479215e-12 1.0630076670213307e-09 -9.233896766482707e-10 -9.42986048677084e-10
711 -1.6298336209388695e-12 1.2263868337045145e-12 4.268258179127952e-12 -1.6311139679483746e-09 2.1067054398793127e-09 2.2234088134340343e-09
712 -1.6352560584146044e-12 -6.504078926202884e-12 2.4615074295974672e-12 9.723673226337537e-09 2.494637127421241e-08 2.288908050539087e-09
713 1.653620143723606e-12 -7.309802746657853e-13 -3.1604595442585973e-12 -5.26427471476249e-10 3.998168627870296e-09 1.126021204943363e-09
714 1.3670414462994022e-11 -1.0044895424270657e-11 4.337409196973293e-12 1.8454169614141346e-08 1.0411977637614226e-08 -2.1170144410918286e-09
715 -5.673144268007435e-13 -1.0842204252173969e-12 3.520791291664936e-12 2.2056905608203862e-09 -1.1196784545348925e-09 -3.099517678221323e-09
716 6.082928477126245e-13 -1.05150751326379e-13 -4.335481964224629e-12 -3.5451976779267782e-09 -1.947732291951266e-10 -4.655339040301616e-09
717 2.13131960128017e-12 1.6265878413409379e-12 -4.335876592237015e-12 2.567945862855705e-09 2.5124530196685836e-09 2.1957821667814746e-09
718 2.1674780989580457e-12 5.445109992782709e-13 -3.2290955187019485e-12 -1.1922368656844583e-09 1.8478160798403122e-09 -1.6489814514556589e-09
719 1.456949029357955e-13 -5.368300321170762e-13 -1.1551189381188331e-12 -7.999777234644754e-10 1.2338852846153455e-09 2.091753228831096e-10
720 5.514754544608795e-13 -1.020567278409475e-12 -3.595658934082577e-12 7.580764747999281e-10 -5.21575584830531e-09 -4.188575904557575e-09
721 1.0841517875210014e-12 -2.710630748776007e-12 2.6854418479165717e-12 -6.828060263858509e-10 1.8564108506813855e-10 -1.5272651946599984e-09
722 8.279036085672126e-12 -1.0841916656046687e-11 1.3009876075966695e-11 -2.632037090871335e-09 2.698125282978847e-08 1.6697253364313567e-08
723 9.757874118740912e-12 -8.067389697567116e-12 1.301216377324943e-11 5.9411398111384385e-09 -3.1306532204602714e-08 -1.6509183129618922e-08
724 -6.5051603476342e-12 1.3348658174152748e-11 -4.337048121616147e-12 -3.496018187483355e-08 -4.929775180395931e-09 1.3532600073809686e-08
725 -5.35011914043373e-13 2.9981459824898315e-12 -4.336766357024227e-12 4.3884856560091415e-09 -4.450840680653808e-09 5.635388644341802e-09
726 2.7050669361865153e-12 2.6901724100246954e-12 -4.335221629014259e-12 4.5500250785791364e-10 -7.826176473585855e-09 -9.532533569378798e-10
727 1.3630140576748283e-12 -2.714947351388834e-13 -1.706327726435304e-12 -1.0177974238647078e-08 -4.224740794289496e-09 3.680530975193328e-09
728 -1.6397906471087479e-12 2.466989160665047e-12 -5.836966671305243e-12 3.6559007029895143e-09 -3.8753492354206055e-09 1.0204069359777603e-09
729 4.063747973638691e-12 1.0835214106261728e-11 2.5534254203329255e-11 -3.0505896779565835e-08 2.177892001840012e-08 2.7949688669818185e-08
730 1.084222935078418e-12 7.111735509184962e-13 -1.7042072666773075e-13 3.7326326764185185e-10 -1.3139430908775667e-10 1.7612894272188198e-09
731 1.084379796584097e-12 2.5416171130717968e-14 -4.333447481532863e-12 -1.1294805802561845e-09 7.684246012360801e-10 8.561590400412057e-10
732 1.3050507580955116e-12 2.1675565128198807e-12 -8.46936791620807e-13 9.714662089342892e-11 -3.881056542711262e-09 5.431057391870371e-10
733 -3.8360632617924337e-13 -1.0836025883335862e-12 2.954647825831855e-13 2.059306848714139e-09 7.758368710516861e-09 -4.345919681286494e-10
734 7.740175091254216e-12 -3.5928805904182018e-12 4.334371981051882e-12 -4.259408024976322e-09 -2.1551794964868947e-09 1.3733224561930295e-08
735 5.116206509315406e-13 -1.6801252603804793e-12 1.0616485866159004e-11 -2.158098442852297e-09 1.0862710102052617e-08 -1.216563653367685e-09
736 1.0842156791765166e-12 -2.974538076071263e-12 7.250686547188583e-13 -2.7993474229730525e-10 2.635363356991889e-09 -6.444131386245804e-10
737 -1.1400906163097784e-12 -1.0841464952935382e-12 3.0630476697460935e-12 -2.7104822080120406e-09 -2.618404521837385e-09 9.589949712778774e-10
738 -2.8970105310920013e-12 2.1690964861891596e-12 -1.6781231150497635e-12 7.966771962280534e-09 5.988527625198053e-09 -9.878841280869874e-09
739 -2.1675640242246006e-12 -2.970348412304508e-13 -3.4219369975763618e-12 8.168548674841926e-09 1.7908171308528204e-09 -4.015106538795559e-09
740 -1.216058558152501e-13 2.5882941199160046e-13 -4.33679178776649e-12 -3.7258938276087676e-11 -1.4480566560479933e-09 4.511742278109721e-09
741 6.92438925638464e-13 -2.1634835678466746e-12 -4.335537068023359e-12 -1.4128419619030389e-08 1.35873186407972e-08 7.590837102466321e-10
742 -1.6260271183424712e-12 -1.083497601659947e-12 3.753905872587875e-12 3.0972139362040802e-09 2.077111590031981e-09 -1.5013762824681345e-09
743 6.849824784932377e-12 9.32337631079251e-13 -5.848683534344377e-12 5.068435422954415e-11 -8.301038130691943e-11 -8.497305169759546e-10
744 -2.436377515980533e-13 1.7079525884623296e-12 2.142853342219316e-12 -3.6157675980639717e-09 -4.659491025949545e-09 -6.686399601387061e-10
745 4.1399340827393186e-13 2.1681759194303557e-12 2.6114387399205798e-12 -1.3124134844349943e-10 7.67729874265466e-09 -7.929895449710134e-10
746 1.9850026479952535e-12 -1.0843373099512179e-12 -1.7485743266346175e-12 8.016071063044639e-09 -7.285406069183864e-09 3.9323139854968406e-09
747 -1.0341411916312168e-12 -1.5458918618273495e-12 1.813515824750908e-12 -3.2581843530162766e-09 -3.064759730293106e-09 -6.526390434382392e-10
748 2.703784865630225e-12 -7.525899333880943e-12 -4.601885384118539e-13 1.1617410771752025e-08 9.797856018571699e-09 5.313559951750702e-09
749 -1.0825481229888412e-12 4.313465352444092e-13 2.8514590346119955e-13 -2.02210114554087e-09 3.0964634457024155e-09 -3.9283736490269715e-10
750 1.3361817631557647e-12 2.204249416839886e-12 -1.3477066611636e-12 -1.1237379404630251e-09 -1.4098969164906623e-09 -2.6912767096389066e-09
751 9.38320303722685e-13 -1.0841694967653168e-12 3.7178703530666425e-12 -3.221169747920085e-09 -4.062690176495382e-09 -1.1819370656258488e-09
752 -4.340788595479942e-13 2.0039441904456593e-12 -3.3508811874497175e-13 -1.7668267072873962e-09 -2.2225330004750125e-09 -1.7318843915601008e-09
753 2.168564592248387e-12 1.4473078743392911e-12 -1.16954210327218e-12 2.9312932897578368e-09 -4.141730771530205e-10 3.566974502246746e-09
754 1.0841977914713407e-12 1.0849517581707475e-12 3.235173366697877e-13 -2.1992804834508035e-09 -1.4952372852319961e-09 -1.829880866126773e-10
755 -2.317074866398033e-13 -1.496823466317614e-12 4.10769170814938e-12 3.029906385571322e-09 -3.09270898432658e-09 -6.420437693156248e-10
756 1.7012976364381609e-12 -7.150540322383414e-13 2.3607962589211583e-12 1.6364779158967327e-09 5.3399866921416726e-09 1.947284256595595e-09
757 2.1687244427781682e-12 5.63149123825628e-13 -4.336301641352695e-12 2.64799395805697e-09 -5.124275326015628e-10 1.7450712366557448e-09
758 3.2482954737824612e-12 -4.594476556404576e-12 4.33722347037569e-12 -3.885661959920034e-09 4.2195368195116586e-10 3.234363592793889e-09
759 3.25183967747952e-12 1.082930152896127e-12 -4.3345084622057505e-12 -6.270388995438385e-10 -1.7056050023004146e-09 4.116254679815656e-09
760 -5.402273823315893e-13 1.8143340879275491e-12 -3.583661629535781e-12 6.045839319367491e-09 -4.454547143606323e-09 -5.499510806909039e-09
761 -1.3616779155536422e-12 -4.67781395076259e-12 4.335166022210351e-12 -1.7662269696149588e-09 -3.039497736560453e-09 7.301311438762014e-09
762 1.626361374110289e-11 9.429712046992518e-12 -8.673619944293493e-12 -9.376908151964951e-09 2.2023935451425443e-08 -2.143054522260154e-08
763 3.2528963058498826e-12 1.3120769085134935e-12 -4.336006934658297e-12 -1.882927923937506e-09 4.2080946559319175e-10 5.323029852731121e-09
764 5.970583481032484e-12 -5.4245874328037254e-12 1.3009994090027692e-11 7.814548424828735e-09 -5.850567356922018e-09 -5.599125465130913e-10
765 5.339028075424689e-13 2.164146988898553e-12 1.2413745250213393e-12 -1.738677780409558e-09 -2.677173093474761e-10 -5.36123551063896e-10
766 1.3220893090152144e-12 2.418035944896624e-12 -3.4705481537249374e-12 2.660331076074069e-10 -2.005781682656346e-09 3.0819257158590597e-09
767 1.0841079029743423e-12 2.4668052891094287e-13 -2.0557357430199126e-12 -4.2536748216180784e-09 -2.0555235299068203e-09 6.466371762139562e-10
768 1.5683376133318785e-12 1.6262808123341423e-12 -3.2079454600824133e-12 3.5211337268149407e-09 1.514859614458797e-09 2.925402362686371e-09
769 1.9313941084670537e-12 3.411360116039474e-13 2.1415429104083396e-12 -3.1633144986670047e-09 4.767442503503407e-10 3.178495559740229e-09
770 -1.1666778885978664e-13 9.48072572323784e-13 3.834266168652341e-12 -2.439864831018341e-09 -5.161916477929979e-09 1.6742926894127944e-09
771 1.6204473387970406e-11 2.614388885873226e-11 1.0325993719614718e-11 1.3265818618396934e-07 1.4732264114078264e-07 5.989193906067701e-08
772 -1.0839192980919368e-12 1.2655162310856949e-12 4.2141063353670995e-12 -1.2507674494836768e-09 3.14777254337022e-09 9.556667978409119e-10
773 1.1235301799163228e-11 7.588624505729142e-12 1.0821339568266777e-11 -1.242962419739862e-08 1.0945922032682712e-08 -3.0959122461456256e-08
774 5.609977639459327e-13 1.0844387463378891e-12 -2.037630344467699e-12 -3.7863451643450795e-09 -3.0425863303451046e-09 -6.497447026387535e-10
775 -6.669827234243051e-12 5.70857515214718e-12 -4.336889415935408e-12 -1.4483241604083912e-08 -9.762656300303925e-09 1.0394417890283531e-09
776 -1.4460406721236235e-11 2.421446451904837e-11 -1.7059359890934197e-12 -6.199669778674421e-08 -2.7125901052830665e-08 -1.4187720060287785e-08
777 2.0232571118923486e-12 -5.034072572673454e-13 -1.4702072969114713e-12 2.4388130345080337e-09 -5.879663436285874e-10 1.6142092226652318e-09
778 2.1611170218737386e-12 1.0830613059223387e-12 -3.8538341093759936e-12 1.9653274200830497e-09 -3.5458644159286102e-09 -8.604184535394732e-11
779 6.77601986255589e-12 -2.1689411310790316e-12 1.3010422446104392e-11 2.5721388351178945e-10 2.8197451160996802e-08 4.891351978010509e-09
780 7.175344678044317e-13 -1.0835815863768957e-12 -3.6136095582688347e-13 1.6839746596137433e-09 1.430230855263056e-09 -1.6585229037722824e-09
781 -2.0674143564282524e-12 -9.331469506527578e-13 2.9576427734095925e-12 -2.547116913469182e-10 -3.771593485286175e-09 -1.2292328262499418e-09
782 -2.7149122354933507e-13 -1.0084492879269159e-12 1.1401539277386672e-12 -5.65548064085836e-09 -5.422493351259867e-09 1.2631285442890951e-09
783 3.4243468886146875e-12 1.6616093025329585e-12 1.650597242153193e-12 2.3199187119569094e-09 1.4431169617012016e-08 1.1678869654719942e-09
784 2.8164996846993383e-12 6.504716601952579e-12 1.3010935126995628e-11 1.6627673674977175e-10 2.3000708828843178e-08 -6.111286731464393e-09
785 2.1066657656249037e-12 -5.420647079448405e-13 -4.897024706238882e-13 2.810333153104459e-10 -2.1785657177036757e-09 1.8148658598894778e-11
786 2.70967180584374e-13 -1.9413359743155912e-12 4.4762260171393105e-13 -4.0670276176308005e-10 2.0369626231322683e-09 8.108917078233161e-10
787 2.1669476851059794e-12 -1.2642105523408977e-12 -4.257047105559358e-12 -1.207047982642735e-09 -4.4930546766097106e-09 -4.649267428560222e-09
788 2.168674527171542e-12 1.132270072586101e-12 -4.335660219547926e-12 -3.5011466860278865e-09 -1.1270405231885109e-09 -7.915267717226607e-11
789 1.8981325141254474e-12 1.547094374184677e-12 6.958342739063593e-13 2.471051138280748e-09 -1.4709274653598815e-09 -2.89161215336359e-09
790 1.873796821860133e-12 1.202630997599438e-13 1.3264467149801462e-12 -7.995917964340567e-10 2.9484080032490384e-09 -6.412720131505381e-10
791 5.943423674773298e-12 -6.5049391854310035e-12 1.3009671525687467e-11 -1.1124300438151357e-08 1.0132073548965397e-09 1.1027930038649758e-08
792 -2.856803945636594e-11 -3.577876713154335e-11 4.294998686667202e-11 -2.231720969695872e-08 -6.885850507093187e-08 -2.9307980108164874e-08
793 1.3216314802312875e-13 1.2455858650527811e-12 2.4819048073465663e-12 -7.209655054171686e-09 9.170770004424803e-11 5.341915102314138e-09
794 -9.92149313021408e-13 -1.5178490982023915e-11 -7.14689158770589e-12 4.4485299153077055e-08 9.500389464220002e-08 -3.6040516617394007e-08
795 -2.1682017915934493e-12 -1.0327216708366328e-12 -1.0786695674968717e-12 1.1006246941790255e-09 -1.7747979278700473e-09 5.086392021788019e-10
796 9.753762660700532e-14 3.601490155809635e-14 9.12248562479871e-13 1.4374687827132675e-09 -6.047284430922649e-11 -3.419285948970613e-10
797 -1.5215347627260447e-12 3.6368533832735325e-12 -5.370924018791407e-12 -7.100640927756713e-09 4.919169638535326e-09 4.171303727016344e-09
798 2.1674993551706453e-12 1.0847572885707013e-12 -2.716312187734516e-12 -3.7069663530901137e-09 -1.3636985104576755e-09 -1.6540096999913449e-09
799 8.161482932792589e-12 -6.825715030069175e-12 4.3372863588202724e-12 1.2235711710686534e-09 -9.44506473409737e-09 -1.2761735640262767e-08
800 6.049179868084058e-13 1.359700896451779e-12 6.124845802245514e-13 -8.990941015171524e-10 2.134306978785883e-09 -1.7539566801517565e-09
801 -2.795837689150938e-12 4.366369286055443e-12 -7.2731266003977444e-12 1.4449515501859535e-08 1.707974974716376e-08 -6.7746033286292806e-09
802 1.2163615988315815e-11 -3.831238447549473e-11 2.602366000583046e-11 1.736000114468208e-08 1.1262857841734623e-08 9.25452200192971e-08
803 -1.0846869260130845e-12 1.088227035250177e-12 -5.8929407421844774e-12 1.6156489711436137e-09 4.013353917167404e-09 1.967328502395006e-09
804 1.9624507938999825e-12 2.5545372372831573e-12 -8.431482814431053e-12 1.7754690700364709e-09 -1.896394447452684e-09 1.4828388847366442e-09
805 2.1671012754418076e-12 -5.038804846728954e-14 3.9301044812139504e-13 5.574625719313927e-09 -6.320712714603176e-10 -1.063896163880961e-09
806 5.018222845336316e-12 -7.338515103647248e-11 5.491029708196196e-11 -6.410853651071022e-09 4.1502271168343994e-08 -1.1609248527078607e-07
807 2.1689813347359654e-12 2.1823785713680606e-12 -8.665075665116193e-12 5.785956909344151e-09 -6.113493205855971e-11 4.468398731860725e-09
808 -2.7674865864383276e-13 -1.0859934242492187e-12 2.9351848997617853e-12 2.229874648452039e-09 2.2143907478336054e-09 3.032075711413345e-09
809 -8.249954063076928e-13 2.5484198572592866e-12 -4.336299224974331e-12 -4.852716485109188e-09 6.203559836778386e-09 -9.67227504174683e-09
810 6.941440841065906e-12 -2.168200380850076e-12 8.673381650520797e-12 -1.0852575520713087e-09 -1.3796476924162136e-08 -8.90843507748829e-09
811 -3.493188773238039e-13 1.0951592108981865e-12 -8.66598293784794e-12 2.7570784068911656e-09 4.207882151052035e-09 1.929069322580464e-09
812 1.3054466186187512e-12 3.685838196810229e-12 -4.33603618643017e-12 -2.077985385664483e-09 -2.2495892859935286e-09 3.1521753804879467e-09
813 -1.0841833612530473e-12 4.6477258868349824e-12 -4.335924278481152e-12 5.299301260689364e-10 -4.326122547739404e-09 -5.6669874002504534e-09
814 1.5822352577387708e-12 4.949692220334672e-12 -8.674168452579167e-12 -5.659482834445316e-09 2.550038455141587e-09 -4.666343108092714e-09
815 1.0805301059640018e-12 -1.0826021128018879e-12 -2.5438148231402437e-12 2.4806011826887326e-09 -7.00030464659659e-09 9.579534434931653e-10
816 6.815549843193925e-12 8.404028841710228e-12 -2.630057818259149e-12 -5.895610986628724e-09 8.21889009600069e-09 -6.466507160165652e-09
817 1.9041200268839012e-11 -2.169722617711428e-12 3.8044355528040894e-13 -1.062549667424038e-09 -5.053599403342017e-09 -1.987766456243984e-08
818 -2.168068659694069e-12 -1.0842164553224298e-12 2.8867383335573e-12 -1.1307727353508934e-09 5.436652440088433e-09 4.735244341763125e-09
819 -6.503805038644281e-12 6.507183894271708e-12 -9.237348867259215e-12 4.013061172197581e-08 7.060642863040673e-09 -4.289493194096658e-08
820 -3.138532747001819e-12 2.947896137016561e-12 -8.673787449985164e-12 1.3305893664994566e-09 -1.1911125650554426e-08 4.808191989487029e-10
821 -2.8682896752379916e-11 2.0897237802581245e-11 -8.720494607481607e-12 3.344784096822369e-08 8.422459134665928e-08 2.333142455797296e-08
822 -1.212068561308415e-11 1.0610631092658281e-11 -1.1091150348774085e-11 9.97389619559493e-09 -2.236067541879561e-08 -8.000257122719081e-09
823 1.895533885959301e-12 1.624781527543667e-12 3.2306087482561875e-12 -1.1550844275705583e-09 -1.3497099981028927e-08 2.3938687747624777e-09
824 -8.110702074696783e-13 3.2422961564618e-12 -1.3613336432200356e-12 7.642441969266643e-10 4.369193103267656e-09 1.1909223075433032e-09
825 -2.455134558640669e-12 1.0500260004496845e-11 -8.674085023393647e-12 -1.1002042274266806e-09 -8.349292758302227e-09 4.378309881237657e-09
826 6.361420347662163e-12 2.3110404887194348e-12 -8.672011342021612e-12 -2.088063066994072e-09 -8.134546097304179e-10 3.962894594637995e-09
827 5.413360040545964e-12 -6.23173295949215e-13 -8.67319058185502e-12 5.513918549907992e-11 -5.0390669892210114e-09 8.785763770823236e-09
828 1.806136972827316e-12 -1.0842025377151764e-12 6.032332508568305e-13 4.223336695468215e-09 -2.9335452985343313e-09 -3.344314806691016e-10
829 -5.417896926730988e-13 3.797246523202659e-12 -8.662692389844024e-12 3.633205846330031e-09 -1.2869765471406645e-09 1.5563456018931316e-09
830 2.167922952183454e-12 8.193571495781444e-13 -9.902755483765732e-13 5.762595130328148e-11 -1.6304159853466202e-09 6.263739688334506e-10
831 -7.592353479839154e-13 1.6229061772195193e-12 -5.787080151662526e-12 -3.0852958460934667e-09 -1.7143026383153676e-09 -1.0244560604161613e-10
832 -2.1658242254127096e-12 1.0586182914419823e-12 8.394860148069085e-12 -9.438259721652857e-09 -9.601498280498331e-09 -7.786187916228062e-10
833 2.1722640829713047e-12 5.4206491056967806e-12 -3.7887778982678866e-12 -1.0839982611482919e-08 -1.9681524718943117e-08 -3.953132595747022e-09
834 1.793516868416286e-11 -1.2160330021106392e-11 8.671270598601465e-12 -8.632292683016382e-09 -1.6810023777123474e-08 1.0174367739792247e-08
835 -1.1871657942073308e-12 3.5562726424733112e-12 -8.662637817171413e-12 1.8118001046637817e-09 -2.754244409048477e-09 -1.1544745108876187e-08
836 4.7641182421001645e-11 7.719841700938843e-12 8.673824066714628e-12 2.415741545742703e-08 -3.405316430397472e-08 -2.145933851042622e-08
837 6.506237459741705e-12 3.253270014271355e-12 -4.335805577713539e-12 1.5920368709903671e-09 5.587010461036622e-09 3.2029293614881896e-09
838 2.249365905715281e-11 4.879307711731269e-12 2.7829137484456522e-14 1.4341264263298935e-08 1.5639934036645517e-09 4.0145628303684626e-08
839 5.420072620988419e-13 2.1577969786206057e-12 -3.475860449782063e-14 -1.6661260936155763e-09 -1.0640107612846672e-08 4.947859290480341e-10
840 2.1689404720736544e-12 1.150727879904729e-12 -1.409996923844544e-12 -4.3593617601033e-09 -4.026398789715472e-10 -2.440890413962198e-09
841 -3.7666992376752257e-11 4.1199936735402086e-11 -5.140605961885122e-11 -7.556079086642672e-08 5.7434640414413485e-08 5.198234428698473e-08
842 3.3611560954960304e-11 1.0844397263765283e-12 8.673509295689445e-12 -2.0138954949040795e-08 2.704795645821922e-08 5.151999227899004e-09
843 -1.5092380575735666e-11 2.5722163273830414e-11 -8.671811220868375e-12 -2.3401796160794605e-08 -2.540551460055585e-08 -3.5842697730396184e-08
844 -2.1731377707387566e-12 8.217069134416254e-13 -8.67288844070262e-12 -8.934466767282887e-09 -7.399659001753016e-09 1.915168760654543e-09
845 -1.6639612494754255e-13 -1.470197980631474e-12 -4.335208887357643e-12 -5.5684739072449105e-09 9.788430044939559e-10 3.695601105607023e-09
846 2.1679974836167043e-12 3.595736712644192e-12 -4.334996737952734e-12 -3.2827126052744543e-10 4.935440639348267e-11 -1.0832091883473921e-09
847 2.9954035568314466e-11 6.505599550552304e-12 1.0712153053911855e-11 -1.6300680334042394e-08 3.4072276151033595e-08 -8.19092313798892e-10
848 -2.168828836892998e-12 -3.818693745442469e-12 -4.335803852120122e-12 -5.776298882776511e-09 -8.570927477232132e-10 -6.099179262886166e-10
849 -1.0841719364443766e-11 8.783134302285111e-12 7.985433566076051e-13 -1.9028522436246682e-08 -1.7283295123114573e-08 1.3484745186492891e-08
850 2.1611686725584644e-12 -2.128635701882542e-12 3.397034396814049e-13 -1.2905633611360017e-09 -6.818484308325531e-10 -1.8837149538609993e-09
851 -1.0847103323128046e-11 1.4018592224283042e-11 7.302682539437253e-12 3.4720349696970647e-10 -5.52351856246733e-09 1.9972767770782477e-08
852 -2.5458714220669052e-11 -5.854675229007828e-11 4.978606023500677e-11 1.1027156825841237e-07 -4.679743105219336e-08 3.0785854753157075e-08
853 -2.0965239345917944e-12 1.3373314713559634e-12 -8.67093612745406e-12 7.565100244693e-09 8.813729959145158e-09 -4.42907704042136e-09
854 1.0839103521907713e-12 1.0026765881310988e-12 1.0205329271693318e-12 -3.9230478956838365e-12 2.2900974199169232e-09 7.36947412238993e-10
855 8.672006589068337e-12 3.122961634473529e-12 -5.465906933276887e-12 -8.156441968644293e-09 -6.646095083884207e-09 9.106866152855554e-09
856 3.116223545540279e-13 3.7679361129051884e-12 -8.67166953227981e-12 -4.893228135404884e-10 2.1950417970855044e-09 -1.4568343251456264e-10
857 1.7569397016351864e-12 -1.5507920756273364e-12 -1.206246857159402e-12 4.069024144248532e-09 -1.333208520403282e-09 -1.2301114838997142e-10
858 1.441881832602326e-12 2.7100756127290773e-12 -4.3371688051413034e-12 1.6848421854650706e-09 -2.2926887874657403e-09 1.5232976704419521e-09
859 8.231944665581317e-12 5.591362456528647e-12 -8.665510988504756e-12 -2.9935941424787045e-08 -6.2146946599622275e-09 -2.9609001747443284e-09
860 -9.945512940999166e-13 2.1697060909672057e-12 -3.6051779133947414e-12 2.2412548097695103e-09 -8.745672295512607e-10 1.1765895948404868e-09
861 1.0374161136943394e-12 1.0840455847634546e-12 -5.441115065102734e-12 1.0596202261387227e-09 1.947379778493965e-09 3.4374261459525654e-09
862 2.5753554148173924e-11 9.761556575095972e-12 -7.500360768879568e-12 -9.415776988091623e-10 -1.2521360162765357e-08 2.8179343306597853e-08
863 3.499063314783073e-11 -5.675105295481067e-12 8.673501081423776e-12 4.411214200009541e-09 4.908463884254095e-08 2.7314667475153584e-08
864 1.1323540677648392e-12 -2.4461192067188075e-13 -3.119114773075566e-12 1.1326117690103834e-09 -4.130685624569781e-09 1.3065837166180953e-09
865 -1.0832455039166557e-12 2.061856015812106e-12 9.834950911638386e-13 -2.7637011887585867e-10 2.7796004365122145e-09 2.9884565151272945e-09
866 -5.207497519905113e-12 5.441192791001103e-12 -3.443629013585734e-12 -3.206620603241575e-09 -1.2121919206243394e-09 -7.872124205517924e-09
867 9.527912011965076e-13 2.1607141137584607e-12 -1.504507647350756e-12 3.5011404301738794e-09 3.4681959730956075e-10 -2.361085552607089e-09
868 9.456164910984991e-12 -4.316320965372156e-12 -1.4671730690515046e-11 2.310896283650675e-08 5.711619952052408e-09 2.0144271832469945e-08
869 2.7101898867964814e-12 -5.810436421800514e-12 -2.0336503982420337e-12 1.0115240455128048e-08 5.092820233748055e-09 1.9072858686958256e-09
870 -4.598164055229793e-13 -2.0200789131933574e-14 1.310321497007787e-12 -2.331608564394742e-09 -3.3046736620457985e-09 -5.67512389173997e-10
871 1.4359578632651999e-12 -1.9187368737268585e-12 5.717485582549791e-13 1.6945753195049394e-09 -3.2241348171940744e-09 -7.921984723958695e-11
872 -3.1068009556937247e-12 4.8107029902563215e-12 -8.669336248710875e-12 6.55654920546909e-09 -4.222844292658689e-09 -2.112509684621453e-09
873 -1.0842046054527935e-11 2.0924215366219722e-11 -8.67543961670317e-12 4.6257962778646595e-08 3.642647930245894e-08 1.522627936521848e-08
874 -1.1226303901121025e-12 3.329569165023718e-12 -8.666009402208964e-12 -3.6957243398125754e-09 3.0391626309549804e-09 6.448944326609635e-09
875 4.5914706179843165e-12 6.470102199075907e-12 -9.776067633989564e-12 -2.5865328151022208e-08 2.346123039624975e-09 1.4601590939897615e-08
876 5.7865152013147534e-11 -5.224640577448922e-11 2.601954479592887e-11 -3.590212730029354e-08 9.181759032710629e-09 7.31522698611395e-08
877 -1.2925718227484346e-12 2.562022937043647e-12 -4.3359055978502575e-12 -4.735546210315665e-09 4.2817967508103843e-10 3.9046522013019885e-10
878 4.0116870738468124e-11 -6.382080766842061e-11 2.6017971919283312e-11 -5.704077755614094e-08 -1.7688759317589642e-07 -1.0087842063890143e-07
879 3.795248463065203e-12 4.4909367741483875e-13 -4.336169871398148e-12 -7.311820161839514e-12 5.775538405219013e-09 1.5868119604760784e-08
880 2.1473275785446564e-12 4.507350909712606e-12 -8.673007531840589e-12 1.6097708581459633e-08 2.5737770233944915e-10 5.072199124884396e-10
881 7.040871557161985e-12 1.1317400741096733e-11 -8.672441849911022e-12 3.40678096455606e-09 -1.3862932986902068e-08 3.8677406317777334e-10
882 2.1684223356120312e-12 2.5591700259888378e-12 -8.673190621922211e-12 -3.610609048632221e-10 -3.011597018571574e-11 2.1809797628107012e-09
883 5.418581572866588e-13 1.6198749055574281e-12 2.789870568815662e-12 1.0583642875371269e-08 -2.181362944700145e-09 -3.2598573918969862e-09
884 2.1684301075623375e-12 1.7780920513705754e-12 -7.602704672776874e-12 3.960905343131127e-09 1.6403542640423138e-08 2.3479778589865646e-08
885 1.0841715738187471e-11 3.640826506240066e-12 -8.670787651687342e-12 -3.0568058782099615e-09 6.7946785369310045e-09 -2.5924804171009048e-09
886 -1.6270405454104613e-12 -1.0867622665683683e-12 4.336568939252079e-12 -1.9953664873713112e-08 -1.2256059050036868e-08 -1.4815655517910147e-08
887 -1.0846377101517138e-12 3.24211157501012e-12 8.672428930687521e-12 -5.125748189680367e-09 -9.473879339349952e-09 -1.8103274959048895e-10
888 8.590858749393361e-12 5.683663111027029e-12 2.1787719221732088e-11 -3.387493712905479e-08 -8.1165188714033e-08 1.0528833376204562e-08
889 6.173749923999831e-11 -5.952512997793238e-11 1.1227283828515485e-10 -1.558446309576742e-07 6.8760804937166e-08 2.00366620498886e-07
890 2.1661740952286996e-12 -1.1146116788205447e-12 -2.4438968484423433e-12 4.418236869952231e-09 2.6337321448563432e-09 3.732169347757406e-09
891 -5.432869535747768e-13 2.1145589566171303e-12 -5.290665282320713e-13 -1.0590263260882838e-08 3.7679390687476264e-10 1.2661327438085917e-09
892 -2.1296132166720223e-11 2.3761416213177e-11 1.5504302391459283e-12 -4.802927981594533e-08 -7.234234802676781e-08 -3.385357416146839e-08
893 6.298849221523395e-11 -5.939209671741501e-11 3.987320156003975e-11 5.93387630403209e-07 5.094598020296515e-08 -1.7268532252296335e-07
894 -2.16824808410856e-12 -2.2671304538425315e-12 -6.234551005008381e-12 1.2546162590630614e-08 -9.043774433926926e-09 2.7890583153930005e-09
895 2.3726036062388086e-11 9.694897465922097e-12 6.7592311403352725e-12 1.1335593256641683e-08 6.922190546861608e-09 2.9485045949067962e-08
896 -2.166251868850927e-12 6.2006389378666804e-12 -8.675256876698425e-12 3.225323973806535e-08 -1.7464421137859837e-09 6.219478271393201e-09
897 2.1669511689254352e-12 -5.6980423851572056e-12 -8.670737185269858e-12 5.109388922118611e-09 2.916160401021438e-09 -3.76735267341209e-09
898 2.574024743525153e-12 5.7670926617038295e-12 -8.673825412881086e-12 -1.1723445460319082e-09 -4.637437382867335e-10 1.1440135533655417e-08
899 -7.478366366662124e-13 1.084391608380469e-12 -4.283722559007317e-12 6.195914214835103e-09 1.7141850453726928e-09 5.61151434461565e-10
900 2.6491081035630172e-11 -1.2194653413924532e-11 -1.0963542372549541e-11 8.67086657642434e-09 -1.5022579924999563e-07 -6.401610942440622e-09
901 -1.0842977744143952e-12 1.969958246151252e-12 -3.9663883249813265e-12 2.9293464404952274e-10 -2.2735014511513065e-09 -3.1979040668058777e-09
902 -1.9258233639123437e-12 1.0857296357637593e-12 -2.8938162148536977e-12 -7.67326129959019e-09 -5.067547924612682e-09 -3.046697164287141e-10
903 9.761995388966552e-12 1.4844110032380049e-12 -3.395475127379531e-12 2.452961564424049e-09 -1.891184556388957e-08 -7.898305428577097e-09
904 3.307293808571528e-11 1.1100098235392854e-11 -8.671130715610637e-12 -1.6094730096429145e-08 -3.4817720306373127e-09 -3.590388310325426e-08
905 9.572492570792215e-14 1.0842838946420441e-12 -7.669582995464127e-12 -2.093966888369245e-09 2.1786477318284883e-09 -7.177273347970089e-09
906 -1.7797821754560095e-14 1.0877361715566448e-12 -4.335598353252686e-12 -1.59633043604469e-09 1.2460259439488587e-09 3.942469032731219e-09
907 5.418810441755555e-12 8.276791844994852e-12 -8.67465744359545e-12 -8.07159146820742e-09 2.0244906300635047e-09 -1.1454814845398102e-08
908 -1.6242322642260732e-11 1.3770201024279872e-11 -8.67776658155596e-12 2.6244586088842343e-08 6.690809095121222e-08 2.7011103390565257e-08
909 5.952645812218722e-12 -1.3758006949922537e-11 -8.15635308158868e-12 -1.3377933079787082e-08 1.934142867896955e-08 -5.527122474253901e-09
910 1.0649450102602206e-11 3.990226349023169e-12 -8.672459588151957e-12 -4.525526990350953e-09 9.732649196302508e-09 4.872048272131639e-09
911 1.1921828904941202e-11 -3.6603710743245876e-11 8.674926412870697e-12 -2.7978977351700568e-08 -3.1961649603538036e-08 -6.747436423751187e-08
912 -1.0832316397000197e-12 1.066015402339865e-14 -1.3886592504756893e-12 2.3862350419888045e-09 -4.580984780773188e-09 -3.062125975167671e-10
913 -1.0183400915653766e-12 1.4412246832939165e-12 -8.672315286244358e-12 -6.620207113512292e-09 -1.63724105827788e-09 -1.1865686296038684e-08
914 -1.4252188411682118e-12 2.2128775233255024e-12 -4.336765080183166e-12 -2.015694716029186e-09 -2.3651091775816047e-09 6.480547376982903e-10
915 2.1687185586503184e-12 1.0825397885969043e-12 -4.335259379391457e-12 -4.579130826594757e-09 -2.0264880883004227e-09 -4.665899337812641e-09
916 -1.0904685580044033e-12 -1.4873955689821205e-12 -8.674738933528023e-12 3.5419135547769504e-09 1.283347198957291e-08 -4.574545044119024e-09
917 1.5546279194365482e-12 2.7812613139242376e-12 -3.8232940647872456e-12 -9.495905897471634e-09 3.852269623233589e-09 3.018472621137972e-09
918 1.1354892706616817e-11 -5.817051662213995e-12 2.3413548189529517e-12 -2.21846738247675e-08 -9.850530697509831e-10 2.7012023953899757e-09
919 2.166581804505226e-12 -1.1893025477593647e-12 8.75651340487084e-13 -1.6081882832874403e-09 1.1658691718437511e-09 1.3461708598370407e-09
920 4.442315043024213e-11 4.553856966062883e-11 -2.5034846778169698e-11 -1.4593032097701822e-08 -1.2655558276276233e-07 -9.225729386468757e-08
921 -2.168573514596506e-12 2.1073074887840008e-12 3.887469456732972e-12 5.995004506154005e-10 5.772267130706283e-09 -3.6872064878755926e-09
922 -1.0852161335948994e-11 7.1531834832546575e-12 -8.672047083347329e-12 -3.886884470241513e-08 -4.2856364198503376e-08 1.376769638407408e-09
923 2.1688803436230697e-12 3.745170165952559e-13 7.520961475129614e-12 -6.389475856189387e-09 1.1211222093173525e-08 -1.1719660615269837e-09
924 3.1500363247556673e-13 9.961264947388873e-13 -9.356705764881732e-13 -4.16074184096851e-09 -8.246260336998897e-10 -6.694978766869962e-09
925 -8.497769454828883e-13 2.16833493942129e-12 3.370360971186382e-12 7.441776928248029e-09 -7.616060845379234e-09 -9.404217363255858e-10
926 2.024830330940174e-12 2.10378180850568e-12 -4.3355985843011405e-12 4.0828431637101537e-10 2.3726452776903853e-09 5.135918672353948e-09
927 3.112139794683745e-12 1.201182305394225e-12 2.8295562988756486e-11 -3.3102009775950855e-09 4.848331183170061e-08 2.99840138204616e-08
928 -7.246279340263877e-13 -1.9936403580318225e-12 4.335277481585446e-12 2.8137727666962564e-09 2.9757662098765936e-09 -8.528376430988821e-10
929 5.557167565719224e-12 -3.2502512228547177e-12 1.3009698911261923e-11 -1.0384440062392047e-08 1.0250846929269506e-08 4.236379348775867e-09
930 -4.518315758406097e-12 1.220783208973226e-12 -4.336380667986358e-12 1.3336990256251965e-08 9.666303974030621e-09 -6.303576816479898e-10
931 1.8279070140256066e-11 3.2422944701812546e-12 -8.671124712183922e-12 5.8075644332706525e-09 9.83574228086809e-10 3.534980270780011e-09
932 2.166430758367398e-12 1.0841079156528639e-12 -1.1397516523441883e-12 -4.033959482888359e-09 -2.7012423954265167e-09 7.058803655986198e-10
933 -1.4749193449970616e-12 2.1656722374829795e-12 -4.336436022181405e-12 -2.7132087168479258e-09 1.2611655651625032e-09 -1.3767524728733383e-09
934 -5.478372981929024e-12 1.8639755807416296e-12 -7.955981734051064e-12 -1.6426591014152155e-10 7.242081469769076e-09 -5.049361866660041e-09
935 1.493337482081396e-14 3.324890408762025e-14 8.13249015348214e-13 9.267369563189955e-09 6.199775368601577e-10 6.924746981903274e-10
936 2.4672406029451865e-12 2.0301092758329771e-13 -4.33650516584069e-12 -3.982291099420311e-12 7.777662244982487e-09 1.0184932539324059e-08
937 6.306696042554916e-12 -1.5764751176261022e-12 4.336608652748399e-12 -3.587499623125593e-11 9.983137780708305e-09 -1.8079891718315047e-09
938 -3.83604215190791e-13 7.187976346043704e-13 -1.9598980960996372e-13 -2.880803581837658e-10 1.4631110751194764e-09 -2.5051299961241878e-09
939 -1.0850152748434761e-12 1.2972562003836645e-12 -2.7198760761505663e-12 -1.6093301799116648e-09 -1.5380470500953441e-09 1.3368314828420232e-08
940 1.6124433930705413e-12 1.0867505646137376e-12 -5.0562215254225525e-12 1.1201286677449013e-09 -2.0996001185831945e-09 -2.367709500967225e-09
941 3.932085193497508e-11 -4.443629212299737e-12 -2.601948747746675e-11 -1.851930666526129e-08 1.279092713638211e-08 1.707372840735491e-08
942 -1.626325088871569e-11 -6.504306983958349e-12 4.6554587813579115e-11 -7.291177473813089e-08 -9.892662784069078e-08 1.8828183020136346e-08
943 8.000460175724389e-13 2.1686179420449533e-12 -4.686519038825487e-12 2.9838146495770767e-09 -1.3465659301503232e-09 5.264869199599344e-09
944 2.165757978389314e-12 1.0844655177526284e-12 -1.7924489982397834e-12 4.226983915565441e-09 3.096729573746249e-10 2.9852165185696126e-10
945 8.661571001729256e-11 -6.505870197161456e-12 -8.673492058660094e-12 -3.0278884670759176e-08 6.932233939759508e-08 -9.382097452999889e-08
946 7.589208458799173e-12 1.480600215876434e-12 -4.490836734287507e-12 -3.2885185949767763e-09 -8.36401236588625e-09 -1.2094207746061232e-08
947 -2.165525707160813e-12 3.252900644082412e-12 -5.542841326606789e-12 6.279150667093154e-09 3.61788183150885e-09 5.309142085730067e-10
948 -6.504365934678472e-12 2.710506873088503e-11 -1.6685076102326485e-11 2.8244513539069568e-08 4.616925352244761e-08 2.417952464884591e-08
949 -1.7680510857602006e-12 -1.7994698598264726e-13 7.766201341977288e-14 -1.0433311250375386e-09 -9.475607297317943e-10 -1.8515483189798508e-09
950 1.9215636017868125e-12 -1.0867742572089702e-12 -1.0169125130438791e-12 2.7538279415805764e-09 -2.104704390464246e-09 1.9657652352002976e-10
951 1.5099426686885242e-11 -2.6513570081489417e-11 8.671883530600919e-12 -1.1658848582782333e-08 -1.2138742122102762e-09 5.954632196260419e-08
952 1.374678609157687e-12 -2.1674079113744923e-12 1.6991989208432776e-13 -3.3631790125193716e-09 1.9047215241096684e-09 -8.313475937455129e-10
953 8.671913372160692e-12 2.6182527712660494e-12 -6.2206576665329095e-12 -6.379779161260654e-10 1.4153595944590742e-08 1.7514466011287115e-08
954 4.067625343497672e-12 2.8112855640762174e-12 -4.337008939001807e-12 -5.652761920895584e-10 6.012072987320221e-09 5.048670708658452e-09
955 1.0818832502547307e-12 1.0994452469491721e-12 -8.672073477906448e-12 3.1010836323414076e-09 -9.785777864592073e-10 4.2047879951270755e-10
956 9.655092808617762e-13 2.1679945357318943e-12 -4.057791919498456e-13 -1.4805263203763355e-09 -6.8199121236494834e-09 3.194205207469872e-10
957 -1.2410474335484124e-12 2.168447531529753e-12 4.192201499187723e-12 1.1256716591800358e-09 5.237855639397219e-09 6.893118019410014e-09
958 5.408715210364066e-13 2.168868167909098e-12 -2.906674232885254e-12 2.1125864884086678e-09 -1.0905006902484268e-09 -2.767334919201375e-09
959 3.4551326307145493e-12 2.1675973067990315e-12 8.669884328123589e-12 3.972838594536929e-09 1.7683019296477602e-08 -2.4710146180327875e-09
960 4.821177577680159e-13 2.1900898816491697e-12 -4.319015475515943e-12 3.939630966919155e-10 3.1347413678707957e-09 -4.33122248284081e-09
961 7.605547598826131e-12 -1.1631518457064916e-11 4.3364612098656545e-12 1.527849633363383e-09 -1.4378951690073642e-09 -9.141323545665217e-09
962 -9.164766462412479e-07 -4.139050705094899e-06 -3.807717399096145e-09 -0.013670763879049854 0.0033062716602860896 -0.31098243423712085
963 4.083918865233333e-11 4.1206122444972714e-11 2.6025380516433496e-11 7.85284092622781e-08 -3.2758267758200046e-08 2.2191546249095527e-08
964 -5.430870636752504e-13 2.7645989926151508e-12 -4.743795608647561e-12 -2.9999530652328353e-09 3.769991042810776e-09 9.84236534118912e-10
965 4.187110851725939e-12 5.902902217562466e-12 2.514824890432639e-12 -7.244155098098817e-09 -1.7184910047457271e-09 -1.733170936934587e-08
966 -2.168270989149612e-12 1.084415657320902e-12 -4.4076253841217245e-12 3.2331073475452164e-11 1.559009225523052e-09 1.9010936905964355e-09
967 -6.108681397273816e-13 1.145195794727431e-12 -3.1236123457498002e-12 3.441738312234029e-09 -1.2038892255167954e-09 -1.3216822201348762e-09
968 1.4462418295313246e-12 1.4176202772776593e-12 6.3961766694965655e-12 3.681351550031285e-09 5.281444691647155e-09 -2.2316700284609018e-09
969 2.2222022892620535e-12 6.699630127860791e-12 -1.247622635454678e-11 2.28690047631076e-08 -1.6933391352163061e-09 1.7902786128730081e-09
970 -2.0777363902925418e-13 -2.0822066513373436e-13 -2.2840307617901324e-12 1.261818232200415e-09 6.139964758751471e-09 -3.88678144837537e-10
971 2.169769098917001e-12 3.294289079071958e-12 -8.673456991633572e-12 -2.640161264811492e-09 4.252697027051148e-09 -2.1059403806331723e-09
972 3.802700818446389e-14 -2.1684724143347905e-12 4.3370755559823025e-12 2.6038129717029355e-09 8.077060476626254e-09 7.043601653160501e-10
973 -2.667362721107547e-13 2.16812521746409e-12 -3.4089774598031764e-13 2.4677440311738635e-09 1.919289357580388e-09 -2.0992602952741012e-10
974 -1.7635402155011846e-12 4.0685166378796255e-13 -4.333339698403098e-12 2.8008030525043222e-09 -1.4101330174747276e-09 -4.977321733979367e-09
975 4.601704841231655e-12 2.165605357192419e-12 8.67337360964837e-12 -1.708775490367228e-08 2.417043001284434e-08 1.9141756661176474e-08
976 -1.056154259341957e-13 2.1670135882248757e-12 -4.99721120819936e-12 5.563789958664848e-09 -2.922703423055652e-09 -1.4749319138026983e-10
977 -1.5629621273808492e-12 1.0843674086152404e-12 -3.768027940897831e-12 1.0070553121360298e-09 -3.79566731246873e-09 -1.3915857534260014e-09
978 -5.319805435086104e-13 1.0844146195657758e-12 -3.4925087402577144e-12 4.9350996822527626e-09 -7.835471295693502e-10 2.1633555951382924e-09
979 5.636211421438976e-13 -1.1632109023849668e-12 1.1309525465081e-12 -1.3314270283009878e-09 1.311813026722003e-09 4.4799396052620684e-10
980 -1.3003449753473473e-11 1.0786976735689003e-11 1.3009533409118149e-11 -6.42744783101116e-08 -1.0714019145925455e-07 2.342847675298785e-08
981 2.94727358724078e-11 -2.8188606860494932e-11 4.3369350207586026e-12 2.4242083851763626e-08 -9.409266739012917e-09 3.2819019829072435e-08
982 -6.429665409468676e-13 -2.1648024181420015e-12 -1.1979244119453138e-13 7.6984145059475e-11 1.1074282754811805e-09 -8.616822574047589e-10
983 -5.938668025677506e-13 -3.187775960472366e-13 -8.650786337570802e-12 -6.440294288808712e-10 1.4064845249126397e-09 -7.59549286679566e-10
984 6.150769484804669e-13 6.049381867882412e-13 -8.513239165927143e-12 7.714996655673173e-09 -4.932697897489914e-09 5.376462408794887e-09
985 1.08940338005988e-12 -6.191243376455239e-12 -6.0166219432204695e-12 -4.569057174143966e-09 -1.7976192614219099e-09 1.974017527716047e-09
986 -1.7238833543402597e-12 -1.482236827305506e-12 -8.667887382581981e-12 5.388167907118605e-10 1.8878239889311387e-09 4.5006871807812654e-09
987 1.0839423888475718e-12 -2.1685835291672362e-12 2.10074103064613e-12 3.511347050939167e-09 -8.618273393831874e-10 1.8639133371651987e-09
988 9.822479538348806e-13 2.1641259488325905e-12 -2.59918260153762e-12 3.643504080298962e-09 -1.21631825322591e-10 -4.79445897468012e-10
989 -1.0843020771065955e-12 1.0588752559574369e-13 -8.674917849838e-12 -1.9195917983994276e-09 2.5750792817924898e-08 -1.532584713585118e-08
990 -2.1634930886370263e-12 3.788932850469833e-12 4.948402477915288e-12 -2.925313574651139e-09 -6.677434081134822e-09 7.408530020533471e-09
991 1.0911694673670229e-11 1.1235228828100032e-12 -9.366404185698888e-12 3.5841359034535663e-09 9.747993611929928e-09 1.6244599748160107e-08
992 -2.385218855741532e-11 1.517845025092952e-11 -8.67379785447381e-12 4.095065276177977e-08 3.21181708464398e-08 -2.893332369528155e-08
993 1.9638010918307505e-11 9.760893711026911e-12 -8.665117256048096e-12 7.446800689085743e-09 -2.6034117232733745e-08 -2.181535284666669e-08
994 3.2522603107619355e-12 -8.951014907233458e-12 -8.851078278143832e-12 1.473792493670437e-09 -9.341435112522377e-09 1.3942506204947958e-09
995 -1.0834690792622738e-12 -2.025598574131165e-12 -3.668345937591375e-12 -1.6700008187381349e-09 2.827097534662683e-09 2.990619174008022e-09
996 -2.020615243849692e-12 1.8065233098835505e-12 -6.9350297924057276e-12 2.4697783097479426e-09 -1.1494134996360649e-09 2.1168060095780503e-09
997 -1.0842815609809032e-12 -2.076026679402125e-12 -2.5481895265675715e-12 3.7372995483243175e-09 -2.28606358477688e-09 -5.297717731018164e-10
998 3.1408669756609736e-11 -6.503486589802678e-12 8.670405462662444e-12 2.2045038704553603e-08 -3.6874246279664917e-08 1.686661695133924e-08
999 4.113024017860743e-11 1.5180968722989653e-11 -3.407335866656991e-11 -2.206697006580295e-08 1.6276271945008342e-07 -4.643494295088682e-08
1000 -2.927315488661855e-11 2.8195184487509074e-11 -4.3371825708630336e-11 -2.569740801673953e-07 -1.8099709121347372e-07 1.7346855265545702e-08
1001 3.7569350177135885e-13 2.159468139956095e-12 4.1931012279825345e-12 -5.395086648378689e-09 -2.3644906895892423e-09 2.795792033338424e-10
1002 9.83273632456687e-13 -3.2514263830740295e-12 -2.454148881779552e-12 1.8449528226544843e-09 3.982052871680212e-09 2.4616602440749967e-09
1003 4.949058844556511e-12 -2.7066348648975464e-12 -8.675430711474245e-12 1.4566176512786462e-09 -1.255178699504172e-08 7.312034512854127e-09
1004 1.083762320086435e-12 5.035434366523772e-13 -8.672623183957664e-12 -8.841027915398287e-10 1.4059429007743834e-09 -1.6730517606972255e-09
1005 2.166971591753797e-12 1.0845641333233055e-12 1.3468255416269867e-12 -2.390793144414509e-09 1.8034915317860225e-09 -2.6957942984911233e-09
1006 -5.637627089519822e-13 -1.5069536084585924e-12 -6.0786062771188086e-12 1.0744351461012994e-09 8.669772286467774e-10 -2.1304617057860922e-09
1007 1.485834619480488e-11 5.371207529973843e-12 8.576294108921788e-12 1.5057896310655592e-08 -7.880222637722965e-09 -5.656166727894165e-10
1008 1.2910077051532107e-12 1.170944695996764e-12 -8.664172386446992e-12 1.0384440025269702e-09 -2.553021854143749e-09 1.1299836846003632e-09
1009 6.757744059504678e-11 9.757885504357566e-12 8.67307866913555e-12 -6.447143070226464e-09 3.88736216833027e-08 6.795050275519014e-08
1010 2.1666734851971975e-12 1.085949351167142e-12 -2.9526428687693075e-12 -1.8492806274788835e-09 -6.76214129377158e-09 -6.363371903008058e-10
1011 6.0088045701936e-12 2.9814730752330977e-12 -8.669489046626995e-12 -3.3342349832834474e-09 5.9237636148947896e-09 1.1420618330584157e-08
1012 -1.0527338546964758e-12 -1.56484516949106e-12 -5.742856041539311e-11 4.800418663689023e-08 1.2246460379977047e-08 -4.541815415958336e-08
1013 2.1672863457973506e-12 -1.5095742876660957e-12 -4.118464870828308e-12 -6.059757103892741e-11 3.6779121495879524e-09 -1.1136263889435988e-09
1014 1.574492140304684e-11 -1.086409262285576e-12 -8.672751842928376e-12 1.0555471061464058e-08 3.4334796587645373e-09 6.078067306769687e-11
1015 -3.248448156061104e-13 2.168164593541103e-12 7.421879966713961e-13 -3.5326716957299184e-09 -1.5590617253017612e-09 -1.789586216269039e-09
1016 9.757627004211373e-12 8.316432712120092e-12 -7.659588990759198e-12 -4.160541478325125e-09 3.5043336906264774e-09 9.18592267731973e-09
1017 1.1354161404179714e-11 -5.420025081114037e-12 -8.673217908323349e-12 1.1959816601221636e-09 -1.630734535960408e-08 3.06424247792303e-08
1018 -2.1377413308410076e-12 2.8634129986708604e-14 -8.672792181710457e-12 9.413865059658535e-09 -2.0420296632452925e-09 -2.4443118393649095e-09
1019 -1.084328285597661e-12 2.1683117008921093e-12 -5.7573943174861955e-12 -2.735421240076147e-10 3.592150421180224e-10 -7.186471103304889e-10
1020 1.904652913047474e-12 -1.0450726996965619e-12 -3.4853621716660623e-12 3.585743114593034e-09 1.8339684650976852e-09 2.9828933624784543e-09
1021 -1.0033784534128673e-12 -1.3354169744146738e-12 1.4202780559417128e-12 -2.1232746971855756e-09 3.1765191939450953e-09 -1.6189141679995746e-09
1022 1.623113513080378e-12 -2.168271927406578e-12 2.7960648331751577e-12 3.530235785137218e-09 -1.8413320095850845e-09 -2.377091020581393e-09
1023 9.260353846919968e-13 3.764722000373789e-12 -8.672488740518122e-12 -6.1137541961082984e-09 -2.7302223988042426e-11 -3.215680721481997e-09
1024 9.334923899382369e-13 5.723852289307984e-13 4.889777740355985e-13 8.759847641871926e-10 -2.051850921783545e-09 1.6172937743355943e-09
1025 -1.6263479071592355e-12 -1.0863879236255566e-12 -6.389568938229153e-12 2.4122098053931235e-09 -2.918575626736783e-09 -3.4229445966083686e-11
1026 6.736098743189934e-11 -2.3847663650812153e-11 -1.648084709009348e-10 3.8913998814857197e-07 3.9169656553696195e-07 -3.2589052550195245e-08
1027 2.432112639187123e-11 -1.2650267883114514e-11 1.6755187959391135e-12 -1.0729216486050917e-08 -1.5338832951838966e-08 1.1055228536094775e-09
1028 -4.4726745162442794e-11 3.2523380260700395e-11 -4.336865203805742e-11 -1.9553298124281977e-09 6.691236091563414e-08 6.052342534289659e-08
1029 1.7868240345409396e-12 -5.201905528829544e-13 3.187654553747367e-13 -2.061789934065258e-09 2.999800244510201e-10 -1.778271383503998e-09
1030 -1.4998794914300441e-12 -1.0840031864161925e-12 -8.28437922161745e-12 1.125839672646049e-10 -8.325574005254337e-10 -5.852878652435508e-10
1031 -2.520300586237547e-13 -1.0019542656107657e-11 -2.0241286302081166e-11 5.500069472478837e-09 6.2243714913215016e-09 -4.190752676988884e-09
1032 2.1729469609165855e-12 -4.2975545580817285e-12 -7.082903442241298e-12 2.7216371933017855e-09 1.6623711918468183e-08 -1.9487489293177752e-09
1033 1.925625178607051e-11 2.168409934892855e-12 8.674757615434603e-12 -1.1886498044551277e-09 4.3699711782349116e-08 -7.017064837490974e-09
1034 8.630348688983713e-12 8.817699184434248e-12 8.661134110168571e-12 2.235768235842783e-08 5.756982992702021e-09 1.0214129674071346e-09
1035 2.1682193821186956e-12 -1.2460841196236692e-12 -1.814952414165737e-12 6.039648557536969e-09 2.4513925962002166e-09 -1.0389658326660013e-09
1036 -2.0663589805137642e-11 6.505687835806426e-12 -4.336486631059224e-11 -1.4912938645250882e-08 2.1941634272127534e-08 1.4442411887971997e-08
1037 1.2052204855795218e-12 1.1397720585609757e-12 2.457140145926327e-12 -9.168104831829318e-10 3.161834232285995e-09 2.6732189875245044e-10
1038 -3.716270104878699e-11 -7.498991482288601e-11 -1.8207110884805965e-10 -1.1943407762348343e-07 5.506415509711368e-08 -4.311938533212177e-08
1039 4.853057563458721e-12 -1.1353694437347213e-11 -8.671694380179995e-12 -7.687829869656219e-09 5.451885992474295e-09 -6.533219549887334e-11
1040 -5.389304637866088e-13 -7.1760903682310855e-12 -1.3977487911765034e-11 9.243101149143385e-09 -1.367718119492387e-09 -1.3457968788324622e-08
1041 -1.0814597472008925e-12 -2.969687608990375e-12 -6.805891072963392e-12 2.2804313756757716e-09 -5.14025157436199e-10 1.3106973536021289e-10
1042 -2.1682482615827197e-12 1.3888233746193881e-12 -2.7572285832795742e-12 -1.447428901599819e-09 -2.807473129073562e-09 -1.2295906956343131e-08
1043 2.1680069487314333e-12 2.16809988972987e-12 -4.2496340082211876e-12 4.146513010473557e-09 -6.440002003259418e-09 -3.3529072435960828e-09
1044 -4.48553308221095e-13 -8.143943480934053e-12 -8.67420990728244e-12 2.8637725993977703e-09 8.805295230101112e-09 -6.170134881632192e-09
1045 2.276918360207396e-11 7.999892062661709e-12 -1.4837480933283093e-12 3.0696264312983037e-09 -2.0170369032761477e-08 2.531546443494655e-08
1046 2.56036643586811e-11 2.3862113019084705e-11 -5.947894664609666e-12 -4.4078433290707245e-10 -5.827389702838192e-09 -2.798115169365933e-08
1047 -1.2762840284911622e-12 -1.6289249929317168e-12 -8.669682480481242e-12 2.1925603949154563e-09 3.3399984438743417e-09 5.614543593293741e-09
1048 4.466635811705986e-13 2.167549506898164e-12 -5.496746274510292e-12 8.282247665248484e-10 -2.1043178394028855e-09 2.7431542678708828e-09
1049 -7.473417041210711e-12 1.517485994539951e-11 -6.071571043786847e-11 -4.020420011582834e-08 -2.096495263997256e-07 1.0760997816233584e-09
1050 2.7308616976795245e-11 1.0845090411427933e-11 8.673306262882265e-12 -3.530268652452456e-08 1.3271721098911961e-08 -8.960363995713339e-09
1051 1.1039523546471843e-11 -1.4490200431361945e-11 -2.5230038549431198e-11 -1.1126722910659412e-08 -1.5358267166600922e-08 5.730887781995681e-09
1052 -2.9589111105561847e-12 6.69588278612109e-13 -2.7722159170857546e-12 -3.925322612226844e-09 -2.130423811892501e-09 -1.0734810359508272e-09
1053 2.1444435408045366e-12 2.5244200173749787e-12 -8.173711681978802e-12 -4.086069938275629e-09 -2.2365885453732546e-09 -5.382729251339452e-10
1054 9.765296832158129e-12 2.1682435422266462e-12 7.433466103183267e-12 -1.61450106566221e-09 7.169651661563492e-10 -1.548145068077272e-08
1055 6.269609407932057e-14 -1.2580052121935864e-12 -7.300717941647396e-12 1.8818778956239274e-09 9.168378378160696e-11 3.2525169642329425e-09
1056 6.505009388080104e-12 1.1926625956529134e-11 3.336575916139983e-12 3.2199553398513404e-09 2.4369474325622815e-08 4.076029222897696e-09
1057 -5.220043485218832e-13 -2.1679211763980307e-12 -1.7192240291626181e-12 4.2573824759503377e-10 1.5981490290869154e-09 -1.76072416977636e-09
1058 -2.5414180988712353e-12 1.0827685503192235e-12 -8.39210483150348e-12 4.8682660659312965e-09 4.5477604174480194e-09 -7.404289756839044e-09
1059 4.433884771984078e-12 3.4316531367726534e-12 -8.65835599086346e-12 1.372536270856068e-09 -1.432565316601693e-08 1.3279223408814568e-08
1060 1.242424550722615e-11 -9.490914704979784e-11 -1.9959766567691954e-10 -8.39678274347493e-07 3.394528639347154e-07 -4.428185781356606e-08
1061 -1.8411233118666967e-11 1.8430933274690306e-11 -8.675891429791006e-12 4.034446290708836e-08 4.888781993333925e-08 5.7571843754344984e-08
1062 2.205336005620691e-13 -2.0602071576468116e-11 -1.5078023590333323e-11 -2.7285263724123927e-08 2.538153787459522e-09 1.0423328797031681e-08
1063 1.7917830039500235e-12 1.0856777764946308e-12 -8.670808904738671e-12 9.408941500914484e-09 2.842555264465829e-09 -4.978074815545119e-09
1064 -6.808259883112382e-13 -3.2289799418747973e-12 -8.673331519923545e-12 -1.7561729824539074e-09 -2.829857041920985e-09 -6.399916695595678e-10
1065 7.063486906890617e-12 5.056771866575612e-12 -8.995355437512746e-13 -8.175711420950049e-09 -1.6937423808407058e-08 -1.61980430924309e-08
1066 -2.163818189646033e-12 -6.911051911923251e-12 -8.67388585593907e-12 -5.486554016391736e-09 -1.5418598921260875e-09 -5.456186008666867e-09
1067 -1.1769756003948608e-11 8.183855142730643e-12 6.793136313585083e-12 8.607971079627868e-10 4.502146655228638e-09 -2.783093744666219e-08
1068 1.2176380421417084e-12 -1.1101182864442741e-12 2.493716132485093e-13 5.183871360002175e-09 9.126887954728625e-09 3.6514945089741933e-09
1069 3.15446135466495e-12 1.911604181763642e-12 -3.6288710701984753e-12 3.746752378851361e-10 -5.149266766536515e-10 5.353941657150919e-09
1070 -9.48559914007547e-13 -2.168364503941555e-12 1.0222036108485667e-12 4.662078382434963e-09 -2.217823520996623e-09 2.758774846740775e-09
1071 6.5032309390344205e-12 1.0845247324226921e-12 -4.620928624709811e-12 -6.852274644490582e-09 -1.215734881740968e-08 -1.672834246835902e-08
1072 5.063382390315758e-12 3.2562351926784377e-12 -7.306538858962588e-12 3.4008660193055477e-09 -5.768935837247562e-09 -1.785409877064481e-08
1073 2.167308732697678e-12 1.3311946249399443e-12 -5.414723191417863e-12 -5.192562994888897e-09 -6.802149301488943e-09 -2.08345281631323e-09
1074 -1.9498329026955644e-12 8.129417059872475e-12 -8.67382296704248e-12 6.381288416140658e-09 -1.0329750353905981e-08 1.3804059552383965e-08
1075 5.1612012037182844e-12 1.087258942952721e-12 -8.667988682060984e-12 1.5072278660494443e-09 1.4915884537420414e-08 -1.1522706330619866e-08
1076 1.841629022410991e-13 7.728134227916837e-13 -1.748250552606759e-12 3.612670421277547e-10 -4.526138491163091e-09 -1.2352335045892015e-10
1077 1.7264819699159269e-12 -9.766399578899986e-13 -1.4548249760814957e-12 -8.704542178804395e-10 1.3510881252178508e-08 -5.096782951307676e-09
1078 1.2474024112256258e-10 -1.1058893282004823e-10 7.1414730642033176e-12 -1.3296444531528858e-07 -1.1648311638996678e-07 1.978855559140669e-07
1079 1.83180868505769e-12 -2.2077494827659684e-13 -3.5287853878869033e-12 -2.8760709636701285e-09 -2.6873925458574643e-09 -1.1503249439646453e-09
1080 1.0828251038929016e-11 -5.648574792689445e-12 -1.9719697550582812e-11 -1.1152938936204992e-08 1.5033930536556268e-08 -1.1052442525067588e-08
1081 -1.7008250704413585e-12 -2.168277653503396e-12 -1.2677747888803868e-12 5.835067167822147e-09 -4.586788070425417e-09 -2.2102629228642516e-10
1082 -6.5136371999498365e-12 6.5764704568453505e-12 -8.673542118405853e-12 1.1786148363353781e-08 9.127932657984652e-09 -9.093030597151758e-09
1083 3.2530094032628916e-12 -4.109751824518376e-12 -8.031736312067379e-12 5.404945886269852e-10 9.78942617827907e-09 1.4986008358830855e-10
1084 2.168275224619107e-12 1.0854912607459378e-12 -3.6348727104040797e-13 -5.0105572455796226e-11 -1.6949980010861971e-09 2.771736011328673e-10
1085 2.1298924461726593e-12 5.462153195844933e-13 -5.415250664603903e-12 5.16473470132464e-09 -4.024127555455034e-09 4.043468144191494e-09
1086 2.0513998423571765e-12 -1.320048790109612e-13 -2.7752776559688626e-13 5.730887497951476e-10 -3.399672396687689e-11 9.940065421767327e-10
1087 2.168658481158833e-12 -2.1682567426897962e-12 6.642707728721292e-13 2.7870757827086547e-09 -8.603367068250038e-09 3.977227849920516e-09
1088 -2.0449162770043083e-12 -2.167812073101862e-12 3.3522813897402962e-12 -3.765535075759247e-09 -2.6494943368532064e-09 -4.189520509059631e-09
1089 -1.0580535176509158e-12 -2.168721018600133e-12 -8.668401096556963e-12 8.362850909646647e-10 -2.1167804761287278e-10 6.504745956232356e-11
1090 -8.215902985243187e-13 1.4808157130973305e-12 -8.084498835903072e-12 5.05187718135457e-10 -4.912744810897862e-09 8.518308191796101e-10
1091 9.221128016819937e-11 1.03450126577691e-10 -3.5561366430420567e-10 4.0442318433492697e-07 -2.3132699100990416e-07 5.978271134067329e-08
1092 5.419599104284491e-12 -1.093682006812964e-11 -2.602166992160335e-11 2.5416461570188946e-08 2.2057020506088895e-08 6.527180460634126e-10
1093 1.0858545624564909e-12 6.029133669891181e-12 -5.4031846218254895e-12 3.751887726533605e-09 3.801221751948864e-09 -6.048820117627231e-10
1094 1.5437579147137882e-12 1.8865865199583446e-11 -3.0545698245075106e-11 -3.808345119087803e-08 1.7678046635097293e-08 -1.3882906237330177e-08
1095 1.0295291160010355e-12 1.084154790598592e-12 3.0271329340635467e-12 -6.624233365190049e-09 6.996017086788461e-10 -1.8476221007496535e-10
1096 2.1683705588447562e-12 -2.7095812088561706e-12 -3.875607558330928e-12 -1.8971586660556323e-10 3.2384665174347434e-09 5.796888525732473e-10
1097 1.081553967598079e-12 -1.6835016502546636e-12 -7.206057107683777e-12 3.9879524732014836e-09 -3.76171915100179e-09 6.19187516179062e-09
1098 2.2890811902501167e-12 2.755766440120741e-12 -8.674049944900297e-12 2.2751385694372286e-09 2.9142043035163067e-10 -2.724614928855535e-10
1099 -5.432747523589793e-13 -1.3779156164263278e-12 -6.535645287122171e-12 -1.7416776556011315e-09 -9.523541193739697e-10 1.3671683279000866e-09
1100 4.279283357532278e-13 -3.1048405577218613e-12 -8.459974973064265e-12 8.345652710485603e-10 -1.8069656338541608e-09 1.3571876245357538e-09
1101 6.505428293809711e-12 -6.505232939616442e-12 -1.2813639157959703e-11 -2.5037950166318165e-08 -5.5903825741403524e-09 -9.135309325450129e-09
1102 7.591084369356639e-12 4.987726414342846e-11 -2.6021382671476287e-11 6.569413912835205e-08 3.1043090710987335e-09 7.945249008294367e-08
1103 2.1673000484466007e-12 -1.3583024211658813e-12 7.621704042851975e-13 4.673228354026811e-09 1.3051861289705742e-09 -2.091527808717539e-09
1104 1.819319370297293e-12 -1.4068245457623639e-12 -1.1750982736861598e-12 1.7802842396026272e-09 -1.2760635371391103e-09 1.175518226992308e-09
1105 1.298694807982565e-13 1.0698777722781117e-13 6.969589014875665e-12 7.562382417838843e-09 1.0849619986169796e-08 3.889901665242374e-09
1106 -2.4144587668344538e-12 3.2662990401198593e-12 -8.860998110744678e-13 3.0472671522974473e-09 6.85545385095542e-09 -1.432713663376766e-08
1107 -1.5557130627086925e-11 3.686165850691802e-11 -6.694874511007414e-11 7.88263138757864e-08 2.040322253635002e-07 5.3750231197150015e-08
1108 -1.1935094933693582e-11 2.7167956817642743e-11 -2.0259044032438857e-11 -2.6796852013413585e-08 4.0234178863476125e-08 1.2319498392638898e-08
1109 1.686342306315377e-12 2.8608939425951594e-13 -1.6378373329028364e-13 -1.2425621056938216e-09 1.9802527313342296e-10 4.0566923028939685e-11
1110 7.458890213491407e-13 -5.6008760290538e-12 -1.068601910671662e-11 -2.700254895741679e-09 -2.1531265585369562e-08 6.415294827544245e-09
1111 -2.664302917431753e-12 -1.0754928809604475e-12 -8.667116655698596e-12 -7.2572481611079865e-09 -1.2132356278360519e-08 2.6689824421991078e-09
1112 3.9223374567568205e-13 -1.8006107691950759e-12 -3.973516587107893e-13 3.55872128753016e-10 -5.487056194908015e-10 1.3677588896783908e-09
1113 8.711192485087696e-13 -1.0840211821163668e-12 2.525254797576141e-12 -2.850577654470737e-09 1.963856101771198e-09 4.813973646810036e-09
1114 2.491851704926316e-11 1.6776375020950343e-11 5.453822192710654e-12 -3.02030722589418e-09 -2.7531060998436408e-09 -8.274592730759555e-09
1115 3.231703364115775e-12 -3.7944590382317593e-11 -2.602155446917147e-11 2.713302704809523e-08 -2.663736405779856e-08 -7.465132736407741e-09
1116 1.7374677759346758e-11 3.252790703336215e-12 -8.674696154868442e-12 -6.112323386610323e-09 -8.015652388986435e-09 -1.223573916033033e-08
1117 2.168129247144482e-12 -5.014897076731311e-14 2.4094572428294505e-12 3.955345215521063e-09 9.483757069751464e-10 -1.6943300418493986e-10
1118 1.015501279150143e-11 9.345901309632212e-12 2.0713289341059964e-12 1.3531538027722558e-08 7.2239824956772435e-09 -5.911776023680102e-09
1119 2.582938557810909e-12 3.1455227892914815e-12 8.665791207865164e-12 7.194571440818518e-09 6.302071235550432e-09 -6.740231792012264e-09
1120 2.908775444972447e-11 1.0842514824701123e-11 8.673701964149502e-12 -2.1026583127141024e-09 -1.2669357765979273e-08 8.624827355540031e-10
1121 -4.035044953355695e-12 4.608327310139516e-12 4.81634215338728e-12 6.815255716189318e-10 3.4186103868252807e-09 -5.148781195828609e-09
1122 5.414106354068238e-12 -8.443517355623279e-12 -2.6021199662301662e-11 -1.1342730433869365e-08 -1.5335176103784152e-08 2.21275966780515e-08
1123 1.736753591700018e-12 2.168868090385869e-12 3.66988049081537e-13 -1.5543851717181115e-09 -1.057655940020306e-09 -5.712281794485541e-10
1124 2.1681032023259873e-12 2.7089702175895115e-12 -8.667431833204204e-12 5.3850795165898074e-09 -2.373874438116891e-09 6.894248152336706e-10
1125 -1.052217682244845e-12 1.6627463452112273e-12 -8.596626127692922e-12 -1.7582159094160208e-09 7.1113762989027705e-09 -5.006285134577202e-09
1126 1.081835726622618e-12 7.490631489813196e-13 9.046076737967754e-13 7.71521089273471e-10 -2.7468977404948004e-09 -3.4052843356667546e-10
1127 1.0841018880737011e-12 1.096136810436735e-12 -6.109812001899319e-12 -2.2531742777917084e-10 4.8452887878614305e-09 4.66606471299607e-11
1128 2.1684253405250294e-12 -1.084184208763737e-12 -2.2686294134303307e-13 2.461164428605963e-09 -1.3033825344040004e-09 1.1486070821486077e-09
1129 -2.1672052880349295e-12 -4.2447211266036766e-12 -8.671289412685074e-12 -8.165479407922912e-10 -5.073256981420142e-09 -1.0483257643091285e-08
1130 1.4093673991445753e-11 6.005344355169903e-12 8.673226594779349e-12 1.0002990794315834e-08 8.743216560108828e-09 -1.7632575166151415e-08
1131 -1.0929515320986064e-11 3.246726559765637e-11 -2.6021897798749443e-11 -1.7551646658149878e-08 -7.027536931471751e-08 -5.1387279554183934e-08
1132 2.0724187650708275e-12 -1.0851555228316371e-12 -3.7472102238108256e-12 7.797347443962227e-10 3.226166812711611e-09 -4.366006661214488e-10
1133 2.1687903539957382e-12 -5.246780748444674e-13 -5.704068649361055e-13 -1.6439658430463355e-09 -8.631450518144042e-10 8.052116176135143e-10
1134 1.1347242577778816e-12 -1.0838925425977836e-12 1.6909628536045846e-12 -2.8166026646782567e-09 3.922193080183025e-10 6.908544050279317e-10
1135 2.4368005632919925e-11 4.485482170922099e-12 8.673960187203316e-12 -1.0658645203020012e-08 3.760112099000721e-08 -5.155995273435188e-08
1136 5.0773520365889e-12 2.346855203280172e-13 -8.672172409627327e-12 -7.76500129484724e-09 6.079837997471312e-09 -1.1917747777002002e-08
1137 2.1513161710498357e-12 -8.330523060719633e-13 -3.555085323916348e-12 4.907434018853671e-09 5.581171122440933e-09 3.1504406653583835e-09
1138 -7.922373436508648e-13 1.6265006143223008e-12 -4.031429999984397e-12 -5.593555340987299e-10 -3.6727220825698345e-09 8.052305582736405e-10
1139 -1.7289232711145854e-11 1.0249089219436081e-11 -6.520033614735887e-11 2.7982755168186972e-08 1.694519618078013e-07 2.7021392602481476e-08
1140 5.237607016798207e-12 1.0824400975076483e-12 -8.673176019051537e-12 1.2827461244694525e-08 -2.394494505345757e-08 -5.080400942819729e-09
1141 -1.1825560083802244e-12 -5.829092639618269e-13 -8.672998963503042e-12 -1.3397282024268262e-09 2.9345397369488647e-09 1.995356448636043e-09
1142 1.6260738347815495e-11 3.8641847047462404e-11 -7.805302165228223e-11 8.812847265609361e-08 -8.475528280389862e-09 3.103664454258818e-08
1143 1.4730885409748008e-11 3.066103188875839e-12 -2.5617936975983314e-12 -4.698991524797831e-09 -6.090386736640555e-10 7.622225305201086e-09
1144 2.740022188397656e-11 4.265279012652694e-11 -6.78102707408754e-11 -1.7882794355278327e-08 -1.98203757942788e-07 -6.584810288352892e-08
1145 1.619936786508314e-12 -8.051487323694047e-13 -1.5531569745059874e-13 -3.095391233720642e-09 -5.104045479899087e-10 1.4932787142816125e-09
1146 3.1631269312651357e-11 -3.891639006983178e-11 -8.67164154156823e-12 -4.3516488799425845e-08 -6.83738113893769e-08 -4.3532301666397516e-08
1147 2.1679383323677547e-12 -3.252359500116075e-12 -8.659311972143451e-12 -6.817414258655254e-10 4.3148380675487167e-10 -2.3571661546299392e-09
1148 -1.4701452842877424e-11 2.169751970181794e-12 -8.687681901367842e-12 -2.4875111086946197e-09 3.0137109690433213e-09 2.5532399415603305e-08
1149 -1.5416217588195514e-12 -3.2516389021016905e-12 -8.673115875343428e-12 1.2227575792496316e-09 -1.9504696414382254e-09 -4.627677535943708e-09
1150 -1.716402940557419e-12 -2.051715268853017e-12 -1.4875390792089477e-13 2.0691629253880127e-09 1.7383537366865757e-09 -1.707546715358858e-11
1151 9.757008734046307e-12 -1.1498209619267527e-11 -8.675485009478634e-12 6.97338878489687e-09 -4.9184000588925315e-09 1.3196958431926165e-09
1152 -8.619045465647926e-13 1.9632784454589166e-12 -5.201409079914484e-13 2.5446422410333364e-09 2.0703479539015795e-09 -1.5506817657942178e-09
1153 -1.0840871950841283e-12 -2.167791705615661e-12 -2.689193288560575e-12 -1.1629334018675036e-09 -1.4294069559497807e-09 2.632687381814648e-10
1154 1.1928666800272523e-11 2.168941229523341e-12 8.673673728696178e-12 1.1781507469697649e-08 -8.093393197930242e-09 -1.657892941272364e-08
1155 2.164583984351149e-12 -9.758618158578363e-12 -8.672682321657579e-12 -6.758396188911446e-09 -2.3924264953419956e-08 1.9349920455875116e-08
1156 4.905933837583811e-11 2.8193903423225745e-11 2.6012569512584208e-11 -3.81208570494882e-08 8.722061432343022e-09 -7.445620257305136e-08
1157 2.16870585460167e-12 2.40662959175638e-12 -2.427970499764741e-12 -5.047158012086676e-09 -3.924836323739917e-09 -1.853412689117375e-09
1158 1.2219051739939276e-13 -2.1659451548626116e-12 -1.414757461747863e-12 1.4365891707035518e-09 -1.3867680614154611e-09 5.462052124065993e-10
1159 1.6348424997238867e-11 6.803665210838453e-12 -8.671875967872453e-12 4.143063359234061e-09 -2.1342274414152557e-09 -7.364356302954486e-09
1160 -9.270303404234971e-13 -2.1683936592311223e-12 -4.11695910153662e-12 5.104456132146762e-10 4.638833872423032e-09 -3.0014586669258947e-09
1161 2.834356304150225e-12 8.168895068635704e-13 -8.673643269362315e-12 7.867709905512499e-10 -6.400041088504982e-09 -2.7225080684162517e-09
1162 -1.0812450409033862e-12 -2.167828266426488e-12 -6.732276221298002e-12 4.044582569859905e-10 2.1685128650159785e-09 1.1217833563799112e-09
1163 -2.653019425628346e-13 2.5409992329433177e-14 8.672434873891638e-12 -1.633192913051143e-09 -1.1931108519947746e-08 -3.543121669605743e-10
1164 -5.785678692024047e-13 2.1682478373670777e-12 -1.7246000968015448e-12 -1.1804260005432057e-08 -2.4577959397938815e-09 -6.454090844448513e-10
1165 -8.122349065346002e-13 5.878694702254995e-13 -6.624747610002477e-12 4.340462217774808e-09 3.2039033444980103e-10 1.2828273912283793e-10
1166 -5.088640743176663e-13 -2.158870046497979e-12 7.720211970456472e-13 -3.118237497016403e-09 4.231432635389521e-09 -9.062632676411158e-10
1167 -3.0561045064616633e-11 2.466180126891012e-11 -4.336759106903062e-11 5.171990380777829e-08 1.9898213919339093e-08 -2.8404353708583828e-08
1168 -1.5962172394539485e-12 2.164946881150841e-12 -4.290145272992652e-12 -8.79356415941756e-10 2.5806357699623966e-09 -7.658336230456858e-10
1169 -2.17572930978806e-12 1.0827076448317574e-12 5.001303936586831e-12 3.718155544818879e-09 -1.0250893234832444e-08 1.4139283988900572e-09
1170 -1.2752147307089939e-12 -4.798396014595606e-12 -8.671873148452657e-12 2.494892393017947e-09 -4.331157982393508e-09 -4.6942619177471795e-09
1171 -4.4203283236047546e-12 2.1679575650990748e-12 -5.0201299948631526e-12 3.5342802271222456e-09 -1.330949877448407e-08 -6.070087465410752e-09
1172 -2.4969460574908736e-13 1.084498379125748e-12 -8.110674346338298e-12 3.840019915054043e-09 -5.060690025227023e-09 -2.2198220254976374e-09
1173 2.0898482957646493e-12 -3.795239688754528e-12 -4.116059832254281e-12 2.1098045670025446e-09 7.565889860537826e-09 -3.3913484331220416e-10
1174 2.1673162465765215e-12 5.688786999997705e-13 2.557254046975352e-13 1.106647720116055e-09 2.9957272486625386e-11 3.6656388418030704e-11
1175 2.919716343299612e-12 -9.763414472653962e-12 -2.6020593846350282e-11 8.483796205916975e-09 -7.099504639405163e-09 -3.993120408492249e-09
1176 1.0911020156070728e-12 1.3212926613806542e-12 -8.671036647371787e-12 -6.302860324814971e-10 -2.005308017229186e-09 4.169741003434922e-09
1177 -2.8437606317050824e-13 -1.5388412197362665e-12 -8.120218253762955e-12 -2.954010930721785e-09 -1.962792176076498e-09 2.6334040180901927e-09
1178 2.888344490604902e-11 -2.3159637821464072e-11 -8.631811619276083e-12 4.787379943041553e-08 8.543444871042492e-09 1.618139887345669e-08
1179 -7.350783790292118e-13 2.1668597838979e-12 2.9308768295222504e-12 -1.0913476261973195e-08 2.0138374790645254e-08 9.641398871654213e-09
1180 1.083548375106838e-12 9.254478189054108e-13 1.6354956143298218e-12 -4.1345648634877806e-10 3.006014953017067e-09 8.255477988060135e-10
1181 -1.5178000953949417e-11 1.327015969838092e-11 4.085604789942966e-12 -3.8876718247614724e-08 -1.7044135201395398e-08 -1.4574075069302333e-08
1182 -1.0838674161827141e-12 -2.168380830623281e-12 -3.1715298509955472e-12 1.6678456140770655e-10 2.176145589370339e-09 -4.405034552889685e-09
1183 5.672019326701282e-12 2.16847193759721e-12 -8.673706538105886e-12 2.5742243381077768e-08 3.76545475869103e-08 -5.7151656699655394e-09
1184 2.0064361416633026e-11 3.079915517359553e-12 8.673008169125567e-12 -1.7006707445576696e-08 6.752464863317293e-09 1.3005278058179147e-08
1185 -6.472683079577771e-13 -1.3982519998138888e-12 -2.541539951963982e-12 6.24104565500856e-09 -6.441084123976128e-09 -1.4047531518004931e-09
1186 -3.3552260369402966e-12 -9.797431923349847e-12 -8.674568669797825e-12 1.3365719776602259e-08 -1.983051067519267e-08 2.3564324442524345e-08
1187 2.1670625268609796e-12 3.6108216001479836e-12 -6.077615284246272e-12 -1.007401032644052e-08 -2.1556951176312e-09 -5.073417750088287e-09
1188 2.1689214828093835e-12 2.1565392258279403e-12 2.1590285966486922e-12 6.42675910297662e-09 2.016011397368947e-09 -3.200654400295261e-09
1189 1.6579859712403072e-12 2.1676339975664254e-12 -2.7580293859732756e-12 -3.2275302700950245e-09 -1.7902209088443652e-09 -1.24836339591683e-09
1190 -7.995872282502276e-13 4.095822832188575e-12 -8.674607402645782e-12 -6.737741641298101e-10 9.099015567979876e-09 1.155425205706391e-08
1191 9.708980161844136e-12 5.356903326150933e-12 -2.6018955252703395e-11 9.456093838338616e-09 -4.12016260346991e-08 -4.312408741026244e-08
1192 -1.3969883300522365e-12 -2.167798052434679e-12 3.0110982190632095e-13 -1.3475973282821296e-09 -2.2038595820186188e-10 -2.931974106552166e-09
1193 1.4803618335325538e-12 2.8583262784047275e-13 -1.0918321401874173e-12 6.885743409152266e-10 -1.0564846884410587e-09 -2.504016075424157e-10
1194 2.3509529276698727e-11 5.419328656742733e-12 -8.675707089367567e-12 2.184160833587769e-08 4.032998198055057e-08 3.7260189596988446e-08
1195 2.168339797186081e-12 -3.4156250085405053e-12 6.195733066817262e-13 -4.395655398753487e-09 -4.688553548809172e-09 6.370809529239034e-09
1196 1.4822247279374836e-12 1.0849894762700854e-12 1.184865494666859e-13 3.1682981235435337e-10 -2.749477981858727e-10 -1.024115097413557e-09
1197 -1.0367756123282553e-12 -1.0773157633945125e-12 -8.284794990161822e-12 -4.914269713266574e-10 2.50481628711358e-09 1.0118571427267526e-09
1198 6.498099157606418e-13 -1.4264086899476236e-12 -2.428641043672451e-13 -7.54262809987255e-09 -3.901506747883115e-10 -2.1278863739571216e-09
1199 -2.3591809007204534e-13 -2.258506577863617e-12 -8.670695578681995e-12 -8.809426380822818e-10 5.142778275140937e-10 1.6146656809100316e-09
1200 9.418777645432588e-13 -8.034091151945327e-13 -6.1841003060462606e-12 3.3893105373661776e-09 -1.939384500577054e-09 -4.396308817360123e-09
1201 -1.4744504584441595e-12 -5.419210206895197e-13 -8.671865020623601e-12 1.632846321234404e-09 9.724340109853839e-10 -2.1234786811690536e-10
1202 3.251567699894794e-12 3.251133006908577e-12 -6.398483334980998e-12 -5.307715780583552e-09 -1.6402584744407105e-09 5.669564839849372e-10
1203 -2.6827460167686677e-12 -3.6749430067659075e-12 -8.672760430191152e-12 6.796388147708335e-10 -1.5160663699185627e-09 -4.231592318295284e-09
1204 3.406399473439998e-12 -6.11658648945493e-12 -1.0624838162625094e-11 -7.268161447948589e-09 -5.949970239830319e-09 1.9366590398574868e-09
1205 2.0399354148328435e-13 -1.3204133838503456e-12 -8.189398790409078e-13 2.7714017124490284e-09 1.2298783590686826e-09 -1.477531304368811e-09
1206 8.666210289963082e-12 -7.718094262570824e-12 -8.672715676561196e-12 -1.5676906237530983e-08 -4.67334076305593e-09 -5.3786576835713524e-09
1207 2.2103663796588908e-12 4.141761855170779e-12 -8.672999445010069e-12 -6.3879596298538435e-09 6.1806852998592054e-09 -3.1227664033687295e-09
1208 -2.98070740594074e-12 -2.563507027414209e-12 -8.67017554963638e-12 1.8980362574946325e-09 3.3098553034737526e-09 -8.539010648943105e-09
1209 -1.852780656167056e-13 -2.1678300424573133e-12 -6.08392607999618e-12 -2.2412697105693916e-09 3.287526339237836e-09 2.3614736185527215e-09
1210 2.98235649275785e-12 -9.238494305158716e-13 -8.674845589139823e-12 6.754594112944371e-10 -1.599890728242033e-08 1.0924701626820029e-08
1211 3.795808070324329e-12 2.1670153718005954e-12 7.31649830340757e-12 -9.303731115621485e-09 -1.0324797803520208e-08 9.831642197242775e-09
1212 -1.086025348301134e-12 -1.3934633894721948e-12 -8.687870657022049e-12 6.708060437328647e-09 2.183402352119572e-09 1.77514354176866e-09
1213 2.1642250146168775e-12 -2.168036033730626e-12 -3.135582230977087e-12 -8.309923979136738e-10 -4.631285681994487e-09 -1.0168282802365576e-09
1214 2.123979883177657e-12 1.0845156256826462e-12 1.5022607712908805e-12 -5.113304952057395e-10 1.621382614412448e-09 7.621210065246752e-11
1215 -4.109222098542515e-11 2.3870590960761698e-11 -4.339570219721166e-11 -1.1973733845558542e-07 -1.1453401850472803e-07 -3.1512277215693026e-08
1216 -2.0799852287793115e-12 1.6037952792392816e-12 -3.1335597632473764e-12 2.4605413758860054e-09 7.971891845138705e-09 -3.8108414618377645e-09
1217 -3.403622201971483e-12 -2.16849095890518e-12 -7.349654501223462e-12 -8.832395306885563e-09 1.863047340841536e-09 5.427914298394251e-09
1218 -2.167458033490637e-12 -5.344275064811449e-13 -2.2020435799070525e-12 -2.5143481449389257e-10 -5.350246601242071e-09 5.419443722626206e-09
1219 -4.712520476409305e-11 -2.16892473583358e-12 -8.6739940340616e-12 8.55212111342115e-09 -6.109022305732171e-08 5.272696750703343e-08
1220 2.16824192480079e-12 -1.930409667845212e-12 1.4462994147571568e-12 1.6231563749267282e-08 -9.217857336085922e-09 1.0856750824662434e-10
1221 1.0852861164797514e-12 -1.1136095064926802e-12 -2.384888861829838e-12 2.6321738449889374e-09 -3.810747412421477e-09 -2.6931190833182197e-09
1222 3.251008477080121e-12 -1.0844440052920325e-11 -2.826525324158546e-11 1.165451736010152e-08 4.50882787612079e-09 -7.565955854205732e-10
1223 -1.4876126885454966e-12 -1.0896159286147312e-12 -8.664594645463026e-12 -8.930533200565093e-10 -2.5859214213763233e-09 2.853420273279028e-09
1224 -3.2538901521714e-12 -6.505507372191523e-12 -7.615861459519509e-12 6.9898670297410596e-09 2.1725108892582136e-08 3.5361454028203482e-09
1225 -2.085363699012253e-12 1.847109143283991e-12 -5.905673169477538e-12 -2.247496985659619e-09 -3.6986704160273123e-09 4.524786563221611e-09
1226 4.4937564994141865e-12 -1.338381164621249e-11 -9.134034935384272e-12 3.712101655472683e-08 -1.3158551801062517e-08 1.8536006706988017e-08
1227 -2.8269207576346475e-12 -2.5608458987839524e-12 -8.67460749449736e-12 -3.3894990547003236e-09 2.262759929045532e-09 1.1044752661673034e-09
1228 -5.43430984140706e-13 -3.4924521076765517e-12 -8.673148196098855e-12 -2.4031715502048043e-09 -6.38178699543187e-09 -1.251550724742812e-09
1229 -1.8987146021488637e-12 1.3582897506081426e-13 -1.0322386529648507e-12 6.310264405263946e-09 2.262023985995472e-09 -2.0984352117466266e-09
1230 4.901293489593444e-13 -3.1559163206337393e-12 -8.674361655728991e-12 1.5750695004075402e-09 5.558762005841374e-09 -3.3890913680846435e-09
1231 2.167282343553081e-12 -2.15870176251396e-12 -5.595659411361633e-12 1.6725926515808674e-09 9.175433721874376e-09 -1.974102227304603e-09
1232 -2.1684367630411015e-12 -5.916406080267845e-13 -3.990799743460032e-12 -1.6377036045856961e-09 4.495501854952637e-09 -2.9417506833825285e-10
1233 2.1027816665495073e-12 -1.0842970665091403e-12 6.525502274936641e-13 -3.294425364729048e-09 1.0402023666204825e-09 9.7148047954552e-10
1234 1.0801444522078232e-12 -1.995035037765532e-12 -5.8389642485189315e-12 7.787013794629894e-09 8.68674431099396e-10 -1.7320043699401264e-09
1235 3.2900126837012776e-12 6.083581015934722e-12 5.039001124086738e-13 2.673424186324783e-09 4.869377480950267e-09 -8.614528275735019e-09
1236 8.857165417386277e-13 -4.629638463707154e-12 -5.368021484412393e-12 2.6036182934940103e-09 3.936228571401389e-10 -6.596171737378977e-11
1237 3.786471218128769e-12 -1.095580671768929e-11 -1.4018677897816264e-11 -3.832859657295183e-09 -1.5386899879047472e-08 -3.055972612906194e-08
1238 -2.167477562441225e-12 -1.2511919326127933e-13 -6.827102128690272e-14 2.2452533021989402e-09 6.947760252958736e-10 2.1078036791831664e-10
1239 3.8236425477098256e-12 2.1683717093728802e-12 4.654227558296011e-13 5.0120103696879e-12 8.224142714012564e-10 -7.154141645867728e-09
1240 1.0865417047848906e-12 7.229097981504622e-14 -8.187812839883593e-12 -8.606373797421938e-10 -1.8188060723951676e-09 -5.293803448732185e-09
1241 2.930656801902487e-12 -1.0087095295514196e-11 -8.682220407493613e-12 -2.1437506595830637e-08 8.98542671330501e-09 -1.6470602818098895e-08
1242 2.1650258063373838e-12 3.252638773132367e-12 -8.669939812124094e-12 1.3117298145202466e-08 1.2669342094628081e-08 5.383669740783255e-09
1243 1.6248377133428258e-12 -1.6686081813601047e-12 -3.717779183877219e-13 -9.705885199743208e-11 4.380609386160443e-09 -1.6558907658436115e-09
1244 3.486105097982083e-13 -1.97851392984875e-11 -8.673556733437693e-12 7.154784209022265e-09 -1.2959230366735539e-09 -4.3710395825425195e-09
1245 6.50134315722377e-12 -5.421073723850356e-12 -8.670067971595895e-12 7.003152138762329e-09 1.8840913723706117e-08 -9.387533495384421e-09
1246 -3.5235024850517316e-13 -2.1349779787201837e-12 -4.191054451105266e-12 -4.621573462943009e-11 3.139111004944255e-09 -1.3565611442029066e-09
1247 -1.0822397513109004e-12 -2.16822464073274e-12 3.148871038822439e-12 1.4679063950206284e-10 -3.7856673510186683e-10 -2.867266778095407e-09
1248 -8.27976756807138e-13 5.013724776866813e-13 -4.875449399089676e-12 4.559159160410437e-09 -2.8319804838349177e-09 -2.3893119967846668e-09
1249 2.16737363640304e-12 -1.7205428411791538e-12 -5.076979311518549e-12 1.0173997174214847e-09 8.883792773988324e-10 -4.993848581925522e-09
1250 8.51502616216927e-13 -1.0850627123710697e-12 1.1247929219374746e-12 2.822397148990754e-09 -2.117948731521507e-09 -4.001646662909267e-10
1251 2.715987856297965e-12 -2.7081933534221958e-11 -2.6020852933605727e-11 1.6600290908138072e-08 4.813419923663024e-09 3.072075003085256e-09
1252 2.7279790964212973e-12 -2.1676007798129704e-12 1.2732549524739345e-12 -1.7923418904937904e-09 -2.4945432737049695e-09 -7.898273719043899e-11
1253 -7.104152633912593e-13 -2.168454072135605e-12 -6.605894713656463e-12 2.4183333811955953e-09 1.360628904841067e-09 1.3619991917238834e-09
1254 -1.3529355938336157e-12 -1.030032884002108e-11 -2.2568246539443298e-11 7.727784306665925e-09 -1.3838209733291123e-09 1.9077765374092704e-09
1255 -5.415774405708394e-13 -2.020637950666119e-12 -6.9325231368700586e-12 1.1512100423659133e-09 -2.3756113002084456e-09 -1.1907331740985622e-09
1256 7.921434677242034e-13 -3.3896689289159754e-12 -8.672811790835325e-12 4.877946625380737e-09 -1.1318683999926886e-09 -1.421670543489988e-09
1257 2.1660899037197267e-12 -7.076527639286417e-13 -6.164290091333321e-12 1.118556813806475e-10 -2.7618336463871676e-09 1.87325625667265e-09
1258 2.1657963737209015e-12 -1.9783774757836588e-12 -5.119189131140117e-12 -3.3460750337369585e-09 -1.6344340097448954e-09 5.860341131208681e-09
1259 2.169508692686179e-12 -4.79641904264236e-12 7.89486255408186e-12 1.8923707862174897e-09 7.638359857491977e-09 5.114974449820083e-09
1260 -4.441032107623666e-12 2.168168595794384e-12 -8.673115444530344e-12 -3.2422745660069776e-09 1.2084862499391231e-08 7.719439641728706e-10
1261 -1.6629900965418317e-12 -2.8796170958162967e-12 -8.673266466842959e-12 1.9994764797730987e-10 2.6929601437429633e-09 1.9760063458741192e-09
1262 -5.418934249159681e-12 -2.16975207641168e-12 -3.3018182253355376e-12 -5.692960394837022e-09 7.602362258038708e-09 8.649739181578259e-09
1263 -1.7596251042892062e-12 -1.516327982404621e-12 -8.673015326178544e-12 -4.0912961046779393e-10 -2.358450559434034e-10 1.2398288101276819e-09
1264 1.070682699075384e-12 -1.0307771067363417e-11 -8.673102658606373e-12 8.144571117363954e-09 6.867913539021534e-10 3.824464760103422e-09
1265 3.903312496705518e-12 -2.0486788819386066e-11 -4.336386588472892e-11 -2.776072839143687e-08 -4.542927042359697e-09 3.5244392840934937e-10
1266 -2.168466261786438e-12 4.799893827911119e-13 8.02000606997027e-13 4.262282937001499e-09 5.4096680720995315e-09 -3.567771464914451e-09
1267 -1.6397521142980697e-12 -7.1386524251395365e-12 -8.670655983339967e-12 -4.916990965416899e-09 3.2295840964461206e-09 2.480136457214642e-09
1268 -3.2576580957989203e-13 -2.170297972303381e-12 -8.673332105072097e-12 -7.792069047883893e-09 1.2480884250093867e-08 -2.7321214414367892e-09
1269 -5.902204746380597e-13 -2.13906330719503e-12 -8.658484110303859e-12 -6.297759592516654e-11 -9.61856328626097e-10 -2.1933321297410806e-09
1270 -2.167866027015517e-12 -6.382959507065129e-13 1.1615853535035023e-12 5.263441402903375e-09 -1.9728141363449773e-09 9.049166088657362e-11
1271 -1.1841471754168257e-12 5.430028159742362e-13 -1.4837215875240177e-12 3.032430440860932e-10 -1.997468148909802e-09 -1.240407685187581e-09
1272 -1.314130327985565e-12 -4.980688166559595e-13 8.002803272639703e-14 -1.8034945066096317e-09 4.268255920532844e-10 -1.9410398770398433e-10
1273 3.8368610533204346e-13 -5.221093749923076e-12 -8.675390342396279e-12 -3.4862942643906523e-09 4.387206828357519e-10 -5.677557686282862e-09
1274 -2.860914588949125e-12 -1.0840944634981394e-12 -8.673467526465105e-12 1.1251008409638492e-09 5.956363185612897e-11 -2.8706862113810434e-09
1275 1.0861766899999131e-12 1.3039745025195923e-12 -6.975568927114483e-12 1.1712456303596673e-09 -3.4755539143527484e-09 6.105457530087487e-09
1276 -2.1683836354030897e-12 -2.162286483654265e-12 -4.166462859756784e-12 -1.7348122209074718e-09 -8.916007766019352e-09 1.045925021450294e-09
1277 -7.630839616297325e-14 -4.327552476203185e-12 -8.674721719896385e-12 6.845517277234785e-09 3.470415045461233e-09 -2.097629364351292e-09
1278 2.165957681884666e-12 -4.719731860011608e-12 -2.8378024611769825e-12 -3.8600630263431884e-09 -1.4390143229825975e-08 2.19593060368557e-09
1279 1.4846871518335453e-13 -1.6262804641436643e-12 2.4355482866942125e-12 5.475467777578773e-09 -2.2806569584931416e-09 -1.4893137796449387e-09
1280 -2.644384966315641e-13 -2.1668893807357886e-12 3.794396470495895e-13 -1.284776361110354e-09 -9.136859312427797e-11 -3.170816490738882e-10
1281 2.140232694686236e-12 1.874097931650589e-12 -8.652042948203458e-12 -8.14791896410163e-09 5.760356412565645e-10 -1.1113242506697069e-09
1282 -1.0867597293952385e-12 -2.460165950100414e-12 -8.670960038152984e-12 -1.9068570192762527e-09 -2.32891343474977e-09 -3.622273956042955e-09
1283 1.9286594510220096e-13 -5.427031131708363e-12 -8.675333077036003e-12 -1.6222805506650165e-09 -3.3830906145060463e-09 -6.756688486931584e-09
1284 3.4820833078727397e-13 -2.167554243709523e-12 -5.2707842206644454e-12 3.2594687062340687e-09 8.996964206270056e-10 -3.5738607315852177e-10
1285 -1.0635277447199209e-12 -5.9653186310733195e-12 -8.668939601746233e-12 2.0652138202950535e-09 3.309531363332592e-10 -1.4523291911100046e-09
1286 -1.4967277018947518e-12 1.0845823258238345e-12 -7.278753619107959e-12 3.42057903684712e-09 -9.329988571071964e-10 6.458099315711484e-10
1287 -5.405864300254232e-13 -3.2523217357726157e-12 -8.67235148340323e-12 9.311215855039265e-10 1.894560387939963e-09 3.233040794399284e-09
1288 -4.054565324609863e-13 -1.181940142148471e-12 -1.840293193374004e-12 2.829924742048204e-09 -2.2663766627447323e-09 -3.216780589113027e-10
1289 2.159886017654249e-12 -3.5985915126365653e-13 4.773838668478597e-13 -1.1449962478406714e-09 -3.4786117431682053e-09 -3.1420945255734083e-09
1290 5.185083953097255e-12 -5.991478642431759e-12 -8.670636084738196e-12 1.2771407088189282e-08 -8.925519547081278e-09 6.5098386664745906e-09
1291 1.026436714860092e-11 -1.984149407000337e-11 -1.1275474975012351e-10 1.2464605917337054e-07 -5.446052197825972e-09 4.412116853951953e-09
1292 1.0835307433210594e-11 -7.734952836772156e-12 -1.4770830218878823e-11 1.730980613889598e-08 2.0585817586485203e-08 2.0548570708894124e-09
1293 4.823777431286206e-12 -1.9706039967086875e-11 -2.8816862968239937e-11 -3.2152052036879507e-09 5.6510910977531265e-09 4.72113998090344e-09
1294 3.2676861841564976e-12 -1.14880220970131e-11 -2.4694635214597522e-11 -7.603138962549527e-09 -1.2318892539322232e-08 1.8718539630689862e-08
1295 3.801734519600842e-12 -1.0840299284256914e-11 -8.677043163137297e-12 -5.023415504356685e-09 -5.530975356443684e-09 3.284081600491647e-09
1296 -2.1702183779933008e-12 -6.619229666114327e-13 -8.673265105620794e-12 4.434821440997697e-10 2.3253077503128226e-09 1.4818739790760634e-09
1297 -9.009381547900591e-13 -5.420261805463663e-13 -2.9087282186545833e-12 -5.197242942626151e-10 -2.851086783747638e-09 1.3537625186356588e-09
1298 2.1676053065117043e-12 -1.8100838624542447e-12 -8.666779640842175e-12 -1.3949571226480656e-09 1.4505028500048065e-09 -2.3340053307694678e-09
1299 -9.92137569551092e-13 -3.2021254444252855e-13 -5.179137853749617e-13 8.674440026634293e-10 1.1973099119165703e-09 7.456368390574562e-11
1300 4.691756007380279e-13 -2.168589292596411e-12 6.245709973381372e-13 -5.5479448578686615e-09 6.654079227251743e-09 7.80775097146453e-10
1301 -8.538942895213096e-15 -2.1414763864191102e-12 4.506537767981685e-13 -1.2082315038411037e-09 -1.2830198607602078e-10 1.9269789046083278e-09
1302 5.4228950084201645e-12 1.0136124954649252e-13 -8.673366461242437e-12 2.5641283591444256e-09 -1.13830237730426e-08 9.790324722890018e-09
1303 3.5520614520818784e-12 -1.0828149739561408e-12 -4.354957765253772e-14 -3.6827646839875924e-09 -1.6217667116527248e-09 2.0956911270873843e-09
1304 8.415443028660021e-13 -1.36297512535704e-11 -1.3241884257887608e-11 3.838282775477998e-09 -1.3808798005476885e-08 7.01320773213931e-09
1305 1.9541144650624587e-12 8.369895863661619e-14 -1.0563578238200983e-12 -1.5892414574426629e-09 3.99930331537656e-09 1.8526194275286144e-09
1306 5.419835570192117e-13 -1.6291367840666132e-12 1.2846860262017068e-12 -2.3003584375724695e-09 2.8383511339778897e-09 7.006942578702155e-10
1307 3.24877910368931e-12 -8.191932659229853e-12 -8.672904340179244e-12 1.3467566998747785e-09 -3.273155390989659e-10 6.964699305027143e-09
1308 1.777397515757332e-13 -5.137297421983905e-13 -1.9063534760775302e-12 -2.5466479406999565e-09 -3.948674297011482e-09 1.7529243915279104e-09
1309 2.1699804645447423e-12 1.027764555784016e-12 -2.9303118333041442e-12 -1.3472057792902025e-09 -3.565735724227189e-09 -4.3871040864344586e-10
1310 1.34178982310984e-12 -3.2401479316624516e-12 -4.492438827834144e-12 6.289274179613688e-09 2.041781322564232e-09 4.490586471355904e-09
1311 6.659754640007799e-13 -2.1653165066142835e-12 -2.2152643812365675e-12 1.0560803421749918e-09 -3.517029912983767e-09 2.071701453815709e-09
1312 -2.15793212085051e-12 -7.691488615662656e-13 -7.450758531474774e-12 6.718418959231801e-11 1.8141917726987396e-09 1.277399931315385e-10
1313 1.7194648506512683e-13 -9.251488690724285e-13 -8.672037144812893e-12 -2.436160979847376e-10 2.791936453576218e-09 1.0703127051181164e-09
1314 2.3260265967826652e-12 -7.571465389677116e-12 -1.4482969019859163e-11 5.124619866207171e-09 -6.782200910854072e-10 -7.040252902749911e-09
1315 -6.85052034265791e-14 -1.3015405018588586e-12 -2.8185980323662225e-12 3.574944006237299e-09 2.1248336559356925e-09 3.8905626374079387e-10
1316 -1.0816443147918308e-12 -3.4009426511048437e-12 -2.1401254070551002e-11 -1.1422858912884172e-08 3.996535620951519e-09 -4.173383330704222e-09
1317 7.343553461009264e-12 -7.772263374474125e-12 -8.674262786147556e-12 3.521100958327389e-09 -2.2503052983087155e-09 1.639755769895345e-08
1318 -1.0987330340017939e-12 -5.271261894440459e-12 -8.673609254268868e-12 -2.484842238053541e-09 -1.7953904287018513e-09 1.7920218145567843e-09
1319 -1.0819821583655902e-12 -1.4332002463624429e-12 -8.67088186772076e-12 -1.5616122676450155e-09 3.5275709546055902e-09 -8.272870372894225e-10
1320 2.36595850235462e-11 1.7567276402505603e-11 -8.676626615318452e-12 -6.203820956736862e-09 -8.036877479932107e-09 9.621746219470409e-09
1321 2.4753578341165964e-13 -3.692448906074196e-12 -8.673045825613392e-12 1.2142712483366884e-09 1.3003570241537886e-09 6.684441273744636e-09
1322 2.2714702029703906e-12 -7.872609920761934e-13 -8.671987053792669e-12 -4.20935552660018e-09 6.241237574353848e-09 7.298713328596753e-09
1323 1.354878212406357e-12 -1.0832703165946307e-11 -9.109025035239308e-12 2.08582825136411e-09 9.402507122609612e-09 2.2126303368871312e-10
1324 5.41861826600134e-12 8.641898020527147e-13 -8.3804146674383e-12 1.563508082276296e-08 -3.6075891378354042e-09 -2.2305027103783866e-10
1325 1.746213522648887e-11 9.760391330953194e-12 -8.673266904875767e-12 8.663620451708141e-09 -2.6197563072865272e-08 2.2901804480155286e-08
1326 -5.411388314999469e-14 -1.3564477339425332e-11 -1.6325738963520355e-11 2.9706126005178626e-08 2.8087666520344736e-09 5.098126640199676e-09
1327 1.9515395413788295e-11 -1.517881168961744e-11 -3.82410223796962e-11 9.500117497301141e-09 6.421028528642523e-09 7.289306459974095e-09
1328 1.1114047126514795e-12 4.606211837326897e-13 2.728163409257742e-13 -1.5638995835088738e-10 5.986545317438894e-10 3.2840095945724643e-10
1329 -2.1678079401168354e-12 -1.0845834218056094e-12 -1.3164714195651406e-12 -1.8387910235091654e-10 -2.365754811789605e-09 1.7583041304361336e-10
1330 -1.0841736428641198e-12 -1.0848598262348278e-12 -6.930875072817581e-12 9.742625280017792e-10 -1.5050835860382356e-09 -3.265878596103216e-10
1331 2.165905794961714e-12 -1.5441024433389517e-12 -8.660908125388808e-12 1.1196633536226752e-08 -6.396915450804726e-09 -3.892048531272248e-09
1332 1.4215825823864818e-11 -3.471113314495016e-13 -1.598890942877052e-11 -4.20099372869953e-09 2.4456584262332772e-08 -1.6078822197116879e-09
1333 -1.0776185231476156e-12 -3.251685728095541e-12 -8.672133401520652e-12 3.5317429205729653e-10 1.2333261056818915e-09 7.8144867101262e-10
1334 3.327649481185115e-12 -2.982115456111246e-11 -3.302650613846131e-11 -1.4514337628846455e-08 -2.750457015975464e-09 -1.9540349908797773e-08
1335 -2.1614581228900514e-12 1.338554148318813e-12 -8.673759651778624e-12 7.67142183539304e-09 -6.81342487324153e-09 -3.0825794952624882e-09
1336 3.917557897544309e-12 3.5370710182122647e-12 -3.2109832053798397e-12 -8.709638876552403e-09 4.803224540569442e-09 1.6710517688125578e-09
1337 8.346868840187573e-12 -1.0824371514499246e-11 -8.673053910669587e-12 5.934559408699738e-09 -5.6659263037058045e-09 -8.833658757823383e-09
1338 -1.1311738520206702e-13 -1.7577849245861149e-12 -1.4294783140253571e-12 1.8415449865417129e-09 1.0904742622827654e-09 6.968131762805427e-10
1339 -3.1415443962982596e-13 -4.880073197710723e-12 -8.671399092593356e-12 2.3524777100818016e-09 -1.2744558577598964e-09 -3.5878201296626254e-09
1340 -2.823650729764744e-12 -6.210415542980966e-12 8.66896908218035e-12 1.715915536817391e-09 -1.1972607497547262e-08 -1.0350798434084283e-08
1341 2.1689320632621703e-12 -1.2403653431028574e-12 -3.2634071595134533e-13 -8.062761182501854e-10 -1.2342256247834272e-09 3.286544492690361e-09
1342 -1.8362637270385594e-12 -1.0845490362316362e-11 -8.674042610674095e-12 -2.4720706625280746e-08 6.2337993248582964e-09 2.223105702267353e-08
1343 7.232511577101257e-13 -2.148763193527327e-12 -5.933844728091389e-12 1.325938640547923e-09 2.3534092549410768e-09 2.1550968311518993e-09
1344 -5.422934454315814e-13 -1.4210340528696985e-12 -8.67004520986004e-12 -4.377037715069119e-10 -1.0927678157719044e-10 3.25636128087662e-11
1345 2.164520117130725e-12 -3.2533539081390213e-12 -7.442127446888642e-12 8.746698122284284e-09 4.647082919479443e-09 2.6460875202799676e-09
1346 -2.1652606530078116e-12 -4.276610107908516e-12 -5.906645480066491e-12 -3.4526207983183603e-09 3.976024259727316e-09 8.221385933568104e-10
1347 7.884405741607716e-13 -1.6593155724443636e-13 -2.131442544547878e-12 8.431702870073106e-10 -2.891684247182386e-09 7.5257074192625e-10
1348 -8.376905705326242e-13 -1.6340732328290773e-12 -8.672612837150691e-12 4.867388002447202e-09 2.8785079711161364e-09 -1.2042580093082298e-09
1349 -1.20222081165686e-12 2.167469003230761e-12 -1.2692574176310093e-11 -2.301208567525744e-09 1.899731780436691e-08 -5.387036634221452e-09
1350 -2.6354382227147113e-13 -4.095732886810487e-12 -8.673230846255909e-12 5.631551042120965e-10 -2.8298451633623648e-09 3.806895609351041e-09
1351 1.0973225253788334e-12 -2.1683793631608536e-12 -4.525793164100527e-12 -5.128869880471179e-09 1.9583014391873177e-10 -2.275452513332173e-09
1352 -1.1783136844112007e-12 -1.4090841098268095e-11 -1.729107693827829e-11 -3.2785366452029434e-09 -6.734976531574394e-09 5.634777696463187e-09
1353 -2.173220740444007e-12 -2.8662540635494573e-12 -8.673475687117391e-12 6.588646947216627e-09 -9.343148064464397e-10 -1.924042579548624e-09
1354 7.974799516879912e-12 3.942247672837132e-13 -8.674984496388766e-12 -5.476744765714811e-09 -3.28265702926907e-08 -9.727292874752041e-09
1355 -1.3229872710332156e-12 -2.1657241061347654e-12 -2.2635055410658215e-12 -6.56482871333233e-10 -4.7375019695089936e-09 6.075750946840777e-10
1356 -3.3133961201386492e-12 -4.757191722056766e-12 -8.673514546413583e-12 1.5922157310137805e-09 1.943682584730113e-09 -3.0580280825589347e-09
1357 -1.0841222754122385e-11 6.5061062241217255e-12 -4.875269642643288e-12 -4.832420424229016e-08 -5.730709677222828e-08 -1.5954216941144023e-08
1358 -2.405236431097819e-13 -1.2668127406649839e-11 -1.1029112720072392e-11 -6.031035633981946e-09 -3.967076061260574e-09 1.1428999321319016e-08
1359 2.168971214170507e-12 1.084222177463549e-12 -8.243933167314515e-12 7.820626699983153e-09 -2.7905195263710492e-09 -1.4724156435090834e-09
1360 -2.1681952839981164e-12 -4.551065543872089e-12 -8.673272387886114e-12 -9.685450063471388e-10 4.550702044526761e-11 -2.756523341448976e-09
1361 1.6009795688548018e-12 -2.614117415071995e-13 3.212892095869022e-13 3.257190205905614e-09 7.430495412386987e-10 -2.252039098248747e-09
1362 2.166458682257935e-12 -8.097907003201515e-12 -6.682440310291601e-13 -3.298182437876281e-08 -1.2907844683589189e-08 -1.060542653420994e-08
1363 1.0846170539969288e-12 -2.1661298139590635e-12 -1.1585212492827204e-12 -2.7541220586009957e-09 4.2863455526192935e-09 -2.1442674348066208e-10
1364 3.900543494438051e-12 -3.5158259674500224e-11 -2.60228019122295e-11 -1.739881260706602e-08 -8.625175719667782e-09 1.0362479255986902e-08
1365 -1.0826671816090183e-12 -2.8880252747578355e-12 -8.67262114686692e-12 -4.837931823558337e-09 -2.143028579464363e-09 -1.5694859650488726e-09
1366 2.8820749144929863e-12 -2.1632290911119134e-12 4.03350450570748e-12 -3.218879595323647e-10 -2.2391863253274044e-09 5.330809598720487e-09
1367 2.1685207103685467e-12 -1.4747341401426677e-12 -2.6580237902245187e-12 -3.1876284606092663e-09 2.0796825764005086e-09 2.288013084547943e-10
1368 1.191595258488231e-13 -6.708637616468045e-12 -8.675235826847727e-12 -1.2922227244135303e-09 -2.2196328527382137e-09 1.0555507403900903e-08
1369 -2.1408531216981837e-12 1.0887686626796743e-12 -8.640576409800334e-12 4.303335958089672e-09 -6.65194272618316e-09 1.7611558278509206e-09
1370 -5.421862686734778e-12 -2.706147336334202e-12 -8.673955108805124e-12 4.699628754930141e-09 4.750254660529154e-09 -7.615435919460245e-09
1371 -5.4609080701471e-13 -2.1661090124764413e-12 -4.88119316809761e-13 -1.2425025086473167e-09 -7.57687312694797e-09 7.062202574930347e-11
1372 -1.1885247716958551e-12 1.8744397178559336e-12 -2.9813961227633634e-12 -8.229464323507042e-09 1.0133894483069774e-09 -6.770027704070547e-10
1373 -4.373198123024764e-13 -2.1664591350897116e-12 -1.0493932813494425e-12 -1.96645629621557e-09 1.7045368008070998e-09 -7.678719466268179e-10
1374 2.167290866943137e-12 -1.0842754995540696e-12 1.0605815768632205e-12 1.0348523945769234e-09 -2.5204770076212284e-09 6.520383154630519e-10
1375 3.931380724529539e-11 7.0862152345449156e-12 -7.80261080199097e-11 7.894287479319775e-10 1.060372102297808e-07 3.578638287526189e-08
1376 -1.1376366091546076e-12 -3.5048943349570502e-12 -8.670961241284006e-12 -1.10899207980711e-09 -2.218949442547721e-09 5.622039542286232e-09
1377 -2.709870214667636e-13 -1.4827138009874305e-12 -3.4544134935050106e-12 1.621619669740691e-09 2.8162571469096246e-10 9.882579369049796e-10
1378 5.835690326057807e-13 -1.1436837741841683e-12 -8.656979055672276e-12 -2.1379973243687596e-10 -2.2768247659808493e-09 -4.544862718480842e-09
1379 1.101294218002386e-12 -5.423253824357957e-12 -8.675601818783845e-12 1.6166431552240434e-08 -1.1108705474352204e-08 1.8632625852343098e-08
1380 -3.9948539119323947e-13 -2.1664561771059383e-12 -8.547408792275665e-12 6.988493273881047e-10 4.339286439010791e-11 -2.381333767003774e-09
1381 -2.0606959726955455e-12 -3.7057658957282906e-13 -3.628480095944524e-13 -1.0944775111879974e-09 -1.6298458706203235e-09 -1.0943001570993424e-09
1382 -5.441218785595486e-13 -2.168258060594078e-12 -6.831691483184319e-12 7.004215044501375e-09 8.226726057912844e-10 -5.155504472989956e-11
1383 -2.0623033915574426e-12 -2.333018273567948e-13 -7.440789392557991e-12 9.921512645023304e-10 -5.116772083537253e-09 3.2237160922646875e-10
1384 1.969368258972401e-12 -2.167264814403098e-12 -2.5154926165428575e-12 2.2927745897019552e-10 2.669057222981368e-09 3.598866147554823e-10
1385 -3.0840972591598433e-13 -2.1660623055430163e-12 -6.2176221263078924e-12 -8.320760032019905e-09 -1.910445759429369e-09 1.0252052081744384e-09
1386 4.5327110768650327e-13 -1.0838088047470392e-12 -1.2029173626352862e-12 1.4089333178473203e-09 1.2826015303510473e-09 -7.562021805942763e-10
1387 2.1678233928082836e-12 -3.8745281075031993e-13 -5.828524979632319e-12 -1.1752283848305956e-08 2.14931325759845e-09 -1.4492465975904194e-09
1388 -1.084106398803266e-12 -2.1685123942501236e-12 -3.467282468584378e-12 1.0377224657251902e-09 -6.457971324350767e-09 -4.295976456386853e-09
1389 -2.1667824094716037e-12 5.419633896212115e-13 2.2195856673849326e-12 4.847962119684971e-10 2.9533811022695217e-09 -1.5740359969900056e-09
1390 1.0421374523518793e-11 -1.5455272418907412e-11 -8.673060150531967e-12 1.3284361158583763e-08 3.890120822562811e-08 -1.4032332356276175e-08
1391 -2.161213420627531e-12 1.3814130353515155e-12 -6.597369456208224e-12 2.941877692861014e-10 -8.677020925874898e-09 3.279717991543661e-09
1392 -3.2621524168730324e-12 -1.2406788060106266e-12 -8.670132496352052e-12 5.967762608672514e-10 -1.2906749824330216e-09 -6.198398714622219e-10
1393 2.1677564676168565e-12 -5.843896416625214e-13 -5.05864747581005e-14 -1.3981410878628842e-09 1.2678841958347215e-09 1.0021422884959864e-09
1394 1.1630950261490935e-12 -1.2688256025411776e-12 -8.672007261186837e-12 -2.8151400806092767e-10 1.3721910398530103e-09 -1.8123097429631628e-09
1395 1.0863413314995692e-12 -8.687671490278999e-12 -1.1553426688736849e-11 1.4366826828133804e-08 2.0017709817305606e-08 -7.2246880742368436e-09
1396 3.706454049813156e-11 6.5027861997017225e-12 -7.677088896190794e-11 3.341888390872764e-08 -1.0145976218766883e-07 -5.484131072585986e-09
1397 3.931552651597666e-13 -5.782099884519181e-12 -8.673326711080448e-12 8.466212999759753e-09 -3.868340970400136e-09 -4.644917570244028e-09
1398 -7.012544974652669e-12 -1.933171055813329e-12 -2.602077600942905e-11 2.2042206023677505e-08 -1.3275782712478229e-08 -5.345323260862913e-08
1399 9.344669968511226e-13 -2.166401409840598e-12 -5.2618884257225255e-12 6.606970515279454e-09 5.714095239494747e-10 1.4686032634833549e-09
1400 2.1680354871867994e-12 1.0842186773273908e-12 -8.504066567145874e-12 3.379548987357943e-09 2.758642711063008e-09 4.658191042097148e-11
1401 1.9341614947089464e-12 -1.0858337331114318e-12 -3.638189673891308e-12 2.8227454272466835e-09 2.2838805019374815e-09 -7.204133853259005e-10
1402 9.760001979907544e-12 -1.4095428909252826e-11 -2.3226725625243966e-11 -5.148666034459398e-09 -2.644150544892817e-09 -6.472912302968066e-09
1403 7.188013274935614e-12 -1.0839671057322171e-11 -2.5778712154508705e-11 8.562305674277721e-09 -2.5485922449778325e-09 1.454362937878938e-09
1404 -1.6856198074715583e-12 -2.1682255439258377e-12 -8.411913108952758e-12 1.786569728730311e-09 -4.711069795837744e-09 -2.4436194337523423e-09
1405 -1.1930580030417333e-11 2.6155205678541144e-12 -1.3779919650190421e-11 9.94623854692812e-09 -2.3846925983063958e-08 -1.3789979157455235e-08
1406 5.5842657295072825e-12 -2.0114097179383504e-11 -2.6021036117592727e-11 1.328318218347799e-08 2.4638728806258354e-09 7.863191542962476e-09
1407 1.083835366186854e-11 -8.046051635339436e-12 -8.669630885442643e-12 4.50567273238117e-09 1.7378028616267459e-09 6.612115709309001e-09
1408 -1.68561387718976e-12 -3.2451187559788533e-12 -8.571446689253454e-12 -7.685899856819469e-10 -1.1622196370206096e-09 9.358200821791717e-10
1409 8.934209429937899e-14 -2.169318192479819e-12 -8.672539727462894e-12 1.950419208865915e-09 5.844845005796994e-10 -3.7229587003496663e-10
1410 2.0976483738085824e-12 -2.16805561858652e-12 -1.3910337867435439e-12 1.2669389635446061e-09 -2.5429263656473787e-10 -1.850770742594983e-09
1411 -3.146591866089581e-13 -2.080234908594024e-12 -8.673411425522452e-12 -7.785320365476375e-10 8.422097876809355e-09 8.077359806143632e-09
1412 2.1684255183815386e-12 -2.1330741004552796e-12 -2.669116355293135e-12 -8.619449016188934e-10 -5.322531861217033e-09 2.150178389907203e-09
1413 -3.2960884598330238e-12 2.1612352007861542e-12 -1.7340053957232724e-11 6.490341342177337e-09 6.248643626895128e-09 -1.1562364909220727e-10
1414 -1.5930047058781454e-12 -5.422572181386925e-12 -8.66947988223939e-12 -2.064424044103884e-10 -1.0063174281240131e-09 3.2696302041424945e-09
1415 -1.073910173015757e-12 -4.822974162966053e-12 -8.673257231699667e-12 -4.3462391964015605e-10 -4.743256198426572e-10 4.903328093853315e-09
1416 -4.616882742825587e-13 -2.7570779322290204e-12 -7.729618999757242e-12 -8.834821287358738e-09 -2.226276146058701e-09 -7.46941483518443e-09
1417 -1.4849706262820339e-12 -1.0411781172801913e-12 -5.80983549814641e-12 -3.0247988453480146e-09 1.2933420369760691e-08 -1.497058979104396e-09
1418 -2.1681642726371896e-12 2.166186715831577e-12 5.908958487040875e-12 8.580325181888021e-10 1.5789699302890743e-09 1.797588442128881e-09
1419 -1.1379493189337922e-12 5.487139964277825e-13 -7.566335670631415e-12 5.37148983771365e-10 -4.2974217875107465e-09 3.3425181664834138e-09
1420 -1.0847376036104032e-12 1.0838007140251507e-12 -1.5125584919253224e-11 2.0400228189435012e-09 3.5244238240864333e-09 -2.702779630380612e-09
1421 1.0852201388642579e-12 -2.1685783194846996e-12 9.13559659158982e-13 -4.1937578791076e-10 -3.1951470985771894e-09 -1.3826765919788826e-10
1422 -2.0946634037279417e-12 -1.7530471660557928e-12 -6.3907963574457695e-12 -9.441487010084859e-10 -3.4300901366945423e-09 -3.434332809349504e-09
1423 -1.8564473744967663e-12 -3.2539912079672133e-12 -8.674066721323129e-12 8.333762924120166e-10 -5.977498412199916e-11 7.347710503078274e-10
1424 -2.163549607105776e-12 -2.168018691812362e-12 -7.430180543167806e-12 2.6468148713114852e-09 3.316192473175384e-09 -9.730578567248035e-10
1425 6.790294511860061e-13 -2.506827682398246e-12 -8.673255706729232e-12 1.8304660273456792e-09 9.099058445254373e-10 -1.284300762889739e-09
1426 -1.9636508214647287e-12 -6.403323570347787e-12 -8.669799244620009e-12 2.6866944832368434e-09 -3.458706618481572e-10 -2.416518288007716e-09
1427 7.041965768744876e-13 -5.130375621789779e-12 -8.662084602021819e-12 1.297360598386635e-09 1.3938248458889617e-09 5.4151457215584015e-09
1428 -5.697142550117819e-12 -1.0393758268180952e-11 -8.674919990401592e-12 -4.717982719370503e-09 4.1729094769315685e-09 5.156191001299634e-10
1429 -1.3965156785070759e-12 -5.017823444391687e-13 1.3053367506347877e-12 -3.3389445175255723e-09 -1.9608050885945343e-09 -5.442148940656938e-10
1430 8.475125512552006e-14 -1.7477759592520363e-12 6.1308191418964074e-12 1.8726689323866124e-09 -1.0751842179358985e-08 -3.7958044909659974e-10
1431 -3.7192690682239747e-13 -3.1308540498954796e-12 -8.67354284256897e-12 5.324154222595996e-09 -4.157196171667526e-10 -2.863306839138777e-09
1432 6.730102928690917e-13 -5.590906646681796e-12 -8.673985233278624e-12 5.545843709713204e-09 -1.7274147253514597e-09 -4.742697660579811e-09
1433 -1.0843517980861674e-12 1.1678876075458647e-12 -6.57763050667189e-12 -7.669416010202744e-10 -9.923117277683666e-09 -1.4264634546432925e-09
1434 -3.51219036192833e-12 -4.477180172428275e-12 -8.67406519498719e-12 -4.226480383488921e-09 -4.130419663648853e-09 -5.14602271413174e-09
1435 -2.168653203680854e-12 -9.943561475976488e-13 8.426238323575432e-13 -3.894772323261232e-09 -3.0380539209164594e-09 4.398082966068915e-10
1436 1.55658277045761e-13 -1.7889083535727433e-11 -2.6005812636324518e-11 -1.6880941838477423e-08 -1.2865989744247773e-09 -6.232821719500607e-09
1437 -2.1684318037873738e-12 -6.810861065841808e-13 -4.835313102581652e-12 9.802932988461301e-10 -5.805895433564223e-10 -1.5921295917976589e-09
1438 2.1376031063588575e-12 -6.272639087018438e-12 -2.4067429126043843e-11 -1.3623581057196231e-08 -5.81646549179527e-09 -3.625505911363097e-09
1439 1.0516492540984607e-12 -1.8949018318195906e-12 -8.6720051173609e-12 9.558653582517422e-11 -4.001403070208509e-10 1.4859926687214078e-09
1440 9.832488307772837e-13 -1.0439226220992984e-11 -1.2125146393146008e-11 -1.752957475345272e-08 -1.2733268793508131e-08 7.718743507964592e-09
1441 4.4323319376096595e-13 -2.167558131167264e-12 -3.693802937257623e-12 1.074271509226161e-09 3.379550794836725e-09 -5.627619456329817e-10
1442 -1.0843027280195268e-12 -2.1627043656213165e-12 -8.673409048779123e-12 -4.541097806709875e-10 -4.4592711737343115e-09 1.924001786614573e-09
1443 -8.559813887671856e-13 -1.0829767868420403e-12 1.0518339886294748e-12 -1.952327081927071e-09 2.1328621361446295e-09 1.0657628136388026e-09
1444 -1.0347004550979588e-12 -1.7815828662299022e-12 -8.663510292165129e-12 3.288976545841326e-09 -8.090816888655633e-11 3.978811977139419e-09
1445 -1.0841433783764426e-12 -1.0321905340678224e-12 2.146665970764244e-13 -1.387555623761896e-09 -9.017763575862877e-09 9.05061439320162e-10
1446 -3.5314673808689626e-12 -2.162891965675082e-12 -8.671993098559356e-12 -1.3676163167058916e-09 -9.876206352762512e-10 -9.820320814218128e-10
1447 -6.270918616616624e-13 -3.081357291119653e-12 -8.673953713774075e-12 -1.3117911430256356e-09 1.9126918443356253e-09 -2.4926273802918064e-09
1448 2.1684142491355463e-12 -1.0840910692829344e-12 6.578299839612594e-13 7.952000708285088e-09 9.427623634333638e-09 9.841704856618552e-10
1449 -1.9737625937125417e-12 2.171689633130059e-12 -8.671518975792676e-12 7.72655264162627e-09 -7.168375620024816e-09 -9.251945976397993e-09
1450 -2.010995847666535e-12 -9.933053972411728e-13 -8.672559318946315e-12 1.3119656241262642e-10 2.7147316894719747e-09 -5.606369655926026e-10
1451 -4.5245753253203675e-12 -5.694976133639416e-13 -8.672574622053268e-12 -5.247593346266177e-09 -1.5509809726743427e-09 -5.830344228867333e-09
1452 -3.3339393305590288e-12 -1.0855763620688075e-12 -8.671253976992457e-12 4.2146088048190126e-10 3.993599972536134e-10 8.505629001558139e-11
1453 8.132348212670844e-13 -1.0515539534812923e-15 2.0297593801581174e-12 -2.2932632809535487e-09 1.9026562627400577e-09 1.7150131732143307e-09
1454 -8.04559377884154e-14 -4.003216304206728e-12 -8.672376695339879e-12 5.504661225746094e-09 4.78329189825799e-10 1.286625924024283e-10
1455 2.1686410550272517e-12 -1.0842611139594864e-11 -1.1808627889383145e-11 -1.7685075096600544e-08 3.8386335029281196e-09 -1.0719599729463158e-08
1456 -1.0840619155187666e-12 -1.0821550430479291e-12 -7.534572191445075e-12 -1.3252056343469402e-09 -2.6154596232393323e-09 1.442569656139838e-09
1457 -1.0845011951232733e-12 -2.2538882692708033e-13 -4.391770064314854e-12 -4.0960059931790846e-09 -2.7989301715043017e-09 8.391513560275745e-10
1458 -1.6602088424797995e-12 -1.3535501860878754e-12 -7.391835546605357e-13 1.3306232715218173e-09 -2.485334676685483e-10 2.109547362894441e-09
1459 6.979612779502916e-12 -7.150524953222479e-13 -9.199441674441935e-12 2.8010341077464177e-09 1.5473900910835203e-09 -2.880284687239427e-10
1460 -5.689452416760337e-13 -3.792036787776711e-12 -8.671175035667426e-12 2.14991176180076e-09 -7.034366498477958e-11 1.0507019806013576e-09
1461 1.1301411222447798e-12 -3.2656288242797396e-12 -1.3524963973297398e-11 2.1731176635602796e-09 1.375454939469157e-09 3.463553389195158e-09
1462 3.310047361962559e-13 -6.502890344542656e-13 -5.692805931581518e-12 1.0959586888427878e-08 -4.449864422305489e-09 -6.3295301794980765e-09
1463 -2.2303229362490075e-12 -2.845054307160632e-13 -8.365115678713285e-12 -2.3777989020082993e-09 6.114770141870459e-09 -1.5927140120007684e-09
1464 -7.758417074287957e-13 -1.13312005753152e-12 -8.673302929689698e-12 -2.127859127574521e-09 -4.770948922097389e-09 3.3210876821318655e-09
1465 -2.1683713050789527e-12 -6.456890683565335e-14 -4.851676849597951e-12 -1.4227023493860938e-09 1.2015817829040136e-09 -2.1107685011532398e-10
1466 -1.4540190657194069e-12 -2.1061566441106296e-12 -1.733481236761198e-11 1.2287086775547347e-09 4.204285631108223e-10 3.2210288014914927e-09
1467 1.5047372389801425e-12 -6.5037525435324895e-12 -8.6734114899228e-12 -6.335317176183605e-09 -4.593757301055639e-09 -1.7450311104251629e-09
1468 -4.354420339373886e-13 -6.797563395947886e-13 -1.091608087563893e-11 -1.58415585228539e-09 1.7896584577460946e-10 2.8662426121599155e-09
1469 2.9274222066500294e-12 -4.588899969275427e-12 -8.670298575385689e-12 -3.732368394591371e-09 4.261896141771355e-09 2.1720388788036692e-09
1470 1.8754444968968898e-12 -1.0913841347359644e-12 -8.673638511767138e-12 -2.2042763182423357e-10 -1.1900629678596266e-08 1.9434447545792284e-09
1471 -2.7174336385715664e-13 2.1658929790724015e-12 2.551567369515855e-12 4.095378226857124e-09 -1.2938816880548926e-09 1.8420903025098598e-10
1472 -1.0841526400322576e-12 1.0604070679897251e-12 -5.570900920187611e-12 4.124805938277484e-09 5.598932229279411e-09 -4.3473112168336335e-10
1473 2.1632344598484936e-12 2.1867156428261902e-12 -1.4508660056536036e-11 3.4101788322412916e-09 -3.6163075744392856e-10 3.4885257578434366e-09
1474 -2.1663018582148482e-12 -2.1667191796709074e-12 -1.2841661358094005e-12 2.528095177419009e-09 1.240269257100064e-10 3.244952438288966e-10
1475 -1.0835462433924722e-12 -2.8244340409910695e-12 -6.829473321606535e-12 3.130936627847019e-09 -2.505635746221496e-09 -1.8538890035824013e-09
1476 1.2745128833965745e-13 -4.807319250523041e-12 -8.677808200455037e-12 7.207559643135243e-09 1.0908959841981562e-08 -2.9786889275766612e-09
1477 1.7798869401136686e-12 -5.581699031573557e-12 -8.672847712008202e-12 7.933908969971113e-09 -2.1916625857784966e-09 -2.0331504126000294e-09
1478 2.104990346760352e-12 -3.252098256080207e-12 -8.03135069038294e-12 -3.667727624139988e-09 3.42834975200966e-09 -2.9066089577994085e-09
1479 -2.176810641984282e-13 -5.071816353813733e-12 -8.676621375850634e-12 2.496695737808962e-09 -6.256339241754708e-10 4.051394999796008e-09
1480 -1.890508680041547e-12 -1.8776642804036256e-12 -4.526178429175977e-12 -4.985886468829911e-10 1.966733543993364e-09 -2.8658214645604922e-09
1481 -2.0455822956216114e-12 -6.213170515466943e-12 -8.673828325138092e-12 2.3998106402327915e-09 8.708319218657479e-10 2.3248745220014403e-09
1482 5.973562240643628e-12 -1.9035477903423637e-12 -8.676321521993009e-12 -7.200874080856457e-09 1.1743094852761476e-10 -3.262143351547568e-10
1483 -1.0772680847292202e-12 7.108019930375016e-13 -7.792387373966522e-12 -2.9376929656036473e-09 -3.648077585185024e-09 1.6975786872112915e-09
1484 1.9378950843840965e-13 -4.942275630453782e-12 -8.654949288373094e-12 1.7975773061836181e-09 -1.1246975732276565e-09 1.2158499310633414e-08
1485 -9.67018588684307e-13 -5.420815230486408e-13 -1.7110285243803232e-12 -4.191799827280808e-10 -3.2799553277767125e-10 9.573777590223168e-10
1486 2.1673796601405895e-12 -2.4081875300555848e-12 -6.2256903881003495e-12 -5.35188934447412e-09 7.090409176439198e-09 -5.76377835994994e-09
1487 -5.3104854174440174e-12 -2.180797857798087e-12 -8.669547474353594e-12 1.0561345286682577e-09 3.2060571212831792e-09 1.3519851814580115e-09
1488 -2.3601528694466586e-12 -1.3496482890349742e-12 -8.663417122812577e-12 -2.6555558151981494e-10 -6.377088738584736e-10 1.3046268906918358e-10
1489 -1.2972856407124737e-13 -1.5267445913091248e-12 -3.4775600228761576e-12 -8.291184986183557e-12 2.053537131097e-09 2.6626857558077504e-09
1490 -1.8453876483221057e-12 -4.161370330965431e-13 2.5622839052396925e-12 -1.3591146216956003e-09 1.1945489125118798e-09 5.948779132805238e-10
1491 1.0844642295192536e-12 -4.469579913658011e-12 -7.625590316680662e-12 -2.2406162192649377e-09 1.140382195328133e-09 -9.436305137803417e-10
1492 1.0634197217143752e-12 -2.1687227968048183e-12 -5.125848988986935e-12 3.7017548335655043e-09 -1.931718231040278e-10 1.4571083745585085e-10
1493 5.560518756492631e-13 -2.430756292952021e-12 -8.672790573897653e-12 1.99933637340025e-09 -2.0486434409158193e-09 7.140529831873185e-10
1494 -2.170430153516909e-12 -1.0814415014834852e-12 -8.67371469677188e-12 7.205908099017129e-09 -9.92189403607685e-09 -3.0674033771478537e-09
1495 -1.8189907992639286e-12 -1.0843802746555902e-12 -8.672697998775085e-12 -6.242609353296328e-10 5.29858913553147e-10 -8.646310026276465e-11
1496 1.6149510051836833e-12 -4.955266519708325e-12 -8.673186640363871e-12 4.387124670041453e-09 2.838504599464041e-09 -3.865483006740662e-09
1497 2.1727863299412555e-12 -1.6219402240464288e-12 -4.572401579314248e-12 3.2031077353894268e-09 -5.180330713487045e-09 1.0951371089545151e-08
1498 2.1670263021499363e-12 -3.573017110928655e-14 -7.41392102341151e-12 -6.1358721686008254e-09 6.074142426410362e-09 -4.722896910549526e-10
1499 -4.106302166084079e-12 -1.4021867993807074e-12 -8.673590309551539e-12 -1.2981746386457158e-09 -1.8789209642852837e-09 7.207256599104455e-10
1500 2.1611162629159594e-12 2.1664546100348513e-12 -8.674244484228926e-12 1.2700360256430659e-08 -2.1742108409904554e-09 -4.948440252459545e-10
1501 1.6107531576524787e-12 5.428480340155701e-13 -8.672485061893955e-12 1.1332866815337254e-08 -2.1545031381770315e-10 -1.897200174615544e-09
1502 -1.3121773013111322e-12 -2.170571641112119e-12 -8.426436540653484e-12 6.36616529417714e-11 -1.6482102698593524e-09 1.5847885098910553e-10
1503 -3.121882966787716e-13 -5.421583271482367e-13 7.6487440721696e-12 -5.216870862917284e-09 -9.705444973998255e-09 -1.132541805222867e-09
1504 -2.757170969438114e-13 -2.166258774666285e-12 -7.752494930697372e-12 5.472403799134862e-10 -4.406780210830209e-09 -6.531323818766144e-12
1505 -2.733051342623455e-13 -2.1591211395946944e-12 -9.233136550490587e-15 -2.746962331677977e-09 3.489323443216825e-09 7.756209159071966e-10
1506 -3.694605786897671e-12 -1.058698849174775e-12 -8.585421479386507e-12 6.911189593003762e-10 -3.437923839367989e-10 3.888591461094913e-09
1507 -2.1680537781518413e-12 -1.620089836923867e-13 2.8638999544662825e-12 -2.0282062834709565e-09 5.896683468453717e-09 1.784103717094195e-09
1508 -4.782783217422911e-12 2.16582279289797e-12 -4.181385581451072e-12 -4.545403098549008e-09 5.416031126712023e-09 4.027178797095018e-09
1509 -2.257024431134995e-12 -1.4891762028357734e-11 -1.601714302090497e-11 1.0508199479622961e-08 -9.412622746772463e-09 5.5789266523082935e-09
1510 -2.820586055072046e-12 -7.556750859455074e-12 -8.671624963972305e-12 -5.6419528230106716e-09 5.004171325162756e-09 -2.760589532605335e-09
1511 -2.1682240053249252e-12 -1.0819961139353674e-12 5.909434268929074e-13 -1.0364320998061562e-11 1.886406800014327e-09 -6.727251984437713e-11
1512 -8.467264372538191e-13 -7.963526732838421e-13 1.3278785368710206e-12 -5.134854858990998e-10 1.3611379178697646e-09 8.75059326213485e-10
1513 -1.8729531289898728e-12 -1.7501633929096514e-12 -1.8005449159512475e-12 1.6882523348048787e-10 2.538587587012328e-09 -2.8745290708529276e-09
1514 1.2039393817322163e-13 -2.1654105069245834e-12 -8.668202192066849e-12 -1.168164802560992e-09 -8.02904432022456e-10 3.607699755473828e-09
1515 -2.6271125775678882e-14 -1.5540814247793215e-12 -8.662231560179795e-12 1.5943669863653792e-08 1.0961246429805287e-08 -1.1757052870468343e-09
1516 -1.2005983621847204e-13 -2.1673583217340236e-12 -1.3155645416713415e-12 8.962719800116249e-10 -1.602228707291173e-09 1.1275539237441995e-09
1517 -5.225847853757682e-13 -2.1674955330273573e-12 2.7925116645035243e-12 -9.242499330580019e-10 6.711195633500586e-09 3.91400048754097e-09
1518 -8.818183244727146e-13 1.9158265150307736e-13 -1.167426082811141e-12 -8.153409921106543e-10 -9.79426707433052e-10 2.382904436301621e-11
1519 1.0755787048516453e-12 -2.167744966079278e-12 -5.805270785047609e-12 2.828892276006482e-09 1.2241062425745368e-10 -9.824786545564308e-10
1520 2.171415253141887e-12 1.784540729128757e-12 -8.671919545316788e-12 -1.1305830338810764e-08 1.408419806565694e-09 -1.2412642166658983e-09
1521 -1.4271291161729207e-12 -2.16187003968563e-12 -5.39914798309999e-12 1.039711873802921e-09 -1.7536093598201225e-09 3.9103774912959923e-10
1522 5.340084194489003e-13 -5.885069442597097e-12 -8.673255168033033e-12 -1.0927082821085126e-09 -1.5031041010998191e-09 3.3911312677039564e-09
1523 2.169071894652386e-12 -5.250669835773138e-13 -4.974894182693126e-13 2.8399788023425875e-09 4.059565253156107e-09 -8.129988858434177e-10
1524 -1.0823226129668993e-12 -2.6458406297767975e-12 -1.1248429366817367e-11 1.6527963224203004e-10 -1.0853591529810113e-09 -6.378010457514211e-10
1525 5.364983986080542e-13 -9.466588953757847e-12 -8.673626646913744e-12 3.936643244898264e-09 -7.73659972164858e-09 7.525333693843925e-09
1526 -1.0731931722479059e-12 -2.168571875080817e-12 -8.667065377512263e-12 1.4966981218561742e-09 -2.927568648066574e-09 1.4375131256982015e-09
1527 -4.709348463330021e-12 3.0766919336071925e-12 -1.7346301720456552e-11 -4.296119864429145e-09 3.1550265166514747e-09 -1.5836455252561437e-09
1528 2.1649633206131894e-12 -4.158627269509186e-12 -8.384869643373882e-12 -1.0337535011558068e-08 -7.519918443366352e-09 3.1979911138109487e-09
1529 -7.016360443509498e-13 -2.135538971807349e-12 -8.67370726300281e-12 -4.429285917733711e-09 1.1791571450160077e-09 6.879946321801223e-09
1530 -2.32450809208887e-12 -1.6226111288152814e-12 -8.672841234035569e-12 1.6191520696208858e-09 3.4009985019961945e-09 -2.0604708303033195e-09
1531 -3.255505085917891e-12 -1.4202696913150866e-12 -8.633267366788024e-12 -5.807914429862957e-10 7.72988488840192e-11 1.5770067115125725e-09
1532 -1.0851861948133505e-12 -1.3754564380666929e-12 -8.67380568673472e-12 3.214557921794819e-09 1.2638924280900928e-09 7.162600714523505e-11
1533 -1.084383304301992e-12 -2.1673263019123742e-12 -6.346366502158579e-12 3.0753092557567473e-09 1.650819836617147e-09 -1.7034818416751627e-09
1534 1.0844500764656571e-12 -2.1669199699326506e-12 -2.899282899678449e-13 2.2684057828714225e-09 -3.6526485254911163e-09 2.5731523272835345e-10
1535 -1.3555492353771597e-12 4.9713884098564944e-14 -1.7351401829548755e-12 1.2414418969987271e-09 1.5114308173576619e-09 -4.30731602078095e-10
1536 1.5869031403975436e-12 -1.2559163661241877e-12 2.9783477028392058e-12 2.3452598775632676e-10 -8.699071079946361e-10 1.7833858349687784e-09
1537 -2.166943224017659e-12 -2.010599047774728e-12 1.30265207938906e-12 6.801054712886171e-12 1.7212522723317918e-09 2.38079742561415e-09
1538 3.0410358997306636e-12 -2.1690998957409723e-12 -1.4320269549523167e-11 8.025389732577747e-09 1.379094023820306e-08 -4.1313265123102886e-09
1539 -6.35446822455507e-13 -2.1700915021081657e-12 -1.4213020444101422e-12 4.2344146889597774e-09 9.707578250212308e-10 -1.7439809505663862e-09
1540 3.2527931783067108e-12 -6.773844046184487e-12 -8.674055085773485e-12 -1.843899665770975e-08 3.942007538356143e-09 -1.6877509090148674e-08
1541 6.511503145697263e-13 2.1663318691023286e-12 -4.359744922211604e-12 -2.6607550637176662e-09 3.037005562386289e-09 7.894237999264877e-10
1542 6.30358215085034e-13 -1.084162834275199e-12 -1.6030584057102078e-12 4.215138410096803e-09 -4.374464786966888e-09 4.0837592819512784e-10
1543 1.0836917862638986e-12 -1.2069820830372113e-12 -3.5198191621051103e-12 -4.696819225623446e-09 -3.097367772770529e-10 -3.0856687127769988e-09
1544 -1.088926037239338e-12 -2.168744519221841e-12 -6.730660644397265e-12 1.7212121729534844e-11 2.419791787188797e-09 -5.452107894977334e-09
1545 -2.1674457164370755e-12 -3.3989157477245387e-13 -5.6144381267469814e-12 -1.886282552781095e-09 -1.2600632248136942e-09 -1.7371313407644143e-09
1546 -9.623404010554648e-13 -2.1673943091835314e-12 -8.65719729021603e-12 -1.277902100600703e-09 -1.5280460541854234e-09 3.4549889330546174e-09
1547 -2.169502180429982e-12 9.65326058835597e-14 -8.265939568115496e-12 5.996399140706327e-11 -6.162858336948687e-09 9.489639238196588e-10
1548 1.579495540739309e-12 -1.0856322537087826e-12 -1.387984589803046e-11 -2.1473440406725995e-09 2.760340564749449e-10 -4.1915451251924505e-11
1549 3.032377072793369e-13 -1.408524478052206e-12 -1.363486730857424e-12 8.195705712386041e-10 1.3466002965760376e-09 -8.711384807326951e-10
1550 4.3745266408404675e-12 -9.26605465079934e-13 -9.471831735920903e-12 -7.22080600943643e-09 -1.7447674380647733e-08 -8.538843676583226e-09
1551 -2.174227883672929e-12 -5.272378638958879e-12 -8.673781776114145e-12 -1.5331811514552348e-10 -4.255699131440523e-10 3.755499311278022e-09
1552 5.155885670738299e-12 -7.622421272262365e-12 -8.673315864881883e-12 1.2014862428764152e-08 1.079088792068809e-09 1.4568465245237609e-08
1553 -6.982748137205056e-12 5.492461923027965e-12 -8.671896065991815e-12 -4.448614891998846e-09 -5.994262330965153e-09 3.5500442524525144e-09
1554 3.0038134105864913e-13 -1.08427285615193e-12 -8.67192830787466e-12 1.492997171384923e-09 -2.8397270421654845e-09 -6.557770887050817e-10
1555 7.152184839388642e-13 6.304803196806531e-14 -8.674225445159622e-12 -3.2231559975021055e-09 -1.877252966563973e-09 4.263274368217604e-09
1556 -1.235969108374907e-13 1.7290742241369758e-12 -8.673707157469902e-12 2.627243736302027e-10 2.5573992470875396e-10 -2.8418552039165204e-09
1557 3.3252760486527872e-12 1.0885860231033999e-12 -8.66195487080853e-12 1.3868384428868884e-08 -5.798270695537963e-09 -1.9970116154549856e-10
1558 2.1651219049550375e-12 -1.6975527294954802e-12 -8.451422547585117e-12 5.071603793655943e-09 -3.0548024942147296e-09 3.220607202517273e-10
1559 1.3495139652982598e-12 -2.1666266497762857e-12 -5.67030451398368e-13 2.7368098514276324e-09 -4.5513692873621915e-09 1.991766111182476e-09
1560 -1.1374739588450618e-13 -1.7787355378582536e-13 -1.2628675118527128e-12 -3.937074755162934e-10 -9.887846250214358e-10 3.7271170897978497e-10
1561 -2.6336579220234414e-12 -2.1685092950530447e-12 -5.0437377508651594e-12 6.824819094617674e-09 -3.0786142232043548e-09 -1.477942704242255e-09
1562 -1.2140051427742777e-12 -2.557634403133389e-12 -7.793696837761156e-12 -2.4950524445560745e-09 9.149402694911246e-10 2.496327276998179e-09
1563 1.7726163675377251e-12 -2.1675222559561517e-12 -5.247611335232264e-12 -5.481251340452216e-09 2.9591394052122987e-09 -3.4951615693701346e-09
1564 -1.3140391409999654e-12 -1.517860215546963e-11 -2.6019700778989476e-11 -1.1762315299174877e-09 2.088705508029042e-09 -1.1602378356399699e-08
1565 -1.1240469879565862e-12 -3.9141623514320144e-13 -3.840484097863646e-12 2.563875675780836e-09 5.704971070653392e-09 -7.377744818613973e-10
1566 -1.5565638571453715e-12 -5.777765966534703e-14 -2.0637225797609647e-12 2.4198774877613716e-09 1.66428338772223e-09 -1.6681370943680028e-09
1567 2.5556159613133846e-13 -1.8131149084314501e-12 2.2122456154649977e-12 -3.131805329319368e-09 2.685152662087137e-09 3.48151932109269e-10
1568 1.3771047169604922e-12 -4.855205875061613e-13 -5.607469555291093e-13 2.0264052810451046e-09 8.738921483022744e-10 1.25218036410789e-09
1569 -1.7525247630438436e-12 -5.42083905492586e-13 8.443709736281211e-13 -2.3058440702485798e-11 -2.6349904399305335e-09 1.0877327397526754e-09
1570 -5.149118504513183e-13 -6.500327360027804e-12 -8.672683876183957e-12 -6.389643965001857e-09 -1.2784629699348512e-09 2.723383004819534e-09
1571 -4.897874936626512e-13 -2.1682647300909196e-12 -7.582828007339698e-12 4.003912050370301e-09 2.608435724105902e-09 2.3179987968245542e-10
1572 -4.601980482681357e-13 -2.1682846071846464e-12 -8.670203074908218e-12 2.779850645301189e-11 -2.8647310936112646e-09 2.6287864567124368e-09
1573 -3.478917472874144e-12 -3.664740161888861e-12 -8.673203419831914e-12 2.3576544586910442e-09 9.657357814702546e-10 -1.8628864977983455e-10
1574 -3.233746946202828e-12 6.328958835091674e-13 -8.667221702923159e-12 -4.11993660371004e-09 -9.408487477847327e-10 2.6489743312704484e-09
1575 -2.174149637730493e-12 -3.882279930864833e-12 -8.673550286675712e-12 -5.180904701587967e-09 -1.680483195863312e-09 3.4498875402829576e-09
1576 1.032964059882122e-12 -1.679593900833565e-12 -8.672526855857698e-12 -8.034484338772931e-09 4.128452764101079e-09 2.5547208601572873e-09
1577 -2.204185850541031e-12 -1.869403088416021e-13 -8.668575256314098e-12 -4.3984152962757573e-10 -4.436589600286215e-10 -1.0297178541052171e-09
1578 -2.1129599225044574e-12 -1.4307710887936276e-13 -2.2486870949910746e-12 1.860830622566649e-09 -3.3042355152277254e-09 9.816747960776136e-10
1579 -8.131972125146937e-13 9.79460930443025e-13 -3.025895695020452e-12 -4.361134907481637e-09 -3.7202060201373157e-09 1.6298964553500963e-09
1580 -2.8131082574914546e-12 -3.919143693300597e-12 -8.6741515053821e-12 -3.510693815726219e-09 1.923982882837526e-09 -1.315038990992652e-09
1581 -1.3703074374103967e-12 -9.440617203607623e-13 -2.9146091495640323e-12 -1.359079089971873e-09 -4.635193942563706e-09 8.259278948562229e-11
1582 -6.017051142014645e-12 -2.169353486717718e-12 -5.812120820779727e-12 8.04556888261999e-09 -5.424036180193351e-09 -2.917332811719336e-10
1583 1.0134147567382084e-12 5.418799870710574e-13 -2.383757856556915e-12 -9.135236971536181e-10 1.6666013188778107e-09 5.543924024758038e-10
1584 -4.170567185485907e-12 -2.4631003174408322e-12 -8.672533599369163e-12 2.066666447445084e-09 -4.779693839365899e-09 -4.872263343968156e-10
1585 1.3242426581950146e-12 -2.040859298132996e-12 -8.676785304382526e-12 -3.493668582201678e-09 1.9154244909905247e-09 -2.8353197768098662e-09
1586 -1.83530537855976e-12 -1.4654214265688355e-12 -8.672891824434057e-12 2.8687679389741336e-09 7.243032336346966e-09 -4.191588642395312e-09
1587 -2.169694842905224e-12 2.232361781525217e-13 -8.664506653811612e-12 -1.6239698765012717e-09 -2.9542281620632115e-09 -2.1505230528054578e-09
1588 1.0971232438030201e-13 -2.1675847800134866e-12 -1.0390275485293525e-12 2.820280504014246e-09 -5.154288526417769e-09 -8.440753773056426e-10
1589 -1.0844674069842184e-12 9.431678425493151e-13 -8.66208897832216e-12 -1.98242722939168e-09 2.6741572839844902e-09 -1.7388368829284573e-09
1590 -2.9962886929130166e-12 -6.251348577218048e-12 -8.673429996101344e-12 1.1429327266578874e-09 2.9098829227734333e-09 6.4163959438917665e-09
1591 6.061037285131089e-12 -8.147197708460468e-12 -8.674376124906979e-12 5.848686986554222e-09 1.8417634386354553e-08 -2.2672906855707266e-08
1592 -5.1908718265251275e-12 -6.899984730313763e-12 -8.67789355129711e-12 5.98206650684701e-09 -2.9751247576563447e-09 1.6091683967915358e-09
1593 -6.778399925594488e-13 3.573452658517646e-13 -3.78832414104605e-13 6.263841282389181e-10 -9.134077224785348e-10 1.6705470024733926e-10
1594 -5.743740519531287e-14 -2.163631120922708e-12 6.747663462872882e-12 1.56834391349513e-09 -5.308311574693817e-10 -2.890931833512461e-09
1595 8.340628517983371e-13 -1.080305691127309e-12 -8.262368558199035e-12 5.887787582629437e-09 -5.943418644115943e-09 1.598257691596437e-09
1596 -1.3364373678098834e-12 -2.0079585567849605e-12 1.3173760723350415e-12 3.0614285790600128e-09 9.304630139333289e-10 5.629640402289005e-10
1597 1.036815194869927e-12 -1.0883250159067444e-12 -5.810172484887971e-12 5.890501034682829e-09 4.665633136770271e-09 2.3088942551094694e-09
1598 6.506996915480983e-12 2.9165862469542073e-13 -8.671451508699039e-12 -1.537514102869142e-08 -1.6900379021162166e-08 5.610987625784923e-09
1599 -3.002395498459123e-12 -8.66305371478855e-13 -8.671511177091306e-12 -7.630666463428547e-09 1.3094568376799225e-09 3.2968472306279415e-09
1600 2.1717718520616705e-12 -1.0851833152182055e-12 -2.604747145200995e-12 -1.804836484490752e-08 -5.554129080428657e-09 -7.779902834130845e-10
1601 -2.598828291256473e-12 -2.1719933667356327e-12 -1.309756448623847e-12 1.694431247192809e-10 -6.018929474339801e-09 3.4156313908940204e-09
1602 9.324654601167822e-13 -2.1670101120281647e-12 -1.0819516098806395e-12 2.531132208405022e-09 -4.016203985590808e-09 6.085935131264613e-10
1603 2.1674132728003824e-12 7.583658820947966e-13 -1.2532853587530933e-12 -1.2898787741419407e-09 1.7432063107925457e-09 1.234619542759255e-09
1604 2.1835742040684664e-13 -6.897931185810587e-12 -8.671939442836844e-12 4.58483679379076e-09 1.5887720213929172e-08 -3.956525980742443e-09
1605 1.8620377958359893e-12 -1.084015316471432e-12 -1.593738087272496e-11 -3.383807386056596e-09 4.979009710711685e-09 -6.157608131036759e-09
1606 -3.3035117019266992e-12 -7.950326437508183e-12 -9.066218540384758e-12 -4.02277113161335e-09 3.5196680287308864e-09 3.0132151787166695e-12
1607 5.421011642388023e-12 -1.1927850477975466e-11 -2.6020842613930955e-11 -1.8728189079913907e-08 -2.3929201859361728e-09 4.269648083533592e-09
1608 9.544908277744132e-13 -7.545561802687049e-12 -8.675148214870087e-12 -9.095812613155661e-09 -1.681870611191568e-08 7.0638412923093365e-09
1609 -2.1324200462216384e-12 -7.957481434623418e-12 -8.67346249021251e-12 8.15472417768548e-10 1.940192085868713e-09 -2.370168298646937e-09
1610 3.5322951870322317e-13 -3.595111804187842e-12 -8.674919011145918e-12 4.859878390507586e-09 2.0726870941018797e-09 -4.026484039656281e-09
1611 -2.170726052768694e-12 -1.5697787164765907e-12 -8.673256508116611e-12 -5.314721290558961e-09 1.9522424001040298e-09 4.779939044201121e-10
1612 1.4514466840171247e-12 -2.345519012382037e-12 -3.195122771995055e-12 3.835846509032589e-09 1.604484752583587e-09 -1.5291297836780269e-09
1613 -2.2730468481827328e-12 4.3911021791793593e-13 -8.632663501926256e-12 2.9635533848736286e-09 -5.724702456537994e-09 1.7611272959355687e-09
1614 2.220665868678632e-12 -2.0164950155550548e-12 -1.0566931577698188e-11 3.567119180144973e-11 -1.904135832879175e-09 8.247285407153809e-10
1615 -2.527100088885557e-12 -3.2561120510244833e-12 -8.674354189125715e-12 -2.975442750670445e-09 -3.7378753162686145e-09 2.4036003714778467e-09
1616 8.220831239481137e-13 -2.1646000237301048e-12 -1.0852769525718e-12 2.3265660180036763e-09 -5.246549210468046e-09 6.647079267693039e-10
1617 2.4442242678214474e-11 -1.0787057272906139e-12 -8.676464945012509e-12 4.141632799353301e-09 -8.687857540142442e-09 3.196392128138246e-08
1618 -8.301110971628627e-13 6.08051092060208e-13 1.3499906362786427e-12 1.5593005316693037e-09 -1.0396708871480103e-09 1.6495323437697483e-09
1619 1.7288070457947978e-12 -2.921872902837476e-12 -6.2931636587496725e-12 -6.12416998357479e-09 3.8001709823189995e-09 8.200758209673948e-09
1620 -2.493201148422963e-12 -4.860977150086796e-12 -8.673371803685801e-12 8.214243411435674e-09 -3.3817303961565423e-09 -6.411376851744307e-09
1621 7.198752349946882e-13 -2.1680036444969885e-12 -4.348007623535667e-12 4.787289671132929e-09 -2.4137021674996634e-09 1.7917485700489207e-09
1622 1.8786295625082352e-12 -4.3749770536339233e-13 -8.368035886040611e-13 -3.790024823268573e-09 -6.43349817577592e-11 1.8028744542626077e-10
1623 -1.7485981069823327e-12 -6.512957622629309e-12 -8.673160435182177e-12 -1.51903781625038e-08 7.993831826819323e-09 3.6247313196720335e-09
1624 -5.661064671442897e-13 -1.6783970606703447e-12 -1.1109886584123386e-11 -1.0699446900278546e-09 -1.2993751693731916e-09 -1.3712836420540263e-09
1625 2.1688512362851854e-12 -2.1684060895430955e-12 -1.7999818175336511e-12 1.3232597223264226e-08 1.1899813708639955e-08 -2.4578323992102927e-09
1626 -1.6496119424736134e-12 -7.276826559380267e-12 -8.67598297836946e-12 -1.977698242309258e-09 -2.3559214571912124e-09 4.919985083810041e-09
1627 -7.749710369845434e-13 -4.192443420329483e-12 -8.672308695693127e-12 -5.716560967519098e-10 1.644491576513281e-09 -2.3392969298982863e-09
1628 -2.1679303433672505e-12 -9.57071354005968e-13 -7.77265363209252e-12 2.342098628057482e-09 3.379418276711935e-09 2.7757788119350066e-09
1629 -2.1683203358546788e-12 -4.2564065717733e-13 -2.377577365346593e-12 -1.4799284923105065e-09 -2.7256430787625632e-09 6.6028771966568e-12
1630 -9.898419636873756e-13 -1.2984083453635634e-12 -1.661158483517792e-11 -6.9546256923201945e-09 -3.967058428294587e-09 -8.596830710166665e-09
1631 -2.16835483093993e-12 1.084088276469091e-12 -9.527819819842764e-12 1.877598458286764e-09 -2.9068043874723993e-09 1.1236554129939257e-09
1632 -8.176712290044043e-13 -2.1180788033905615e-12 -6.117680559975281e-12 2.3617250005917347e-09 1.7516813180596671e-09 -7.373236806199853e-10
1633 -2.162954299687265e-12 7.125739144350949e-13 -1.8934320821418826e-12 -2.7925160071364225e-10 -2.2818940856788086e-09 1.0117804699892855e-10
1634 -2.1649321946258037e-12 -1.348184248461042e-13 -1.7343540449178896e-11 6.621811561616655e-10 3.998334992947452e-09 -4.822791825193625e-09
1635 2.1177635086625008e-12 2.1685021423446853e-12 1.4785701902829661e-12 1.982092858086957e-09 1.1087028628470047e-09 -3.6307886851446944e-09
1636 4.0477254730829725e-13 -2.1682699397355844e-12 -5.445628863516302e-12 2.7915044067338188e-09 5.585661836284844e-09 1.5808520216010828e-10
1637 -2.98105644522915e-12 2.166731135562411e-12 -1.7346670711338195e-11 7.005318573729898e-09 -4.1203371356004835e-09 1.0827699390833364e-10
1638 -1.936135069551806e-12 -2.1685777955378913e-12 -1.6083805029351427e-12 -2.6727868482897363e-09 -5.7190134827495065e-09 1.5185382898438335e-10
1639 -9.503935723644356e-13 2.8930506079960388e-12 -1.734721548669145e-11 3.009492114173443e-09 -1.8972820679473573e-09 -2.8060033530613854e-09
1640 -2.321699855663531e-12 7.426149069943618e-13 -1.7101423695518977e-11 4.71472853474808e-09 1.3724349701296819e-09 2.101239641928225e-09
1641 1.1475152015724174e-12 -4.2394811163688056e-12 -8.673626040550753e-12 5.7261159322688244e-09 1.6983836117976155e-09 3.4685260478732845e-09
1642 -2.169162701118626e-12 8.391581104508881e-13 -9.303474666612004e-12 -1.0344513265018841e-08 -9.071149184118953e-09 -1.3245836559748467e-09
1643 3.1401766366950956e-12 2.8209691983991286e-12 -1.6346944414283274e-11 -6.762815937309184e-10 2.2145223635838023e-09 4.512801700414106e-09
1644 6.180145107740859e-13 -3.254686227144434e-12 -8.67361900424852e-12 -6.473090696641223e-09 4.748558487309549e-09 -3.935164886505929e-09
1645 1.4371238098809653e-12 -2.7143979439599396e-13 2.8741056470630998e-12 4.343952386768889e-09 5.906001364110522e-09 1.1383549892017149e-09
1646 2.16857711785155e-12 2.631909214461818e-13 5.7209788985649e-13 -3.077699451248087e-09 -1.3645186972428889e-09 1.7968744007885643e-09
1647 -4.179056917033055e-13 4.653883433186393e-12 -1.2745565045428604e-11 -3.468611555280152e-10 5.130639219698361e-09 -3.2700050498111886e-09
1648 2.7560210525420213e-13 -5.258720467748061e-13 1.9928755254954566e-13 -3.041678813668144e-10 -2.086003680837841e-09 -7.09607189664914e-10
1649 -3.1322265860596127e-12 -1.6459771563391057e-12 -8.669763016131781e-12 -2.7425347354195515e-09 -4.982184108351475e-09 -3.7425490553864886e-10
1650 2.6972645222478634e-12 1.0838680933657453e-12 -1.7345583936844644e-11 -4.717458936750004e-09 2.1614994335440005e-09 2.592462649843969e-10
1651 1.080557294695212e-12 -3.799641625145601e-12 -8.673813266479687e-12 -7.140897412580619e-09 4.0753347396649714e-09 -2.8171193861137614e-09
1652 -1.96698613158913e-12 -6.4401626155828e-13 -1.5203211746760526e-11 7.472280846015112e-09 -7.180243968279305e-09 -1.2629813378141263e-09
1653 -1.144638826525779e-12 -1.5375988429271608e-12 -1.3797603367780084e-11 -3.548525939339382e-09 1.1074374735396588e-09 -8.658131243874228e-09
1654 -2.1666968574903348e-12 1.2271325774596194e-12 -1.7346481604701622e-11 -4.692054290034823e-09 4.701128443146559e-09 -1.2143985180543025e-10
1655 2.1684727251092265e-12 2.1684435474068413e-12 4.452416053788849e-12 -6.452656240735568e-09 -8.392758822444165e-10 4.098124250778757e-09
1656 9.125760727580357e-13 1.4854329851729516e-13 -1.734503330574494e-11 6.095393722772504e-10 2.216334569095267e-09 -8.105430086718557e-10
1657 2.791170281975327e-12 1.637531096073386e-12 1.746275567346955e-13 1.5139557177094144e-08 -9.388580798171555e-09 1.7166884955800031e-09
1658 -8.730833887858499e-13 -1.083243000258451e-12 -1.316182697479592e-11 2.253957857477265e-10 -9.624933816377506e-11 -2.8189990144500603e-09
1659 -5.506824322766406e-13 -2.1660249280453003e-12 -7.251274736383987e-12 -4.85037747179854e-10 -8.253696080923812e-09 1.2408096949935794e-09
1660 -3.3078139285633802e-12 2.170589592174038e-12 -8.672003116649243e-12 -3.2310522723615054e-09 -4.659658348363316e-09 3.6223682573075634e-09
1661 -2.1674644378215752e-12 2.0512324999726277e-12 -1.2787525753216146e-11 -1.1100254930039034e-08 -1.5986356275828897e-08 -2.6503470723295172e-09
1662 -2.1745770593021797e-12 1.3333875670326144e-12 -1.5234924658841465e-11 -9.60870150341397e-09 4.430417977617471e-09 2.8275441192638077e-09
1663 -9.581643870162475e-13 1.6711901057200316e-12 -3.16026531684987e-12 -4.976633584865874e-09 -5.049212435434697e-10 1.6978078571142424e-09
1664 5.704012926960125e-13 -2.1683720068901204e-12 -8.582155461306419e-13 3.1469526628011515e-10 -2.8535441733556423e-10 -1.3008062847006877e-09
1665 1.2047638223090908e-12 -1.498167553918357e-12 -6.726587237894787e-12 -1.1431624875445408e-09 -1.2329980978773034e-09 3.2615249302377854e-09
1666 5.574164948145808e-13 1.420033803750314e-12 5.248429180261443e-14 -8.604219037087024e-10 -5.0704725943367685e-09 -3.094494133665465e-10
1667 -3.194050101242468e-13 2.171870069952565e-12 -2.3613708665284295e-12 -1.0763347163636558e-10 4.8562808654403915e-09 1.7614130096006541e-09
1668 3.2488222776261074e-12 2.1678052919761036e-12 -5.167532015263872e-12 2.9159123872140998e-09 1.0855447474957673e-08 5.057856064246225e-09
1669 -8.126423322680994e-13 2.1136480660109888e-12 -1.967810640048511e-12 -2.7286676599117057e-09 -1.9608612446575275e-11 3.742407635744174e-10
1670 -1.6064650585622948e-12 2.167118179094726e-12 -1.7341529518284248e-11 -8.577786681232995e-09 1.3923993819116204e-09 2.944076206193399e-10
1671 -1.0853717118312094e-12 2.168332487621067e-12 -1.561647075700815e-11 1.4428574367258137e-09 -2.3240909066163616e-09 -6.0878359580000495e-09
1672 3.4648759990010936e-13 1.083940693642732e-12 -2.319625871750698e-12 2.3899791561104946e-09 1.8020313150831004e-09 2.0994668655927493e-09
1673 6.681089164603942e-13 -3.835489698590413e-12 -8.673442810380452e-12 -5.105830554742432e-09 5.308182856075309e-10 -1.478414625699291e-10
1674 -9.72650381653411e-13 -3.255684732361638e-12 -8.672613359985523e-12 -2.3902259095054036e-09 7.92765772775595e-10 -1.2989167103079704e-10
1675 1.2509799999430901e-12 -2.168473441517788e-12 3.927039136459581e-12 1.2830987170420794e-09 -8.468679801826371e-10 8.984197436340351e-10
1676 -5.407277678132996e-13 2.172732476694484e-12 -4.509631480015032e-12 -4.496530442111033e-09 -1.4970973042229418e-09 3.0483298444155665e-10
1677 -2.1681821970505076e-12 -1.0840683789790583e-12 -5.023073675262136e-12 2.6764413263884834e-09 -6.470681198570657e-09 3.078414044200209e-09
1678 2.1682468269567147e-12 -2.103270826248357e-12 -1.6199666396152506e-12 3.277998362246798e-09 2.646224098360288e-09 -5.175521712050901e-09
1679 -3.482469333849348e-12 -5.001148287358706e-12 -1.5236226745448518e-11 1.1143814145244925e-10 2.8105432369464103e-09 -2.1653661090023062e-09
1680 4.550745659521962e-13 -2.1598203619979617e-12 8.768551361901982e-13 -2.7910634318060958e-09 5.025234316821209e-09 6.699927195700797e-11
1681 6.503701813091357e-13 -2.165745391897104e-12 4.2361664499347566e-13 -5.3907279864196575e-09 4.1889265697930266e-10 -6.11742992392517e-10
1682 -1.8002251033164428e-12 -1.2555367063708078e-12 -1.4348889352191873e-12 1.7119503297215541e-09 -4.02795570542065e-09 -2.183591816597365e-09
1683 1.0846909953376105e-12 -2.168469530680819e-12 -4.7768135791705414e-12 2.759393572385158e-09 2.542459974899995e-09 -7.578988343420802e-10
1684 2.0069958249742825e-12 -1.4237812334859893e-12 -1.6251136753265513e-11 3.0732008619981422e-09 1.1787938785453824e-08 7.841537977981182e-09
1685 -1.7656888275808244e-12 -2.1674164613309115e-12 -3.0376183708578996e-12 5.205440007467411e-09 8.850859033807084e-10 -8.454707284233842e-10
1686 -4.2657884721203865e-14 -2.3326893902706793e-12 -8.662163678600817e-12 2.4785375923452605e-10 -1.8009753680743039e-09 -5.711955466674148e-10
1687 -2.1659007602100607e-12 8.668274632483686e-13 -8.670325275160422e-12 4.190788246598364e-09 3.3746346266508773e-09 -2.656078201232844e-09
1688 9.500526266505195e-12 -1.7178673536033239e-12 -1.1254473719559622e-11 1.7543911807514918e-09 1.350907128758695e-08 -6.172029047319823e-09
1689 -2.680421428395909e-13 -2.61178740970107e-13 -1.101990348957389e-13 -5.964707632907071e-10 1.4650965789197287e-09 9.060520865026844e-10
1690 -2.167908802760365e-12 -9.558735932677207e-13 -8.667554901854857e-12 -2.4100067815018343e-09 -5.712927887175834e-09 -1.5473642718145267e-09
1691 -1.0572237081190317e-12 -1.4578481147444548e-12 -9.594373279990354e-12 4.516194692715798e-09 1.0161147088519274e-08 -2.371607607668791e-09
1692 -3.4213742145004547e-12 -2.7592674024104317e-12 -1.734101724357827e-11 -3.479140679841964e-09 1.7296077084919053e-09 -2.115187441708723e-10
1693 -2.1659165497226568e-12 6.005164878793168e-13 -3.5945858878212268e-12 -1.1586585742382558e-09 -4.189604247886357e-09 -3.957308320641248e-10
1694 1.0838283150923072e-12 -4.004118802253016e-12 -1.506254491733119e-11 1.159690711712998e-08 1.4498275215822822e-09 -3.0663028898672283e-09
1695 5.638955560324786e-13 -1.4746676854653902e-12 -4.5569560530948435e-12 -4.748640770685828e-10 -5.469132991162595e-10 -2.24958047014519e-09
1696 1.0842866981804265e-12 5.045558727392249e-13 -1.0239981857200677e-12 -1.065597628727712e-08 -6.164958440782711e-09 7.2528706157564165e-09
1697 -1.0793403403621248e-12 7.420743320445197e-13 -1.7346387727713794e-11 -3.3440893206309896e-09 3.082939688665481e-10 -1.1961199578947946e-09
1698 6.5079302279212354e-12 -1.4503021874749686e-13 -1.734533201647913e-11 4.080356950152792e-09 4.382857667380331e-09 -1.4464423687025073e-09
1699 -3.253711786140781e-12 1.2689491915271354e-12 -1.7346374655514755e-11 -2.4995702096250946e-09 -5.443786966942954e-09 3.848563210988797e-09
1700 3.3473321314735523e-13 -7.371311174666967e-12 -8.673684243729481e-12 2.1227464586966796e-09 3.6228710163329718e-09 -2.2445723161665996e-09
1701 -1.4662742791268596e-12 2.209027866283637e-12 -1.7337563866561894e-11 6.018649696566107e-09 7.048188458886126e-10 1.5225061568802894e-09
1702 -1.0837391792752593e-12 1.0872015884585922e-12 -1.0048259499262013e-11 -1.4358919778640073e-09 -1.813714013783559e-09 3.800574840169797e-09
1703 -1.9898838961857165e-12 -2.6539780044997378e-12 -8.672452919188206e-12 -1.881820158265213e-09 1.7197905782781576e-09 -1.0941834442532168e-09
1704 -7.781544680178366e-13 -1.1038269925383289e-13 -1.0066703743792461e-11 2.581057485703545e-09 5.686427140313084e-09 3.934137123592624e-09
1705 -1.874946353290417e-12 1.0842408052607747e-12 -5.759481710218419e-12 -1.3757196121577066e-09 1.5301830746199156e-09 2.5370085792093047e-09
1706 3.1060142767692958e-12 3.91055199212988e-12 -1.7320730585859392e-11 -8.752144526264634e-10 3.151920786100652e-09 -2.7235294483190605e-09
1707 1.6926404042143006e-12 -9.600803512126824e-13 1.2877813399289298e-13 8.950932403664207e-09 1.3843255066684345e-09 -7.736730229175327e-09
1708 -8.713547681871717e-14 1.522642009788652e-12 -1.7347112992829718e-11 2.0231079927972126e-09 1.6921766419735934e-09 1.9280417758915494e-09
1709 -3.6391117009005044e-13 -2.155641902765156e-12 -3.885523443117675e-12 4.17987293533759e-09 -2.6422515473792566e-09 5.34758017312138e-10
1710 2.1052852482020683e-12 -1.0595554809721586e-12 -1.603718953970892e-11 -1.9910810670181534e-09 1.9422656725721257e-09 -1.6483378187186244e-09
1711 9.7330255857384e-13 -9.85900648232669e-13 -1.2215617357295745e-11 6.828426877174259e-09 -2.774600786064929e-09 -2.3183256897459487e-09
1712 1.0146423568864686e-12 -3.0802332628647384e-13 -7.707572769798915e-12 -3.69658253527403e-09 -1.6688557611069158e-09 -2.1126112138395371e-10
1713 -2.1683286559358787e-12 5.42331785946879e-13 -1.1107543425899147e-11 6.066332828606807e-10 -1.1147485603911408e-08 1.6367938963885647e-09
1714 -6.088372602136827e-12 2.1777012832809126e-12 -1.7346845627860097e-11 -5.343315865510296e-09 -5.40175131842641e-09 1.8033509659626534e-09
1715 4.446245178341973e-13 -1.0841359888104722e-12 -6.123735756768803e-12 6.736226714659125e-09 1.0277916295878244e-08 -2.2127846647075737e-09
1716 -1.0820126231028534e-12 -5.3304714602054596e-12 -8.674432307242673e-12 7.572613805772186e-09 -4.943521108204724e-09 2.92409009190113e-09
1717 -2.902734348382162e-12 5.392946626600812e-13 -7.800887008544449e-12 2.1793540005085105e-09 -1.9558838390507017e-09 2.409609066272302e-09
1718 -2.0699585134105265e-12 -3.573855390123324e-13 -3.722266452104377e-12 1.3386645655300083e-09 -1.4148409586989867e-08 7.47501237254582e-10
1719 2.163276066476638e-12 2.308713491646623e-13 -2.593152981119158e-12 2.0472553182537267e-09 4.302993313336996e-10 1.7534789759069972e-10
1720 1.5449919305854706e-12 -1.4382982343111568e-12 -1.5500686257985565e-11 -3.6878186372485036e-09 -1.1765841132706788e-08 -1.0144088095964192e-08
1721 -3.3648771722318074e-12 2.31703050063705e-12 -1.7347916572928604e-11 9.776460485203677e-10 -5.092925771748502e-09 2.4849204264441704e-09
1722 -8.124590670112192e-13 1.084346887926253e-12 -1.5545341073452542e-12 -2.298032430731143e-09 -5.436135143623802e-09 1.5616100209274924e-09
1723 2.1683669661638106e-12 -2.1748210384046307e-12 -8.715408818990895e-12 -2.381813369352474e-10 8.062024736675234e-11 -2.1379925548691203e-10
1724 -2.0197432462756786e-12 -2.253615342032073e-12 -1.5519662583761525e-11 5.646468704719863e-09 -3.547476361419018e-10 -2.8954240961597573e-09
1725 4.168604076347891e-13 -6.178574295043437e-13 -4.512584660050169e-13 -4.0089665860084694e-10 2.7404272142980495e-09 3.5345151560452684e-10
1726 -1.036598872232952e-12 -2.1690318718248244e-12 -8.672643650019505e-12 1.04991523925968e-09 5.868608655075923e-10 -3.2539037840354535e-09
1727 6.425740297851842e-13 1.8391020717370032e-12 2.815189618035515e-12 2.996656960555647e-09 2.24394069375226e-09 -1.9124616726579675e-09
1728 1.9380761560938783e-12 -1.08129499548554e-12 -1.5002313983293108e-11 1.7745736216235454e-09 -3.966981199615757e-09 3.7632987760489825e-09
1729 -2.007276394039426e-12 5.1385731794818695e-12 3.0687910585997575e-12 1.3270040318761431e-08 2.4151740505939575e-09 7.17221366109612e-10
1730 -8.878754885433315e-13 5.835643780194794e-13 -8.671348969222875e-12 -6.928011258911761e-09 -3.1267178706015935e-09 -2.8975785785119374e-09
1731 -2.0867378762834204e-12 2.167071619062834e-12 -2.1820618814957306e-12 -1.103672857055095e-08 6.565327471781793e-09 -1.9937415451700092e-10
1732 2.1581994408857186e-13 -2.1679892741567903e-12 8.639171904963117e-13 -1.8108924447304646e-09 -1.7763398373671982e-10 1.608529636077643e-09
1733 -1.0071487850394405e-12 -9.337068046533821e-13 -1.7342918997412912e-11 -8.69773097725094e-10 3.8619337149071095e-09 -6.339273126838545e-10
1734 -9.799415058768778e-13 1.0812219127831244e-12 -1.7344912936140478e-11 -4.937374007508562e-09 -1.054915847758299e-09 3.02061960260634e-10
1735 -1.0588010091006133e-12 2.3141200648600237e-12 -1.3291838738311507e-11 5.718113162427687e-10 4.7446256124521844e-09 2.03290158975696e-09
1736 3.4571133941634034e-12 1.1913660344042448e-12 -4.641673367257406e-12 1.5896140964784642e-08 -4.755469057133077e-09 -6.970205597076505e-09
1737 -2.1490143190824574e-12 -2.1374970153825225e-12 3.398832958393311e-12 4.627791423697514e-09 -3.431992858946929e-09 1.3606855647916238e-10
1738 -7.529131303263916e-12 -2.8988046011994438e-12 -8.672847814491799e-12 1.403418080817509e-09 -7.567529288959406e-09 -2.710697826920172e-10
1739 7.292314403962496e-13 2.491114535434201e-12 -1.470954279454829e-11 6.78597024060819e-10 -2.736489479995504e-09 1.0888625876688577e-09
1740 1.7310697845170475e-12 -2.6284560497545855e-12 -1.1125519155222267e-11 -9.540685194516963e-10 4.229608621378239e-09 -6.5033882584585025e-09
1741 -8.707531595735546e-13 9.067138100206072e-13 -1.7346366180182943e-11 -2.655293708293811e-09 3.6841135309655897e-09 -3.195651492285368e-09
1742 -1.0841848984685817e-12 -2.1681816631872085e-12 -5.402747551773276e-12 7.170562627378994e-09 -5.726613607823638e-09 -1.2699436012763192e-09
1743 -4.900963676942755e-13 -2.1682970134456692e-12 4.226214520426441e-12 1.4771097908019273e-10 1.0763057175522526e-08 -2.980510775894454e-09
1744 -4.715408767764333e-12 -2.7347277575581083e-12 -1.63492276614403e-11 -2.231993389803496e-09 -4.233508824229567e-09 -1.6737867414861425e-09
1745 -1.0841627754446434e-12 -2.1667132070596788e-12 -6.078987936612201e-12 6.75343088301461e-11 5.052008184791492e-09 -3.5045453555889207e-09
1746 -4.288456800522344e-12 -2.001884321319965e-12 -1.7347488393402173e-11 3.2159216804936695e-09 3.6580556730781604e-09 -4.909348105521966e-09
1747 2.166822042527832e-12 1.4577018657908757e-12 -7.635118545970855e-12 -8.34210302632487e-09 4.818860312030221e-09 -8.816602872502988e-10
1748 -1.0084141550687048e-12 1.4136375604733851e-12 -8.593754242374426e-12 -3.5047234194150185e-09 -1.3987788397219473e-08 -1.6110913545460952e-09
1749 -1.4970053472218404e-12 -2.271949144107925e-12 -1.542637467814051e-11 1.3951770689889573e-10 -2.5094160416178945e-09 4.1741010060258724e-09
1750 -2.156660756379899e-12 1.4910723968955881e-12 7.078184042667697e-13 3.367908594413967e-09 -2.411176114589164e-09 4.142761479569973e-10
1751 1.0834509634402678e-12 2.1681698594957373e-12 -6.8378001977078776e-12 -1.060378635086926e-08 -3.712579009071845e-09 -6.959916224825815e-09
1752 -2.166235078125216e-12 -1.5884858025706826e-13 -2.185132009690395e-12 -7.986983655477224e-09 -4.704244260920889e-09 -6.862608340001437e-10
1753 1.870583607172186e-12 -3.2216698294418446e-12 -1.609882166378415e-11 -1.5914768390816733e-09 3.0411278584534787e-10 -4.856138245827345e-09
1754 8.314552132802221e-13 -2.682928095406138e-12 -1.734744882516949e-11 1.015081582384087e-09 1.609103255506241e-08 -1.1125894802491864e-09
1755 2.325258538685113e-13 4.843497020324907e-13 -1.357779591155432e-12 2.4209179182769615e-10 -2.6401110620349177e-09 -1.808177391878213e-09
1756 -7.837147173982245e-13 -2.1662247731489846e-12 -5.79845434331638e-12 2.616428721090148e-09 -1.866511326079971e-09 -2.7447856526886797e-09
1757 7.763183824030202e-13 -1.0771879277787733e-12 2.301857768554975e-12 -3.4838211231556007e-09 -2.70103296370847e-09 2.2200744832902323e-09
1758 2.4495287627658433e-12 7.208283263980051e-13 -5.553247305475628e-13 -7.824482933048697e-09 1.5018937450572483e-08 -1.7109727201419846e-09
1759 -2.2091213955545547e-12 2.6674237566163363e-12 -1.734572952889771e-11 2.0455426201370047e-09 -6.013963658201379e-09 -6.61010257678071e-09
1760 -1.0754641925042233e-12 1.091802313572356e-12 -1.5292566514749427e-11 -2.8229442583661356e-09 -1.3559880649438751e-09 2.7376232339923815e-09
1761 -2.1668672324327365e-12 -3.180837429399375e-12 -2.0967943346733805e-12 -1.0490187071174941e-10 -1.2529973125333189e-08 2.6226798078681513e-09
1762 1.6605573343042744e-12 2.9934999718969005e-13 2.398180052108944e-12 1.3787347468603441e-08 4.063682084361533e-09 -1.132679679567001e-09
1763 -1.6956725509360205e-12 8.224183467642012e-13 -1.0900342541283132e-11 -4.358675804147598e-09 7.034567837932328e-11 -8.665893182619836e-10
1764 1.2252686566842536e-12 -3.387695053549906e-12 -1.734109127059416e-11 5.1257148930685515e-09 -5.020219484661452e-10 8.716772277707754e-09
1765 -1.398732448336091e-12 -1.082638806346804e-12 -8.609400455148023e-12 1.0912622566007083e-08 -6.780668224281396e-09 7.868607055312661e-10
1766 1.0844440957773037e-12 -7.016528193945684e-13 -1.366885381683601e-11 2.9781479993620683e-09 2.4199259852011366e-09 2.5401043853173002e-09
1767 -1.0329005461577443e-12 -2.168447882632538e-12 -7.345508866885334e-12 2.758446405971924e-09 -4.586380706357258e-09 1.88581668903563e-09
1768 -1.6308257061099554e-12 -2.1669393059802348e-12 -6.140414616703589e-12 9.640582011385378e-09 -1.3733060605857864e-08 -2.58535368297942e-09
1769 -6.434986596932036e-13 2.1684290595872973e-12 -1.1053575755225561e-11 -3.0712017769280414e-09 -1.2597109104957593e-08 -1.09564869572926e-09
1770 -3.5631887179904912e-12 2.1682224081401495e-12 -1.733514737197098e-11 3.165016247354211e-09 -5.498048406065962e-09 3.6935735616532423e-09
1771 -6.066219403769123e-13 1.7625677126059416e-12 -1.1923975915594793e-11 -6.807109235192293e-09 -2.786633448566045e-09 -2.6583466483480978e-09
1772 2.1684067509301438e-12 4.943874972774326e-13 3.3425581947078786e-12 -1.4712451749554038e-10 -4.965068560735897e-09 1.5081250775236566e-09
1773 9.541613410016042e-13 -1.0812846249259805e-12 -1.1624278390252839e-11 2.552641226541624e-09 -3.546490358403215e-09 8.329521463729202e-10
1774 2.1449615095117554e-12 -2.317997618910821e-12 -1.5600663341354192e-11 -3.199007556373189e-09 -2.977255990343617e-09 -3.681490820429647e-09
1775 9.04030592302937e-13 1.041401483959999e-13 -2.703918431013547e-12 1.8259114605098645e-09 2.3913238351940725e-09 1.3456442852888983e-09
1776 -6.982848991541689e-13 3.573777481561605e-12 -1.734393182658433e-11 -3.82963903741783e-09 2.6463891023358043e-09 -6.683769523134852e-09
1777 1.7448682896806035e-13 1.6886652557426628e-13 -2.8946416935167534e-13 1.396964789555358e-09 -1.9827410579059678e-09 -3.4958707212190816e-09
1778 -3.0402828286945574e-13 -3.924123491104399e-12 -8.672982244781943e-12 5.2433088553483805e-09 6.961551170442907e-10 -1.141793306573828e-09
1779 1.2712083228395755e-12 -4.877494484503775e-12 -8.67377172125773e-12 -8.416164360562561e-09 1.0520159461254316e-09 -1.67964757007593e-09
1780 -6.566824379251093e-13 2.1205472023989016e-12 -1.3222785768625545e-11 -5.8826588016629565e-09 6.407442987126403e-09 5.053488507140214e-09
1781 2.1682478343850896e-12 -2.168191140559473e-12 -6.584611213929675e-12 -6.163145679458988e-09 5.6872840604445626e-09 -4.3382117205618424e-09
1782 -1.3191288270146196e-12 2.4333711006070993e-12 -1.6033768819692992e-11 1.875753327535179e-09 5.653500970259968e-09 1.4446083058057e-08
1783 2.168372920219337e-12 3.3757452677218805e-13 3.896884932076317e-12 -1.1300471881613767e-08 1.1341864173392962e-12 2.3018184338108426e-09
1784 -1.7866871146108533e-13 -1.0811369137680887e-12 -1.1239317693587685e-11 9.458902785091877e-09 -3.4993087347503617e-09 3.911659405404487e-09
1785 -2.167391472151845e-12 -5.939802712809184e-13 -3.865308633487122e-12 4.090692430591309e-09 -3.2221072923692482e-09 -1.6396911952706144e-09
1786 -2.709370169042605e-12 -6.029494838803089e-13 -8.67380000704117e-12 -7.15894510472577e-10 -8.863522579231878e-10 -1.209911693959406e-09
1787 8.21207096165427e-13 -5.181549660311056e-13 -1.73457730930099e-11 2.8256728078090998e-09 -3.197031473816186e-09 1.4798556138416296e-10
1788 2.2093979169404924e-12 1.0972767183339626e-12 -1.7340820120164285e-11 -2.76220487658085e-09 -4.432436933361675e-09 -3.936974820700128e-09
1789 5.332724642850852e-12 3.1589841166324375e-12 -1.7347615266498474e-11 -3.975803706164834e-09 -4.4091987705396685e-09 1.0424747279012418e-09
1790 -2.1683389051353887e-12 2.168522865624068e-12 -5.178733646402618e-12 -4.7731199474365625e-09 -4.8198287718475865e-09 6.31553802011967e-10
1791 -3.457591443830394e-13 2.4411558478371506e-12 -1.436319182353938e-11 -3.323530814800355e-09 -1.4449533102835984e-09 -3.158968901389484e-09
1792 -1.909956690072553e-12 2.409323072717628e-12 -7.928720823354642e-12 -5.424838181663122e-09 -3.6000947167745656e-09 7.203289674201111e-09
1793 2.1679602008126012e-12 -1.2068710840700387e-12 -4.0535791771832694e-12 -7.633161080726492e-10 4.413592558576068e-09 -4.22934845935619e-09
1794 5.471829755132339e-12 -5.1363019068642595e-12 -1.607571830806602e-11 1.1484391058898932e-08 -1.1932097148231988e-09 6.939512284470976e-09
1795 -1.4496835996351645e-12 1.083480683068583e-12 -8.948863448775077e-12 5.6377008279215655e-09 -2.800506584372956e-09 -1.4400357454692816e-09
1796 -2.023963693031618e-13 -2.1668351698646424e-12 -2.2680954893410005e-12 2.9304872845376657e-09 -1.5874489695255074e-09 2.3103420003885635e-11
1797 -1.7243351557458333e-12 2.811368948765782e-12 -7.500401160202032e-13 -8.868180577834665e-09 1.969831686871838e-08 3.295031245110907e-09
1798 -3.1635344976203837e-12 -5.292579940045738e-13 -1.6793207316320113e-11 2.2905471215155244e-09 -5.643572194406641e-09 3.6891020417627376e-09
1799 1.1129048740885546e-12 1.086454355252907e-12 -6.277744413287348e-12 -5.543390074948429e-10 6.010538948847121e-09 2.851257249358223e-09
1800 -2.0395435314376935e-12 1.0842621489298592e-12 8.529965508109662e-13 -1.3660585887231626e-09 2.742314567007528e-09 -9.851241766712286e-10
1801 1.032093957296767e-12 -1.3351294181192266e-12 -6.823961726776768e-12 5.703270597354854e-11 2.6216944226078615e-09 5.907486079073213e-09
1802 -1.0846392108440548e-12 2.168303487831347e-12 -3.055883582987473e-12 -7.758767364546449e-09 1.1689181076218092e-08 -2.163881848928664e-09
1803 5.415234218670505e-13 -4.060297810504165e-12 -1.3717008643705394e-11 2.9783837219774963e-09 -1.4464497554969345e-09 4.471024141757683e-09
1804 -1.296707592853159e-12 2.1684472036569333e-12 -1.3114883404999118e-11 5.863823106348853e-09 -5.579502749715283e-09 -3.254691917971915e-09
1805 2.5105294438767736e-12 -1.036786381941361e-12 2.4761431727786325e-12 -3.1482532236942995e-09 -1.0644757047846498e-09 3.65905377630223e-09
1806 -8.400746574302239e-13 -2.16199903648019e-12 -8.02452410346644e-12 2.5270657829398775e-09 3.895826854163188e-09 -1.4727512080589464e-09
1807 -1.3918793648355408e-12 1.0751136097426034e-12 -8.934594625276542e-12 -3.841441966268051e-09 2.1063845912011753e-09 1.1246717724030426e-09
1808 -4.859589509922695e-13 -3.2984176943543702e-12 -8.672732943527326e-12 -7.434902281514447e-09 -5.076838240153886e-09 3.9240395416578e-09
1809 -2.1674861303512215e-12 2.4282960679309957e-13 -1.3701222493411352e-12 1.0497728957626658e-08 1.0280179726238798e-09 -1.334550437751156e-09
1810 -1.08373726437797e-12 -2.1684140076338753e-12 -1.4959929951073127e-11 -4.185298531478703e-09 3.8580166447918335e-09 1.6039019348742262e-09
1811 2.281782144376705e-13 5.115064247768289e-12 -1.1152975246150598e-12 -1.3927731304008077e-08 1.1538897108223342e-08 3.5113262306392213e-09
1812 1.0873080435155452e-12 2.185918551368995e-12 -1.5617843751751524e-11 -5.731219250782197e-09 9.674903128105838e-09 -1.9030586331456696e-09
1813 -4.3276105025766546e-13 -2.1684260008524686e-12 -7.943968911208279e-12 2.839337827687735e-09 3.802391627395734e-09 5.992969420269273e-10
1814 -2.5275880415882207e-13 1.0825242054649896e-12 -1.458085853699173e-12 -1.5688321267449498e-09 -1.0979003184961936e-09 -1.2223764486220813e-09
1815 6.647666730769785e-12 -9.23509201389987e-13 -1.3011905364365337e-11 4.761454190962982e-09 6.1608446886843345e-09 1.0957736799307134e-08
1816 -5.979745597754932e-13 -2.168031224686585e-12 -2.864811164303164e-12 2.7385134745091222e-09 -6.206748110445013e-10 6.290604403507719e-10
1817 -1.6219008579714407e-12 -2.1685581836701856e-12 -7.974529280860076e-12 -1.5055262397921842e-09 -2.6221474874508927e-09 -5.078423401308506e-10
1818 -2.1679650884960714e-12 -2.4516075214003544e-12 -1.6941902357328762e-11 9.55980357530045e-09 2.1091329211584287e-09 6.426195315576236e-09
1819 2.151681786204314e-12 -4.118522497514916e-12 -1.7344868717268795e-11 -8.93661239412244e-09 -2.294548924789813e-09 3.549364132717465e-09
1820 -6.336916658185988e-12 -2.7632721350614e-12 -8.033171414370125e-12 4.950209467715839e-09 -1.5219640144622304e-08 6.688850081841189e-10
1821 8.087176233965583e-13 -2.083477495141841e-12 -5.174624718973924e-13 3.4766706770006562e-09 5.475234203228003e-09 -5.6443810539171045e-09
1822 -1.083540122224448e-12 -5.865091392360824e-14 -3.077580580508243e-12 1.8389863061589922e-09 -6.949516833792532e-11 -1.904065909126896e-09
1823 4.1755869228491014e-14 -1.870147714002279e-12 -8.642031054639223e-12 4.422250523043822e-09 7.845781647143507e-09 -3.1748396158431806e-09
1824 -5.420559452778094e-13 2.1646841001238388e-12 -3.4507412580758938e-12 -2.448836044326695e-09 3.3266371486764084e-09 9.68388054262687e-10
1825 -3.8572288117802966e-12 1.1905536791495418e-12 -1.7294765642294453e-11 -6.106454724158697e-09 -2.8005358083013905e-09 -2.7883185262324165e-09
1826 -1.6749176534215035e-12 6.330264439824358e-12 2.797909115135454e-12 -1.359801484013191e-08 -2.2780239671428533e-09 -4.0702322964228525e-10
1827 2.167456283129808e-12 -1.4017612112819787e-12 -1.567001521534866e-11 1.2433125562843818e-08 1.6228930071789761e-09 2.724795686829954e-09
1828 -3.2540466162692523e-12 -7.444659940670646e-13 -1.734650087004809e-11 -1.2196081059328728e-09 3.380761100024139e-09 -3.0853101139077884e-09
1829 -4.67268963315805e-12 2.1683626309720422e-12 -1.640223817659181e-11 1.5930562021658747e-09 -9.42561678269281e-09 1.1814135974620762e-08
1830 3.2006786600701175e-12 1.0835970016856931e-12 -1.7343769694491142e-11 2.802680126537634e-09 -1.9445917980821072e-10 -7.503387101981447e-09
1831 -1.8034384685182706e-12 -1.3610128661954804e-12 6.436767087261261e-12 -3.741871574918742e-09 -4.40128953915678e-09 -3.086194145018115e-09
1832 8.781104534213924e-14 -3.252597350696607e-12 -1.1820253128260246e-11 7.081534032841141e-09 -5.0115813217682655e-09 4.159965781832201e-09
1833 3.252408517932009e-12 9.033032138981125e-13 -1.7343593205808486e-11 -1.7057487661801775e-09 -4.3188316594655235e-09 1.7158364071093144e-10
1834 1.0887866256377384e-12 -1.8931564977456553e-12 2.0778344311236116e-12 -3.1861490382773845e-09 5.218822990572096e-11 -4.715918858168712e-10
1835 -5.924600772230682e-13 -1.6271776981215217e-12 3.0283627353981003e-12 2.715613632554128e-09 -5.044673235139549e-09 -2.8673223045263773e-09
1836 -2.4948095363051354e-13 -1.0844738166860615e-12 1.1919593296809053e-12 2.349374897585305e-09 3.5121241849957917e-09 1.3842297588610762e-09
1837 -2.1637631069681487e-12 1.0581419483185505e-12 -4.454433030602621e-12 -2.7677871199117212e-09 2.0956924625215683e-09 7.500058273500869e-10
1838 -7.037077115300145e-13 -2.162326808132377e-12 -7.493657427305005e-12 9.132906843727419e-09 2.280525579517149e-09 -5.877314793547711e-09
1839 1.2018404632949328e-12 2.1687387880677056e-12 -7.277173957757243e-12 -9.991048358890555e-09 7.775184547664634e-09 -2.0233875209672464e-09
1840 2.1684192633540807e-12 -2.4203659224751606e-12 -1.7347139811344466e-11 -5.261675408731364e-09 -9.690272496722011e-09 4.90033070480758e-09
1841 2.1356266770292937e-12 1.156826167457639e-12 -1.637189930080198e-11 7.660399559437407e-09 6.607182024890597e-09 -3.3579674582984522e-09
1842 -1.1538853078119637e-12 6.646201209315733e-13 -1.4275162933598024e-11 -9.92146892432401e-10 5.4723770684305845e-09 -9.821765883741371e-09
1843 -2.11299066561395e-12 -2.7796700593866376e-12 -1.5043345917539247e-11 8.159808712044074e-09 4.713417965322475e-09 1.0343033602311129e-08
1844 2.47320257266029e-12 3.2264521843306033e-12 -1.734043170241987e-11 -2.559698805698105e-09 5.599576262780488e-09 1.3817077601574345e-09
1845 -2.130825548565131e-12 4.893107647623822e-13 -8.902393318923175e-12 4.810069776800822e-09 -3.795443382645113e-09 -1.0432071017164344e-09
1846 1.8152234424102877e-12 1.0838233972554984e-12 7.721532320090865e-13 -6.352514919207361e-09 4.901937482560172e-09 -2.081223792047045e-09
1847 -2.159514834413702e-12 -1.181159537923045e-12 -1.0029165780379991e-11 1.880304432017291e-08 5.481372465656506e-09 -2.8345212585262728e-09
1848 6.479201216357667e-13 3.365778516570183e-12 -1.728025851987613e-11 6.126011059827089e-10 -2.5076385717498322e-09 1.05284597397466e-08
1849 9.82998302379263e-12 -2.2274654962562018e-12 -1.632424702373389e-11 -5.967650892588015e-09 -1.532470044839261e-09 5.049537371147583e-09
1850 -2.1637786661240628e-12 -4.959045642068317e-12 -7.027211513915181e-12 6.804094467650339e-09 6.860830031467115e-09 -6.873052436578223e-09
