LAMMPS data file via write_data, version 22 Jul 2025, timestep = 4000001, units = si

1850 atoms
1 atom types

-0.008 0.008 xlo xhi
-0.008 0.008 ylo yhi
0 0.07 zlo zhi

Atoms # sphere

1 1 0.0016 1600 -0.005031620449348474 0.00046850802729824105 0.002188940365970364 0 0 0
2 1 0.0016 1600 0.005682663657851695 0.004421335617982746 0.002126670664961218 0 0 0
3 1 0.0016 1600 0.0033418011018485436 -0.0010444757064716553 0.0007994618271039283 0 0 0
4 1 0.0016 1600 0.005272282719458348 -0.004904199271979718 0.0007994277271119226 0 0 0
5 1 0.0016 1600 0.0036455053502245215 0.006209355741727532 0.003976756657730939 0 0 0
6 1 0.0016 1600 -0.00659902765002495 -0.002880478545271335 0.0037780233496661902 0 0 0
7 1 0.0016 1600 0.0015776684155806534 -0.001550337058219706 0.0007995015168089734 0 0 0
8 1 0.0016 1600 -0.0059477987588399195 0.003146564644155363 0.004736400985048336 0 0 0
9 1 0.0016 1600 -0.005493530988213937 -0.0035608585154432693 0.004712438888855158 0 0 0
10 1 0.0016 1600 -0.002753698446268071 0.0007540000952723443 0.0030433993659028497 0 0 0
11 1 0.0016 1600 -0.0008771733618257515 -0.00158697853603963 0.00344548254527926 0 0 0
12 1 0.0016 1600 -0.005407098573287511 -0.004752991770030607 0.0007999358558857954 0 0 0
13 1 0.0016 1600 0.005354407762627953 -0.00121009497232109 0.0007997150832229178 0 0 0
14 1 0.0016 1600 0.0006846344224667643 0.0007981353864793424 0.002233462031630507 0 0 0
15 1 0.0016 1600 0.0014156414094759794 0.007059845173656968 0.0007990904278914589 0 0 0
16 1 0.0016 1600 0.004380732443405967 -0.003454566001991966 0.002164860930243269 0 0 0
17 1 0.0016 1600 0.006226047447719397 -0.0036167116034157573 0.003566818529341351 0 0 0
18 1 0.0016 1600 0.0029362391356202726 -0.0005078051946128872 0.005509003074517467 0 0 0
19 1 0.0016 1600 0.0032686317032765743 -0.0017287935411460136 0.004367173118558501 0 0 0
20 1 0.0016 1600 -0.0025537618267989608 -0.0009998393314947158 0.003020346449148267 0 0 0
21 1 0.0016 1600 0.0016430111948127029 -0.005440324903609549 0.0021244919722082783 0 0 0
22 1 0.0016 1600 0.0015401602681154667 0.002157074744777518 0.003324815156469456 0 0 0
23 1 0.0016 1600 0.0057793624339660815 -0.004284903497035726 0.0021841503710287448 0 0 0
24 1 0.0016 1600 -0.0010913816816065633 -0.007116949252807627 0.0007997453289255876 0 0 0
25 1 0.0016 1600 -0.007165153828619567 0.0007085687590763311 0.0036088304925999642 0 0 0
26 1 0.0016 1600 0.0071751000599148615 -0.0005775395197486821 0.0007996931256714726 0 0 0
27 1 0.0016 1600 0.0006727337398121446 0.001505830136340716 0.0007994037030803369 0 0 0
28 1 0.0016 1600 -0.0013243155032143608 0.0041513431984556304 0.0007997893622599308 0 0 0
29 1 0.0016 1600 -0.0001593321972974724 0.006779376448771235 0.0007998418092819335 0 0 0
30 1 0.0016 1600 0.0020807231778150782 -0.004042909228858405 0.004781473432262553 0 0 0
31 1 0.0016 1600 -0.002800794380324888 -0.005097897176170683 0.0007997537952611196 0 0 0
32 1 0.0016 1600 -0.0029757162996372996 0.0016636630519049822 0.004340113815331898 0 0 0
33 1 0.0016 1600 -0.0001290504105366923 0.0021737574199314678 0.0022895120097647806 0 0 0
34 1 0.0016 1600 0.0030443199944773505 -0.006495800600918009 0.0019077382055583268 0 0 0
35 1 0.0016 1600 -0.004295686574280441 -0.0009550835666167772 0.005041206724836539 0 0 0
36 1 0.0016 1600 0.005790445763791823 0.0003583687782301052 0.000799572773659349 0 0 0
37 1 0.0016 1600 0.002444647819805889 0.006773498194038448 0.0019890931303240336 0 0 0
38 1 0.0016 1600 -0.00036524098457221783 -0.005700590540269073 0.002089750616351598 0 0 0
39 1 0.0016 1600 0.0030438737990138008 0.003835098401553584 0.005280759799813525 0 0 0
40 1 0.0016 1600 0.003628795534629518 -0.004552378201017115 0.005374294378728327 0 0 0
41 1 0.0016 1600 -0.004218274046193252 -0.004140439137691112 0.003939898906997175 0 0 0
42 1 0.0016 1600 0.00037270061897868304 0.003602344871152678 0.0007993855983136527 0 0 0
43 1 0.0016 1600 -0.0038825757261495256 0.00027012302514278135 0.0040683964291483386 0 0 0
44 1 0.0016 1600 -0.0016988704520668964 -0.00030347899467228414 0.00582504633565787 0 0 0
45 1 0.0016 1600 -0.003200437697514598 0.0017204664660263004 0.0018494294294542695 0 0 0
46 1 0.0016 1600 0.0020839673487786678 0.0013952989786081894 0.004627213928944189 0 0 0
47 1 0.0016 1600 0.0005854225101041038 -0.00015392795447630126 0.0007999358558857954 0 0 0
48 1 0.0016 1600 -0.0044077176982387735 0.0023821671713108302 0.00445316133170451 0 0 0
49 1 0.0016 1600 0.0011397250684004434 0.0031330500833974067 0.0021221001544122005 0 0 0
50 1 0.0016 1600 0.00014004037344705463 -0.0015385066956467126 0.0015009978100932282 0 0 0
51 1 0.0016 1600 -0.006466635771022571 0.0031671826651517 0.0018144741537255583 0 0 0
52 1 0.0016 1600 0.0022569643083295713 0.0004092759133529708 0.0007994110197365792 0 0 0
53 1 0.0016 1600 0.0007344898326428795 -0.00040058000942332604 0.0037104959131937943 0 0 0
54 1 0.0016 1600 0.0004512501804684397 -0.007186037894345944 0.0012182304463212695 0 0 0
55 1 0.0016 1600 -0.0016035821746046915 0.0024857375663846085 0.004365156318793945 0 0 0
56 1 0.0016 1600 -0.003874963313553185 0.0027204237918772097 0.0007993130339614535 0 0 0
57 1 0.0016 1600 -0.005891767420849542 -0.0006643998422760923 0.0011659448530187471 0 0 0
58 1 0.0016 1600 -0.0052557163061330995 -0.002008576236686968 0.0039856364111421 0 0 0
59 1 0.0016 1600 0.0020287912775932577 -0.0038225647027323372 0.000799935855885796 0 0 0
60 1 0.0016 1600 -0.006792643039031579 -0.002389866045081996 0.0022676834915968166 0 0 0
61 1 0.0016 1600 0.005010037073710807 0.0010501498787867701 0.006024540522293914 0 0 0
62 1 0.0016 1600 0.002326550721216822 0.005258196768956082 0.0057668713438052705 0 0 0
63 1 0.0016 1600 -0.00523306561733287 -0.0020580020579457937 0.0023874950750800293 0 0 0
64 1 0.0016 1600 0.004784627877697216 0.0018417778041984858 0.0007994246870346984 0 0 0
65 1 0.0016 1600 -0.002975878307577549 -0.004981973083822972 0.0031327660979338532 0 0 0
66 1 0.0016 1600 -0.002469170626365756 -0.002232727284502964 0.000801166368772391 0 0 0
67 1 0.0016 1600 0.007068231307021632 -0.0013751063320927143 0.0021837474283145065 0 0 0
68 1 0.0016 1600 -0.0029396401765509486 0.003494490646543674 0.0018410653356486244 0 0 0
69 1 0.0016 1600 0.002891697283292249 -0.00444771655327041 0.0020129280790637445 0 0 0
70 1 0.0016 1600 -0.00669116609263258 0.0010110134548897852 0.002111144191980004 0 0 0
71 1 0.0016 1600 -0.001308347258670566 0.0014383789247316558 0.0030815401150292355 0 0 0
72 1 0.0016 1600 0.002970114007002283 -0.00309440582712139 0.0028612920111546936 0 0 0
73 1 0.0016 1600 -0.001463970260286666 -0.004443248340954597 0.0035073978728550207 0 0 0
74 1 0.0016 1600 0.0018529685636871054 0.002585386925725915 0.0007993481842100311 0 0 0
75 1 0.0016 1600 0.001630452039758068 -0.0042208445032181205 0.0031978833370050795 0 0 0
76 1 0.0016 1600 -0.0003049871896836154 0.004314378564482417 0.0020612033694741632 0 0 0
77 1 0.0016 1600 -0.004817992652912371 0.0035181904928899463 0.0018156993309091365 0 0 0
78 1 0.0016 1600 1.2107229803959649e-05 0.0007387218597103058 0.005105652137219846 0 0 0
79 1 0.0016 1600 0.003339174513105148 0.004752366674918307 0.00151894601525153 0 0 0
80 1 0.0016 1600 0.003167032569818542 -4.3266761272077036e-05 0.0020348390395010744 0 0 0
81 1 0.0016 1600 -0.0039293852375463486 -0.002199088141076169 0.001453702749582655 0 0 0
82 1 0.0016 1600 0.0006698202429096603 -0.0028746451369972394 0.00079929224801895 0 0 0
83 1 0.0016 1600 0.007150434098446367 0.0008481048040471597 0.005117802154894123 0 0 0
84 1 0.0016 1600 6.074641141972064e-05 -0.004473698030741128 0.0030234421698559196 0 0 0
85 1 0.0016 1600 -0.0006840406130954916 -0.007167652216195391 0.004191528700255294 0 0 0
86 1 0.0016 1600 -0.002329003957007987 0.0008866104159797731 0.0007993224018070348 0 0 0
87 1 0.0016 1600 -0.0069478741039534836 0.0018905222933514978 0.0007996963056675727 0 0 0
88 1 0.0016 1600 0.0034266752738900874 0.004676531053880897 0.0032885260465110285 0 0 0
89 1 0.0016 1600 0.004152661091551228 -0.005882687683428574 0.003466979147884419 0 0 0
90 1 0.0016 1600 -0.0012685102100367387 -0.00568971608763179 0.005541952643946679 0 0 0
91 1 0.0016 1600 -0.0034844088576414575 -0.006301253049877759 0.0054362242828574275 0 0 0
92 1 0.0016 1600 -0.0008939652922802443 -0.002537122306374651 0.000799265877706896 0 0 0
93 1 0.0016 1600 0.003117227393004489 -0.004669447011095676 0.0035805718029116923 0 0 0
94 1 0.0016 1600 -0.005122038645083821 -0.005061334195545497 0.0029954050378501644 0 0 0
95 1 0.0016 1600 0.002348125300412481 -0.0009362977265562439 0.003326662326059096 0 0 0
96 1 0.0016 1600 -0.0008014213815688326 0.005937287349661025 0.004148227692341363 0 0 0
97 1 0.0016 1600 0.006839571732373615 -0.002141651455712388 0.000798987800652249 0 0 0
98 1 0.0016 1600 0.00544067246113969 -0.0005118193946030754 0.0036783274625140426 0 0 0
99 1 0.0016 1600 0.0018593402064931534 0.0041799511984526505 0.0009250780137983966 0 0 0
100 1 0.0016 1600 0.0038791280803366288 -0.004118806316316118 0.0007990953917400054 0 0 0
101 1 0.0016 1600 -0.00016127296170513326 -0.0029225090802523024 0.005825582961101169 0 0 0
102 1 0.0016 1600 0.0010084859835843075 0.004291808421607278 0.005486722955776277 0 0 0
103 1 0.0016 1600 0.0027230755150457002 0.002947537930857407 0.00225434761573694 0 0 0
104 1 0.0016 1600 0.002098620195192577 0.001505732517676908 0.0019534210835899938 0 0 0
105 1 0.0016 1600 -0.0006694317098825812 0.002388531221940106 0.0007994648938149691 0 0 0
106 1 0.0016 1600 0.004588193923529699 0.003621456516476376 0.002976973711554102 0 0 0
107 1 0.0016 1600 0.007147382678760954 0.0008735522456303955 0.0014721756794479422 0 0 0
108 1 0.0016 1600 0.0011757400467352316 0.005593384628800338 0.0019451518283904524 0 0 0
109 1 0.0016 1600 0.004611714567480595 0.0008152670569668457 0.004493201549105146 0 0 0
110 1 0.0016 1600 0.002923534358745548 -0.002570001058121996 0.005682935009948668 0 0 0
111 1 0.0016 1600 0.002062563063655293 0.004382993020294503 0.0025023968572787853 0 0 0
112 1 0.0016 1600 -0.005392495760126729 -0.0021391496327933532 0.0007989052956313534 0 0 0
113 1 0.0016 1600 -0.0049196966550824756 -0.003448320417061246 0.001587690911088822 0 0 0
114 1 0.0016 1600 -0.0014350564932920716 0.0070557120594094734 0.001724831037286665 0 0 0
115 1 0.0016 1600 0.004361970893115829 -0.0050715634093330885 0.0021040358619441248 0 0 0
116 1 0.0016 1600 -0.002162778818963781 -0.0020974663259249737 0.004248841025201944 0 0 0
117 1 0.0016 1600 -0.003962609929537271 0.00312083263912399 0.0031065040579714054 0 0 0
118 1 0.0016 1600 0.001875458874120596 -0.005499296083648195 0.004152956209182248 0 0 0
119 1 0.0016 1600 0.005541849038817537 -0.0024465156143081224 0.004416577569636157 0 0 0
120 1 0.0016 1600 0.0001316097159192891 0.0051964197206244905 0.0007998215540036288 0 0 0
121 1 0.0016 1600 -0.0022663588639075163 0.002485004989323402 0.0007993926905827536 0 0 0
122 1 0.0016 1600 -0.0013838944499246883 0.0057499569330177955 0.0007998075593115602 0 0 0
123 1 0.0016 1600 -0.004340603489916904 -0.0007985045598061073 0.0007994197609855197 0 0 0
124 1 0.0016 1600 0.0016261840551307746 -0.00046929088618507007 0.0019776972979775923 0 0 0
125 1 0.0016 1600 -0.0012899907315181698 0.0036850399118145043 0.005375502529654946 0 0 0
126 1 0.0016 1600 0.0061863822893635685 0.003684449299893732 0.0007994865100742299 0 0 0
127 1 0.0016 1600 -0.0035456583349636078 -0.0036681544304505193 0.000798887495638033 0 0 0
128 1 0.0016 1600 0.006589607959425975 -0.002901804956127742 0.002183428173349485 0 0 0
129 1 0.0016 1600 0.002602691896406308 -0.0017960440427956911 0.0020025498128629655 0 0 0
130 1 0.0016 1600 -0.002719771590111193 0.004464916320087526 0.0053930815857315085 0 0 0
131 1 0.0016 1600 -0.001612168277434681 -0.006035965899468876 0.0035464304979901068 0 0 0
132 1 0.0016 1600 0.004169147566255535 0.00035741806202848356 0.0007999358558857954 0 0 0
133 1 0.0016 1600 -0.0008087933295800086 -0.004868174108416198 0.0007987852383934207 0 0 0
134 1 0.0016 1600 0.004749923499200409 0.0033358172574441654 0.0014111451810726926 0 0 0
135 1 0.0016 1600 0.006300976591600641 0.0034843393902017667 0.005418659927469684 0 0 0
136 1 0.0016 1600 0.004751914397102497 -0.004317042933507598 0.0034596077094610185 0 0 0
137 1 0.0016 1600 -0.0019472810659335895 -0.0037447473901530423 0.0007993088113916527 0 0 0
138 1 0.0016 1600 -0.0009217481682599945 -0.0031031194889988944 0.004430327191654252 0 0 0
139 1 0.0016 1600 -0.003987381141622414 -0.004717512536286361 0.00192211050118315 0 0 0
140 1 0.0016 1600 -0.0003436962886608766 -0.005386307168102928 0.004273156939781495 0 0 0
141 1 0.0016 1600 -0.0010590015844967695 -0.0007453148623529529 0.000799362386900991 0 0 0
142 1 0.0016 1600 0.0068172099697517835 0.002317488728708785 0.004453640107089909 0 0 0
143 1 0.0016 1600 -0.004055444101798848 0.0008413915597817193 0.0007999358558857954 0 0 0
144 1 0.0016 1600 -0.00268500486802587 0.006680778822443672 0.0007996681144611438 0 0 0
145 1 0.0016 1600 -0.001421612461481141 -5.586260052402007e-05 0.0036415553381308296 0 0 0
146 1 0.0016 1600 -0.0068358242356647055 0.0022618608577017617 0.003098186077110025 0 0 0
147 1 0.0016 1600 -0.004221851901080139 -0.005832631771584015 0.0007996348787978034 0 0 0
148 1 0.0016 1600 0.005220932375178141 0.0021980994361093264 0.003341958961066767 0 0 0
149 1 0.0016 1600 -0.0006847226472058883 0.007167782278510855 0.0031330932401219076 0 0 0
150 1 0.0016 1600 0.002284674230464008 0.005716734535373556 0.0007992932714541785 0 0 0
151 1 0.0016 1600 0.0026197017817373314 0.003225997171392663 0.0038263819848505204 0 0 0
152 1 0.0016 1600 0.0018992107614516636 0.0005968835205452933 0.003254151329266606 0 0 0
153 1 0.0016 1600 -0.0003343659835748306 -0.0004006920979766812 0.0025200005050109216 0 0 0
154 1 0.0016 1600 0.006604400576973688 5.3397643178596615e-05 0.0027333408532736136 0 0 0
155 1 0.0016 1600 0.0005849070492152557 0.007176351837167147 0.0021606430494228424 0 0 0
156 1 0.0016 1600 -0.0054561586520031355 0.0020037733402728563 0.002330964175482608 0 0 0
157 1 0.0016 1600 0.0013713222498686697 0.0070685034676155525 0.0035495903556005135 0 0 0
158 1 0.0016 1600 -0.0029115520672029775 0.004357339928949908 0.003187375391462129 0 0 0
159 1 0.0016 1600 -0.0027850671527624112 0.004839002404683998 0.0007996123531300484 0 0 0
160 1 0.0016 1600 -0.002249626628304316 0.006839743872186118 0.003093026877936426 0 0 0
161 1 0.0016 1600 -0.0013880508539963782 0.0031243785529984887 0.0020245893516318758 0 0 0
162 1 0.0016 1600 -0.005649133878689114 0.003346856189172894 0.003177511690189362 0 0 0
163 1 0.0016 1600 -0.007197925651005056 -0.00018015691940748694 0.004938637121897198 0 0 0
164 1 0.0016 1600 -0.0008466668250526601 0.007150105592230243 0.005804580814089732 0 0 0
165 1 0.0016 1600 -0.0063245838453071315 -0.0034401305146281513 0.000799935855885793 0 0 0
166 1 0.0016 1600 0.0005714679918562871 -0.003663758994236639 0.00430513215050646 0 0 0
167 1 0.0016 1600 0.006224751685143046 -0.003618656892853105 0.0007997236573552149 0 0 0
168 1 0.0016 1600 -0.002746931334841762 -0.0006574280703084977 0.0007997822085475727 0 0 0
169 1 0.0016 1600 0.001552335227959375 -0.0030387671957035904 0.0021229593254652023 0 0 0
170 1 0.0016 1600 -0.0003938443065659016 0.00591098576324857 0.002131363818288803 0 0 0
171 1 0.0016 1600 -0.005349499256200677 0.004819683122246664 0.0025783916261117785 0 0 0
172 1 0.0016 1600 -0.005828898890845245 0.004227376031194268 0.0007995569064842224 0 0 0
173 1 0.0016 1600 -0.005883507565020824 0.00415030193535913 0.005980621600591768 0 0 0
174 1 0.0016 1600 0.0008053528620413346 -0.005824732017368459 0.005296378638533776 0 0 0
175 1 0.0016 1600 -0.007170480008844718 -0.0006547166590618503 0.0021272354120627883 0 0 0
176 1 0.0016 1600 -0.004750879043460112 0.005410565827523295 0.0007996245953822505 0 0 0
177 1 0.0016 1600 0.005265552364018848 -0.004911711728431426 0.006258508189099058 0 0 0
178 1 0.0016 1600 -0.004324058480909729 0.0057570091790163196 0.0033717173273015697 0 0 0
179 1 0.0016 1600 -0.0021459931278211422 0.005388431472811073 0.0021591726983459254 0 0 0
180 1 0.0016 1600 -0.0007599680445394708 -0.00369987049699453 0.0018893954426001528 0 0 0
181 1 0.0016 1600 0.004090421869243134 0.00211880383362071 0.002213279668670485 0 0 0
182 1 0.0016 1600 -0.001553956330690814 0.0009670239860964816 0.004864290114649333 0 0 0
183 1 0.0016 1600 0.005537255241397996 0.004603533111859037 0.004568792736259088 0 0 0
184 1 0.0016 1600 0.004058988673425965 -0.005946904783583782 0.000799633742566859 0 0 0
185 1 0.0016 1600 -0.0012675369794483086 0.004672108566625481 0.00328756991634288 0 0 0
186 1 0.0016 1600 0.0013632581337387534 -0.002743481984853817 0.005377569947122414 0 0 0
187 1 0.0016 1600 -0.003443535360052495 0.006323845026457845 0.0021621561119965363 0 0 0
188 1 0.0016 1600 0.0010742843238176003 0.0058138835100381495 0.004794988494470411 0 0 0
189 1 0.0016 1600 -0.0018452983010270139 -0.006838760511894094 0.0021829231004610126 0 0 0
190 1 0.0016 1600 0.004256339114521438 0.0007026026395907432 0.0029379443374861103 0 0 0
191 1 0.0016 1600 -0.0024801315143988065 0.002526024480607705 0.003028380484126758 0 0 0
192 1 0.0016 1600 0.006080299412789381 0.0028674299390204073 0.0021705793423107736 0 0 0
193 1 0.0016 1600 -0.0030020467336063705 0.003262643515536718 0.0043770337763564615 0 0 0
194 1 0.0016 1600 -0.0038650186382663135 0.004792039607937372 0.0019789197861479696 0 0 0
195 1 0.0016 1600 0.0006968758840401585 -0.004276780075829845 0.0015685452556307414 0 0 0
196 1 0.0016 1600 0.00045402753637731964 0.0026750000527239665 0.00452328374154198 0 0 0
197 1 0.0016 1600 -0.0007478291035888801 0.0008070417184357713 0.0010278317685037065 0 0 0
198 1 0.0016 1600 -0.006960154609740611 -0.0018433240601484582 0.004941190893214256 0 0 0
199 1 0.0016 1600 0.0031906645789991296 0.0017083181736261542 0.0007998204230122419 0 0 0
200 1 0.0016 1600 -0.0036773874049995338 -0.001798863543969011 0.003830779567332983 0 0 0
201 1 0.0016 1600 0.0019730755909920738 -0.006924527154887322 0.0007996563875381464 0 0 0
202 1 0.0016 1600 0.004622142364033148 -0.00324678439938203 0.005453720387047623 0 0 0
203 1 0.0016 1600 -0.001800704396003507 -1.236302078673201e-05 0.002012271294374397 0 0 0
204 1 0.0016 1600 -0.005706818362642227 0.0008814005280032477 0.0007993728723268408 0 0 0
205 1 0.0016 1600 0.002380256134138545 0.006795298043370142 0.004760665604416424 0 0 0
206 1 0.0016 1600 0.00717362434362954 -0.0006203057003299346 0.005751713786320488 0 0 0
207 1 0.0016 1600 -0.004686512598342623 -0.0007624975549327115 0.0031492130392238066 0 0 0
208 1 0.0016 1600 0.004199077362726476 -0.0018264632269465026 0.0019006217105274378 0 0 0
209 1 0.0016 1600 0.004864393042057079 -0.002776762700869537 0.0007993394299119516 0 0 0
210 1 0.0016 1600 0.0038400011642888993 0.006090782256503305 0.0007994809446532178 0 0 0
211 1 0.0016 1600 -0.002747542134216123 -0.0037154930216759534 0.002183494701578897 0 0 0
212 1 0.0016 1600 0.0025429321936425433 -0.005429670008880302 0.0007995614369319209 0 0 0
213 1 0.0016 1600 -0.00358984123547051 -0.0002170952794542868 0.0020863084046051036 0 0 0
214 1 0.0016 1600 0.00048311951613116716 0.005385021723029588 0.00337161794075641 0 0 0
215 1 0.0016 1600 0.0015905944139928652 -0.007022721688034128 0.0023498759930303164 0 0 0
216 1 0.0016 1600 0.004322852456612328 -0.0024182808071775714 0.0033816242852717665 0 0 0
217 1 0.0016 1600 0.003969748589967531 -0.0008584762541301999 0.0031532554316774718 0 0 0
218 1 0.0016 1600 0.0031984031076748936 0.00018332157899301547 0.004090496133973679 0 0 0
219 1 0.0016 1600 0.006991058825765786 0.0017229500337197238 0.0028186482259013545 0 0 0
220 1 0.0016 1600 0.005594857269084816 -0.00175105974507323 0.002678804637106648 0 0 0
221 1 0.0016 1600 -0.005453380021379621 0.002460652441923654 0.0007986792320295564 0 0 0
222 1 0.0016 1600 -0.0033856494460105186 -0.006187194553217416 0.002116780341392002 0 0 0
223 1 0.0016 1600 -0.0005722657244310222 0.003236067512468182 0.003399974125393274 0 0 0
224 1 0.0016 1600 -0.001802347263031106 -0.004998965125832966 0.002045745226814985 0 0 0
225 1 0.0016 1600 0.00046454206818554003 -0.0014501800167510649 0.005816989199242118 0 0 0
226 1 0.0016 1600 0.005174470447995527 -0.00031499252966240096 0.0021132404646847644 0 0 0
227 1 0.0016 1600 -0.005233125051007575 -0.004945686138257071 0.005469568275289564 0 0 0
228 1 0.0016 1600 0.0010343132063077734 -0.0016944070647102593 0.0028183604006745988 0 0 0
229 1 0.0016 1600 0.0007786918356666079 -0.0056771219055329215 0.0007995347312681392 0 0 0
230 1 0.0016 1600 -0.0069766445638082 -0.001781158884991547 0.0007997924516719914 0 0 0
231 1 0.0016 1600 -0.0023275472404260264 0.005451673480389948 0.004196980495400571 0 0 0
232 1 0.0016 1600 -0.0026362468573602068 -0.006700269504981208 0.0007996076017995388 0 0 0
233 1 0.0016 1600 0.004913387851425422 -0.005263490770629056 0.004738627874171602 0 0 0
234 1 0.0016 1600 0.0031661534799978055 -0.0026868451564897866 0.0007995802742168865 0 0 0
235 1 0.0016 1600 -0.007181377417006103 0.00023737795026936636 0.0007995782417679809 0 0 0
236 1 0.0016 1600 0.0049152942538692 0.005261587636552474 0.003250625895521959 0 0 0
237 1 0.0016 1600 0.005086385626411105 0.005087566029442202 0.0007998993905021284 0 0 0
238 1 0.0016 1600 0.005634153722535736 0.0013351633243773742 0.0020570074332810595 0 0 0
239 1 0.0016 1600 0.0063640428000067825 0.002094789324506121 0.0007992691585286027 0 0 0
240 1 0.0016 1600 0.0032716098068197416 0.0033248103837360517 0.0007997214153610824 0 0 0
241 1 0.0016 1600 -0.00154312498031964 -0.001693530335613046 0.001992942630886609 0 0 0
242 1 0.0016 1600 -0.0032684552640603313 -0.0004136882392718704 0.006217450722453102 0 0 0
243 1 0.0016 1600 0.003746699593147391 0.0024122754041750213 0.004618397091335649 0 0 0
244 1 0.0016 1600 0.002300935876659594 -0.0015712140844898433 0.007911651514385146 0 0 0
245 1 0.0016 1600 0.0023561165985045893 -0.003907785204583549 0.006351502176155568 0 0 0
246 1 0.0016 1600 0.002013232100373398 0.0042566236861014085 0.008910951848162598 0 0 0
247 1 0.0016 1600 -0.004123608144017511 0.001810246346343902 0.006528165019329729 0 0 0
248 1 0.0016 1600 -0.003057879979354714 -0.006518783549591121 0.006962591891736848 0 0 0
249 1 0.0016 1600 0.005249324875969422 0.004928468840473558 0.007690211003842761 0 0 0
250 1 0.0016 1600 -0.0014316593308934607 0.0011173499446276612 0.0065102813380024036 0 0 0
251 1 0.0016 1600 -0.001943324617232395 -0.00693344091778315 0.009629504810892305 0 0 0
252 1 0.0016 1600 0.003239160432795603 0.006431187585955056 0.009621338755342376 0 0 0
253 1 0.0016 1600 -0.006814452941231181 -0.0007826083162670904 0.00788195630005053 0 0 0
254 1 0.0016 1600 0.0003249310411229512 0.004635002025521301 0.008871412006940383 0 0 0
255 1 0.0016 1600 0.003447129927993819 -0.003319301450496649 0.0043711897472220465 0 0 0
256 1 0.0016 1600 -0.0013469816241066842 0.005278771547549306 0.005499634850113012 0 0 0
257 1 0.0016 1600 -0.00436341668199042 0.0005544539524868873 0.005566781263444366 0 0 0
258 1 0.0016 1600 -0.00694548987270781 0.0018984014413215284 0.004655626973708153 0 0 0
259 1 0.0016 1600 -0.005127655663500834 0.0029370035667280908 0.008816628969485913 0 0 0
260 1 0.0016 1600 -0.003734518874342068 0.001595265688754434 0.009885430258752213 0 0 0
261 1 0.0016 1600 0.0022250383107373546 -0.003761956355702234 0.007938905959382096 0 0 0
262 1 0.0016 1600 -0.00010903851050006673 -0.00719978072404252 0.007314410408245434 0 0 0
263 1 0.0016 1600 0.0033782065624611787 -0.005142280291802629 0.006840290912982926 0 0 0
264 1 0.0016 1600 -0.0018344127205538498 0.004363536823006084 0.006720713573650632 0 0 0
265 1 0.0016 1600 -0.003139701974621382 0.002918716676579283 0.007130212756829409 0 0 0
266 1 0.0016 1600 5.3268246644629585e-05 0.005845945223000012 0.0060263351900898005 0 0 0
267 1 0.0016 1600 0.002277002015233586 0.005787766987558649 0.00323619962495247 0 0 0
268 1 0.0016 1600 0.0009020858193194924 -0.007143819106962287 0.004396545131845154 0 0 0
269 1 0.0016 1600 0.0027383053826463056 -0.006659442682904463 0.0034691805726009962 0 0 0
270 1 0.0016 1600 -0.0006075017560840384 -0.0013589460751290746 0.008423689725262536 0 0 0
271 1 0.0016 1600 0.006482817723477946 0.0020046100601300077 0.005997865772536774 0 0 0
272 1 0.0016 1600 -0.0037755388255444815 0.004288976635006551 0.0065817907604670154 0 0 0
273 1 0.0016 1600 -0.006090253340499875 -0.003841128349967198 0.002604465921486966 0 0 0
274 1 0.0016 1600 0.00039884519155928557 -0.002002678972527838 0.004316919801867986 0 0 0
275 1 0.0016 1600 -1.938837333190495e-05 -0.0028763462778766346 0.0030439472842456673 0 0 0
276 1 0.0016 1600 0.0054604391722574575 0.0032696184400451953 0.008356422436883658 0 0 0
277 1 0.0016 1600 -0.0006205064355405692 0.002130548569708297 0.005575778406430112 0 0 0
278 1 0.0016 1600 -0.0019690754554743716 -0.0006276960972837755 0.008837045734059615 0 0 0
279 1 0.0016 1600 -0.002180495449649047 -0.0016300841168114782 0.007054737068237108 0 0 0
280 1 0.0016 1600 -0.00022370308068515553 0.004478258418543575 0.004484008263401165 0 0 0
281 1 0.0016 1600 -0.005644720514673075 0.0006099982404751548 0.006522090737093697 0 0 0
282 1 0.0016 1600 0.0069849848913616135 0.0006562465769234506 0.006697566223872262 0 0 0
283 1 0.0016 1600 0.000682216703371755 -0.0060557714554965655 0.0032450259733754518 0 0 0
284 1 0.0016 1600 -0.0031537985523576967 -0.006473039865874158 0.0036834250479636983 0 0 0
285 1 0.0016 1600 -0.005804922504440099 -5.102390423075094e-05 0.004044899507979279 0 0 0
286 1 0.0016 1600 -0.005785087425843699 -0.0006387811227720104 0.005532503395711093 0 0 0
287 1 0.0016 1600 0.0017578286410133389 -0.002702187756471154 0.003828146325146585 0 0 0
288 1 0.0016 1600 -0.0019434179759343824 0.006933398633393023 0.0046604508832021364 0 0 0
289 1 0.0016 1600 0.004618579189374284 0.0035712111543475837 0.005373162519507521 0 0 0
290 1 0.0016 1600 -0.007190584771231059 0.0003797769676808713 0.008925359111151878 0 0 0
291 1 0.0016 1600 0.000792697488672392 -0.0011531944767714274 0.0073817654187939286 0 0 0
292 1 0.0016 1600 0.00581225352708161 -2.759113308786999e-05 0.005156732413539221 0 0 0
293 1 0.0016 1600 0.004114318579829289 0.00021504210389735847 0.009520681963299466 0 0 0
294 1 0.0016 1600 -0.0016584660351523152 -0.007007087374726471 0.006360619866981943 0 0 0
295 1 0.0016 1600 0.0060956072768184 0.0009918018562046246 0.003924134832758424 0 0 0
296 1 0.0016 1600 0.0006048349298808347 0.002929920800969576 0.006221972457325811 0 0 0
297 1 0.0016 1600 0.0045766348894509265 -0.0055587425776563205 0.009252555120341344 0 0 0
298 1 0.0016 1600 -0.00524503064507447 -0.002143673053794058 0.005578972976615992 0 0 0
299 1 0.0016 1600 -0.004138742343661282 -0.001711537520037784 0.00665048946272049 0 0 0
300 1 0.0016 1600 -0.0015438066021946598 0.003660479283065049 0.00941386279355017 0 0 0
301 1 0.0016 1600 3.3781562112450066e-05 -0.0027388188855287246 0.008917850579637222 0 0 0
302 1 0.0016 1600 -0.000570408282027122 -0.0071777455082423875 0.008845858449760118 0 0 0
303 1 0.0016 1600 0.003920693332042327 5.261558264763916e-05 0.006638410703513067 0 0 0
304 1 0.0016 1600 0.005209698323609647 0.004969877313590306 0.006091327968158114 0 0 0
305 1 0.0016 1600 0.0008251337347464403 -0.004291873216774192 0.005754478734769735 0 0 0
306 1 0.0016 1600 -0.001982989221821348 -0.0039658916915018905 0.005324488385121025 0 0 0
307 1 0.0016 1600 -0.0020744145908872676 -0.004313170669373601 0.009066295783036733 0 0 0
308 1 0.0016 1600 -0.006440284789431961 0.0032194417972059393 0.007882491337496729 0 0 0
309 1 0.0016 1600 -0.003956801720051181 0.0045495276691879995 0.004382841058868495 0 0 0
310 1 0.0016 1600 -0.0036924406316993694 -0.004520891936260938 0.005401744955261306 0 0 0
311 1 0.0016 1600 0.005547112718541215 -0.004454615727693842 0.009884264004563265 0 0 0
312 1 0.0016 1600 0.0009182337249137511 0.00034089815011350725 0.008289395713150217 0 0 0
313 1 0.0016 1600 0.0013788069955033549 -0.005141518913679413 0.006991872597487438 0 0 0
314 1 0.0016 1600 -0.003303869731905329 -0.0009107116726190028 0.00800178815468574 0 0 0
315 1 0.0016 1600 0.001631183248282871 -0.0026325630649747848 0.00890353384197153 0 0 0
316 1 0.0016 1600 -0.005238704478728493 0.0014380621403779412 0.009364180060444562 0 0 0
317 1 0.0016 1600 0.0020689235605748165 0.0012056830585851469 0.006387027823490036 0 0 0
318 1 0.0016 1600 -0.005540808396364133 0.00459869573549139 0.004166754871585125 0 0 0
319 1 0.0016 1600 0.006965391067858987 -0.00182452813240281 0.006783936796714395 0 0 0
320 1 0.0016 1600 0.002026109108815345 -0.00014442941836370775 0.0072428269739756865 0 0 0
321 1 0.0016 1600 -0.004412337556868884 -0.005690057796438344 0.004285329307253141 0 0 0
322 1 0.0016 1600 -0.002541344904688165 0.003956143848098332 0.008190623494831791 0 0 0
323 1 0.0016 1600 -0.0002725228202224932 0.007195217526306557 0.007296845071567609 0 0 0
324 1 0.0016 1600 0.002340051862386918 -0.006809657025250469 0.0050119098756442985 0 0 0
325 1 0.0016 1600 0.00010778745088928326 0.007199421823646858 0.004521843576100325 0 0 0
326 1 0.0016 1600 0.0024030484542391576 -0.006374255151819067 0.00714035019889628 0 0 0
327 1 0.0016 1600 0.003991464129494426 0.005992801550105064 0.006267187118876071 0 0 0
328 1 0.0016 1600 0.0037477118407938962 -0.006147849201589496 0.005385002840696397 0 0 0
329 1 0.0016 1600 0.004705432648987768 0.0036080661510857937 0.00696972875548486 0 0 0
330 1 0.0016 1600 0.004053010078572469 0.0023206351311825997 0.006194173321060186 0 0 0
331 1 0.0016 1600 -0.006609522046397456 -0.001310152261350379 0.0034740882326498887 0 0 0
332 1 0.0016 1600 -0.0036229749473695744 0.006222388402802405 0.004732419405031824 0 0 0
333 1 0.0016 1600 0.0042842261174510735 0.003644634224470145 0.009499186024612348 0 0 0
334 1 0.0016 1600 0.0009614316524263282 0.0018483951562623376 0.007344949696510092 0 0 0
335 1 0.0016 1600 -0.0002606371122136723 0.004253565002307433 0.006459466853657469 0 0 0
336 1 0.0016 1600 0.0020665531897816475 0.0026247040488868293 0.005649628445426131 0 0 0
337 1 0.0016 1600 -0.007117932487585417 -0.0010841063178830157 0.006340392401494962 0 0 0
338 1 0.0016 1600 0.004285679780398992 -0.0038266649900320243 0.006906910541674391 0 0 0
339 1 0.0016 1600 -0.005911197172834515 -0.0041117790126474025 0.007076115935289915 0 0 0
340 1 0.0016 1600 0.00324824816293847 0.004837493719408584 0.00974695344674025 0 0 0
341 1 0.0016 1600 -0.00026706739916883363 -0.007195937190523189 0.00264768949973773 0 0 0
342 1 0.0016 1600 -0.002898648271004736 0.005319429109889323 0.007434974055514277 0 0 0
343 1 0.0016 1600 0.0013120473335522646 -0.0070797672761358475 0.006207509849189391 0 0 0
344 1 0.0016 1600 0.0034443742639182393 0.0045415725344091626 0.006658717135018654 0 0 0
345 1 0.0016 1600 0.005722663177988911 -0.004369467383052522 0.008296293246630148 0 0 0
346 1 0.0016 1600 -0.002458214088526121 0.0067676208748105385 0.006165805971913789 0 0 0
347 1 0.0016 1600 -0.0005027109010689799 -0.004178823763624584 0.009362500155108628 0 0 0
348 1 0.0016 1600 -0.0007336623587510199 -0.0043558930643046055 0.006243956556658547 0 0 0
349 1 0.0016 1600 0.0017971232191887508 0.004235936869717358 0.006877351877808154 0 0 0
350 1 0.0016 1600 0.00018735834579956717 0.0013651112384392308 0.0036442294206243783 0 0 0
351 1 0.0016 1600 0.0023190641712879457 0.0012743578421470106 0.007965449023026247 0 0 0
352 1 0.0016 1600 -0.0002061158708013519 -0.007195703599562879 0.005717617847514992 0 0 0
353 1 0.0016 1600 0.006428259549847945 0.0007345079425337843 0.008304423626079702 0 0 0
354 1 0.0016 1600 0.0033845860484277945 0.0010485267905004404 0.005491647771606168 0 0 0
355 1 0.0016 1600 -0.00669545791438866 0.002647986591159215 0.006060123657055002 0 0 0
356 1 0.0016 1600 -0.0061328845371165135 0.003773347403934583 0.009738099563510861 0 0 0
357 1 0.0016 1600 0.0019730129595257368 -0.0014696193723331855 0.006349108758481924 0 0 0
358 1 0.0016 1600 0.0013014211226394698 -0.007081483479206183 0.008060070046967844 0 0 0
359 1 0.0016 1600 -0.004747043658436639 -0.0035616313324834986 0.006127235366494037 0 0 0
360 1 0.0016 1600 -0.0034516631217655614 -0.0022892851331903297 0.009247408384230485 0 0 0
361 1 0.0016 1600 -0.0006177703239034112 0.00014766429600594858 0.007886391020194108 0 0 0
362 1 0.0016 1600 -0.005842823632087019 0.0006521928146532097 0.008108478876081238 0 0 0
363 1 0.0016 1600 -0.0011429813110999459 -0.003459993273622988 0.00808523870557471 0 0 0
364 1 0.0016 1600 -0.0004837223477945576 -0.0007382263924125787 0.004743163661163219 0 0 0
365 1 0.0016 1600 0.005486859292822138 -0.0015319654618729454 0.0057279279639488164 0 0 0
366 1 0.0016 1600 0.004064378513593327 -0.0013617492823460513 0.007965830169227224 0 0 0
367 1 0.0016 1600 -0.005571147455690855 0.0020774481213667777 0.007154368592524535 0 0 0
368 1 0.0016 1600 -0.0021175045921153417 -5.904543027779702e-05 0.007349305828921616 0 0 0
369 1 0.0016 1600 -0.003238745628047597 0.00032305239155697727 0.00904512690053997 0 0 0
370 1 0.0016 1600 -0.004626292426060703 0.0031603628940419072 0.005832853795498473 0 0 0
371 1 0.0016 1600 0.0062619592797833095 0.0035539322666001904 0.0036037230205658304 0 0 0
372 1 0.0016 1600 -0.004271822303454809 0.0017025193071170633 0.008117372442829295 0 0 0
373 1 0.0016 1600 -0.005435721151673439 -0.0008766593250225942 0.0070755841081753795 0 0 0
374 1 0.0016 1600 0.003791062649937283 0.006012432909125016 0.002396195738368775 0 0 0
375 1 0.0016 1600 -0.0013044349826077622 -0.00183304203839722 0.005571781176540101 0 0 0
376 1 0.0016 1600 -0.002009807191893048 -0.0022021653401345063 0.008559022625542673 0 0 0
377 1 0.0016 1600 0.0005625110971382786 0.003602448121863733 0.007672644437316973 0 0 0
378 1 0.0016 1600 -0.0015569339668945479 -0.003031566385533427 0.0066006357751705914 0 0 0
379 1 0.0016 1600 -0.005615646996572904 0.0015251858113305699 0.0038486684788511297 0 0 0
380 1 0.0016 1600 -0.005956229228515018 -0.0040459572932077794 0.009927073609974251 0 0 0
381 1 0.0016 1600 0.0011658142759320904 -0.0011023743544523693 0.008936452551289175 0 0 0
382 1 0.0016 1600 -0.0007059542134193449 -0.0010508396914073767 0.006831720324998992 0 0 0
383 1 0.0016 1600 -0.0028605611104223585 0.0013673615186533612 0.007404441093439395 0 0 0
384 1 0.0016 1600 -0.0006081712708169168 0.007174761084245548 0.00886052550204034 0 0 0
385 1 0.0016 1600 0.0030682247071375755 0.0016851077119678544 0.003365126732550321 0 0 0
386 1 0.0016 1600 -0.0033988315072643904 0.0027997154341149375 0.008887760538369125 0 0 0
387 1 0.0016 1600 0.005013499590748654 0.001757854253107201 0.008635316444086882 0 0 0
388 1 0.0016 1600 0.00471670228792448 -0.00544072741727536 0.0076638177997734105 0 0 0
389 1 0.0016 1600 -5.821221641317639e-05 -0.005750246978216836 0.006640638668901735 0 0 0
390 1 0.0016 1600 0.0031757228951165293 -0.0010623112466640536 0.009261830729810929 0 0 0
391 1 0.0016 1600 0.005358674723394913 0.002156601106824578 0.00712560162689598 0 0 0
392 1 0.0016 1600 -0.0024319712653679965 0.0026209861743197484 0.0057269072963336 0 0 0
393 1 0.0016 1600 -0.0008287575244345208 0.005645752427409782 0.008416260125263315 0 0 0
394 1 0.0016 1600 -0.004227721221481885 0.0003745046240580596 0.007226117375564528 0 0 0
395 1 0.0016 1600 0.0028585130017174405 0.003043148232592534 0.006974978568238642 0 0 0
396 1 0.0016 1600 0.0011488213170387984 0.007108090447707795 0.005732480883373088 0 0 0
397 1 0.0016 1600 0.0014641592500932948 0.0001243687238769511 0.005375482317016957 0 0 0
398 1 0.0016 1600 -0.004751045801676382 -0.005410546905457172 0.009684047391972268 0 0 0
399 1 0.0016 1600 0.00204709505111589 0.0046357752657753505 0.004320374060883759 0 0 0
400 1 0.0016 1600 -0.002878681962129162 0.0010883296278384371 0.005829375138195872 0 0 0
401 1 0.0016 1600 0.005389412869436458 -0.0019306333540792836 0.007273840778010424 0 0 0
402 1 0.0016 1600 -0.006503417521821673 -0.0030902405927032655 0.005860668804498604 0 0 0
403 1 0.0016 1600 -0.006992012149107479 0.0017202834451848766 0.007796451756341466 0 0 0
404 1 0.0016 1600 0.0003743102491807307 0.0001456935402498702 0.006546680321187428 0 0 0
405 1 0.0016 1600 -0.0012734148665656457 0.006004744123639012 0.0069226936173872695 0 0 0
406 1 0.0016 1600 0.006888863222623981 -0.0020962442943015954 0.0052046252886183845 0 0 0
407 1 0.0016 1600 -0.0053295875214652315 -0.004477997706036369 0.008520277425328487 0 0 0
408 1 0.0016 1600 0.003607606399287188 -0.004480154840448836 0.008299287027410486 0 0 0
409 1 0.0016 1600 0.0018817974905987534 0.0028191224475636063 0.008221903661861055 0 0 0
410 1 0.0016 1600 0.00529814394312984 0.0021896477053720575 0.0049393710082186 0 0 0
411 1 0.0016 1600 -0.002527089967848536 -0.0053023040363527184 0.004633941716501104 0 0 0
412 1 0.0016 1600 -0.0030962169829631646 -0.0033207817924070394 0.006274879846565019 0 0 0
413 1 0.0016 1600 0.0035119233117027323 -0.006286035043513929 0.008290044707095446 0 0 0
414 1 0.0016 1600 -0.00387542783498818 0.00606881244800702 0.006414574846968832 0 0 0
415 1 0.0016 1600 -0.0012207507885691475 0.0019039385276047433 0.009681987422285692 0 0 0
416 1 0.0016 1600 -0.002320353969238309 0.005359429404246437 0.008925560537336995 0 0 0
417 1 0.0016 1600 0.005934619111055068 -0.004077333129280878 0.005069812079427001 0 0 0
418 1 0.0016 1600 -0.005518672975283185 0.0017684535497391705 0.005426629732964824 0 0 0
419 1 0.0016 1600 0.002571839558286585 0.0067253160542975685 0.006355191274989868 0 0 0
420 1 0.0016 1600 -0.004149215172968681 0.0015321743475713622 0.0031230960778441956 0 0 0
421 1 0.0016 1600 -0.002724490233484524 -0.0035688609618060078 0.00396400598023315 0 0 0
422 1 0.0016 1600 0.0022425451612419164 -0.005313692078744685 0.008327168748595765 0 0 0
423 1 0.0016 1600 0.004395125898420405 -0.0007195587016120482 0.004887524060902666 0 0 0
424 1 0.0016 1600 -0.0012967061881859116 0.002860954039298445 0.00682808637713362 0 0 0
425 1 0.0016 1600 -0.004021952214450274 -0.0030016472807373852 0.002834474280334122 0 0 0
426 1 0.0016 1600 -0.0071886142371978615 0.0004161508260293544 0.0068914105902775705 0 0 0
427 1 0.0016 1600 0.006900249394172963 0.0020582412795406304 0.007540733927172423 0 0 0
428 1 0.0016 1600 0.003931059849395963 0.0014017141101769067 0.0074977276921695075 0 0 0
429 1 0.0016 1600 0.0013715240965378255 -0.0028125151304483373 0.006975800106823724 0 0 0
430 1 0.0016 1600 0.007170099493152278 -0.0006561403844212177 0.004050990725146707 0 0 0
431 1 0.0016 1600 0.00599874307625791 -0.002966182187498079 0.0062179707572093635 0 0 0
432 1 0.0016 1600 -0.002506017325057886 -0.004097361749843705 0.0075419234063603905 0 0 0
433 1 0.0016 1600 -0.0023800659947408255 0.006795932730429627 0.007764351367040116 0 0 0
434 1 0.0016 1600 -0.005070387574891161 0.005112393520099646 0.007034265413725904 0 0 0
435 1 0.0016 1600 -0.002903103932151382 -0.001862445734913196 0.005646516523775956 0 0 0
436 1 0.0016 1600 -0.0025472830118304065 -0.005140941693831942 0.00633059470817936 0 0 0
437 1 0.0016 1600 -0.002120382677094278 -0.0068808982795525815 0.004834363081550179 0 0 0
438 1 0.0016 1600 0.0008994459785605799 0.003848797820786664 0.0035320686951765407 0 0 0
439 1 0.0016 1600 -0.005529491135670898 -0.002558614748522323 0.0070970682373347384 0 0 0
440 1 0.0016 1600 -0.004653698946792914 -0.0002881565036588436 0.008618231043802415 0 0 0
441 1 0.0016 1600 -0.0038817050133593514 -0.0029357200552357445 0.004936501336246025 0 0 0
442 1 0.0016 1600 0.004407473330282196 0.005693586364147083 0.008814872136291143 0 0 0
443 1 0.0016 1600 0.0071757797795732985 -0.0005965682311271659 0.009342146487390433 0 0 0
444 1 0.0016 1600 0.00019065424898749784 -0.005910551778557344 0.008212875657052867 0 0 0
445 1 0.0016 1600 -0.0010893977680921808 -0.0018208311076012905 0.009877431626383276 0 0 0
446 1 0.0016 1600 -0.004887946569697783 0.005286910615421997 0.005454531708887097 0 0 0
447 1 0.0016 1600 -0.002640425269648032 -0.000604669311066259 0.004567859996375224 0 0 0
448 1 0.0016 1600 -0.002103634073640129 0.006886324861587775 0.009349118384564844 0 0 0
449 1 0.0016 1600 0.005571012539909132 -0.00027827974071674617 0.006718320578862293 0 0 0
450 1 0.0016 1600 -0.006561546222068151 0.0023246653505416093 0.0092132605980021 0 0 0
451 1 0.0016 1600 0.006502657269807152 -0.0030923639594374517 0.007730402517079104 0 0 0
452 1 0.0016 1600 0.0071369609002734985 0.0009571489407819256 0.009720908655302255 0 0 0
453 1 0.0016 1600 0.0047825110214588604 -0.0030766520460274492 0.008229697077982817 0 0 0
454 1 0.0016 1600 0.007178224542494359 -0.0005614154387691454 0.007741887640256508 0 0 0
455 1 0.0016 1600 -0.0042113988695066116 -0.0054615175255966234 0.006587167891007577 0 0 0
456 1 0.0016 1600 0.0039705297461546975 -0.0014945808747359385 0.006235869423010267 0 0 0
457 1 0.0016 1600 0.004055532771973916 0.0050379094015177515 0.004985422804124 0 0 0
458 1 0.0016 1600 0.006317651212463903 0.0034537131552485226 0.007018141411984024 0 0 0
459 1 0.0016 1600 0.006870897033041761 -0.002151966301733339 0.003568471021612978 0 0 0
460 1 0.0016 1600 0.0017744173423860194 -0.0013226299465308076 0.004768785775764673 0 0 0
461 1 0.0016 1600 -0.0018409878916705856 0.00252522658803684 0.00832697524701744 0 0 0
462 1 0.0016 1600 -0.00161725342378922 -0.002933554574950438 0.0030002491042716455 0 0 0
463 1 0.0016 1600 0.001241448098537421 0.006679509433924093 0.007270334133726642 0 0 0
464 1 0.0016 1600 0.0022857329699925706 -0.005363522495468835 0.005692937304693439 0 0 0
465 1 0.0016 1600 0.0021506603154327546 0.00687153703290574 0.011221849169018772 0 0 0
466 1 0.0016 1600 -0.0036050596751451376 -0.0038574979678572658 0.008969843011789632 0 0 0
467 1 0.0016 1600 -0.00572041313585731 0.004372771002581162 0.011162624328652858 0 0 0
468 1 0.0016 1600 -0.001302354652250094 -0.0005278010666927232 0.0107949929842833 0 0 0
469 1 0.0016 1600 -0.0005245943880496702 -0.0031089959012309343 0.010639435685350583 0 0 0
470 1 0.0016 1600 0.0028970494751136117 -0.0022387095726477883 0.011585369502432694 0 0 0
471 1 0.0016 1600 -0.0017764136555903196 0.0053153771587876675 0.012584454069478591 0 0 0
472 1 0.0016 1600 -0.005528688565948628 -0.001383814894500702 0.009404728328286809 0 0 0
473 1 0.0016 1600 0.002089721251271731 0.006890898284503528 0.008609513843593066 0 0 0
474 1 0.0016 1600 -0.007179131163342233 -0.0005531853817512375 0.01254524478160473 0 0 0
475 1 0.0016 1600 0.002954520894915742 -0.0048694623994060835 0.009706558808663831 0 0 0
476 1 0.0016 1600 0.0033368353449944863 -0.002579712027389947 0.00722745553344874 0 0 0
477 1 0.0016 1600 -0.001486107961901852 -0.005930216351965721 0.010787916642333275 0 0 0
478 1 0.0016 1600 0.0025667996539115007 0.0007040760055375298 0.013449876432444309 0 0 0
479 1 0.0016 1600 0.00435353680355492 0.0008134545883096284 0.010984524701077365 0 0 0
480 1 0.0016 1600 0.0034266635791873664 0.0063329596565320015 0.007724756909270364 0 0 0
481 1 0.0016 1600 0.0033949936317838082 -0.0046665463678567266 0.012319742314959982 0 0 0
482 1 0.0016 1600 0.006307685976447859 -0.001738216314375405 0.010114192954016794 0 0 0
483 1 0.0016 1600 0.003806186437066848 -0.0022712720748365 0.010269788470463632 0 0 0
484 1 0.0016 1600 0.0018038781012514188 0.0017481002704628828 0.009407913805966363 0 0 0
485 1 0.0016 1600 0.004737090799948555 0.00542248142612985 0.010356545461073861 0 0 0
486 1 0.0016 1600 0.00024416799414059417 0.001428562726489306 0.009249155623306929 0 0 0
487 1 0.0016 1600 0.004408880854116227 -0.0027862631327877146 0.01412096538362868 0 0 0
488 1 0.0016 1600 0.007153103515470209 0.0008231740044099819 0.014073163945203452 0 0 0
489 1 0.0016 1600 -0.0018491770746588223 0.0028494834993310738 0.010808558172383189 0 0 0
490 1 0.0016 1600 -0.004237339135043768 0.003997347554072962 0.011629761337677812 0 0 0
491 1 0.0016 1600 0.005924640094545827 0.004091809679741603 0.01069463756913548 0 0 0
492 1 0.0016 1600 0.005568862599348086 0.0011153352557952492 0.009990480763642524 0 0 0
493 1 0.0016 1600 0.0008905707286341912 0.007144876368854701 0.012187989747896602 0 0 0
494 1 0.0016 1600 0.003612787394728828 0.00442714576914529 0.00824491014977185 0 0 0
495 1 0.0016 1600 0.0037230582060687515 0.0035045838660378785 0.012428035808945175 0 0 0
496 1 0.0016 1600 -0.0030433049563495847 -0.002957139074872028 0.012737794233446075 0 0 0
497 1 0.0016 1600 -0.0019458551228173178 -0.002210822247059903 0.011325051124730508 0 0 0
498 1 0.0016 1600 -0.006850249438231237 0.0022167979664639735 0.012290778828471856 0 0 0
499 1 0.0016 1600 -0.0016199181442720172 -0.006471526340608537 0.007867092290705853 0 0 0
500 1 0.0016 1600 0.004571083632514324 -0.0008994599911310683 0.010573054757940972 0 0 0
501 1 0.0016 1600 -0.004381499363288738 -0.005713777369771504 0.008157392131133475 0 0 0
502 1 0.0016 1600 0.004937949924603531 -0.0018306319551934039 0.009220876155991075 0 0 0
503 1 0.0016 1600 -0.003965304445247571 -0.004434335472495221 0.0106777516885269 0 0 0
504 1 0.0016 1600 0.0055333958964117035 0.004607166310898676 0.009231416681345491 0 0 0
505 1 0.0016 1600 -0.005696287813279381 -0.003762315363965373 0.012690658207387975 0 0 0
506 1 0.0016 1600 -0.00031757325237551315 0.003058629316079014 0.010397418747462013 0 0 0
507 1 0.0016 1600 -0.001536086410530677 -0.004346512394502807 0.01057159827567636 0 0 0
508 1 0.0016 1600 -0.0035582065808572407 0.006259624733305637 0.009572437796872266 0 0 0
509 1 0.0016 1600 0.0006854576818066681 -0.005980521486502337 0.011584681388144304 0 0 0
510 1 0.0016 1600 -0.002134093458932308 0.000675481163267126 0.010147046568406617 0 0 0
511 1 0.0016 1600 0.003986416216647489 0.004162102987809047 0.010994211693818237 0 0 0
512 1 0.0016 1600 -0.0034349422784183538 -0.000720226339232426 0.011918926738711162 0 0 0
513 1 0.0016 1600 0.002952740617535356 0.005066642011899338 0.013208507208331569 0 0 0
514 1 0.0016 1600 0.0039004777293933177 -0.002944573290274793 0.012612217982849578 0 0 0
515 1 0.0016 1600 -0.0013252717294567685 0.004132931155461523 0.011606254197334659 0 0 0
516 1 0.0016 1600 0.0035123631421540794 -0.0062853510243729835 0.010200154833119264 0 0 0
517 1 0.0016 1600 0.00034558633032939756 -0.0039775964323985995 0.007362785413621955 0 0 0
518 1 0.0016 1600 -0.005552741704836735 -0.00205048309827583 0.010858341413571266 0 0 0
519 1 0.0016 1600 -0.005448514164134317 -0.004706798474698115 0.01129278772602084 0 0 0
520 1 0.0016 1600 -0.00657633268165858 -0.0004331122191708134 0.01074363871483518 0 0 0
521 1 0.0016 1600 0.002491093076707838 -0.0033693876357385574 0.010034146615281962 0 0 0
522 1 0.0016 1600 -0.004605136334036305 -0.0018243528593408546 0.008175978645931527 0 0 0
523 1 0.0016 1600 0.0048776914008989355 0.002587393425732546 0.013048428815770148 0 0 0
524 1 0.0016 1600 0.0016301824965407688 -0.0012625075093050746 0.011609994931808455 0 0 0
525 1 0.0016 1600 -0.003446664579182331 0.0029044619613967045 0.010758659152837727 0 0 0
526 1 0.0016 1600 0.0001460905262535703 0.005832096339832126 0.01274671356501096 0 0 0
527 1 0.0016 1600 -0.006545820397077264 0.0010759034699897193 0.01021279769170347 0 0 0
528 1 0.0016 1600 -0.0041742369897262675 -0.0012717718589803834 0.010247793968437226 0 0 0
529 1 0.0016 1600 -0.002031725127081212 2.354330964242597e-05 0.012107510673544559 0 0 0
530 1 0.0016 1600 -0.004217481515399103 0.005836236147135323 0.008177812606108902 0 0 0
531 1 0.0016 1600 -0.0010173098500184938 -0.0050018592464469245 0.007679351437015715 0 0 0
532 1 0.0016 1600 0.0013519792070793353 0.0011480395031456215 0.012508480620783831 0 0 0
533 1 0.0016 1600 -0.004282584576142091 -0.005788329685605584 0.011467872492569638 0 0 0
534 1 0.0016 1600 -0.0031531242755466265 -0.005343437204965355 0.00964290775634829 0 0 0
535 1 0.0016 1600 -0.0016590960599152306 0.007006247985404488 0.010881342620191579 0 0 0
536 1 0.0016 1600 -0.001161886337900148 -0.005624457058689033 0.00914552959888845 0 0 0
537 1 0.0016 1600 0.002828735167129321 0.002980431778903848 0.00950121382889772 0 0 0
538 1 0.0016 1600 -0.0010774964036601908 -0.0008298873784287655 0.013066388191232963 0 0 0
539 1 0.0016 1600 -0.003246577103520153 -0.006426719201187115 0.01250598986215896 0 0 0
540 1 0.0016 1600 -0.004980534084536765 -0.0007058464336265001 0.01150811737946786 0 0 0
541 1 0.0016 1600 -0.0035834071833657196 0.00017217094931062187 0.010599974922981625 0 0 0
542 1 0.0016 1600 0.0005765613649674539 0.005231176752582647 0.007408266796482884 0 0 0
543 1 0.0016 1600 -0.002813329304625334 0.004917755054562212 0.011268160942874408 0 0 0
544 1 0.0016 1600 -0.00668271974069405 0.0026798529681529527 0.010768521060351767 0 0 0
545 1 0.0016 1600 -0.006709524957703348 -0.0026121418378430164 0.009902001305705392 0 0 0
546 1 0.0016 1600 0.0010722595237122228 0.00315853176824281 0.009595359689726251 0 0 0
547 1 0.0016 1600 -0.002577463500549333 -0.001302477904962234 0.010153913018664957 0 0 0
548 1 0.0016 1600 0.0018279149076705734 0.005677481198326793 0.009622582138937616 0 0 0
549 1 0.0016 1600 0.00189151095732315 -0.006947437752213751 0.010801623649163771 0 0 0
550 1 0.0016 1600 0.005147186822206928 0.00471621886731243 0.01194576443635521 0 0 0
551 1 0.0016 1600 0.0040696996372297685 -0.0037250261435228223 0.009630863545259907 0 0 0
552 1 0.0016 1600 0.005896516404848806 -0.0007216377730375127 0.012553881859776777 0 0 0
553 1 0.0016 1600 0.004286330625146138 -0.0049824506363915725 0.010715968638662615 0 0 0
554 1 0.0016 1600 0.002202518992740538 0.00020761018621623902 0.00924172024575293 0 0 0
555 1 0.0016 1600 -0.007109479331866396 -0.0011424234965243005 0.00941233506996689 0 0 0
556 1 0.0016 1600 -0.004104185286733789 -0.00413511669403092 0.007475365193185097 0 0 0
557 1 0.0016 1600 -0.003291238893189638 -0.002593156517178628 0.007685392432688517 0 0 0
558 1 0.0016 1600 0.006371208055336599 -0.0017053316959547674 0.008516277600040131 0 0 0
559 1 0.0016 1600 -0.003035611287427198 0.001536733706117035 0.012866291301445109 0 0 0
560 1 0.0016 1600 -0.004851952568994008 0.0053201841450873375 0.00961686334937842 0 0 0
561 1 0.0016 1600 0.004988218671982105 0.00303007797127798 0.011515616451330871 0 0 0
562 1 0.0016 1600 0.0059749071899791355 -0.0040186369455064925 0.013071954435320714 0 0 0
563 1 0.0016 1600 0.001426489424648534 -0.0028314487188483314 0.011373775132937606 0 0 0
564 1 0.0016 1600 0.0021002403368496 0.00400712697948392 0.01048829971690202 0 0 0
565 1 0.0016 1600 -0.003544758878169364 -0.0022193828148253268 0.01137226663547104 0 0 0
566 1 0.0016 1600 -0.0007492117565112545 0.0009703359731543044 0.010892261237338661 0 0 0
567 1 0.0016 1600 -0.0016078084036944356 0.0015651490573300026 0.012146638636317002 0 0 0
568 1 0.0016 1600 0.0005208949812882341 -0.0018803188638849364 0.010176676119328376 0 0 0
569 1 0.0016 1600 0.0020305192272377986 -0.005501708431613785 0.01230795022323763 0 0 0
570 1 0.0016 1600 -0.0031568161168308035 0.0064714883309923395 0.011106243928449375 0 0 0
571 1 0.0016 1600 -0.004570195846849385 0.003814275306565333 0.010075835194163997 0 0 0
572 1 0.0016 1600 0.0010668042354351516 -0.0025154242815211524 0.013231478647974514 0 0 0
573 1 0.0016 1600 0.005593454409869372 -0.000389676110090591 0.009449408905333 0 0 0
574 1 0.0016 1600 -0.0005888395212118996 0.0017376617609615567 0.00772000243664982 0 0 0
575 1 0.0016 1600 0.006489374480970059 -0.0031202731567577724 0.00932936029705103 0 0 0
576 1 0.0016 1600 -0.0003552903028819467 0.005989755731989448 0.009904426794684057 0 0 0
577 1 0.0016 1600 -0.0007609487608414064 0.00020152299663007064 0.009478277344831776 0 0 0
578 1 0.0016 1600 0.00651743775177731 0.0030615971154168194 0.011982186168817998 0 0 0
579 1 0.0016 1600 0.0007666744858067021 8.139677018008674e-05 0.009935162521488723 0 0 0
580 1 0.0016 1600 -0.004553028652787021 -0.0030560772299877753 0.01011805216479066 0 0 0
581 1 0.0016 1600 0.006728675681403001 0.002564185823454654 0.009048058512826767 0 0 0
582 1 0.0016 1600 -0.0018448816007723427 0.0009437238278879612 0.008565350703990768 0 0 0
583 1 0.0016 1600 0.00043812494178044483 -0.0011553699018646254 0.012671347199019467 0 0 0
584 1 0.0016 1600 -0.000291220278104964 0.0028702077243590346 0.008809574290808813 0 0 0
585 1 0.0016 1600 0.00028541016571351316 -0.004505169626632719 0.011113494943014796 0 0 0
586 1 0.0016 1600 0.005045413917978709 -0.005137224671322513 0.012115663950681078 0 0 0
587 1 0.0016 1600 -0.0071585533810681395 0.0007789404582281817 0.011660386752784788 0 0 0
588 1 0.0016 1600 0.005262932932148147 -0.0029287186672401666 0.010337337169001214 0 0 0
589 1 0.0016 1600 0.000825651691875628 -0.007152664984507292 0.00962624985007582 0 0 0
590 1 0.0016 1600 9.115619406397429e-05 0.007200046555339292 0.01357298851430646 0 0 0
591 1 0.0016 1600 0.004935341731407279 0.00019454649393993263 0.008108272345333558 0 0 0
592 1 0.0016 1600 -0.001555435109154892 0.0050026415380610275 0.01028385594397568 0 0 0
593 1 0.0016 1600 -7.120154469075832e-05 0.007200081635760644 0.010910766511809483 0 0 0
594 1 0.0016 1600 0.0009402746899917755 -0.0048231373336277755 0.009115487019554986 0 0 0
595 1 0.0016 1600 0.002119587888545317 -0.0018214365465504432 0.010193205778900502 0 0 0
596 1 0.0016 1600 0.0006483238304246191 0.006201662332678134 0.00867738009877225 0 0 0
597 1 0.0016 1600 -0.006798277111089523 -0.0023729563188439637 0.008053440447480374 0 0 0
598 1 0.0016 1600 0.001160253745538028 0.0071059952707647365 0.009893812224712513 0 0 0
599 1 0.0016 1600 -0.004917042525081092 -0.002079040002442025 0.01232609734002277 0 0 0
600 1 0.0016 1600 0.0020929529938559597 0.005461297084755009 0.007861985493125794 0 0 0
601 1 0.0016 1600 -0.0005480377029816895 -0.007179618438599176 0.01044533035379298 0 0 0
602 1 0.0016 1600 -0.006375128297890246 -0.0033478043679463533 0.01130353812751149 0 0 0
603 1 0.0016 1600 0.00233108332319005 -0.0032984503506511423 0.012641883325300947 0 0 0
604 1 0.0016 1600 0.003038172830023716 -0.0004739547781066086 0.01074317800524027 0 0 0
605 1 0.0016 1600 -0.0030596924919762537 -0.0065182269492044245 0.008562065778510054 0 0 0
606 1 0.0016 1600 0.003341898948196256 5.5606706080190134e-05 0.008129486237405665 0 0 0
607 1 0.0016 1600 -0.003170465212743854 0.004417884330293688 0.012744768991193098 0 0 0
608 1 0.0016 1600 -0.0024358193299041497 0.006775713754760234 0.012501180989951661 0 0 0
609 1 0.0016 1600 0.003471362741236217 0.0015941875915733525 0.009027355278353638 0 0 0
610 1 0.0016 1600 -0.005573688332465589 0.0007783055619877274 0.011447381832645834 0 0 0
611 1 0.0016 1600 0.0068509197992180915 0.0022155576813294594 0.010666125182222767 0 0 0
612 1 0.0016 1600 -0.0055355880598914045 -0.0029291598917264112 0.00886227297688021 0 0 0
613 1 0.0016 1600 0.00398413355277938 0.00225329199688367 0.010391449651651766 0 0 0
614 1 0.0016 1600 -0.0027495470396482185 -0.003605931810723594 0.011305692177374559 0 0 0
615 1 0.0016 1600 0.002910267437903041 -0.0022271101767817754 0.013679441385244032 0 0 0
616 1 0.0016 1600 -0.004024635470714725 0.004324051776170868 0.008661538350870558 0 0 0
617 1 0.0016 1600 -2.015688976123346e-05 0.0038953920197221242 0.012499428347064174 0 0 0
618 1 0.0016 1600 0.003927111256711986 0.002861443215372665 0.00815128264874798 0 0 0
619 1 0.0016 1600 0.0001631135910927961 0.004582875843835295 0.010462201161508259 0 0 0
620 1 0.0016 1600 -0.0027202155452282946 0.0029898433573791634 0.012181272541609004 0 0 0
621 1 0.0016 1600 0.0038212867415835503 -0.006102802452354248 0.011758791297186462 0 0 0
622 1 0.0016 1600 0.0015644275147346097 -0.00702830834278491 0.012414533391174935 0 0 0
623 1 0.0016 1600 -0.00013989526234222137 -0.002452327979517802 0.007353842398112143 0 0 0
624 1 0.0016 1600 0.0008972746626957479 -0.0035070096723134763 0.0100237962292009 0 0 0
625 1 0.0016 1600 -0.0029431259352320515 0.0014754959188382243 0.011270777933724458 0 0 0
626 1 0.0016 1600 -0.0018419290278071706 -0.006961023658143711 0.011957779496756546 0 0 0
627 1 0.0016 1600 -0.005594074981779557 0.004534153427557838 0.008437980998591527 0 0 0
628 1 0.0016 1600 -0.004969033670855803 0.003546774145165104 0.007346281667731911 0 0 0
629 1 0.0016 1600 -0.004262561805120288 -0.000962473814987396 0.013266023391411448 0 0 0
630 1 0.0016 1600 0.003228873966910005 -0.002630619031509299 0.008822156168450796 0 0 0
631 1 0.0016 1600 0.0038668203710237915 0.001981101285454217 0.01196302865123785 0 0 0
632 1 0.0016 1600 -0.0035018016581578894 -0.004599210988837201 0.01277452199617754 0 0 0
633 1 0.0016 1600 0.0016458232680668934 -0.0022345852913644645 0.014698164574974385 0 0 0
634 1 0.0016 1600 -0.005184271515873484 1.6822314253836514e-05 0.010095912731088742 0 0 0
635 1 0.0016 1600 0.00010727055526667768 -0.005759645183703361 0.01010957734743354 0 0 0
636 1 0.0016 1600 0.007168145462275586 -0.0006792271190754851 0.013523445991896303 0 0 0
637 1 0.0016 1600 0.0007895582336822244 0.001510100747606792 0.01075099942861988 0 0 0
638 1 0.0016 1600 0.003269486401819141 -0.006415115087475095 0.014614115587970902 0 0 0
639 1 0.0016 1600 -0.0009216064571594203 0.00410211173046212 0.008007703928038354 0 0 0
640 1 0.0016 1600 0.005471784891300091 0.002711480362794647 0.010025037514478021 0 0 0
641 1 0.0016 1600 0.002340638255750559 -0.006809083530121024 0.009245554514624228 0 0 0
642 1 0.0016 1600 0.0029087647182499308 -0.0031434338007834996 0.015069541480326602 0 0 0
643 1 0.0016 1600 0.0007396378516567018 0.0059435062473229905 0.014321989836623243 0 0 0
644 1 0.0016 1600 -0.0015114713879298498 0.0006022456411006566 0.015563862018294737 0 0 0
645 1 0.0016 1600 0.002682868062302721 0.0017957335531326672 0.01584535132491217 0 0 0
646 1 0.0016 1600 -0.0020528953847401598 0.0043894806813074465 0.013888327873204528 0 0 0
647 1 0.0016 1600 -0.007162833060231846 -0.0007316873831010783 0.014134854951452702 0 0 0
648 1 0.0016 1600 0.005633440316001298 -0.0018546715175843953 0.015709501381892647 0 0 0
649 1 0.0016 1600 -0.0044124012432249764 -0.00019757762713364964 0.014662860568640261 0 0 0
650 1 0.0016 1600 0.00010279972022520654 0.0032612954223088303 0.013962987862185531 0 0 0
651 1 0.0016 1600 0.001198006121344015 0.004546879481739136 0.011693527209014757 0 0 0
652 1 0.0016 1600 -0.00046142231763482525 -0.003971052264313069 0.015099876586999536 0 0 0
653 1 0.0016 1600 0.0017658606733389607 -0.0011151428244459095 0.013562384433208107 0 0 0
654 1 0.0016 1600 -0.0005052346693155483 0.004768923712974998 0.013748338710993674 0 0 0
655 1 0.0016 1600 0.005300385436123645 0.004874057049885726 0.014746134340207459 0 0 0
656 1 0.0016 1600 0.0010642244894093346 0.003020259874351961 0.011202390033512068 0 0 0
657 1 0.0016 1600 0.005481384329671203 -0.0018420007028465853 0.011490341286188636 0 0 0
658 1 0.0016 1600 -0.001861079253568613 -0.0036274423384319095 0.013581347147604136 0 0 0
659 1 0.0016 1600 0.0009843804386932675 -0.0036510553355462534 0.014354897842240697 0 0 0
660 1 0.0016 1600 0.0035960918510300316 0.0006562994755537816 0.014920278210026568 0 0 0
661 1 0.0016 1600 -0.0016499235583973249 -0.0019518772665840648 0.014252709432059163 0 0 0
662 1 0.0016 1600 0.00018740447599694424 -0.00022521309270927557 0.011394456098351971 0 0 0
663 1 0.0016 1600 -0.0026976750727706767 -0.005189529881271391 0.011524157337136125 0 0 0
664 1 0.0016 1600 -0.0010761033341994068 -0.0025837305880063027 0.015605351381946932 0 0 0
665 1 0.0016 1600 0.005983320804823215 0.004005258134657939 0.013158326604103312 0 0 0
666 1 0.0016 1600 -0.001266146866865604 -0.002388764148591843 0.01276228604891505 0 0 0
667 1 0.0016 1600 0.0016783219339830684 0.00700234746156474 0.013575662116726641 0 0 0
668 1 0.0016 1600 -0.004579057422287741 0.001882418877815377 0.016964255402237307 0 0 0
669 1 0.0016 1600 -0.002048635980856865 -0.0037810273734486654 0.015161698106314729 0 0 0
670 1 0.0016 1600 0.001951923634601384 -0.004756628988116864 0.013721632575786642 0 0 0
671 1 0.0016 1600 0.002517937870412394 -0.006745721272047819 0.016293764298361418 0 0 0
672 1 0.0016 1600 -0.0018185262992316377 0.004345593672445392 0.01662964334216567 0 0 0
673 1 0.0016 1600 -0.0007293088168259164 -0.005309220950353214 0.012052947619481367 0 0 0
674 1 0.0016 1600 0.0032108650494422583 -0.0006306629656359119 0.014051760261835496 0 0 0
675 1 0.0016 1600 -0.004109135422919255 0.001503171398763805 0.014050977377934877 0 0 0
676 1 0.0016 1600 8.988138245233346e-05 0.005738546284726023 0.016047530276669233 0 0 0
677 1 0.0016 1600 -0.0029307608713020163 -0.002517914450804484 0.017430888921448298 0 0 0
678 1 0.0016 1600 0.002467323552214527 0.0002150912895020255 0.015964268211178648 0 0 0
679 1 0.0016 1600 -0.0059571096841240755 0.004044586432144275 0.0156022514726462 0 0 0
680 1 0.0016 1600 0.002648529686056472 -0.0012652328216595852 0.01717191296094182 0 0 0
681 1 0.0016 1600 0.007069909340313387 -0.0013252585923314785 0.014983544736378997 0 0 0
682 1 0.0016 1600 0.003613906962783441 0.006227588323273312 0.01116281971142837 0 0 0
683 1 0.0016 1600 -0.0002719091581134314 -0.0008071517436840671 0.015604358936939608 0 0 0
684 1 0.0016 1600 -0.00019824919942821697 0.0033612668765907474 0.015843569404398572 0 0 0
685 1 0.0016 1600 0.0049519036380428795 -0.0036000620149956968 0.015386654458146284 0 0 0
686 1 0.0016 1600 -0.0016725790712822477 -0.00700307896099669 0.01610668566097477 0 0 0
687 1 0.0016 1600 -0.005212473237193762 0.004966912045899741 0.012558621896169797 0 0 0
688 1 0.0016 1600 0.0023432732627363226 -0.005246691390681387 0.015193544098508418 0 0 0
689 1 0.0016 1600 0.00047157847057220203 0.001667908488877857 0.013884252575163783 0 0 0
690 1 0.0016 1600 -0.00025951800047748484 -0.007195869807430255 0.012018613035532392 0 0 0
691 1 0.0016 1600 -0.00518231392856621 -0.004998951176217067 0.01680555471708858 0 0 0
692 1 0.0016 1600 0.00417412237620897 0.005866818999889426 0.01419386822118954 0 0 0
693 1 0.0016 1600 0.003945051511679597 0.0031024259210808407 0.015394283754260892 0 0 0
694 1 0.0016 1600 0.0005050050883485251 -0.002822796479747714 0.01565233398756832 0 0 0
695 1 0.0016 1600 0.002199413257221327 -0.004231945722121345 0.011349493515825083 0 0 0
696 1 0.0016 1600 -0.003214049192670569 0.002969968577050661 0.016561524706158827 0 0 0
697 1 0.0016 1600 0.0008932800284241655 0.005924070808711849 0.010938598811383059 0 0 0
698 1 0.0016 1600 0.0014747292661186305 0.007047617367005735 0.01614531616620367 0 0 0
699 1 0.0016 1600 -0.005495392966912508 -0.0031613540494743212 0.014970846405690156 0 0 0
700 1 0.0016 1600 -0.0004342025286037967 -0.0017025385235252665 0.011447496278367428 0 0 0
701 1 0.0016 1600 -0.003304706757864185 0.006397201768063246 0.016306906068628356 0 0 0
702 1 0.0016 1600 -0.003158690663752295 -0.00117262644278357 0.014469606738125666 0 0 0
703 1 0.0016 1600 -0.001963341075107684 -9.43274927586527e-05 0.016931450492181675 0 0 0
704 1 0.0016 1600 0.007168586192376208 -0.0006761850063630381 0.010944086220890048 0 0 0
705 1 0.0016 1600 0.0017381940394765815 0.0010958316308401395 0.014760400970094976 0 0 0
706 1 0.0016 1600 -0.006125179232663489 -0.0015439896438311914 0.013227420100116377 0 0 0
707 1 0.0016 1600 -0.00461357141173941 0.005527742846633749 0.011185083227177038 0 0 0
708 1 0.0016 1600 0.000901578056399367 -0.006018637629159834 0.01637749637784712 0 0 0
709 1 0.0016 1600 4.0001547309951834e-05 -0.0030671702675428313 0.012135674901640529 0 0 0
710 1 0.0016 1600 0.00041468444821348045 -0.005634070957433902 0.013122700585523546 0 0 0
711 1 0.0016 1600 -0.0030291782983300434 0.0001234001202002268 0.015399380336584416 0 0 0
712 1 0.0016 1600 0.005252936925244173 0.000210606601095616 0.016129054735570424 0 0 0
713 1 0.0016 1600 -0.00465128417134152 0.005496725776081352 0.016148128071636094 0 0 0
714 1 0.0016 1600 0.005519649406900341 -0.00147478025137335 0.014159691599386782 0 0 0
715 1 0.0016 1600 -0.00033697058007604343 -0.0028268494871653014 0.013988671256084632 0 0 0
716 1 0.0016 1600 0.001051480305341886 0.004681307540184456 0.013389859471171321 0 0 0
717 1 0.0016 1600 -0.005125918656983098 0.005057312136810141 0.014684926689829233 0 0 0
718 1 0.0016 1600 0.0029853035824087657 -0.006552271726569584 0.013045828875497411 0 0 0
719 1 0.0016 1600 -0.0011116663919150652 0.0015925280351228104 0.013667250919806863 0 0 0
720 1 0.0016 1600 -0.004127466770308979 0.002238102090923027 0.01547136825446784 0 0 0
721 1 0.0016 1600 -0.005466332328563487 0.0030534967380556398 0.012030928090983753 0 0 0
722 1 0.0016 1600 -0.006456705439346499 0.00014475359610505037 0.015271623290426127 0 0 0
723 1 0.0016 1600 -0.004368786297244165 -0.003460082174367173 0.013531115467860145 0 0 0
724 1 0.0016 1600 -0.0013648023597059148 -0.003829690631106031 0.01207485906024067 0 0 0
725 1 0.0016 1600 0.004246280168428324 -0.001494483800493255 0.013191468598441176 0 0 0
726 1 0.0016 1600 -0.0009963039600243508 -0.006399060176711896 0.013193297309762611 0 0 0
727 1 0.0016 1600 -0.0014897264856283577 0.007044741302878247 0.013762503487003122 0 0 0
728 1 0.0016 1600 -0.0050974683677136095 -0.0034320711710040274 0.016495785006692916 0 0 0
729 1 0.0016 1600 -0.000234103618135806 0.0023097073194914934 0.011808102161446737 0 0 0
730 1 0.0016 1600 -0.004311642038668595 -0.0035062147800282695 0.011932883401641293 0 0 0
731 1 0.0016 1600 0.0009914905269858285 0.0026850787492160746 0.012764430890420094 0 0 0
732 1 0.0016 1600 -0.0018600459693038404 -0.0009643904573037384 0.015493682543152865 0 0 0
733 1 0.0016 1600 -0.003008445645005477 2.3549300630610447e-05 0.01338407139826512 0 0 0
734 1 0.0016 1600 -0.00284047046141565 0.0028449982727531383 0.013769937919570397 0 0 0
735 1 0.0016 1600 0.002548556101939007 0.006061836128079118 0.01681045987253215 0 0 0
736 1 0.0016 1600 -0.004297431295578272 0.003813990791037677 0.015255993327513461 0 0 0
737 1 0.0016 1600 0.006649015720561537 0.0027636337637221304 0.017187870927825182 0 0 0
738 1 0.0016 1600 0.005123265005071032 -0.003572617696646515 0.011794121075160341 0 0 0
739 1 0.0016 1600 -0.0021923924150797076 -0.005379047423056761 0.014557349055979671 0 0 0
740 1 0.0016 1600 -0.002029215051617185 -0.005190536364178809 0.012977405600221781 0 0 0
741 1 0.0016 1600 -0.004421438455252806 0.0040436139147884635 0.013668394698761898 0 0 0
742 1 0.0016 1600 0.005388306895951322 -0.004776256674711105 0.014352686539912783 0 0 0
743 1 0.0016 1600 -0.005397296923542238 0.00164253989929604 0.01278163105999885 0 0 0
744 1 0.0016 1600 0.0016436830287215745 -0.006317953419977185 0.013884047539148585 0 0 0
745 1 0.0016 1600 -0.006620471401950839 0.0028308033670647837 0.014789275343908054 0 0 0
746 1 0.0016 1600 -0.004269784310826091 0.0005741310680131813 0.012351808716692494 0 0 0
747 1 0.0016 1600 -0.00445942628841538 0.001923235848107531 0.01151294433269352 0 0 0
748 1 0.0016 1600 0.0017336707394830656 0.005821265969236777 0.012498400561707888 0 0 0
749 1 0.0016 1600 0.0013859084588463732 0.00282366978832139 0.016710101430026696 0 0 0
750 1 0.0016 1600 0.004070050547847515 0.0012444525081176474 0.013367870518593797 0 0 0
751 1 0.0016 1600 0.004662126807711958 0.0018341824122170645 0.01473344087197476 0 0 0
752 1 0.0016 1600 0.0025175367474549975 0.002206766169599101 0.012791461297176367 0 0 0
753 1 0.0016 1600 -0.0029811750775362387 -0.0065540300367128304 0.015303382241866835 0 0 0
754 1 0.0016 1600 -0.0015029228223131142 0.005847717399039792 0.016179160886329542 0 0 0
755 1 0.0016 1600 0.002371703975012322 0.0033387622263990058 0.015560685611414774 0 0 0
756 1 0.0016 1600 -0.003992844430986654 -0.00599190641908397 0.01640786586482875 0 0 0
757 1 0.0016 1600 0.006961854552322578 0.0017515328607546697 0.012784633715072238 0 0 0
758 1 0.0016 1600 0.004386239161243974 -0.0003625883259015286 0.01206883962372454 0 0 0
759 1 0.0016 1600 -0.002842267197147561 0.005777562315977296 0.013683471191715334 0 0 0
760 1 0.0016 1600 -0.003871853481954274 0.006070425842989483 0.01249452841614812 0 0 0
761 1 0.0016 1600 -0.007198415900752361 0.00017107563730609779 0.016688994925747155 0 0 0
762 1 0.0016 1600 0.003651380515196822 -0.003585915512209368 0.011168334854044658 0 0 0
763 1 0.0016 1600 0.0016355381254239579 -0.005412835619048073 0.010429955596210534 0 0 0
764 1 0.0016 1600 0.0019046362797560897 -0.0023585284555138475 0.016271932028664948 0 0 0
765 1 0.0016 1600 -0.006869098545616717 -0.0021594625428189053 0.015125044917264888 0 0 0
766 1 0.0016 1600 -0.003044763005950918 -0.0065250896048401974 0.010715549807371744 0 0 0
767 1 0.0016 1600 0.0027407451396717093 0.004960921575718007 0.011601609558243582 0 0 0
768 1 0.0016 1600 0.0026133592790960254 0.006071013915958678 0.014479015732164764 0 0 0
769 1 0.0016 1600 -0.00022047449770583934 0.000852893746852273 0.012503971511579707 0 0 0
770 1 0.0016 1600 0.004873224700047405 0.005300918122582763 0.016226762431169085 0 0 0
771 1 0.0016 1600 -0.0007676238377715348 0.005784648138492272 0.011435495243413288 0 0 0
772 1 0.0016 1600 0.002151542980170152 -0.005103273453521455 0.01677512190489309 0 0 0
773 1 0.0016 1600 -0.005544035179649297 0.0008018684221645694 0.014134379684417414 0 0 0
774 1 0.0016 1600 -0.006979351190942821 -0.001769570717245067 0.011525529461104625 0 0 0
775 1 0.0016 1600 0.004463283781013371 -0.0006806964896845784 0.015060776749604158 0 0 0
776 1 0.0016 1600 -0.004719049585227915 0.0034731697997916772 0.016761248341619045 0 0 0
777 1 0.0016 1600 0.001709218770084563 0.00028426034010912857 0.011210740522358965 0 0 0
778 1 0.0016 1600 0.006090485394593919 0.003254262496710393 0.015771568038757365 0 0 0
779 1 0.0016 1600 -0.006375114287802697 -0.0011252820018534105 0.016240019548756784 0 0 0
780 1 0.0016 1600 -0.003890949439102659 0.006058859166526523 0.014857692857028194 0 0 0
781 1 0.0016 1600 0.0010446770480812468 -0.0042568505639706536 0.01250233699896414 0 0 0
782 1 0.0016 1600 0.005744651204410934 2.401790146392293e-05 0.011146742704100933 0 0 0
783 1 0.0016 1600 0.006970058821764969 -0.0018065148196661324 0.012075089219644246 0 0 0
784 1 0.0016 1600 0.0056813908113454254 0.0012921024680221964 0.013626136686532678 0 0 0
785 1 0.0016 1600 -0.003035448746107329 -0.0028332345191482192 0.01433258253086386 0 0 0
786 1 0.0016 1600 0.005658158940359457 0.001577245116647397 0.011520308304734724 0 0 0
787 1 0.0016 1600 0.0007525175193735744 0.0001227539655112927 0.01358038245769575 0 0 0
788 1 0.0016 1600 -0.004987053662212277 -0.0051935503655238585 0.012775188036557009 0 0 0
789 1 0.0016 1600 0.0030981901240124806 0.000578646003929055 0.011946569576440646 0 0 0
790 1 0.0016 1600 0.007195365032690449 0.0002680089396685863 0.012234723715577708 0 0 0
791 1 0.0016 1600 0.005881127286722573 -0.004153701588127409 0.017209780172957375 0 0 0
792 1 0.0016 1600 0.0033179197526086424 -0.003924095472413739 0.013734623309677067 0 0 0
793 1 0.0016 1600 0.002169533898852142 0.0037657070567482117 0.012704665918448982 0 0 0
794 1 0.0016 1600 -0.005619738851153841 -0.004501708699150091 0.014106616031645773 0 0 0
795 1 0.0016 1600 0.004211614934245511 0.005840131676256621 0.012594810090601188 0 0 0
796 1 0.0016 1600 0.004325820955806599 -0.005755653398188274 0.013403853445039813 0 0 0
797 1 0.0016 1600 -0.0024146487220967593 -0.006783523303701177 0.013824886486229798 0 0 0
798 1 0.0016 1600 -0.0008942876619840594 0.007142848657514066 0.012281104974804589 0 0 0
799 1 0.0016 1600 -0.005675934482590383 -6.931747233614573e-05 0.012800002761427507 0 0 0
800 1 0.0016 1600 -0.0021888581710141886 -0.002981083659465154 0.009944388981304137 0 0 0
801 1 0.0016 1600 -0.004171151103481831 0.0026628208090371083 0.012901336190074535 0 0 0
802 1 0.0016 1600 0.007186974695841349 0.0004396161603926812 0.01573157335955684 0 0 0
803 1 0.0016 1600 -0.0006958726411786443 0.00016555626884971118 0.014258618727243932 0 0 0
804 1 0.0016 1600 -0.006344321765696858 0.0034045159476404105 0.013321470825183961 0 0 0
805 1 0.0016 1600 0.002613761796775497 0.0026317112438124565 0.011124250989920184 0 0 0
806 1 0.0016 1600 -0.0012690648070978095 0.0029609575473379906 0.012854022132788332 0 0 0
807 1 0.0016 1600 0.003872241454186515 -0.004947254686427218 0.014832134003015838 0 0 0
808 1 0.0016 1600 0.0018048064314463814 0.003033451019913743 0.01409661828659033 0 0 0
809 1 0.0016 1600 0.00033715921926388734 -0.0013998295542937693 0.01424899513409102 0 0 0
810 1 0.0016 1600 -0.0016879883432485648 0.0028387110991066984 0.016100605606084138 0 0 0
811 1 0.0016 1600 -0.0003755174744015916 -0.004250087058446845 0.013259543010129028 0 0 0
812 1 0.0016 1600 -0.0025613549404423343 0.0052211692797375815 0.015156649595006544 0 0 0
813 1 0.0016 1600 -0.003000481169340601 -0.004872373680561236 0.015841337847242856 0 0 0
814 1 0.0016 1600 0.006844345458846899 -0.0022371983006891734 0.013688717754023064 0 0 0
815 1 0.0016 1600 -0.0026969621297397266 -0.002380374772987785 0.01582901866190977 0 0 0
816 1 0.0016 1600 0.0033228066501850167 0.0035495486727080906 0.013975982111216423 0 0 0
817 1 0.0016 1600 -0.006555837545920179 -0.0029785922016793568 0.013787858735694847 0 0 0
818 1 0.0016 1600 0.004893383652438747 -0.00010025271118633533 0.013633508367197223 0 0 0
819 1 0.0016 1600 -0.0011315862544412547 0.004485130531675328 0.015192284219606743 0 0 0
820 1 0.0016 1600 0.0012304873518178578 -0.0009245439134282687 0.0164935716880751 0 0 0
821 1 0.0016 1600 -0.004457633175755257 -0.0021016701709228366 0.01437182336696085 0 0 0
822 1 0.0016 1600 0.004969584155609109 -0.005210828972751261 0.018060684426349838 0 0 0
823 1 0.0016 1600 -0.002545555521476963 -0.0014637630933796914 0.013020804609205147 0 0 0
824 1 0.0016 1600 0.0036296896836854192 -0.0040754139106497795 0.01615156934222532 0 0 0
825 1 0.0016 1600 0.0029317810038407446 -0.0009174932556593558 0.012486009514476476 0 0 0
826 1 0.0016 1600 0.00036122203642727213 -0.007190977087755509 0.013493155833745005 0 0 0
827 1 0.0016 1600 -0.0029934944305791637 0.004156982131612238 0.009872826133274013 0 0 0
828 1 0.0016 1600 -0.0009554574839580734 -0.007136580178983542 0.014612193872575266 0 0 0
829 1 0.0016 1600 0.005456011417990267 -0.002511003754891245 0.012943046805442237 0 0 0
830 1 0.0016 1600 -0.0065987730471930095 -0.002881001849206851 0.016526945775266137 0 0 0
831 1 0.0016 1600 0.004484898177305713 0.0044990943613905845 0.013422465808032304 0 0 0
832 1 0.0016 1600 0.0028558262512950244 0.0010811547063090052 0.010412170742198293 0 0 0
833 1 0.0016 1600 -0.0035446677138361014 -0.004544732513705678 0.01437256617606344 0 0 0
834 1 0.0016 1600 -0.0027088182191687066 0.001617498698365704 0.015872871714060745 0 0 0
835 1 0.0016 1600 0.002734386117642097 -0.0012763333314203364 0.015435618532491318 0 0 0
836 1 0.0016 1600 -0.00403777519649389 0.0006013755938853371 0.019388296450751318 0 0 0
837 1 0.0016 1600 0.0020699707370530284 0.006896034942105072 0.021042155234801813 0 0 0
838 1 0.0016 1600 0.003047282327216535 0.0012783308457391656 0.01731403060641103 0 0 0
839 1 0.0016 1600 0.0021802700688611327 0.004531761191045634 0.014513045405164073 0 0 0
840 1 0.0016 1600 -0.002410191119499362 0.006784912569713366 0.018449666004213463 0 0 0
841 1 0.0016 1600 0.006468370666280016 -0.003162453985035215 0.016099737984808474 0 0 0
842 1 0.0016 1600 -0.001921597299352996 0.004300943861138108 0.019590069119725696 0 0 0
843 1 0.0016 1600 -0.007130916907000264 0.0009986154299544588 0.01409875343999228 0 0 0
844 1 0.0016 1600 0.0066450058199557915 0.002772885258776735 0.013974265069941429 0 0 0
845 1 0.0016 1600 0.0022453769195663756 0.0009789905547557748 0.018796068222686636 0 0 0
846 1 0.0016 1600 -0.0007865363906494992 0.003344947163125701 0.017330836410501066 0 0 0
847 1 0.0016 1600 0.0028506809118892785 -0.0017763271980455115 0.020426427751829377 0 0 0
848 1 0.0016 1600 -0.0006112477912163232 0.005682346934561532 0.01911665347174119 0 0 0
849 1 0.0016 1600 -0.005289854758101575 -0.001471297802876153 0.018750010868492043 0 0 0
850 1 0.0016 1600 0.0010386655118176903 -0.005533360641164689 0.020364268619687258 0 0 0
851 1 0.0016 1600 -0.005733095159970194 0.00216713282558776 0.02005177608229938 0 0 0
852 1 0.0016 1600 0.004925323319868755 0.004149532019179257 0.018331171845522257 0 0 0
853 1 0.0016 1600 0.004534914729071239 0.0055927633194693864 0.017762580235465914 0 0 0
854 1 0.0016 1600 -0.004114082404103903 0.005908841885392953 0.017597737569495543 0 0 0
855 1 0.0016 1600 0.004068684573039692 -0.002151887828767477 0.015549811786131552 0 0 0
856 1 0.0016 1600 0.0008054064346764007 -0.004898550042797757 0.021814685363132025 0 0 0
857 1 0.0016 1600 0.00699541527165468 -0.0017053375047564516 0.01653550851834504 0 0 0
858 1 0.0016 1600 -0.0014049553071621235 0.0030383661264705595 0.014448497511760517 0 0 0
859 1 0.0016 1600 -0.0042450300800207326 -0.001806071203520999 0.02022703808800263 0 0 0
860 1 0.0016 1600 -0.0031991425981692917 0.0027748723721419508 0.02084768754377387 0 0 0
861 1 0.0016 1600 -0.0037924044022974337 -0.004324766485706894 0.018642798249372636 0 0 0
862 1 0.0016 1600 -0.006288627267517716 0.0035066678378145168 0.01766458046704245 0 0 0
863 1 0.0016 1600 -0.004198792686481746 0.0021787035507335483 0.01960109851236828 0 0 0
864 1 0.0016 1600 0.004873223180262513 -0.002747341117110467 0.01679790375309021 0 0 0
865 1 0.0016 1600 -0.0037980739326055456 -0.0035106308547103605 0.015566212718808996 0 0 0
866 1 0.0016 1600 0.004710292903880336 0.0007133474465084676 0.017547612960569964 0 0 0
867 1 0.0016 1600 0.006041626230269518 0.00041004672070499455 0.01838103884192692 0 0 0
868 1 0.0016 1600 0.0035424777624625276 -0.0024861054661145902 0.017689867567177033 0 0 0
869 1 0.0016 1600 -0.000663292458358998 0.007170065331839999 0.01650263140979927 0 0 0
870 1 0.0016 1600 -0.00172809149481078 -0.0011669010990355987 0.02032532080707861 0 0 0
871 1 0.0016 1600 0.005810113866437518 0.004252420181185917 0.01699008644186532 0 0 0
872 1 0.0016 1600 -0.005433457972190256 0.004720072403038916 0.018984099389323907 0 0 0
873 1 0.0016 1600 -0.007124694617645756 -0.001039599104042841 0.01901218661820948 0 0 0
874 1 0.0016 1600 0.0008412768527222409 0.0043952248356286475 0.01648296471548765 0 0 0
875 1 0.0016 1600 0.0013422079279886063 -0.007074497677721549 0.015260197175131092 0 0 0
876 1 0.0016 1600 0.003972160675739494 0.004270141921849836 0.01705297558028224 0 0 0
877 1 0.0016 1600 0.002172873284497998 -0.002445049147812557 0.019141284787061598 0 0 0
878 1 0.0016 1600 0.0009335572025398219 0.002795922956130498 0.0206953190653562 0 0 0
879 1 0.0016 1600 0.005490744379079694 -0.002001328708164226 0.021590871761983255 0 0 0
880 1 0.0016 1600 0.003831901651403278 -0.0004189756282700205 0.016506885560498098 0 0 0
881 1 0.0016 1600 0.00429620042763737 0.00577779457324369 0.01933374139369591 0 0 0
882 1 0.0016 1600 0.0004833477183759722 0.005661961845844263 0.020297446340741765 0 0 0
883 1 0.0016 1600 0.0007991788064776445 -0.003336662417034269 0.017138264682194 0 0 0
884 1 0.0016 1600 -0.0030289911353212373 0.0016650284824874858 0.017467744852267268 0 0 0
885 1 0.0016 1600 -0.0010046258374888835 -0.003832710913001381 0.019294129570564967 0 0 0
886 1 0.0016 1600 0.005163581201900728 -0.0011195347487309008 0.01705059815850516 0 0 0
887 1 0.0016 1600 -0.0016388789586639881 -0.0017670158854887728 0.01685994781520897 0 0 0
888 1 0.0016 1600 0.005155807245121006 -0.0050262077093351535 0.016082049835165126 0 0 0
889 1 0.0016 1600 -0.0011667809328780399 0.000687978367041686 0.01826410207685288 0 0 0
890 1 0.0016 1600 0.0007216971943190924 -0.0004966777992934854 0.018294968816027227 0 0 0
891 1 0.0016 1600 -0.00012787231005794342 0.007198927740838377 0.018647267707625315 0 0 0
892 1 0.0016 1600 -0.004018563388795797 0.004379725201476082 0.018127091039315348 0 0 0
893 1 0.0016 1600 -0.0007745162033710346 -0.002640853377415503 0.021389519391570456 0 0 0
894 1 0.0016 1600 0.0030196145126276616 0.0020123775931305296 0.014297460188312782 0 0 0
895 1 0.0016 1600 0.0003248882551443595 -0.004721132560126042 0.01918014836991588 0 0 0
896 1 0.0016 1600 -0.0020928016461500627 0.00011011285825029553 0.019433711371834937 0 0 0
897 1 0.0016 1600 0.005049246009163948 0.00326025096912648 0.020989633795886538 0 0 0
898 1 0.0016 1600 0.005231836231936987 -0.004946697698755041 0.021620731778805854 0 0 0
899 1 0.0016 1600 9.941116166996341e-05 -0.004638337251657564 0.016525743957715697 0 0 0
900 1 0.0016 1600 0.005478791276473364 -0.0028300966037063426 0.019970809715192335 0 0 0
901 1 0.0016 1600 -0.004418640730241074 -0.00022356643108936052 0.021651055505829294 0 0 0
902 1 0.0016 1600 -0.0012349135259909683 -0.0051708642788643065 0.015821688015244396 0 0 0
903 1 0.0016 1600 0.0011970755999398553 0.00208306431999701 0.019287686851050978 0 0 0
904 1 0.0016 1600 0.0057554228451371665 0.0017074861421224883 0.016384718324866716 0 0 0
905 1 0.0016 1600 0.004253261186782482 0.001742737929985767 0.020197986732663455 0 0 0
906 1 0.0016 1600 -0.003381026958129992 0.004547014203139218 0.016353536071729357 0 0 0
907 1 0.0016 1600 0.003699265367713369 -0.0010642908187901668 0.019272168617577537 0 0 0
908 1 0.0016 1600 0.00521027275361116 0.0033075381934536342 0.014437078770291586 0 0 0
909 1 0.0016 1600 0.000742295238084598 0.0010748713381135936 0.017967458883345992 0 0 0
910 1 0.0016 1600 -0.005968649362324463 -0.004027652493518834 0.020010972709136952 0 0 0
911 1 0.0016 1600 -0.007131532830859792 -0.0009942372679513575 0.020611292749896676 0 0 0
912 1 0.0016 1600 0.0023489265513068776 -0.005017099408875028 0.01960525821990302 0 0 0
913 1 0.0016 1600 -0.0017931658951034998 0.0021561758906737285 0.02129382103163088 0 0 0
914 1 0.0016 1600 0.006101917329280434 -0.0038174092068570488 0.01875810402680904 0 0 0
915 1 0.0016 1600 0.0056956444422287264 0.001409825152480424 0.019581204382824853 0 0 0
916 1 0.0016 1600 0.0014052585846597283 -0.00045530737793319517 0.014974033463777792 0 0 0
917 1 0.0016 1600 -0.000581584692161211 -0.006066679845425318 0.016974661127311056 0 0 0
918 1 0.0016 1600 0.00425103517006407 -0.00418239847041064 0.019551537661321904 0 0 0
919 1 0.0016 1600 0.0024241187677114494 0.004459790987337546 0.01670051623191413 0 0 0
920 1 0.0016 1600 -0.002603841069031116 0.0036841585673001794 0.017856140074570575 0 0 0
921 1 0.0016 1600 0.000786620971744294 -0.0065882620682733 0.01918864017506288 0 0 0
922 1 0.0016 1600 0.0019384482777350116 0.00013613632146744587 0.01747165273543455 0 0 0
923 1 0.0016 1600 0.004034982080191015 0.002825328179507099 0.018219401569215074 0 0 0
924 1 0.0016 1600 0.0005503836485345664 0.0044685465272859964 0.014911996005782545 0 0 0
925 1 0.0016 1600 -0.005762424949886106 0.0007474956534688285 0.01709378413453904 0 0 0
926 1 0.0016 1600 -0.00335381218631353 -0.005037626857791163 0.02109402669153247 0 0 0
927 1 0.0016 1600 -0.0007961292268331435 -0.00321731393115955 0.017131945588398544 0 0 0
928 1 0.0016 1600 0.002569812785647271 0.005115171223569552 0.021189227998653557 0 0 0
929 1 0.0016 1600 0.0016873599506022545 -0.0039034408227133104 0.015769801890561867 0 0 0
930 1 0.0016 1600 0.007167195958284115 -0.0006919203378733601 0.021086779809024042 0 0 0
931 1 0.0016 1600 0.0030448736090752447 -0.003683465181325037 0.01862687667355228 0 0 0
932 1 0.0016 1600 -0.0028546029057739215 -0.0056154569355184 0.01852290747685316 0 0 0
933 1 0.0016 1600 -0.001729870794595859 0.002389131946759701 0.018199607863364393 0 0 0
934 1 0.0016 1600 0.00305495105617064 0.005819538081770151 0.018325058003950158 0 0 0
935 1 0.0016 1600 -0.006080444297667393 -0.0038560494818402373 0.017684764682308736 0 0 0
936 1 0.0016 1600 0.0008745412414929213 -0.0032863633814928695 0.018735203455124708 0 0 0
937 1 0.0016 1600 0.004287729789141368 0.0042207413256304185 0.019795898861596422 0 0 0
938 1 0.0016 1600 -0.0008034690458618668 0.005985037627383076 0.014744033548568633 0 0 0
939 1 0.0016 1600 -0.000247507391589237 0.0004774531006897945 0.016861836635487064 0 0 0
940 1 0.0016 1600 0.003075085980620454 0.004097503458828918 0.018366366992084174 0 0 0
941 1 0.0016 1600 -0.0038088394892217673 -0.004202420863562104 0.017048017736969845 0 0 0
942 1 0.0016 1600 -0.005375762631249407 0.004790536322157316 0.017387056894958425 0 0 0
943 1 0.0016 1600 -0.002224222223884212 -0.0011620872163063199 0.01822002922894996 0 0 0
944 1 0.0016 1600 0.0006437602265976953 -0.005638501236347264 0.01790942982511765 0 0 0
945 1 0.0016 1600 0.003454428124973502 0.004623035243614046 0.01547630847962462 0 0 0
946 1 0.0016 1600 -0.0016284718468283284 -0.002639336746090182 0.01837003780568708 0 0 0
947 1 0.0016 1600 -0.0063367390000497285 0.0034193758824855656 0.01926100002830161 0 0 0
948 1 0.0016 1600 -0.0030984053258783935 0.0049560530138833435 0.020453179101277825 0 0 0
949 1 0.0016 1600 -9.200393560150827e-05 -0.007199794244748868 0.015957343613862623 0 0 0
950 1 0.0016 1600 -0.0024098571034240923 -0.006785094340060027 0.01951956777283465 0 0 0
951 1 0.0016 1600 0.006027906405493484 -8.228326912703314e-05 0.014760752572460003 0 0 0
952 1 0.0016 1600 0.006509016267340047 -0.00025500996683475803 0.017003088439292133 0 0 0
953 1 0.0016 1600 -0.00601741049581697 0.002633388630781522 0.016352223744056576 0 0 0
954 1 0.0016 1600 0.0031740128962263517 0.0011785471725884928 0.021234726383022925 0 0 0
955 1 0.0016 1600 -0.0039417507736087985 -0.0013695154895735674 0.01789505344679577 0 0 0
956 1 0.0016 1600 0.003503130202006241 -0.004796969093994525 0.017573929382411584 0 0 0
957 1 0.0016 1600 -4.15737534517637e-05 -0.0072005242198488984 0.01796501682994276 0 0 0
958 1 0.0016 1600 0.004193170642321181 0.001407158270807037 0.016202129479536784 0 0 0
959 1 0.0016 1600 -0.0030571800999682126 0.00019916565298896234 0.018107969304841962 0 0 0
960 1 0.0016 1600 0.004786551109080368 0.002928564998302007 0.0167437433118057 0 0 0
961 1 0.0016 1600 0.001647110983331159 0.0047543366871099875 0.01806748033373204 0 0 0
962 1 0.0016 1600 -0.005301836890382398 -0.001833086386019191 0.017191761248045837 0 0 0
963 1 0.0016 1600 0.0024927023110321495 0.006754756189073365 0.019505563364628064 0 0 0
964 1 0.0016 1600 -0.00315619212911849 0.0011979280699067976 0.020582225086442703 0 0 0
965 1 0.0016 1600 -0.005615569828969619 0.002140655957706621 0.0181551516173612 0 0 0
966 1 0.0016 1600 0.002596830300469109 -0.0067157823180196375 0.02172154327268443 0 0 0
967 1 0.0016 1600 -0.0007655705903642552 -0.0023404827391650443 0.019818387370611566 0 0 0
968 1 0.0016 1600 -0.00031880423081798333 0.0019342576764159616 0.018799823149264615 0 0 0
969 1 0.0016 1600 -0.0050108007539429985 -0.002918946287089947 0.01936952562512083 0 0 0
970 1 0.0016 1600 -0.0025064691866100498 -0.004692384089247088 0.019782199944090136 0 0 0
971 1 0.0016 1600 -0.0013945713175787676 0.004693974539874189 0.01813214987456737 0 0 0
972 1 0.0016 1600 0.0006693721016982643 0.0034837284639894907 0.017978479672745098 0 0 0
973 1 0.0016 1600 -0.0005561523325728771 0.0044088461649262 0.020416707284593383 0 0 0
974 1 0.0016 1600 -0.004879548357387376 -0.0005648081846492051 0.01614826688952858 0 0 0
975 1 0.0016 1600 -0.007005912817957739 0.0016636416756631784 0.02087862433084675 0 0 0
976 1 0.0016 1600 0.004553387233349156 -0.003666589098637173 0.018067590389945945 0 0 0
977 1 0.0016 1600 -0.0025653648805168796 0.00551922129093767 0.01742061266966498 0 0 0
978 1 0.0016 1600 -0.0031971907302295963 -0.0010197590863577836 0.016506055680026714 0 0 0
979 1 0.0016 1600 0.00455315585263495 0.0003994253328905858 0.021013142891738494 0 0 0
980 1 0.0016 1600 -0.002766718569818111 0.001505728848782526 0.01903754312491606 0 0 0
981 1 0.0016 1600 0.0038076823219114287 0.001323096528009249 0.01872024137189262 0 0 0
982 1 0.0016 1600 0.0033241825983877766 -0.006386909300844845 0.017628159475077454 0 0 0
983 1 0.0016 1600 -0.005153400014894711 0.0027099500931824757 0.014163211803760584 0 0 0
984 1 0.0016 1600 0.00663484810930504 -0.0027969800725971897 0.017647666771572437 0 0 0
985 1 0.0016 1600 -0.006246571033828618 0.00023140288924380906 0.0211589421823369 0 0 0
986 1 0.0016 1600 -0.004717428195583164 -0.005286456805886083 0.015168741561384267 0 0 0
987 1 0.0016 1600 -0.0008473529696034535 0.00015195440828749224 0.020531294049194536 0 0 0
988 1 0.0016 1600 0.004063785764667442 -0.0026217231465218145 0.01925426405954696 0 0 0
989 1 0.0016 1600 -0.0006043889552364933 -0.005384011644764908 0.014364844558316034 0 0 0
990 1 0.0016 1600 -0.006229828061626752 -0.0036099527863227856 0.021532927238129034 0 0 0
991 1 0.0016 1600 0.0069267680708169 0.0019651054722625303 0.015326011475078633 0 0 0
992 1 0.0016 1600 0.0034211858920505382 -0.00010711269552858576 0.018021054473485395 0 0 0
993 1 0.0016 1600 0.002213830456860813 -0.0009083980114670297 0.018698685505928833 0 0 0
994 1 0.0016 1600 -0.004668135756158661 4.874666014259646e-05 0.018026664018436552 0 0 0
995 1 0.0016 1600 -0.0007525648132373056 -0.0007638409205792824 0.01773498730492838 0 0 0
996 1 0.0016 1600 -0.003104917889421464 0.0054239061419984295 0.01892347869379452 0 0 0
997 1 0.0016 1600 -0.003433313018397259 -0.002417249021465845 0.01899143409790976 0 0 0
998 1 0.0016 1600 0.003701289900667061 -0.00567059097835305 0.016248462727408874 0 0 0
999 1 0.0016 1600 0.0007594793862716429 -0.0050355077571244845 0.015123819576453245 0 0 0
1000 1 0.0016 1600 -0.004040977615177091 -0.005959213928619234 0.013813666223245705 0 0 0
1001 1 0.0016 1600 -0.004168955656647724 0.003991423646394585 0.019671778772786513 0 0 0
1002 1 0.0016 1600 -0.0062219077460003575 -0.0006360001141356991 0.017754637104909286 0 0 0
1003 1 0.0016 1600 -0.001499635784782744 0.0014716674390726227 0.01690974248398727 0 0 0
1004 1 0.0016 1600 0.0009264879583897048 0.00598371985069126 0.018794471775084684 0 0 0
1005 1 0.0016 1600 -0.006691054245801824 -0.0021532509303073544 0.017948607880792822 0 0 0
1006 1 0.0016 1600 -0.002509876210440451 0.0012046517336886308 0.014340488812556711 0 0 0
1007 1 0.0016 1600 -4.0633486277540494e-05 -0.0018476122645682633 0.01679703085580298 0 0 0
1008 1 0.0016 1600 0.0016182045193126186 0.0055447940813665286 0.015616075256925587 0 0 0
1009 1 0.0016 1600 -0.002234678486027909 -0.0020176249407295828 0.02158579724641821 0 0 0
1010 1 0.0016 1600 -1.7664998734878123e-05 0.002058247722627551 0.016771476041488403 0 0 0
1011 1 0.0016 1600 0.005428011677467212 0.002081120083186791 0.01796418762550865 0 0 0
1012 1 0.0016 1600 0.001448239951287577 -0.002517981269378552 0.02063373518106301 0 0 0
1013 1 0.0016 1600 -0.002862891121333508 0.006606430973121112 0.019973608244515263 0 0 0
1014 1 0.0016 1600 -0.0029299744153722094 -0.0065776183541187555 0.02101793651468079 0 0 0
1015 1 0.0016 1600 0.001747125604369126 -0.004519791960982165 0.018208733018120503 0 0 0
1016 1 0.0016 1600 9.714478621967104e-05 0.0014328074720322541 0.02072868066879369 0 0 0
1017 1 0.0016 1600 -0.0006355249407183601 -0.0042437967541432906 0.022048039885871392 0 0 0
1018 1 0.0016 1600 -0.007025346524703112 0.001577763447668076 0.01569754852652695 0 0 0
1019 1 0.0016 1600 0.002362720824394245 0.0051518432655761216 0.01960319228977649 0 0 0
1020 1 0.0016 1600 -0.0016035694795928554 0.005659685452685189 0.020371268870913672 0 0 0
1021 1 0.0016 1600 0.0024719173246631203 -0.003578374876158248 0.017137224758662233 0 0 0
1022 1 0.0016 1600 -0.0007239203874421718 0.003476419323037507 0.018923712481316846 0 0 0
1023 1 0.0016 1600 -0.0038284699104335694 0.00048809232377185766 0.016736358003899603 0 0 0
1024 1 0.0016 1600 0.0021549435776373983 0.0023879148788212828 0.018043422185738994 0 0 0
1025 1 0.0016 1600 0.0019491759277187148 0.006931905955698878 0.018011567450686352 0 0 0
1026 1 0.0016 1600 0.007199350062490841 -0.00012659968082963887 0.01934578651894567 0 0 0
1027 1 0.0016 1600 -0.0015176160740444102 -0.006631440780159212 0.018200748269331185 0 0 0
1028 1 0.0016 1600 0.0005446162476101639 0.006550811181154343 0.017348337357171645 0 0 0
1029 1 0.0016 1600 0.0036677252188155006 0.006196109346032488 0.015675369943283134 0 0 0
1030 1 0.0016 1600 -0.001410699144419796 0.0015019917993780761 0.019885323491495868 0 0 0
1031 1 0.0016 1600 -0.002773612015673732 -0.006645061099455017 0.017210773011917993 0 0 0
1032 1 0.0016 1600 -0.0022403730987717637 -0.0037886860642851353 0.016749012163378145 0 0 0
1033 1 0.0016 1600 0.003121652023689581 -0.006488114405452858 0.020144309632210533 0 0 0
1034 1 0.0016 1600 -0.00012072209313779942 -0.0020860992197195435 0.018376732605247217 0 0 0
1035 1 0.0016 1600 0.006304226270895534 -0.003478357026476485 0.014540723860745732 0 0 0
1036 1 0.0016 1600 0.003139954108852537 0.0029112086404728234 0.016896765883060574 0 0 0
1037 1 0.0016 1600 -0.004299517607801479 -0.002044163571427261 0.015962779613987215 0 0 0
1038 1 0.0016 1600 0.0009122493821303402 0.0023753722636549643 0.015249512739676436 0 0 0
1039 1 0.0016 1600 0.0029679978380345476 -0.0033544131474774735 0.02019024512330643 0 0 0
1040 1 0.0016 1600 0.007094572276338181 0.001228998479691704 0.017119793209603596 0 0 0
1041 1 0.0016 1600 0.0023212063098295875 -0.006815682276615896 0.01879828991851938 0 0 0
1042 1 0.0016 1600 -0.006672649241952952 -0.002704811047192461 0.019450323219584335 0 0 0
1043 1 0.0016 1600 -0.002711489750929673 0.003628544765531941 0.015158635079607297 0 0 0
1044 1 0.0016 1600 -0.004432340398080841 -0.0029863007302501654 0.017879866282970502 0 0 0
1045 1 0.0016 1600 -0.004490263600582737 0.004865363975758766 0.021236776026204843 0 0 0
1046 1 0.0016 1600 0.0016567228468037554 -0.004101607142628317 0.020719802956555827 0 0 0
1047 1 0.0016 1600 -0.0006658829133626234 -0.0045977054965095675 0.01792997448525014 0 0 0
1048 1 0.0016 1600 0.0009701025205308174 0.007134535696587142 0.019904927096726952 0 0 0
1049 1 0.0016 1600 -0.0054310879344508746 0.0013267841104872863 0.015640530123047724 0 0 0
1050 1 0.0016 1600 -0.0019450458030881323 -0.0052778507107389275 0.017251140997019257 0 0 0
1051 1 0.0016 1600 0.0014699028420090778 -0.007048409270952812 0.0174637715103046 0 0 0
1052 1 0.0016 1600 0.005878004258344084 0.004158949688656821 0.019957921457234025 0 0 0
1053 1 0.0016 1600 -0.006981248756873029 0.0017646268087523368 0.017287107746113965 0 0 0
1054 1 0.0016 1600 0.00132789909590672 0.001240454780106907 0.016488410783402463 0 0 0
1055 1 0.0016 1600 0.005823641475534063 -0.0010023482130136505 0.01910048696837051 0 0 0
1056 1 0.0016 1600 -0.001122990924486433 0.0062083912108824605 0.017695072133411142 0 0 0
1057 1 0.0016 1600 0.001774402842345978 0.0035668396509930212 0.01913205335699385 0 0 0
1058 1 0.0016 1600 0.0002168467742176618 0.007196972427352252 0.015167481820602777 0 0 0
1059 1 0.0016 1600 -0.005696615871751925 -0.001150076382149109 0.014717703156554091 0 0 0
1060 1 0.0016 1600 -0.0022361525855053126 -0.004118306452771304 0.018314049267759765 0 0 0
1061 1 0.0016 1600 0.003698832761972652 -0.005581895636907232 0.01895879977240635 0 0 0
1062 1 0.0016 1600 0.00011153237391687393 0.005061802222449821 0.017740181899280352 0 0 0
1063 1 0.0016 1600 -0.0033923250014949095 -0.003055669119157804 0.02120989515837095 0 0 0
1064 1 0.0016 1600 0.00033108499284610995 0.0006575556984676061 0.01538165371613891 0 0 0
1065 1 0.0016 1600 -0.0043424364272185425 -0.005743247114508864 0.017948999041096276 0 0 0
1066 1 0.0016 1600 0.00025994782584445685 -0.003504800356105225 0.020217317967968235 0 0 0
1067 1 0.0016 1600 -0.0023505289836106193 0.006805630321001626 0.01508953068823772 0 0 0
1068 1 0.0016 1600 0.0035148759979594544 0.0062842064502939485 0.020642526224999173 0 0 0
1069 1 0.0016 1600 0.0013663886637720524 -0.0019921368204510255 0.01779422222769225 0 0 0
1070 1 0.0016 1600 0.006688254588847591 0.002666724902787212 0.0199604162442372 0 0 0
1071 1 0.0016 1600 0.003338816599864568 -0.0005790143674159487 0.02136803107428795 0 0 0
1072 1 0.0016 1600 -0.0006450375884335012 0.0019222846298085872 0.015306022636780194 0 0 0
1073 1 0.0016 1600 -0.003961396644845562 0.002780854806145663 0.01813510812662433 0 0 0
1074 1 0.0016 1600 0.006988440138061469 -0.0017328686528987054 0.022288628890699817 0 0 0
1075 1 0.0016 1600 0.0063105977255420755 0.003408680989199112 0.024862878735236828 0 0 0
1076 1 0.0016 1600 0.006853387877061148 -0.002207297482318837 0.023810268799805485 0 0 0
1077 1 0.0016 1600 -0.0018953505178367837 -0.005178323647516727 0.021734349378195784 0 0 0
1078 1 0.0016 1600 -0.005568345459268144 -0.002346281127854418 0.024381648152799064 0 0 0
1079 1 0.0016 1600 -0.0038927661853275187 -0.006057126134844482 0.019657105626891606 0 0 0
1080 1 0.0016 1600 -0.0025555177813512318 0.001898314679229567 0.025456725617276743 0 0 0
1081 1 0.0016 1600 0.003085724231799324 5.8886023556655356e-05 0.025502167645310773 0 0 0
1082 1 0.0016 1600 -0.0030741885893376467 -0.000413800316030881 0.020805565801941105 0 0 0
1083 1 0.0016 1600 0.0017699490160334537 -0.004327270781804844 0.022955816270986775 0 0 0
1084 1 0.0016 1600 0.004254497853563079 0.0017931858257875307 0.023199905946828858 0 0 0
1085 1 0.0016 1600 -0.005039138566610673 0.004820969764901833 0.023437005425001243 0 0 0
1086 1 0.0016 1600 -0.004759104458251547 0.0031270063607578944 0.020881765860182918 0 0 0
1087 1 0.0016 1600 0.0010188588325910032 -0.006483781667614844 0.021847623192363934 0 0 0
1088 1 0.0016 1600 0.0020001698541082134 0.00021545137618369755 0.021736619866905123 0 0 0
1089 1 0.0016 1600 -0.0005613547744096813 0.005576240973471434 0.024079519494792558 0 0 0
1090 1 0.0016 1600 0.006329062228251311 0.0034343485161129573 0.01860408287124074 0 0 0
1091 1 0.0016 1600 -0.004059226484219834 0.0017857029401298775 0.021764953570131494 0 0 0
1092 1 0.0016 1600 0.003563271028906898 0.002729877556357821 0.02125296507498876 0 0 0
1093 1 0.0016 1600 -0.004452279102356647 0.0029401452609684373 0.022800129540185825 0 0 0
1094 1 0.0016 1600 -0.006170690972687843 -0.0008793168787062189 0.024152159400697832 0 0 0
1095 1 0.0016 1600 0.0004719379663897213 0.0045033971377083076 0.019194774238696966 0 0 0
1096 1 0.0016 1600 0.006881025882033605 0.0021197607568050297 0.024106511190828055 0 0 0
1097 1 0.0016 1600 -0.007136152492888445 0.0009589647968649463 0.022308642295234892 0 0 0
1098 1 0.0016 1600 -0.006938397437459553 0.0019241689733439267 0.01902843897652516 0 0 0
1099 1 0.0016 1600 -0.0037218542794372833 -0.003637671757334713 0.024287895741483937 0 0 0
1100 1 0.0016 1600 -0.007171990149629832 -0.0006345541458926712 0.022169726003219918 0 0 0
1101 1 0.0016 1600 -0.0005798518910273752 0.0043293052895446655 0.02307825189973165 0 0 0
1102 1 0.0016 1600 -0.0016201769522931264 -0.001688296496226108 0.02302588992001184 0 0 0
1103 1 0.0016 1600 0.0067958555155876255 -0.0023796506732707205 0.019183111886686772 0 0 0
1104 1 0.0016 1600 -0.0035897472398229574 -0.0030730885932122877 0.022797021802074487 0 0 0
1105 1 0.0016 1600 0.0032255673581695838 -0.002051648880635279 0.02357330550951188 0 0 0
1106 1 0.0016 1600 -0.0026457477447840603 -0.0006688386875672745 0.02234132064455533 0 0 0
1107 1 0.0016 1600 0.005077993760657266 0.0028780276068835113 0.01943083916069297 0 0 0
1108 1 0.0016 1600 -0.0068668177615846485 -0.002166039108253984 0.021794727622764725 0 0 0
1109 1 0.0016 1600 0.006350271762598941 0.0033948688280911587 0.02277604489974029 0 0 0
1110 1 0.0016 1600 -0.0011468637818806914 -0.0007840474400231486 0.021793770269726526 0 0 0
1111 1 0.0016 1600 0.005826569071605188 -0.0042307065603176845 0.022921458147891555 0 0 0
1112 1 0.0016 1600 -8.674901328214732e-05 -0.007199524242296529 0.020939327509356155 0 0 0
1113 1 0.0016 1600 0.005471658080179878 -0.0026761379852395404 0.023041029808364633 0 0 0
1114 1 0.0016 1600 0.003483549913543016 0.005946032902433512 0.022205899421909103 0 0 0
1115 1 0.0016 1600 -0.0056935837830725915 0.001813474414496834 0.02178091079087651 0 0 0
1116 1 0.0016 1600 0.004735848450383587 0.00015418122894608638 0.019295107393930745 0 0 0
1117 1 0.0016 1600 0.0031501598685791843 -0.00204641034799805 0.021975575945803162 0 0 0
1118 1 0.0016 1600 -0.00013582383174475608 -0.007199315671933637 0.02269279822702201 0 0 0
1119 1 0.0016 1600 0.00570044335061124 -0.004398765356655983 0.0201930464653612 0 0 0
1120 1 0.0016 1600 -0.004434200371709655 -0.0041198300187406285 0.02183403504339541 0 0 0
1121 1 0.0016 1600 0.0013435807489882512 0.004332484123472869 0.020524455072231548 0 0 0
1122 1 0.0016 1600 -0.005501151034112425 -0.004645234660463638 0.025848276701986833 0 0 0
1123 1 0.0016 1600 -0.0015665620635306934 -0.007028017457113899 0.021932094349117612 0 0 0
1124 1 0.0016 1600 0.0007259725703339379 -0.003238965889137266 0.023540283768999703 0 0 0
1125 1 0.0016 1600 -0.002124309300173913 -0.003479999194517363 0.022300707954177518 0 0 0
1126 1 0.0016 1600 -0.0016181037729590285 -0.003883070901244378 0.020837966363127295 0 0 0
1127 1 0.0016 1600 0.002043339067728426 -0.005970024009221499 0.023024016290218836 0 0 0
1128 1 0.0016 1600 0.006319606023459117 0.0024320757458036785 0.0214990966409259 0 0 0
1129 1 0.0016 1600 0.0017112611341063859 -0.0053461882735285635 0.024459319000244294 0 0 0
1130 1 0.0016 1600 0.0017196529999072266 -0.0024545970507574497 0.022562702217810652 0 0 0
1131 1 0.0016 1600 -0.005403591133739807 0.0004555468604851309 0.024586869879341826 0 0 0
1132 1 0.0016 1600 -0.007187417278243534 0.00042744808720522327 0.019879853643692567 0 0 0
1133 1 0.0016 1600 0.0033667667378511823 -0.00463891954533331 0.02286881206622606 0 0 0
1134 1 0.0016 1600 0.004573955555685356 -0.0035522474499794566 0.022047872749189526 0 0 0
1135 1 0.0016 1600 0.007101035411678413 -0.0011917914219580232 0.018156394156574596 0 0 0
1136 1 0.0016 1600 0.004803905710704455 0.0018233039070648437 0.021697511361649335 0 0 0
1137 1 0.0016 1600 0.0013509995437178653 -0.0012391635238376605 0.021589877732956474 0 0 0
1138 1 0.0016 1600 -0.0019388700982491678 0.005105483754604412 0.023409878381887336 0 0 0
1139 1 0.0016 1600 -0.0028042884670191814 -0.006631451341651899 0.02471607184864482 0 0 0
1140 1 0.0016 1600 0.0010322873008617066 -0.0016884538478604766 0.02378730247648776 0 0 0
1141 1 0.0016 1600 0.0013219751306343143 0.0021618008023780114 0.023755882900699053 0 0 0
1142 1 0.0016 1600 0.0011048917636808707 0.004131247861532506 0.024435960432905447 0 0 0
1143 1 0.0016 1600 -0.0012064314868989374 -0.005416387729844362 0.019193546076148617 0 0 0
1144 1 0.0016 1600 -0.00463423026714481 -0.0009471225311710114 0.02459247175773507 0 0 0
1145 1 0.0016 1600 0.005265578354560742 -0.0022480519496529227 0.018266433961511196 0 0 0
1146 1 0.0016 1600 0.0018500870357929726 0.0010742533452581288 0.020343238547372678 0 0 0
1147 1 0.0016 1600 -0.001186668366004225 -0.0008950922673020028 0.02486735455913619 0 0 0
1148 1 0.0016 1600 -0.004020781544000276 -0.0005937704512825276 0.02315545387933843 0 0 0
1149 1 0.0016 1600 -0.0033670224223292687 -0.0008478250311198947 0.019294114600364492 0 0 0
1150 1 0.0016 1600 -0.0003915862782548539 0.004270737434814324 0.024988000718779796 0 0 0
1151 1 0.0016 1600 0.005840535946390637 -0.00421087774225093 0.025748096094886003 0 0 0
1152 1 0.0016 1600 0.005563847411500125 0.004569975344442289 0.024054554345806556 0 0 0
1153 1 0.0016 1600 -0.0020998989634131394 0.0039026152646997807 0.021128898222223958 0 0 0
1154 1 0.0016 1600 -0.0004608684967682295 -0.00587472124592869 0.021857810785391136 0 0 0
1155 1 0.0016 1600 -0.005175578736113777 -0.0029167529184194792 0.022939693322322034 0 0 0
1156 1 0.0016 1600 -0.0009691440549008705 0.005159664905357013 0.02176751620837102 0 0 0
1157 1 0.0016 1600 0.002058831042619751 0.0008538753366962902 0.023202540007849767 0 0 0
1158 1 0.0016 1600 0.005738621917784449 0.0004445875674921818 0.02360140189620737 0 0 0
1159 1 0.0016 1600 -0.0064908697858485145 0.0031165664833693652 0.02130623886803013 0 0 0
1160 1 0.0016 1600 0.0048105690364172475 0.00535800783061838 0.0207912376115364 0 0 0
1161 1 0.0016 1600 -0.00494189062244642 -0.0026741498366200864 0.02137589243142805 0 0 0
1162 1 0.0016 1600 0.0008163242187567437 0.0051061482465206785 0.023159589444428724 0 0 0
1163 1 0.0016 1600 0.003714576664470998 0.0004369119571010172 0.02254534694130715 0 0 0
1164 1 0.0016 1600 0.004776917187272831 -0.005387608144421442 0.024675969976382477 0 0 0
1165 1 0.0016 1600 0.004806809174777862 0.0053610996062567265 0.022888135243017093 0 0 0
1166 1 0.0016 1600 -0.0011751539587263288 -0.0035351046461036158 0.024718290508782523 0 0 0
1167 1 0.0016 1600 -0.0027865069687615157 -0.006212193577953776 0.02256886805022301 0 0 0
1168 1 0.0016 1600 -0.0050881073443531655 -0.005093908166128286 0.019206643732576835 0 0 0
1169 1 0.0016 1600 0.0029361479405912694 0.002456491791125796 0.019437890494660014 0 0 0
1170 1 0.0016 1600 -0.0008333857930439254 0.0032892093960495 0.02188952864790251 0 0 0
1171 1 0.0016 1600 -0.0029092361881640663 0.003076323888286814 0.019303608982254833 0 0 0
1172 1 0.0016 1600 -0.0023217802849255574 -0.00292197725714653 0.02378669893070621 0 0 0
1173 1 0.0016 1600 0.0011915011412877465 0.0057204821708338365 0.0217308007337694 0 0 0
1174 1 0.0016 1600 -0.00263136579470396 0.006702671873110455 0.022490002433436258 0 0 0
1175 1 0.0016 1600 -0.0017362262219304699 0.0035172683671931652 0.023826745538840236 0 0 0
1176 1 0.0016 1600 -0.005781239784566921 0.004292087985903249 0.020485695475544043 0 0 0
1177 1 0.0016 1600 0.004575122098380019 -0.005560028773733912 0.02029707465993728 0 0 0
1178 1 0.0016 1600 -0.002031401649860566 0.0005624785732281922 0.021525477947108622 0 0 0
1179 1 0.0016 1600 0.002203828247071143 0.0054541891933860345 0.023875948257658295 0 0 0
1180 1 0.0016 1600 0.0018831417285692603 -0.0005198885647977684 0.02021502086128709 0 0 0
1181 1 0.0016 1600 -0.0006807102321839915 -0.007167920236017496 0.019454145082329476 0 0 0
1182 1 0.0016 1600 -0.0031569283939556626 -0.004655456805698291 0.022635029446965563 0 0 0
1183 1 0.0016 1600 -0.0003588762282258536 -0.002198970149407017 0.024390468067947316 0 0 0
1184 1 0.0016 1600 0.002384489247517946 -0.005130305677529807 0.021705591744269188 0 0 0
1185 1 0.0016 1600 -0.000638595133092242 0.0010914889573328005 0.022107247489403407 0 0 0
1186 1 0.0016 1600 -0.007180883469054308 0.0005294070017253892 0.018283561934143423 0 0 0
1187 1 0.0016 1600 -0.005786984278268838 -0.0009849918721534679 0.025701185697468765 0 0 0
1188 1 0.0016 1600 0.0010586941632288482 -0.0003573495462358583 0.02290096839257396 0 0 0
1189 1 0.0016 1600 -2.4542710194995226e-05 -0.0012917927750479917 0.020772827446920827 0 0 0
1190 1 0.0016 1600 0.0014714591766682762 0.0017248858860385069 0.021754732846564602 0 0 0
1191 1 0.0016 1600 0.0028344928269477356 0.0020727891037320124 0.022516329507631213 0 0 0
1192 1 0.0016 1600 -0.0006339118692983654 0.0028114649096599204 0.020375880457813047 0 0 0
1193 1 0.0016 1600 0.005036320431969842 0.003116176321807854 0.02364481539842555 0 0 0
1194 1 0.0016 1600 -0.0023101652616848117 -0.0026403129417546137 0.020107616365528425 0 0 0
1195 1 0.0016 1600 0.006258199760935255 -0.0035602134980127083 0.021436226655476367 0 0 0
1196 1 0.0016 1600 0.005636675432729065 0.004479911354766204 0.021842392167818282 0 0 0
1197 1 0.0016 1600 -0.0010899922418118406 0.006389808211026342 0.02278338707225778 0 0 0
1198 1 0.0016 1600 0.004861224145785611 -0.0011887444029823487 0.020364876553934253 0 0 0
1199 1 0.0016 1600 0.001229191362272077 0.0035429936456481247 0.022953706551046144 0 0 0
1200 1 0.0016 1600 0.003811702562364914 -0.0027713584855374985 0.024875468948994412 0 0 0
1201 1 0.0016 1600 -0.0004853099494582618 0.0014114097775985266 0.02366681528042495 0 0 0
1202 1 0.0016 1600 -0.005077487704593684 -0.0004634899539636718 0.019973350010052765 0 0 0
1203 1 0.0016 1600 0.006847138885248038 -0.0022279676548756307 0.02077434888313517 0 0 0
1204 1 0.0016 1600 0.001642840098264989 -0.007010561096344619 0.02047192421876325 0 0 0
1205 1 0.0016 1600 0.004179192048581568 -0.0025541672368478334 0.020861409840958117 0 0 0
1206 1 0.0016 1600 0.005479250428655816 -0.0004636765951964221 0.022031444323782214 0 0 0
1207 1 0.0016 1600 -0.003635083390615004 0.006215027063740886 0.021318853003062393 0 0 0
1208 1 0.0016 1600 -0.0041498433369609854 -0.00400418482176682 0.020168607745818343 0 0 0
1209 1 0.0016 1600 -0.00522062774645163 0.002129939117276259 0.02394539681529406 0 0 0
1210 1 0.0016 1600 -0.0013382426819467958 -0.0062254849103164905 0.020567156043360284 0 0 0
1211 1 0.0016 1600 0.0032550295418927694 0.0003525243832962287 0.019867292932775824 0 0 0
1212 1 0.0016 1600 0.0038890466729194686 0.004273096012805001 0.021520599308801236 0 0 0
1213 1 0.0016 1600 0.007106428546557256 0.0011590780493918587 0.020293048620298716 0 0 0
1214 1 0.0016 1600 -0.006949932157181098 0.0018817697753345417 0.023602110502827872 0 0 0
1215 1 0.0016 1600 -0.0038090113117640314 -0.0016795913470175193 0.02191153065409805 0 0 0
1216 1 0.0016 1600 -0.004275777653953109 -0.005792958967185939 0.022161447204835226 0 0 0
1217 1 0.0016 1600 -0.002352969007984355 0.0068049869070388146 0.02406161405394272 0 0 0
1218 1 0.0016 1600 0.00019113192619637143 -0.0019300612116852443 0.022448279380542367 0 0 0
1219 1 0.0016 1600 0.0036979902225751263 -0.004470772390906591 0.02107377071083503 0 0 0
1220 1 0.0016 1600 -0.003900849552304617 -0.006051912263010107 0.02370538461384717 0 0 0
1221 1 0.0016 1600 -0.001395790202429551 -0.007063713723836103 0.025482409579401354 0 0 0
1222 1 0.0016 1600 -0.0013653800659974738 0.007069388471560868 0.019652962507937497 0 0 0
1223 1 0.0016 1600 0.0006306420681505839 -0.0033091402064202966 0.021761188121591946 0 0 0
1224 1 0.0016 1600 -0.0016101920792615987 0.002233477575221926 0.02288087358104665 0 0 0
1225 1 0.0016 1600 -0.0016820861230466462 0.0070014862282093936 0.021237852312159366 0 0 0
1226 1 0.0016 1600 0.0025173703912118512 0.004471565179747381 0.02265297998460144 0 0 0
1227 1 0.0016 1600 0.0004264059338292671 6.704429180606639e-05 0.021494334670614245 0 0 0
1228 1 0.0016 1600 -0.003139407280617029 0.0008212696885437758 0.022650091997854997 0 0 0
1229 1 0.0016 1600 0.0006944274590032449 0.006550630426474784 0.023897197189418854 0 0 0
1230 1 0.0016 1600 -0.0005295526886814979 -0.0008398928940795682 0.019317130714466852 0 0 0
1231 1 0.0016 1600 0.004181765116876558 -0.0010848982267622693 0.022730576922526075 0 0 0
1232 1 0.0016 1600 0.00024182384754064637 0.0005593522826480896 0.019396604743005006 0 0 0
1233 1 0.0016 1600 0.0021187956531142885 0.0032921046873293034 0.021648199832476688 0 0 0
1234 1 0.0016 1600 0.0026127178835259634 -0.0007719952568026533 0.022835374724773337 0 0 0
1235 1 0.0016 1600 0.004940961659454181 -0.002787639511686327 0.02602217869761512 0 0 0
1236 1 0.0016 1600 0.0035126800287484826 -0.006285336021666273 0.023571481832740753 0 0 0
1237 1 0.0016 1600 -0.00041659035708472685 -0.004907550377890698 0.02058490092875162 0 0 0
1238 1 0.0016 1600 -0.004237026384158923 -0.002475373627969982 0.02525911129809564 0 0 0
1239 1 0.0016 1600 -0.0034597930722003695 0.003882232727499869 0.02197227388354462 0 0 0
1240 1 0.0016 1600 -0.004109642211187429 0.005912343924539181 0.024433282169131175 0 0 0
1241 1 0.0016 1600 -0.0012890755929415832 -0.005500001297473341 0.023178815709532678 0 0 0
1242 1 0.0016 1600 0.00401507714026517 -0.005976735905286073 0.021751365709991515 0 0 0
1243 1 0.0016 1600 -0.0017652175542295708 -0.006980807942054912 0.0235507111641281 0 0 0
1244 1 0.0016 1600 -0.0019955586882810794 0.004637709271208281 0.024938568289216555 0 0 0
1245 1 0.0016 1600 -0.0056777665660564716 -0.0012627083319568483 0.02122145915098778 0 0 0
1246 1 0.0016 1600 0.0008951433402255804 -0.0015472770328628115 0.019488867992752314 0 0 0
1247 1 0.0016 1600 -0.005750963609518367 0.0007653562530680247 0.01896140002617619 0 0 0
1248 1 0.0016 1600 0.0026424114183247784 -0.0035586522484039704 0.02185679777327158 0 0 0
1249 1 0.0016 1600 0.003250154945843852 -0.004922357479767995 0.024567653497678688 0 0 0
1250 1 0.0016 1600 0.0028340639691820397 0.003794765480966026 0.020308361259826244 0 0 0
1251 1 0.0016 1600 -0.007194668286816959 0.0002846040870749414 0.023758063920167716 0 0 0
1252 1 0.0016 1600 -0.007191349657628063 -0.0003533515971901035 0.025266988672793405 0 0 0
1253 1 0.0016 1600 0.006930371542988359 0.001951931420994818 0.018537614036959815 0 0 0
1254 1 0.0016 1600 0.0063240041148917335 0.0008398272446139558 0.021650953657028953 0 0 0
1255 1 0.0016 1600 -0.00017631140599095918 0.006518167006621108 0.02147630861725609 0 0 0
1256 1 0.0016 1600 0.002394047817016828 0.006790639291186589 0.023017396845371463 0 0 0
1257 1 0.0016 1600 0.0053953278199695 -0.0022566939170207685 0.02458304872624809 0 0 0
1258 1 0.0016 1600 0.0059467945491478175 1.2901002092247302e-05 0.02033068364962212 0 0 0
1259 1 0.0016 1600 -0.004906326838887519 -0.0052703890955809055 0.020787063431153007 0 0 0
1260 1 0.0016 1600 0.00041096468358657086 0.004325276748659475 0.02182324709127352 0 0 0
1261 1 0.0016 1600 0.0002471870821944862 0.002335511408550017 0.02258351325127122 0 0 0
1262 1 0.0016 1600 -0.004901435053960964 0.0009574103703116135 0.020686357392308893 0 0 0
1263 1 0.0016 1600 -0.004430119477759914 0.005675939577982299 0.019783469201420822 0 0 0
1264 1 0.0016 1600 0.0030502570385415413 0.005349666910070843 0.02522939870397751 0 0 0
1265 1 0.0016 1600 0.0025702852822209 -0.0014369924341533782 0.025265980767889926 0 0 0
1266 1 0.0016 1600 -0.0027553529505907927 -0.0050382904167697515 0.025393507222035046 0 0 0
1267 1 0.0016 1600 0.0067628060959304135 -0.0024708478303957044 0.025385489644711583 0 0 0
1268 1 0.0016 1600 0.001543660436276211 -0.0006742439869302348 0.026227527752241592 0 0 0
1269 1 0.0016 1600 -0.0011845975613125885 0.002343568915613015 0.02476296788648861 0 0 0
1270 1 0.0016 1600 0.0008034705562781734 0.005391719504259195 0.029665205280477662 0 0 0
1271 1 0.0016 1600 0.0011764495580500831 -0.006142694202504126 0.027047034108662316 0 0 0
1272 1 0.0016 1600 0.0034671523678062102 0.00481430947393357 0.027952815601962947 0 0 0
1273 1 0.0016 1600 0.0036698715587761646 0.006194929533664536 0.023776285902645185 0 0 0
1274 1 0.0016 1600 0.004604123850863854 0.005535807310169435 0.024895278102411395 0 0 0
1275 1 0.0016 1600 -0.0070945735448501215 0.0012293738373415882 0.02505563065223801 0 0 0
1276 1 0.0016 1600 0.004204027372661488 0.0034982197517079037 0.02495646498124292 0 0 0
1277 1 0.0016 1600 0.000550475645769008 0.0005176642768526145 0.025837379482793278 0 0 0
1278 1 0.0016 1600 -0.0045785869558977385 0.003552625400000188 0.024296680900732334 0 0 0
1279 1 0.0016 1600 -0.005006874741945199 -0.000255916723099518 0.028736705756718255 0 0 0
1280 1 0.0016 1600 0.0006588034755201078 0.005510681939044124 0.02511203463829194 0 0 0
1281 1 0.0016 1600 0.006856612493796717 0.0021971112075996287 0.02780795604817307 0 0 0
1282 1 0.0016 1600 -0.0013461838574202367 0.003498214277376107 0.028569012941879548 0 0 0
1283 1 0.0016 1600 0.0031199026453838877 0.0025364686691101866 0.02563333861337145 0 0 0
1284 1 0.0016 1600 0.0002519559576326074 -0.007195799849636272 0.02781852403863463 0 0 0
1285 1 0.0016 1600 0.0020853090022070085 -0.004472497060176836 0.027432648953870372 0 0 0
1286 1 0.0016 1600 0.004348089105253644 -0.003641803777673355 0.02364489608818298 0 0 0
1287 1 0.0016 1600 0.0028789749772406355 0.0037850815454697445 0.02662902478011585 0 0 0
1288 1 0.0016 1600 -0.00573857520275068 0.0008861312311627955 0.02308330399903223 0 0 0
1289 1 0.0016 1600 -0.002606195786895228 0.0037146115545608326 0.0260936437389444 0 0 0
1290 1 0.0016 1600 -0.001986628342770445 -0.0005236843228018909 0.029952636058908393 0 0 0
1291 1 0.0016 1600 -0.004498562302492818 -0.0005827239028234347 0.026558907720688814 0 0 0
1292 1 0.0016 1600 -0.0010547924105593317 0.0019770688010813447 0.028168762041352054 0 0 0
1293 1 0.0016 1600 -0.00035122009556111286 -0.007191437590181228 0.024277758153321612 0 0 0
1294 1 0.0016 1600 0.006640206925752391 0.002784665241949347 0.026335867466567398 0 0 0
1295 1 0.0016 1600 0.0004333211063379095 0.002038946058074205 0.02656186409783382 0 0 0
1296 1 0.0016 1600 0.0007049507281431432 -0.0036528271659501056 0.02931550529313516 0 0 0
1297 1 0.0016 1600 0.0023921751524444887 -0.0067905860717250065 0.024595507979037565 0 0 0
1298 1 0.0016 1600 -0.0007949642722658155 0.007156526836174848 0.02415632668577864 0 0 0
1299 1 0.0016 1600 0.0009470672801853582 0.007137997415199834 0.022431041137951333 0 0 0
1300 1 0.0016 1600 0.001976695414438682 -0.0003580551208807365 0.02424387197614407 0 0 0
1301 1 0.0016 1600 -0.0033130401674991454 -0.0006538666335757387 0.025445688355245806 0 0 0
1302 1 0.0016 1600 0.004657618263017179 -1.5909359390984647e-05 0.026237171181149748 0 0 0
1303 1 0.0016 1600 -0.004227338851951792 0.0022307873316339336 0.025195244821913616 0 0 0
1304 1 0.0016 1600 0.00044297563596768945 0.002342886705056542 0.028594816348012912 0 0 0
1305 1 0.0016 1600 0.002710158734096474 -0.0037363867483738524 0.025525183366385675 0 0 0
1306 1 0.0016 1600 0.006540294626966797 -0.0009901078009396948 0.024800239581439832 0 0 0
1307 1 0.0016 1600 0.0017372673713952824 0.00457696533931848 0.02583598917655781 0 0 0
1308 1 0.0016 1600 -0.0069588427236525 0.0018487692333428755 0.02652449272377287 0 0 0
1309 1 0.0016 1600 -0.003662433575371269 0.004590046255814724 0.029587965531215215 0 0 0
1310 1 0.0016 1600 -0.0014080345400205834 -0.005632337139344906 0.024768421087044225 0 0 0
1311 1 0.0016 1600 0.004673019865112231 -0.005477619379776506 0.028052714768526103 0 0 0
1312 1 0.0016 1600 0.0005170747790291686 -0.0004340256922176864 0.027909643861247613 0 0 0
1313 1 0.0016 1600 0.00646400687755264 -0.0031713794362562067 0.026792257586848 0 0 0
1314 1 0.0016 1600 -0.0055515397653321235 -0.0006542252098706095 0.022694954566077768 0 0 0
1315 1 0.0016 1600 0.0053944731645183455 -0.001721997410883547 0.027619915805351822 0 0 0
1316 1 0.0016 1600 -0.0024958172424618527 -0.0014585931578639973 0.02789716518186608 0 0 0
1317 1 0.0016 1600 0.0004445511022156286 -0.002799041332996509 0.025789407883239274 0 0 0
1318 1 0.0016 1600 0.005021726167022701 -0.0004279160210855705 0.024735058552918368 0 0 0
1319 1 0.0016 1600 0.003810758443874854 0.0012973658887650056 0.024795622052918926 0 0 0
1320 1 0.0016 1600 -0.0013582690483608514 -0.004893972129627368 0.028084616684659947 0 0 0
1321 1 0.0016 1600 -0.00533067916553427 0.004839848228030562 0.02501002504675662 0 0 0
1322 1 0.0016 1600 0.001710631879635216 -0.0027086313813845654 0.024815688850353075 0 0 0
1323 1 0.0016 1600 -0.005148595120779382 0.005033184961088565 0.028667446750804956 0 0 0
1324 1 0.0016 1600 0.003687107607275184 0.0012462979058342524 0.026389815006976937 0 0 0
1325 1 0.0016 1600 0.003799926982484312 0.004603753244442719 0.02387350090987928 0 0 0
1326 1 0.0016 1600 -0.0030543068829505136 0.0065202026366614095 0.02547085710588539 0 0 0
1327 1 0.0016 1600 -0.0021763876168313387 0.00039576315926698733 0.02585295444518092 0 0 0
1328 1 0.0016 1600 -0.0030634976947678904 0.0031856322822677416 0.02465475317308614 0 0 0
1329 1 0.0016 1600 -0.006108995980072713 0.0010814531222379338 0.02764245679871243 0 0 0
1330 1 0.0016 1600 -0.0008059688770540332 -0.003062723160921821 0.023113725770507618 0 0 0
1331 1 0.0016 1600 0.004032201940875482 -0.002611283125176599 0.02892868248995526 0 0 0
1332 1 0.0016 1600 -0.00593466112160266 -0.004077232551153355 0.029627683638932683 0 0 0
1333 1 0.0016 1600 -0.006939094415808242 -0.0019230110513729665 0.02508923213331854 0 0 0
1334 1 0.0016 1600 -0.004043055909462728 -0.003896013592173909 0.025969794792544673 0 0 0
1335 1 0.0016 1600 -0.0011554166779628203 -0.007106913856301796 0.027063235123240003 0 0 0
1336 1 0.0016 1600 -0.0017204113711408314 -0.003340913146156067 0.027957357175555992 0 0 0
1337 1 0.0016 1600 0.00031148390748414424 0.007193290082541531 0.025311449372961876 0 0 0
1338 1 0.0016 1600 -0.0033129235730582473 0.0013732744239854273 0.026764312041347008 0 0 0
1339 1 0.0016 1600 -0.004749168310991332 -0.005409823150816693 0.027035618214643464 0 0 0
1340 1 0.0016 1600 0.007182038939557539 0.000508324760105456 0.024555054610988135 0 0 0
1341 1 0.0016 1600 -0.001094217573673939 -0.0023619495146552823 0.02580265715375142 0 0 0
1342 1 0.0016 1600 -0.0034953382237718172 0.001999907588873062 0.023671545845122585 0 0 0
1343 1 0.0016 1600 0.006717485877700466 -0.002591814683709296 0.02826160314702891 0 0 0
1344 1 0.0016 1600 0.0030901666102782447 0.0025057646515787664 0.02403440454343356 0 0 0
1345 1 0.0016 1600 0.004709164180565528 0.0033566076853816305 0.028233251590778424 0 0 0
1346 1 0.0016 1600 0.002098316909324229 0.006887479743066262 0.024586766069398018 0 0 0
1347 1 0.0016 1600 0.005829990845670059 0.0018898119887563584 0.02292239595536788 0 0 0
1348 1 0.0016 1600 0.002662133736803627 0.003879288060108285 0.02473318525853446 0 0 0
1349 1 0.0016 1600 -0.002559104274378883 0.005203352159200786 0.021938644813598886 0 0 0
1350 1 0.0016 1600 -0.0019014206471420234 0.0008968575665943535 0.02734733283165849 0 0 0
1351 1 0.0016 1600 -0.0030310944566614853 -0.00020016838814897436 0.027067012593409087 0 0 0
1352 1 0.0016 1600 0.0051513633951787595 0.002531860435356022 0.025809028742789574 0 0 0
1353 1 0.0016 1600 0.0019137291704504765 -0.0031911858785227546 0.028374993915124994 0 0 0
1354 1 0.0016 1600 0.000320819158843289 0.0018470746621687747 0.024977730621537127 0 0 0
1355 1 0.0016 1600 -0.001260805743174179 -0.0016275675638056878 0.028899582624376592 0 0 0
1356 1 0.0016 1600 -0.001509856686125327 0.006131407370016888 0.025242007305568432 0 0 0
1357 1 0.0016 1600 -2.0128988709114855e-05 0.003096135967693046 0.023965118390182904 0 0 0
1358 1 0.0016 1600 0.004154098227106406 0.004601673242804229 0.02611346716029084 0 0 0
1359 1 0.0016 1600 0.003438265880740631 -0.0006083126591086679 0.028229124607582538 0 0 0
1360 1 0.0016 1600 -0.0008900842723502655 0.005975440231779677 0.027755181663471667 0 0 0
1361 1 0.0016 1600 -0.0005812206622968113 -0.0035187725181811663 0.026784127507802857 0 0 0
1362 1 0.0016 1600 -0.004068192507879471 0.005940619951406099 0.02283423258024579 0 0 0
1363 1 0.0016 1600 -0.0034787930080504544 0.001805533700981471 0.028295621583903727 0 0 0
1364 1 0.0016 1600 -0.0008264712656292289 0.0006547671289079101 0.02503443090716605 0 0 0
1365 1 0.0016 1600 0.005661482840545269 -0.0013598662427810047 0.026084748919066352 0 0 0
1366 1 0.0016 1600 0.004254453421018402 -0.00415285205816406 0.025548230688517127 0 0 0
1367 1 0.0016 1600 -0.005868664902510939 0.002195298269565618 0.02540620370401916 0 0 0
1368 1 0.0016 1600 -0.0005092232369244454 -0.004648783893497413 0.025653695985890197 0 0 0
1369 1 0.0016 1600 -0.000515532199097781 0.0015754282445385993 0.02962036677923192 0 0 0
1370 1 0.0016 1600 0.0052417969032702415 0.004936041857979237 0.027422003927417 0 0 0
1371 1 0.0016 1600 0.003892158788417343 0.0015247384520115032 0.02908249041986342 0 0 0
1372 1 0.0016 1600 -0.003314998627589441 0.0063918315161262665 0.027044002163148773 0 0 0
1373 1 0.0016 1600 -0.0056776065076202566 -0.004428552561239285 0.022791516926942736 0 0 0
1374 1 0.0016 1600 0.007176183021018261 -0.0005870157587812306 0.023388836824473676 0 0 0
1375 1 0.0016 1600 -0.006132991857027516 0.0037724366669466395 0.02864358507920537 0 0 0
1376 1 0.0016 1600 -0.00024177960428132131 -0.004479738923118605 0.023826724016198644 0 0 0
1377 1 0.0016 1600 0.0009233595348785648 -0.004719741955460225 0.026361661375236264 0 0 0
1378 1 0.0016 1600 -0.0026093500873287444 -0.003445482442463846 0.025421105706394675 0 0 0
1379 1 0.0016 1600 -0.002513744380101778 -0.0007248806576002402 0.023944593624136472 0 0 0
1380 1 0.0016 1600 -0.006217007150630175 -0.0005127028520858171 0.02772239604079737 0 0 0
1381 1 0.0016 1600 -0.00241503302994083 -0.0019083972546123675 0.025022052598842295 0 0 0
1382 1 0.0016 1600 0.0008647456206335803 -0.0040635002074656925 0.02490415197094872 0 0 0
1383 1 0.0016 1600 0.00018854671386478808 -0.005754542991581042 0.024731698282500297 0 0 0
1384 1 0.0016 1600 -0.00028191875263313575 0.0007939392568873479 0.027267387793642888 0 0 0
1385 1 0.0016 1600 -0.003450773114299103 0.004581969003146097 0.02341103702770262 0 0 0
1386 1 0.0016 1600 0.0005241400580106732 0.0035666535065647003 0.02609467391059994 0 0 0
1387 1 0.0016 1600 -0.002295895891711205 0.004290278047249792 0.027554317541158602 0 0 0
1388 1 0.0016 1600 -0.0023059632087929376 -0.006161783457058615 0.026440173818451772 0 0 0
1389 1 0.0016 1600 0.005634083840590151 -9.395532913960132e-05 0.027501746917112657 0 0 0
1390 1 0.0016 1600 -0.006427562204711922 -0.002499817107342935 0.029731011639168237 0 0 0
1391 1 0.0016 1600 -0.005212674119150143 -0.003552925094371985 0.02700606764116243 0 0 0
1392 1 0.0016 1600 0.007134823990162879 0.0009698477965889373 0.023023864623008088 0 0 0
1393 1 0.0016 1600 0.0027579295372727485 -0.003537887937687096 0.023935461115402054 0 0 0
1394 1 0.0016 1600 0.003632911096024328 -0.00621657962766227 0.025426446510198642 0 0 0
1395 1 0.0016 1600 0.007196327167231393 0.0002361036739645738 0.02760134116968471 0 0 0
1396 1 0.0016 1600 -0.001490535526662477 0.00015266018161489803 0.02308291648870764 0 0 0
1397 1 0.0016 1600 0.004126306034884878 -0.0013999564778866985 0.025636301285477874 0 0 0
1398 1 0.0016 1600 0.006240447719794242 -0.0035912704254627203 0.024328375870642276 0 0 0
1399 1 0.0016 1600 0.00017647564089811468 -0.00258065437825219 0.02825177453713659 0 0 0
1400 1 0.0016 1600 0.0004452127142583222 -0.0010226903993012675 0.025118010737857244 0 0 0
1401 1 0.0016 1600 -0.00476904669107848 0.0037389444411756534 0.02780180525991714 0 0 0
1402 1 0.0016 1600 -0.006352093380931598 -0.003390150901375842 0.0253381110074327 0 0 0
1403 1 0.0016 1600 -0.00421876348386536 0.0006927254316855669 0.025635083502980924 0 0 0
1404 1 0.0016 1600 -0.003821616131066731 -0.006102463480852891 0.025931496307416528 0 0 0
1405 1 0.0016 1600 -0.004038173365017745 -0.0024600869491863417 0.026846053818108975 0 0 0
1406 1 0.0016 1600 -0.00545872752768072 -0.001758053040055328 0.027064448908945615 0 0 0
1407 1 0.0016 1600 0.0006549075912921322 0.00593950743603395 0.02816938374776545 0 0 0
1408 1 0.0016 1600 0.007090996430090699 0.0012501029660505984 0.026368507433661637 0 0 0
1409 1 0.0016 1600 0.0009142974485763234 -0.007141716759638087 0.025255465327943222 0 0 0
1410 1 0.0016 1600 0.002420667811947069 -0.0067811572767431045 0.027823681106347038 0 0 0
1411 1 0.0016 1600 -0.0021836956253355254 0.006861105328533636 0.028073203011526642 0 0 0
1412 1 0.0016 1600 -0.00430083532942966 -0.005017343717428216 0.02485814006434285 0 0 0
1413 1 0.0016 1600 -0.005745210933865935 0.004339770342969376 0.02208440741460519 0 0 0
1414 1 0.0016 1600 0.005673964074236182 -0.0011474827122596575 0.023464360371762583 0 0 0
1415 1 0.0016 1600 0.001598266900435155 0.002782148801887648 0.025205995262141255 0 0 0
1416 1 0.0016 1600 0.00221202653729057 0.0012681463072592675 0.024740289209389057 0 0 0
1417 1 0.0016 1600 0.002020256180311758 0.0009381841190333579 0.026308764906473797 0 0 0
1418 1 0.0016 1600 0.005877810198385463 0.0006955302904187952 0.025485804645410337 0 0 0
1419 1 0.0016 1600 0.005643565644150922 0.004471338551992807 0.02889914675680347 0 0 0
1420 1 0.0016 1600 -0.005383206949956351 0.004781462706051767 0.026755031483333757 0 0 0
1421 1 0.0016 1600 -0.004614038163206798 0.0036165509786687568 0.025895061096059938 0 0 0
1422 1 0.0016 1600 0.0012761649751869748 0.006384510731178577 0.026301172472272913 0 0 0
1423 1 0.0016 1600 0.0005270416828777163 0.00031865345255686895 0.024250008155791876 0 0 0
1424 1 0.0016 1600 -0.00029063143759340754 0.006063248439297162 0.026274845687677552 0 0 0
1425 1 0.0016 1600 -0.0052264197902125945 0.0013134722066160081 0.028956366822438632 0 0 0
1426 1 0.0016 1600 0.003115542900157263 0.0032633727752385934 0.028126317623295035 0 0 0
1427 1 0.0016 1600 -0.0035142958175293907 0.0004945141758878296 0.024212702981769686 0 0 0
1428 1 0.0016 1600 -0.006623399613273855 -0.0028243413496531495 0.026809436015705713 0 0 0
1429 1 0.0016 1600 0.00542879209361156 -0.0023956384815458595 0.029678183512194083 0 0 0
1430 1 0.0016 1600 -0.0004241533622810617 -0.0006199349091161905 0.02639895317479901 0 0 0
1431 1 0.0016 1600 -0.004871081795414882 0.0019676274016918517 0.026635712736174856 0 0 0
1432 1 0.0016 1600 -0.0010328635590490063 -0.002023393625554522 0.02736494449101827 0 0 0
1433 1 0.0016 1600 7.829050331292865e-05 -0.005597718547688375 0.028074654520501615 0 0 0
1434 1 0.0016 1600 -0.006169110776809076 0.0037132681528462687 0.024243350178976542 0 0 0
1435 1 0.0016 1600 -0.0038080527544051453 -0.006110896287542014 0.028634894084490863 0 0 0
1436 1 0.0016 1600 -0.0023536241349021813 0.005326534701090873 0.02633715325754045 0 0 0
1437 1 0.0016 1600 -0.006051286876895515 0.002961173453878765 0.02283642385781529 0 0 0
1438 1 0.0016 1600 0.005301128271096592 0.0017445517644019493 0.024424764982655497 0 0 0
1439 1 0.0016 1600 0.002957625432964281 -0.00209227531038981 0.027863562652186338 0 0 0
1440 1 0.0016 1600 0.0025808378287247844 -0.005221281999564206 0.026106425614560284 0 0 0
1441 1 0.0016 1600 -0.007080637861532253 -0.0013078866769231287 0.02658465923891247 0 0 0
1442 1 0.0016 1600 -0.0010658398275485042 0.0032844202067148155 0.02605174532810949 0 0 0
1443 1 0.0016 1600 -0.003575974265005348 0.004605041730074955 0.025184741428409815 0 0 0
1444 1 0.0016 1600 0.0004648856703486218 -0.005748234031438243 0.023155970624405924 0 0 0
1445 1 0.0016 1600 -0.0035682433338251906 -0.0019276301208105363 0.023913364227674736 0 0 0
1446 1 0.0016 1600 -0.004085944943233908 -0.0012882876391723118 0.027933739915495748 0 0 0
1447 1 0.0016 1600 -0.005296448979841181 -0.003918073555690865 0.024258621377013036 0 0 0
1448 1 0.0016 1600 -0.0009523423433811836 0.004700085566516967 0.02678828313239469 0 0 0
1449 1 0.0016 1600 0.007003133705886988 -0.0016723236291881025 0.026939880032188758 0 0 0
1450 1 0.0016 1600 0.0011273830176504658 -0.007111362782050783 0.023670086435326424 0 0 0
1451 1 0.0016 1600 -0.0003298769499488435 -0.0008592312918899247 0.023516705343059958 0 0 0
1452 1 0.0016 1600 0.001341114052952626 0.0013596071361401073 0.027694564480850652 0 0 0
1453 1 0.0016 1600 0.003555388721906086 -0.0005825541996805456 0.024114092113299387 0 0 0
1454 1 0.0016 1600 -0.001091477828656898 0.0016940262155014324 0.026221713859833597 0 0 0
1455 1 0.0016 1600 0.002948908493680351 0.006568810061067185 0.0279367847009909 0 0 0
1456 1 0.0016 1600 0.004072443197743115 0.005938099539080128 0.02698854721619082 0 0 0
1457 1 0.0016 1600 -0.00021567439026598103 -0.006108800520229976 0.02623852647843638 0 0 0
1458 1 0.0016 1600 0.003675223769005629 -0.006190837148216064 0.027025469862326446 0 0 0
1459 1 0.0016 1600 0.004881890320146814 -0.005292982442969835 0.02647765922656241 0 0 0
1460 1 0.0016 1600 -0.002416864663993067 -0.0067828377856302595 0.02799178657399729 0 0 0
1461 1 0.0016 1600 0.005708606926843612 -0.004387811837016585 0.027505670247489455 0 0 0
1462 1 0.0016 1600 -0.0019446646372742707 -0.004329838593070197 0.026576956039168195 0 0 0
1463 1 0.0016 1600 0.004754571167645912 -0.005407373616586117 0.0230766119609632 0 0 0
1464 1 0.0016 1600 -0.0058037529631201745 0.0007579813614489486 0.026105848848151973 0 0 0
1465 1 0.0016 1600 0.0002773867147229695 0.007194955391839953 0.027252396474543215 0 0 0
1466 1 0.0016 1600 -0.0021216257480615756 0.0012635173953972336 0.024045731142081604 0 0 0
1467 1 0.0016 1600 0.002856235544595527 0.0066097455317043925 0.02619546086101281 0 0 0
1468 1 0.0016 1600 0.0057318375384808875 0.004357735229139449 0.026013192768051124 0 0 0
1469 1 0.0016 1600 0.0036821856478627744 0.0033902409959468676 0.022838227526044582 0 0 0
1470 1 0.0016 1600 -0.0022740905874502927 -0.004511601411850184 0.02396150379006351 0 0 0
1471 1 0.0016 1600 -0.003294098284813153 -0.0037671705095276057 0.02738980127906821 0 0 0
1472 1 0.0016 1600 -0.0037461226258045316 -0.0027134609743490385 0.0314760486804035 0 0 0
1473 1 0.0016 1600 0.0022126225993123663 0.006053034554996049 0.03175541352088587 0 0 0
1474 1 0.0016 1600 0.0023955398936089307 0.0007920022964756994 0.028921635195854514 0 0 0
1475 1 0.0016 1600 0.005155852308401625 -0.004150127863067588 0.030399559893826957 0 0 0
1476 1 0.0016 1600 0.004671627300795203 -0.005479205147051322 0.029652377973102526 0 0 0
1477 1 0.0016 1600 -0.0002549329023077902 0.0034714091910285883 0.03144370104159891 0 0 0
1478 1 0.0016 1600 -0.0035937392506546527 -0.000159841435800509 0.030528211027811152 0 0 0
1479 1 0.0016 1600 0.003356249227742536 -0.0007066162744876066 0.03167825148588087 0 0 0
1480 1 0.0016 1600 -0.0004248689356005645 0.007187676180415317 0.028689757376821095 0 0 0
1481 1 0.0016 1600 0.004629642093060118 -0.004093478308921578 0.028853676372188386 0 0 0
1482 1 0.0016 1600 0.00147972682372512 -0.0016536423158717494 0.028290552762248074 0 0 0
1483 1 0.0016 1600 0.006947192176155165 -0.0018925009766920704 0.029688507984017582 0 0 0
1484 1 0.0016 1600 0.0025071342866921833 -0.0038914812095054495 0.031157091989460182 0 0 0
1485 1 0.0016 1600 0.0012638812054117535 0.003625252689199355 0.02760648725910364 0 0 0
1486 1 0.0016 1600 -0.0066846070052513015 0.00243050286752441 0.03144072500579572 0 0 0
1487 1 0.0016 1600 -0.002438870152189242 0.00425236525329125 0.03270268187236059 0 0 0
1488 1 0.0016 1600 2.6892679779148152e-05 -0.005819061116382706 0.03126944833178631 0 0 0
1489 1 0.0016 1600 -0.003306281291726223 -0.001175143598013047 0.02932580952701847 0 0 0
1490 1 0.0016 1600 -0.0043995172969341 0.0026376326084275583 0.029305536604992573 0 0 0
1491 1 0.0016 1600 0.0007812908873738273 -0.0071575176633700294 0.03245896608609201 0 0 0
1492 1 0.0016 1600 0.003854771894212038 0.00608136399235825 0.03048643071534453 0 0 0
1493 1 0.0016 1600 -0.0020129394509705027 0.0056436736046202194 0.030409277402693686 0 0 0
1494 1 0.0016 1600 0.001961515160194547 0.002479081116948814 0.02673518311253136 0 0 0
1495 1 0.0016 1600 -0.0026490999279526013 0.0009055824503114777 0.03207466151663209 0 0 0
1496 1 0.0016 1600 -0.007057546482717775 0.0014265559530601466 0.030236854029418413 0 0 0
1497 1 0.0016 1600 -0.0007025601866247194 4.653937004633403e-05 0.02918800526659325 0 0 0
1498 1 0.0016 1600 0.005023373038994724 -0.0051581618960599655 0.03250883175070403 0 0 0
1499 1 0.0016 1600 0.0023303373372187937 0.0037337695528613024 0.029581947175544947 0 0 0
1500 1 0.0016 1600 -0.007194800062789624 0.0002807383879817506 0.02673588839669006 0 0 0
1501 1 0.0016 1600 0.0008880388583425733 0.0003735590840718682 0.030585028438079673 0 0 0
1502 1 0.0016 1600 -0.007197380939883515 0.00020035283490157203 0.0312548308694515 0 0 0
1503 1 0.0016 1600 0.007169384143901029 0.0006651314990724157 0.03265794140482273 0 0 0
1504 1 0.0016 1600 -0.0016411277124294891 0.002307300196794263 0.03068626747808429 0 0 0
1505 1 0.0016 1600 0.0061492307199036205 -0.0037459516399308804 0.029212479843701074 0 0 0
1506 1 0.0016 1600 -0.002414322986409129 0.0009203782983775422 0.030492170540546183 0 0 0
1507 1 0.0016 1600 0.00014281577087901798 0.004408445930055989 0.03267795304578007 0 0 0
1508 1 0.0016 1600 0.0034009194399496454 -0.0025966638890997863 0.026411636681490727 0 0 0
1509 1 0.0016 1600 0.005185388782361273 0.00041041621639713386 0.02905067406502607 0 0 0
1510 1 0.0016 1600 -0.0027663332891849296 -0.0019970709275427302 0.03340696260555325 0 0 0
1511 1 0.0016 1600 -0.0061011948575049515 0.00022033717571339983 0.02980178605943111 0 0 0
1512 1 0.0016 1600 -0.0038396488747652587 0.0019408588987413877 0.03118002389675344 0 0 0
1513 1 0.0016 1600 -0.0007671416751615523 -0.003042994930281118 0.029458064125506393 0 0 0
1514 1 0.0016 1600 0.003990842347838734 -0.0053620560554479245 0.033713776723593034 0 0 0
1515 1 0.0016 1600 -0.002773440626349445 -0.0033600908888900376 0.032569360331883256 0 0 0
1516 1 0.0016 1600 -0.0029044431909484103 0.006588259598754953 0.029475123081522968 0 0 0
1517 1 0.0016 1600 0.004333421650102424 -0.005750133034774001 0.03119234546960274 0 0 0
1518 1 0.0016 1600 -0.00481624441768335 -0.0010924951468466214 0.030086707746693267 0 0 0
1519 1 0.0016 1600 0.002944843016100112 -0.0015264411438640404 0.02944262969771053 0 0 0
1520 1 0.0016 1600 0.0037721451212501 0.002035332918536512 0.03295944948448502 0 0 0
1521 1 0.0016 1600 0.001680281682459317 -0.0005465166568397854 0.02942782717734903 0 0 0
1522 1 0.0016 1600 0.003566178874237473 -0.004401948565711872 0.030072015192638014 0 0 0
1523 1 0.0016 1600 0.00591231345613912 -0.004109278436579763 0.03338850990293301 0 0 0
1524 1 0.0016 1600 0.0020810965050049915 -0.0013980674944371945 0.032385481039743355 0 0 0
1525 1 0.0016 1600 -0.004030291830723445 -0.0024750683148647805 0.029912944757657874 0 0 0
1526 1 0.0016 1600 -0.0008943804835198544 0.00047449917193882876 0.03071759733910303 0 0 0
1527 1 0.0016 1600 -0.0037510000043736776 -0.00433833832989651 0.03169043906255919 0 0 0
1528 1 0.0016 1600 0.0028008550404389114 0.0057806486164600195 0.029321052052088785 0 0 0
1529 1 0.0016 1600 0.0025305768307943054 -0.006740854606411257 0.030002531306317866 0 0 0
1530 1 0.0016 1600 0.001814991927457747 0.0020859592167297627 0.03142695643109832 0 0 0
1531 1 0.0016 1600 0.0007851924181868507 -0.0022000189031222577 0.032905569200871725 0 0 0
1532 1 0.0016 1600 0.0014890782018417896 -0.003952968455832312 0.03243916596235686 0 0 0
1533 1 0.0016 1600 -0.002228651734192144 -0.0068465724799524254 0.031880812444030564 0 0 0
1534 1 0.0016 1600 0.001620622321161078 -0.005570562376477344 0.028499282208111362 0 0 0
1535 1 0.0016 1600 -0.005223227025303886 -0.002360445495653013 0.030973009500379536 0 0 0
1536 1 0.0016 1600 -0.005051926141544028 0.0010029583509799528 0.03072146493762308 0 0 0
1537 1 0.0016 1600 -0.006245858883566874 -0.003582212093765484 0.03111677193091065 0 0 0
1538 1 0.0016 1600 0.0013374346994337151 -0.00227124896311979 0.029816425814986214 0 0 0
1539 1 0.0016 1600 0.007195940320737035 -0.00024688668915115767 0.02967892337356384 0 0 0
1540 1 0.0016 1600 0.00033084985324982694 0.0016956633396505367 0.032765614677449 0 0 0
1541 1 0.0016 1600 0.003034797459169216 -0.0009718229007384777 0.02672448984664037 0 0 0
1542 1 0.0016 1600 -0.0055372717020824875 -0.004602137350624787 0.028169546526769666 0 0 0
1543 1 0.0016 1600 -0.006667784973579804 -0.0027173612061968167 0.03239487044399132 0 0 0
1544 1 0.0016 1600 0.0031237396124101087 0.0034614760450626236 0.0326351323328743 0 0 0
1545 1 0.0016 1600 -0.003474604702105315 -0.005154511478882856 0.0301964172145611 0 0 0
1546 1 0.0016 1600 0.004760359318676482 -0.001129590419869081 0.028963923871279832 0 0 0
1547 1 0.0016 1600 -0.0012284641162625459 -0.0004896745711869888 0.027775602049756733 0 0 0
1548 1 0.0016 1600 -0.0037390816036522788 0.0045370499893270235 0.02686819893931726 0 0 0
1549 1 0.0016 1600 0.0061974968860695106 0.0036648770443750162 0.02759633610494563 0 0 0
1550 1 0.0016 1600 0.0020287051339316665 -0.004498667340142663 0.02961851536853973 0 0 0
1551 1 0.0016 1600 -0.0028399343352797026 0.005740574444990539 0.0322736680651222 0 0 0
1552 1 0.0016 1600 0.004262774551929702 0.0006843200694291085 0.02777264843805201 0 0 0
1553 1 0.0016 1600 -0.004344948943707923 0.005741541374652267 0.026006868003799546 0 0 0
1554 1 0.0016 1600 -0.005770051864074509 0.004306873439071491 0.03127271314687474 0 0 0
1555 1 0.0016 1600 0.0053956109874186845 0.0013528766585399511 0.026862218102247013 0 0 0
1556 1 0.0016 1600 -0.00023342515407805248 0.004599821079678709 0.028240864673968993 0 0 0
1557 1 0.0016 1600 -0.007065969413448005 0.0013829958446576285 0.034415257440518474 0 0 0
1558 1 0.0016 1600 0.002060167703208793 -6.803693464410856e-05 0.027615009861560794 0 0 0
1559 1 0.0016 1600 -0.0036422069222328364 0.0029183533838325476 0.0270165345309347 0 0 0
1560 1 0.0016 1600 0.007099382236904885 0.0012011630198623766 0.030406499097196317 0 0 0
1561 1 0.0016 1600 -0.0009495794882088291 -0.0016269602374586439 0.030468841739149946 0 0 0
1562 1 0.0016 1600 0.00024699618723227453 -0.0012385917479373087 0.0292657132317005 0 0 0
1563 1 0.0016 1600 -0.0033313448121725688 -0.0041812145611448285 0.028934716276038563 0 0 0
1564 1 0.0016 1600 0.006496685829660214 -0.0031040339392801736 0.030635994450424666 0 0 0
1565 1 0.0016 1600 -0.0048503417771750225 -0.0053215101097285646 0.03107058369307627 0 0 0
1566 1 0.0016 1600 0.005415805942935845 -0.0020036635299098392 0.031229160246358842 0 0 0
1567 1 0.0016 1600 0.0002135762167393813 -0.0036271267504420297 0.033348452378543544 0 0 0
1568 1 0.0016 1600 0.0006951430379395338 -0.007166469681510592 0.030697390083487566 0 0 0
1569 1 0.0016 1600 0.0007572711297047589 0.003789687205224066 0.029200968124253084 0 0 0
1570 1 0.0016 1600 0.00012178791914172625 -0.005080152403517239 0.0326853509262496 0 0 0
1571 1 0.0016 1600 -0.0020783454164154417 0.0025923440570329247 0.02710424574561095 0 0 0
1572 1 0.0016 1600 -0.0029536971319994183 -0.0035638213760459518 0.030376820125805105 0 0 0
1573 1 0.0016 1600 -0.00143755603469391 -0.0030852446778006776 0.030910070435554722 0 0 0
1574 1 0.0016 1600 0.0010491574998211385 0.001894144844735372 0.030035504188794564 0 0 0
1575 1 0.0016 1600 -0.0028511604070138503 -0.005280102886751465 0.027658647478283775 0 0 0
1576 1 0.0016 1600 0.0052057406424503155 -0.0015197630655623263 0.03273950921848569 0 0 0
1577 1 0.0016 1600 0.005905994215081298 0.004118416487498494 0.03124214301114638 0 0 0
1578 1 0.0016 1600 0.004498463451909901 0.0009602352131063012 0.030451412032606685 0 0 0
1579 1 0.0016 1600 -0.004536546427951404 0.0006861109167123718 0.027532478167881312 0 0 0
1580 1 0.0016 1600 0.002233883295518374 0.005396313564686226 0.027116690205969594 0 0 0
1581 1 0.0016 1600 -0.00257665694538073 0.0025238719384818088 0.03196996101259804 0 0 0
1582 1 0.0016 1600 0.004446632428173483 -0.002824192348772359 0.032208702655785605 0 0 0
1583 1 0.0016 1600 0.0006248664097970194 0.004927152991405313 0.02693098314469904 0 0 0
1584 1 0.0016 1600 0.0016718392123402511 0.007003335696493993 0.02879677907961346 0 0 0
1585 1 0.0016 1600 -0.0018246982628927363 -0.0042430843636677585 0.02946965505680291 0 0 0
1586 1 0.0016 1600 0.0007517956949583147 0.0006917013407386519 0.029023121907217602 0 0 0
1587 1 0.0016 1600 -0.0028534045457866562 -0.006610667745109926 0.03042701561421596 0 0 0
1588 1 0.0016 1600 -0.0023582364434097834 -0.005724973475502385 0.029190234132607545 0 0 0
1589 1 0.0016 1600 0.003929206126971656 0.005159423760124072 0.033666939204384815 0 0 0
1590 1 0.0016 1600 -0.006864905050860266 0.0021715877836311283 0.02853658498044346 0 0 0
1591 1 0.0016 1600 -0.002014809823214561 0.0009281667127713658 0.02894289455336639 0 0 0
1592 1 0.0016 1600 -0.0005141358511136326 -0.0043156574693030796 0.031348879045925454 0 0 0
1593 1 0.0016 1600 -0.003799344632388155 0.0012231652053386914 0.029750824315490677 0 0 0
1594 1 0.0016 1600 -0.0012970790750188913 -0.005570583583316145 0.0321323666773482 0 0 0
1595 1 0.0016 1600 -0.007181426522211032 0.0005175786880311278 0.03307457119725272 0 0 0
1596 1 0.0016 1600 -0.0015281424750112427 0.0070360432826412685 0.026561448210236472 0 0 0
1597 1 0.0016 1600 -0.0064124309097455725 -0.003272587082344906 0.028330329286398455 0 0 0
1598 1 0.0016 1600 0.006587592462053823 -0.0010041134173470292 0.028407830046339504 0 0 0
1599 1 0.0016 1600 0.002358197771444814 -0.00680310061706699 0.02619484291532854 0 0 0
1600 1 0.0016 1600 -0.005560393243100808 -0.0045742282386243 0.03312105370534465 0 0 0
1601 1 0.0016 1600 0.001917631790014566 0.004366430326730709 0.032059646839986605 0 0 0
1602 1 0.0016 1600 0.002022207370984393 0.0023459192791284284 0.028848809115003565 0 0 0
1603 1 0.0016 1600 -0.0019442737385012925 -0.0011134037847229205 0.026329408314323472 0 0 0
1604 1 0.0016 1600 -0.002083198167460133 0.006892202777387872 0.0314070386963713 0 0 0
1605 1 0.0016 1600 -0.004161509120823933 0.00041008455200820885 0.03191111516274947 0 0 0
1606 1 0.0016 1600 0.0009813667116406516 -0.00420446202095405 0.030791617519254102 0 0 0
1607 1 0.0016 1600 0.001837396510630143 -0.0028965602051172273 0.026570543805756252 0 0 0
1608 1 0.0016 1600 -0.002130811457403569 0.004174240269788764 0.029788000134182705 0 0 0
1609 1 0.0016 1600 0.003827246766412281 0.00427290293245985 0.02941433298499494 0 0 0
1610 1 0.0016 1600 0.0037044474687605525 0.0021432122195073123 0.03136261219346493 0 0 0
1611 1 0.0016 1600 -0.002147853182311152 0.005391746495645606 0.0287051993546081 0 0 0
1612 1 0.0016 1600 0.005719569032862661 0.0018414853247577425 0.029911416982535938 0 0 0
1613 1 0.0016 1600 -0.006581162254936257 0.00292083807731493 0.02992142500462543 0 0 0
1614 1 0.0016 1600 0.0027235786169578753 -0.0030694296169318323 0.029801712935138582 0 0 0
1615 1 0.0016 1600 0.000555852557364726 -0.004058960090311188 0.027771634689756377 0 0 0
1616 1 0.0016 1600 -0.0062105470129992825 0.0036433368722797715 0.025993665876249617 0 0 0
1617 1 0.0016 1600 0.004517137655207691 0.005606982310400467 0.028863107048699443 0 0 0
1618 1 0.0016 1600 -0.0025374772115255317 -0.002020505602179809 0.03044539369002554 0 0 0
1619 1 0.0016 1600 6.915496109226367e-05 -0.006280627648563488 0.029521364348977168 0 0 0
1620 1 0.0016 1600 0.0036023085443011114 -0.0041941579700793515 0.027008303410198463 0 0 0
1621 1 0.0016 1600 0.0011642124267705546 0.003351735065232677 0.030684995260843968 0 0 0
1622 1 0.0016 1600 -0.004748615142031096 0.005412565101258915 0.030426074165496367 0 0 0
1623 1 0.0016 1600 -0.003683426888091012 0.003259524688720963 0.03286087477475255 0 0 0
1624 1 0.0016 1600 0.0030991511271993813 -0.0022871519873858604 0.031529459381660636 0 0 0
1625 1 0.0016 1600 0.004166360969355278 -0.000296911080251507 0.032995712605624915 0 0 0
1626 1 0.0016 1600 0.003196802104965253 -0.004737439273838581 0.028552018480304666 0 0 0
1627 1 0.0016 1600 0.0013481935475824613 -0.00707282591093908 0.028977235316571898 0 0 0
1628 1 0.0016 1600 -0.0014399316794486707 0.007054700173980665 0.029919114384277353 0 0 0
1629 1 0.0016 1600 0.0034913475736383925 -5.012196322301393e-05 0.029727473976322364 0 0 0
1630 1 0.0016 1600 -0.0010486322333242795 -0.007123375436147228 0.028747286840321226 0 0 0
1631 1 0.0016 1600 0.0009978921243882827 0.0030931824040019563 0.03236370145400942 0 0 0
1632 1 0.0016 1600 -0.00628846335093282 0.003506535462319044 0.03255738174987735 0 0 0
1633 1 0.0016 1600 0.0041542668431547355 -0.0029067116506844076 0.030498955905633632 0 0 0
1634 1 0.0016 1600 -0.00697769145324419 -0.0017759841062453484 0.028342683383684987 0 0 0
1635 1 0.0016 1600 0.0064924884252060035 0.003112507241054798 0.02906863490800697 0 0 0
1636 1 0.0016 1600 -0.007129912891699893 -0.0010030646895492082 0.029735173469555804 0 0 0
1637 1 0.0016 1600 -0.0057219035577285035 -0.0004170151714942539 0.031219393630996798 0 0 0
1638 1 0.0016 1600 0.004174868774984916 -0.0013079239823875907 0.030442097743639974 0 0 0
1639 1 0.0016 1600 -0.0018257394369153243 0.003770688902354671 0.03130578304718141 0 0 0
1640 1 0.0016 1600 0.0020513917626579304 -0.006901681356898735 0.03152037241706133 0 0 0
1641 1 0.0016 1600 -0.000665236202178593 -0.007169468791334169 0.03177571663568062 0 0 0
1642 1 0.0016 1600 -0.0027410859878022427 -0.0026274281938793265 0.028961834031647794 0 0 0
1643 1 0.0016 1600 -0.006960557618059716 -0.00184167401885128 0.031088230340297205 0 0 0
1644 1 0.0016 1600 0.0006780206843739748 0.004803977057264648 0.031147961126168685 0 0 0
1645 1 0.0016 1600 -0.0055594838574280344 -0.0015661817626097274 0.03232057556201491 0 0 0
1646 1 0.0016 1600 0.0057353010787488615 -1.4854398884733163e-05 0.032858894517815276 0 0 0
1647 1 0.0016 1600 -0.001326619001244217 -0.007076957309585176 0.030322007923062888 0 0 0
1648 1 0.0016 1600 -0.004176975095507845 -0.001178944332982939 0.031614761897115914 0 0 0
1649 1 0.0016 1600 -0.0034021137699148957 0.00022778437314526425 0.028563087939337074 0 0 0
1650 1 0.0016 1600 0.000586872320187041 -0.001723263841430714 0.026964853387699564 0 0 0
1651 1 0.0016 1600 -0.0007672575428948016 0.004642153895841167 0.03048146371913922 0 0 0
1652 1 0.0016 1600 -0.0028508144306188614 -0.005208931330636111 0.03268618397264641 0 0 0
1653 1 0.0016 1600 -0.0008903461804488645 0.0058090254001998565 0.033242670623816716 0 0 0
1654 1 0.0016 1600 -0.005054596497961039 0.002519749840345476 0.032272922695458235 0 0 0
1655 1 0.0016 1600 0.003395745091634108 0.004968088001023108 0.03217076206689903 0 0 0
1656 1 0.0016 1600 -0.004507856073163782 -0.003941311561853572 0.030338022248846873 0 0 0
1657 1 0.0016 1600 0.00034411546965392234 0.005931830333996408 0.03223249409547639 0 0 0
1658 1 0.0016 1600 -0.0004968864944064241 0.006172044258664171 0.03086316427736703 0 0 0
1659 1 0.0016 1600 -0.0032904903955507524 0.003203675353747958 0.030310295370091972 0 0 0
1660 1 0.0016 1600 0.005033902014824104 -0.0004586292453451315 0.031491108435751085 0 0 0
1661 1 0.0016 1600 0.0030077295124421866 0.001708588662391842 0.02776206506800441 0 0 0
1662 1 0.0016 1600 -0.006052009274247395 0.0010591959136390474 0.03196903674554387 0 0 0
1663 1 0.0016 1600 0.005091669470283399 0.005090716386697636 0.030266988352705755 0 0 0
1664 1 0.0016 1600 0.003536577509385065 -0.006271862484654586 0.028850636652493617 0 0 0
1665 1 0.0016 1600 0.0033504375356317216 -0.006373007180142356 0.03229022759671936 0 0 0
1666 1 0.0016 1600 0.007193484249017814 -0.00030682967144256187 0.03413246590782432 0 0 0
1667 1 0.0016 1600 -0.002364338528993748 0.002461194464797602 0.029237776144725947 0 0 0
1668 1 0.0016 1600 -0.0037093930264659966 0.0056883832999556705 0.028425570358151908 0 0 0
1669 1 0.0016 1600 0.0013298787713632374 -0.0057407859473284275 0.03034485207767872 0 0 0
1670 1 0.0016 1600 0.00449374997337616 0.0028548065057444946 0.029737105780900306 0 0 0
1671 1 0.0016 1600 0.0005379802319366387 -0.0011670990438777493 0.030837164230224274 0 0 0
1672 1 0.0016 1600 0.006253643625948221 0.003568238902326898 0.03270363697049451 0 0 0
1673 1 0.0016 1600 -0.00449343199225097 0.005617147385332683 0.03199216907999366 0 0 0
1674 1 0.0016 1600 -0.0004728787247474628 -0.0018576685266716868 0.03197844406747734 0 0 0
1675 1 0.0016 1600 -0.0011735013883963834 0.0014955962517516628 0.032259032473502335 0 0 0
1676 1 0.0016 1600 0.002728469115250848 0.0017533548365451334 0.03015635060134823 0 0 0
1677 1 0.0016 1600 -0.0021631389172756606 -0.004382753184688702 0.03150114615725778 0 0 0
1678 1 0.0016 1600 0.005802311379400105 -0.0008750761837106346 0.03015101730810831 0 0 0
1679 1 0.0016 1600 0.0005497819984334755 0.006949301170951579 0.029935831618829168 0 0 0
1680 1 0.0016 1600 -0.0033271595839292475 0.0034883282602744163 0.02847761666387934 0 0 0
1681 1 0.0016 1600 -0.0007194320388711744 0.005751380744960007 0.029329866924742168 0 0 0
1682 1 0.0016 1600 -0.005356031512992452 -7.353068808809432e-05 0.03285916588636801 0 0 0
1683 1 0.0016 1600 0.0069904514841572 -0.0017248331255321156 0.031278895167744555 0 0 0
1684 1 0.0016 1600 0.0024599889265049775 0.000353060961177967 0.03088224325215601 0 0 0
1685 1 0.0016 1600 -0.00026451890700305235 0.0031849792904312673 0.02743299516028283 0 0 0
1686 1 0.0016 1600 0.0063054424369641615 -0.002632485578589033 0.03240433517625861 0 0 0
1687 1 0.0016 1600 -0.00034584445642000573 -0.0047598555428389 0.029794425871113268 0 0 0
1688 1 0.0016 1600 0.006042753330038552 0.0010839102780133977 0.031601994563042336 0 0 0
1689 1 0.0016 1600 0.005196066879211147 0.0026868320996876055 0.031164662325912734 0 0 0
1690 1 0.0016 1600 0.0029442308800659324 0.0008169063468196462 0.032334908338986404 0 0 0
1691 1 0.0016 1600 0.0027114021881756148 0.003368170368096093 0.031092114224087624 0 0 0
1692 1 0.0016 1600 -0.003506788089439666 0.006288385442976169 0.0309265290022676 0 0 0
1693 1 0.0016 1600 0.00217547635010286 0.004988274233701085 0.030562231473818185 0 0 0
1694 1 0.0016 1600 0.004688530729972089 -0.0031563264784682716 0.02755839761852286 0 0 0
1695 1 0.0016 1600 0.00013635041040139387 -0.0027678474134638018 0.030749374135324675 0 0 0
1696 1 0.0016 1600 -0.004205293657655483 -0.002897182446482317 0.02837601809353619 0 0 0
1697 1 0.0016 1600 -0.004893635981786259 -0.005281418838407229 0.029467323492153343 0 0 0
1698 1 0.0016 1600 -0.005108487562389672 0.003961111491905777 0.029857696657490156 0 0 0
1699 1 0.0016 1600 -0.005411828689413143 -0.001885145447941966 0.028658568407706378 0 0 0
1700 1 0.0016 1600 0.0021355553507172906 -0.0012431643781447583 0.030794035222257418 0 0 0
1701 1 0.0016 1600 0.004204296527417329 0.0039197847395982645 0.030928360395035555 0 0 0
1702 1 0.0016 1600 -0.004413790919539654 -0.005688431720057089 0.03306100967107375 0 0 0
1703 1 0.0016 1600 -0.001224049186197428 0.0030483876917625193 0.03264425453357441 0 0 0
1704 1 0.0016 1600 -0.0009262784101382012 -0.00032094920688116883 0.03210528793625931 0 0 0
1705 1 0.0016 1600 -0.004311926229567803 0.0036726074394652234 0.03144876903038697 0 0 0
1706 1 0.0016 1600 0.002167993384742014 0.006865933555309531 0.030311590618845658 0 0 0
1707 1 0.0016 1600 0.006651423066793252 0.0010279885652042186 0.028880444398413738 0 0 0
1708 1 0.0016 1600 -0.004487497807816837 0.004594575339148285 0.03322256350273522 0 0 0
1709 1 0.0016 1600 -0.0005312622132031356 0.0031503774284483157 0.029901019573695557 0 0 0
1710 1 0.0016 1600 0.0071927845118990525 -0.00032379777077056826 0.026100176809205844 0 0 0
1711 1 0.0016 1600 -0.0024405183692172813 -0.002574156757392328 0.026751941141533803 0 0 0
1712 1 0.0016 1600 -0.006008667879033692 0.0028305888219085865 0.02735669783219307 0 0 0
1713 1 0.0016 1600 0.004940111245543641 0.005238137872423693 0.03185281001520237 0 0 0
1714 1 0.0016 1600 0.007198705814501901 -0.00013867643848838258 0.03127506050372479 0 0 0
1715 1 0.0016 1600 0.0010639702101872632 0.007121208733048604 0.03144100222097972 0 0 0
1716 1 0.0016 1600 0.0040088273407151405 -0.004237684750006819 0.031600587689199676 0 0 0
1717 1 0.0016 1600 0.0006409203012652907 -0.0007014655472738791 0.03236424153670565 0 0 0
1718 1 0.0016 1600 -0.00426527205084945 -0.00228475734623259 0.03292739444505245 0 0 0
1719 1 0.0016 1600 0.005286691353764884 0.001871140812252266 0.028371707487648418 0 0 0
1720 1 0.0016 1600 -0.003111328591848365 0.00469746837859712 0.031086123878922397 0 0 0
1721 1 0.0016 1600 0.0017873708901099774 0.004820020956136503 0.028540495990503054 0 0 0
1722 1 0.0016 1600 0.002042693045204971 -8.658798685939461e-05 0.033301009358080835 0 0 0
1723 1 0.0016 1600 -0.0006692002541105716 0.007168920667225007 0.03210253334071832 0 0 0
1724 1 0.0016 1600 -0.0015417595857969491 -0.0055080507648059655 0.030548880331793055 0 0 0
1725 1 0.0016 1600 -0.007189002247913119 0.0004001791461169931 0.02860636843693286 0 0 0
1726 1 0.0016 1600 0.002182199812856343 0.002211153055171466 0.03297906375129865 0 0 0
1727 1 0.0016 1600 0.004030856379043886 0.0027099595774647245 0.02693678204644751 0 0 0
1728 1 0.0016 1600 0.003314545944906175 0.0040231235935921685 0.03464367287410362 0 0 0
1729 1 0.0016 1600 0.005226557295347651 0.004058985608814896 0.034947791082317534 0 0 0
1730 1 0.0016 1600 -0.001968638511127686 -0.000813770497754391 0.03413007745654767 0 0 0
1731 1 0.0016 1600 0.00025304211965310246 0.0003023175726701529 0.03354806574402371 0 0 0
1732 1 0.0016 1600 0.0023792028085871967 0.005183956343684702 0.03406293323389782 0 0 0
1733 1 0.0016 1600 -0.004924309424286649 0.0028929936003742806 0.033823167211822276 0 0 0
1734 1 0.0016 1600 0.0014980602507862133 -0.004709659951362618 0.03384874006093552 0 0 0
1735 1 0.0016 1600 0.00032768204352086235 0.007192624194586884 0.03335362036693932 0 0 0
1736 1 0.0016 1600 0.0067448348653901796 0.0025197312108983594 0.03152922960685491 0 0 0
1737 1 0.0016 1600 -0.0011763661010285825 0.005943298881049328 0.03481110269222237 0 0 0
1738 1 0.0016 1600 -0.0035101949307906064 0.006286492382359099 0.03437162512185417 0 0 0
1739 1 0.0016 1600 -0.0016399643317705009 -0.007010801580701144 0.03445899346927139 0 0 0
1740 1 0.0016 1600 0.0022184397732601595 -0.0024742797274116234 0.03356138433340648 0 0 0
1741 1 0.0016 1600 -0.002310358751408682 0.0053731398796814794 0.03383708006746523 0 0 0
1742 1 0.0016 1600 -0.0020602032176707274 -0.002058431583002119 0.031971942677824994 0 0 0
1743 1 0.0016 1600 0.003625119606021674 -0.002661077027104957 0.034300360678003884 0 0 0
1744 1 0.0016 1600 0.0041162911491794876 0.0018748402038371228 0.0348102784057003 0 0 0
1745 1 0.0016 1600 -0.003729322241477602 -0.0029130600408176083 0.03429774097988108 0 0 0
1746 1 0.0016 1600 0.0027799335912201692 -0.0011434128946478253 0.03424938180396885 0 0 0
1747 1 0.0016 1600 -0.006253789216540563 5.37105401810537e-05 0.03478017194813574 0 0 0
1748 1 0.0016 1600 -0.0037971011420360216 -0.006117406376621853 0.034473633244827044 0 0 0
1749 1 0.0016 1600 -0.005857375605792284 0.004187197469918606 0.03394171117507146 0 0 0
1750 1 0.0016 1600 -0.0011944353030431765 -0.002568596420456964 0.03321687519503655 0 0 0
1751 1 0.0016 1600 0.0005461609720364681 0.005433293367374097 0.03383850202522661 0 0 0
1752 1 0.0016 1600 0.001469977971204568 -0.0054641817816660845 0.03191431710059684 0 0 0
1753 1 0.0016 1600 0.002577090047918109 -0.005788765231665807 0.03432931679528732 0 0 0
1754 1 0.0016 1600 0.001393565871450023 0.007063923126243858 0.034645144500706646 0 0 0
1755 1 0.0016 1600 0.0009784432351860866 -0.001052633047675653 0.03400372094405169 0 0 0
1756 1 0.0016 1600 -0.0050096306548144285 -0.0034509535063762553 0.03212385746577746 0 0 0
1757 1 0.0016 1600 -0.00018495788666042696 0.007197680867165913 0.0348691921283433 0 0 0
1758 1 0.0016 1600 0.005453142177554028 0.004701591861519846 0.03350020802885889 0 0 0
1759 1 0.0016 1600 -0.0018054092896359517 -0.0036954315428220853 0.035473156748295584 0 0 0
1760 1 0.0016 1600 0.004858633239764235 -0.003422109516422761 0.03497775910906268 0 0 0
1761 1 0.0016 1600 0.0007721259662214728 -0.0005666501401220385 0.03551403450315427 0 0 0
1762 1 0.0016 1600 -0.0011475693595888003 0.004285122255478399 0.0336563360971669 0 0 0
1763 1 0.0016 1600 -0.0006113995420974736 -0.0002601043877320605 0.03477123931090172 0 0 0
1764 1 0.0016 1600 0.0007773264998020663 0.0024973826126928307 0.03493317830216031 0 0 0
1765 1 0.0016 1600 0.0024182426658453807 -0.0036587087954486346 0.034628767652454574 0 0 0
1766 1 0.0016 1600 -0.0020280447239513447 0.0069086149069677045 0.0330059281432023 0 0 0
1767 1 0.0016 1600 -0.003679357397371419 -0.006188971889080698 0.031730696935909374 0 0 0
1768 1 0.0016 1600 0.0018423843612357235 0.0037695292250940005 0.03354229368644069 0 0 0
1769 1 0.0016 1600 0.0027130923359410344 0.0025533574918272044 0.03444901377578696 0 0 0
1770 1 0.0016 1600 -0.006889588223656192 0.0020883801936069143 0.032990090705542 0 0 0
1771 1 0.0016 1600 -0.002048578544221483 0.0011413482303321266 0.034804803558168645 0 0 0
1772 1 0.0016 1600 2.5689584731747195e-06 -0.002364085220640599 0.034307607658369065 0 0 0
1773 1 0.0016 1600 0.005550944239131024 0.000518040757421743 0.034966114216719295 0 0 0
1774 1 0.0016 1600 -0.0012247108001053302 -0.004103515316830246 0.0327665461046982 0 0 0
1775 1 0.0016 1600 0.0059432055006966664 -0.004064462927924298 0.03178957498136647 0 0 0
1776 1 0.0016 1600 -0.00039164897157475796 0.0016244516871354196 0.03419132874146009 0 0 0
1777 1 0.0016 1600 0.0013701476115909386 0.0006932513007075806 0.03207661583429073 0 0 0
1778 1 0.0016 1600 0.0029624365508136206 0.001059028143839964 0.03393449002227688 0 0 0
1779 1 0.0016 1600 -0.002761328018118941 -0.0066495099532980105 0.033376479885553034 0 0 0
1780 1 0.0016 1600 0.0064169362889211256 -0.003265597884832931 0.03465075124078749 0 0 0
1781 1 0.0016 1600 -0.006588609254732629 0.002903554024296361 0.034555953247223166 0 0 0
1782 1 0.0016 1600 -0.0041254856796995336 -0.0011653541422502664 0.03406197488244275 0 0 0
1783 1 0.0016 1600 -0.00011470475002003163 0.0019082828133511656 0.03113300981289006 0 0 0
1784 1 0.0016 1600 -0.007140107623132122 -0.0009271276913566678 0.03238850411057854 0 0 0
1785 1 0.0016 1600 0.004004566057286543 9.188639381038148e-05 0.03466821879974963 0 0 0
1786 1 0.0016 1600 0.006868903409890207 0.0021589727816855152 0.03314522139676641 0 0 0
1787 1 0.0016 1600 0.00138710059854241 0.0013173007238524571 0.03404135389429427 0 0 0
1788 1 0.0016 1600 0.00270011156670139 -0.00501605583452614 0.03283393199111279 0 0 0
1789 1 0.0016 1600 0.006886374608233736 0.0012312096725541463 0.034448535836569726 0 0 0
1790 1 0.0016 1600 -0.0013834215099815153 0.005250793189892645 0.03182669067669832 0 0 0
1791 1 0.0016 1600 -0.006030064937697586 -0.003934363348691226 0.0347870557119507 0 0 0
1792 1 0.0016 1600 0.0020634678817349136 0.0001381262291905316 0.0348850740506306 0 0 0
1793 1 0.0016 1600 0.0015255164916507444 -0.002198692246512222 0.03497691036405414 0 0 0
1794 1 0.0016 1600 -0.005435965794969248 0.001859698267024191 0.03493239963957015 0 0 0
1795 1 0.0016 1600 -0.004749326595998571 0.00029614379493268756 0.03429268698243307 0 0 0
1796 1 0.0016 1600 -0.002387409443502235 -0.0005648439980010326 0.03150086666547537 0 0 0
1797 1 0.0016 1600 -0.005599645161331259 -0.0030196177141350354 0.03354702631132196 0 0 0
1798 1 0.0016 1600 -0.0022501614135472846 -0.005194361641008653 0.0351337854107075 0 0 0
1799 1 0.0016 1600 -0.003296091255183703 -0.0005976822581525127 0.032817179163306634 0 0 0
1800 1 0.0016 1600 -0.0005925336578108843 -0.006677851643767709 0.03329638681333224 0 0 0
1801 1 0.0016 1600 0.005252019161700382 -0.004925189079995743 0.03459602608601757 0 0 0
1802 1 0.0016 1600 -0.0053444490913443716 -0.001964216114638063 0.03472207363934003 0 0 0
1803 1 0.0016 1600 0.000728195699581219 -0.007163105835473055 0.03405798637108451 0 0 0
1804 1 0.0016 1600 -0.005419998877625683 0.001434370981769273 0.033390126340052395 0 0 0
1805 1 0.0016 1600 0.0018657483319756854 -0.006954095220426399 0.03516346856615352 0 0 0
1806 1 0.0016 1600 -0.0027042099249205273 0.003874185772584929 0.03423443623076552 0 0 0
1807 1 0.0016 1600 0.004518612188614246 -0.0013400066009050713 0.034173077746804954 0 0 0
1808 1 0.0016 1600 -0.004045637220190449 -0.004071136895681743 0.0332400875222122 0 0 0
1809 1 0.0016 1600 -0.0027486745936621854 -0.006654757554150506 0.03555619105257992 0 0 0
1810 1 0.0016 1600 -0.0015559297807641588 0.004437356787697661 0.03519577237971408 0 0 0
1811 1 0.0016 1600 0.0007375465509660986 0.004073167604451309 0.03465897648539371 0 0 0
1812 1 0.0016 1600 -0.00624290786779706 -0.001124918331006124 0.03369828629874517 0 0 0
1813 1 0.0016 1600 0.00593961571390328 0.002789366828678975 0.034284814073708765 0 0 0
1814 1 0.0016 1600 0.004686630220845241 0.003773164650315713 0.032446633337592096 0 0 0
1815 1 0.0016 1600 -0.000507011071543563 -0.0011375960035651907 0.03341555815563645 0 0 0
1816 1 0.0016 1600 -0.003234156396702257 0.0005988393768329059 0.03387743243949534 0 0 0
1817 1 0.0016 1600 -0.0018287908090202948 -0.0023155820804183465 0.034663710671297504 0 0 0
1818 1 0.0016 1600 0.0067985210000583276 0.002370814895359492 0.03556810787950296 0 0 0
1819 1 0.0016 1600 0.0032987290020748436 0.006400088671603891 0.03287756285614274 0 0 0
1820 1 0.0016 1600 -0.0014483094235964397 0.0028249698132806764 0.0342370352628951 0 0 0
1821 1 0.0016 1600 -0.003841444367879986 0.0012403511704724606 0.03521141706864592 0 0 0
1822 1 0.0016 1600 -0.002516039494029286 -0.004214576902459455 0.033897223283202146 0 0 0
1823 1 0.0016 1600 0.0053398598586111195 0.0021798164273972406 0.03267516734094647 0 0 0
1824 1 0.0016 1600 -0.0016491264940055464 -0.005543706252197407 0.03369279706049311 0 0 0
1825 1 0.0016 1600 -0.001331720758549066 0.0005194694294555637 0.03351669540388211 0 0 0
1826 1 0.0016 1600 0.000830533386493686 -0.0036317696646965434 0.03482464161251749 0 0 0
1827 1 0.0016 1600 0.004513405502720891 0.0009468175596986145 0.03205110957805609 0 0 0
1828 1 0.0016 1600 0.0002354942733616334 -0.005634032283992642 0.03418205864637191 0 0 0
1829 1 0.0016 1600 -0.005212629850944119 0.0025943010534130897 0.030682700891319765 0 0 0
1830 1 0.0016 1600 -0.0008740421816790192 -0.0042905731431983375 0.03431632486172098 0 0 0
1831 1 0.0016 1600 -0.004800692566505047 0.005365994253418653 0.03458878090045796 0 0 0
1832 1 0.0016 1600 0.0030326609308821756 -0.0034675359503404325 0.032607452004713454 0 0 0
1833 1 0.0016 1600 0.004429942445108049 0.0031514176273631706 0.03389821974751594 0 0 0
1834 1 0.0016 1600 0.0027751744648142926 -0.0054623144581953656 0.030971807337950883 0 0 0
1835 1 0.0016 1600 0.004805670975576956 0.0010239528512793296 0.03364386295956445 0 0 0
1836 1 0.0016 1600 0.0036649361818602523 -0.001603558077838925 0.03550033803879676 0 0 0
1837 1 0.0016 1600 3.0131637540545347e-05 0.003065281467672581 0.03363742084490548 0 0 0
1838 1 0.0016 1600 -0.0031717541819684053 -0.00042078303470513545 0.03510881111996147 0 0 0
1839 1 0.0016 1600 0.0035287246590323877 -0.001764134442456559 0.03297906810386936 0 0 0
1840 1 0.0016 1600 -0.0038277560504865393 0.0016662547927773176 0.0328440020844309 0 0 0
1841 1 0.0016 1600 0.0043400964023100706 -0.00382162337348139 0.03345877346145349 0 0 0
1842 1 0.0016 1600 0.001694645756728515 0.006369815406430502 0.03323547937520484 0 0 0
1843 1 0.0016 1600 0.005941390751529411 -0.0010279790357064545 0.03483504926095698 0 0 0
1844 1 0.0016 1600 -0.003445506979865613 0.002456442080915958 0.03425008176140844 0 0 0
1845 1 0.0016 1600 0.007139184969849165 -0.0009344575100306631 0.03266181925313367 0 0 0
1846 1 0.0016 1600 -0.004738070942783193 -0.004823449772778891 0.0344706812676784 0 0 0
1847 1 0.0016 1600 0.006848561155608525 -0.00193326010093741 0.03387732059810312 0 0 0
1848 1 0.0016 1600 -0.002295199766021879 0.0017872959635825858 0.03336197922794457 0 0 0
1849 1 0.0016 1600 0.002154027519685696 -0.006870305995992301 0.03322887147819937 0 0 0
1850 1 0.0016 1600 0.0015426552167932864 -0.0026561164065524623 0.0315038674830634 0 0 0

Velocities

1 1.0322206216852311e-13 4.2529182694726615e-15 4.1558991551603047e-13 3.658225456433506e-10 -6.485237545859753e-10 -4.5933832348711625e-10
2 3.405149104145712e-13 -8.677315405199475e-13 7.082086089720829e-13 1.0643461968607979e-09 1.9482322388643257e-09 1.1181849019011424e-09
3 -1.0232515560857783e-14 1.4247918172443203e-13 2.696285118886686e-13 -1.8059745492754517e-10 -1.3126363252819389e-11 8.393121052477237e-10
4 3.655423461558787e-16 2.7403246102768717e-13 -1.583472364111495e-13 -3.40296449912285e-10 1.9529308228240263e-11 -2.4769479088662356e-10
5 1.5143679560470625e-13 -1.3671993720965582e-12 9.474320563848663e-13 -1.161063485531561e-09 3.5986709611188155e-10 1.0342730221106314e-09
6 -2.0935947853016563e-13 6.80596758273703e-14 -4.4768706241830713e-14 6.570379958694855e-10 3.5003555528004863e-10 1.943582049692096e-10
7 2.526391821742278e-13 -4.9986834914644315e-14 -2.7069054025611374e-13 5.989410404155352e-11 3.164032802358834e-10 7.133076039350436e-10
8 -7.594802065438738e-13 -2.081517555508653e-13 -6.643528740036695e-13 -1.5118576378192364e-09 1.5907400990600174e-09 -1.7809885234149226e-10
9 -9.773163217838444e-14 6.648006770183213e-13 -7.270795527204238e-13 3.099312905291675e-11 -1.4728642036153882e-10 1.0153781658912216e-09
10 -2.9025444901948234e-13 2.6985011724795393e-13 -1.2896443687336234e-13 -3.3152897966189923e-10 -9.210227382825631e-11 3.4177887895530284e-10
11 -1.7181559484217777e-14 3.877441357640436e-14 3.80979340641298e-13 -6.26169329590127e-11 1.67517771561113e-10 -1.7057932292839873e-10
12 -2.9499293508004964e-41 1.0883948232728426e-40 3.5364838627377986e-14 -1.3604621322706618e-37 -3.687326592173437e-38 0.023478239506458068
13 -1.3766668200370436e-14 -8.199688399449896e-14 1.5231787623021107e-13 1.0253455251113005e-10 -1.7123052126752736e-11 1.674990022001568e-09
14 1.0068612475544728e-13 -1.9534503596702398e-13 -3.1552193011667936e-13 3.149946147808817e-10 2.6659929567897017e-10 -4.354172263232818e-10
15 4.058378466445021e-13 -2.0185819493582904e-13 -1.054417838315056e-13 2.487292157888875e-10 5.020450154413418e-10 5.503770053413656e-10
16 -2.989199881730849e-14 -6.763629172090943e-13 -5.917705876070612e-13 1.2701748184615964e-09 -4.4567956985134195e-10 3.58778577816907e-10
17 -4.84501794184979e-13 4.982675046287929e-13 3.675514286806641e-13 -3.263714573887404e-10 7.148099208398972e-10 -2.331892274534791e-10
18 5.987610174108512e-13 -2.709128205555947e-13 -2.5365498924176725e-13 2.3270031506870876e-10 -1.591686246271951e-09 1.1575976302924201e-09
19 -7.611791071917557e-13 -9.537045717152525e-14 -2.0592987944563145e-13 9.605356876767424e-10 -2.381874606961165e-11 6.811511803822659e-10
20 4.4787967878752835e-15 4.0888282064256544e-13 -8.6568094460104e-13 6.933240290754515e-10 1.6784375485969506e-10 -1.7138317695154446e-10
21 -2.0370196775468875e-13 5.975174646078092e-13 -5.21344700899646e-13 -4.801388828544426e-10 6.540926322311198e-10 6.518512887184862e-10
22 5.416174668366738e-13 -2.829555552428499e-13 -4.634785775880744e-13 2.153923393969683e-09 6.366250155908164e-10 -1.5596028997223793e-09
23 -8.618253083632508e-13 -1.3297493798922476e-13 -9.110802772646545e-13 2.292344223708187e-10 -8.773602928581795e-10 4.030785894077826e-13
24 -8.375460588034389e-15 -2.836718298413072e-13 2.7099601385649035e-13 3.490367567558486e-10 -1.3100737730361506e-11 -5.107043578486148e-11
25 -9.636650573328911e-13 2.7073639550469757e-13 -4.798894959908454e-13 -1.5738287711734372e-10 6.21977607182358e-10 2.2157653612429765e-10
26 -2.4968597756968314e-13 1.2056941856947846e-13 -3.663311396089439e-14 -1.5014889065148992e-10 -3.121956595205935e-10 -7.973649930311572e-10
27 -1.211240439436515e-13 2.4283395965953223e-14 -2.70388142170605e-13 -4.4350876533194544e-11 -1.4028066391755103e-10 8.34101776447255e-10
28 7.648727067528991e-13 2.220710287540439e-13 8.453862344138494e-14 -2.841612916242496e-10 9.561612560068635e-10 4.33263175787495e-10
29 6.757762057993606e-14 -4.742279640762941e-13 2.706135517146717e-13 5.765743231499135e-10 1.1287830037337853e-10 -2.865165923684746e-10
30 -5.498982240780206e-13 -4.5082985148531545e-13 8.349756109510402e-13 -4.4880155441262803e-10 -9.43875006899973e-11 5.459298116964406e-10
31 3.3417372641848684e-14 1.8530014776475368e-13 2.2689582623481582e-13 -2.3537639955673217e-10 4.2403764188059646e-11 1.885360845898099e-10
32 -7.048380993709295e-13 4.815051750891753e-13 -1.0472702534682555e-13 1.2506217183982774e-10 -2.393697239390316e-10 2.067192744190152e-11
33 -4.6578119716370684e-14 -3.009966647468808e-13 2.0180974400039321e-13 6.156909438041087e-10 -5.936473956434442e-10 6.306367804152413e-10
34 -9.447786677344908e-13 6.303451167382529e-13 -4.851853679352382e-14 -1.2180978465744163e-09 -4.93624585469958e-10 -4.418647416970888e-10
35 4.1309365404712387e-13 4.456880887559897e-14 -7.026585285894544e-13 5.766010440106392e-10 1.226997642360365e-09 1.5921731906092692e-09
36 3.0093511906993213e-13 9.989282842072266e-14 8.809705576710689e-14 -1.254331086730553e-10 3.7645124476719373e-10 -1.3633443989325062e-10
37 -3.0324905620696697e-13 -2.1440365301012692e-13 -4.3342431834833914e-13 2.1585133455511844e-10 -9.93226947372126e-10 -2.7037432306936567e-10
38 1.1425243231685408e-13 4.905372243266653e-13 -5.016626838023812e-13 2.7181221600650867e-10 5.4890515700303195e-11 1.2563383113256265e-10
39 -7.259087774139139e-13 2.2163843876936165e-14 -4.969920087341392e-13 -1.0293011926902222e-09 3.6033694851361095e-09 -1.9098548277071217e-10
40 -7.413168441346553e-13 2.1673515862744747e-12 2.658765419743416e-13 -2.4329945860842244e-09 1.7506697548013765e-09 -9.965113844601393e-10
41 -6.209926181247388e-13 6.618291304576406e-14 -1.0611757965336337e-13 -5.82252092110096e-10 -2.0471786464856543e-10 -1.915920666462324e-09
42 1.919037994047914e-14 1.3236235279894925e-13 -2.694828944785468e-13 -1.4597098047569646e-10 2.074094031888989e-11 -8.319588739854443e-11
43 -5.094521514187003e-13 -1.3436106366091722e-13 -7.861455411137047e-14 -1.5939293563445727e-10 -3.40768091116964e-10 6.528573299907162e-10
44 3.7451392255315464e-13 -1.3461652643591486e-13 2.4806813601506647e-13 -1.4627541538802658e-10 4.664674067973865e-10 1.76541872645875e-10
45 -1.45173493614808e-15 3.151705153040482e-13 -5.356336394178864e-13 5.214628754179888e-11 -3.3750279881308297e-10 -5.986779506672693e-10
46 -9.113333559831277e-13 3.611207562896929e-13 -2.1451144746394697e-12 -1.5664240211105274e-09 1.9282563069577567e-09 2.13048953295257e-09
47 -2.867943893629118e-41 1.0839553626577015e-40 3.536483880857566e-14 -1.3549129345664299e-37 -3.5848471357357864e-38 0.6107552592092496
48 -1.2418952162543178e-12 1.712022548675857e-13 3.2892758308165047e-13 -1.486288510868815e-10 3.4524478498981514e-10 8.996206477259324e-10
49 4.695270257556686e-13 9.089317549084182e-13 5.414538242485799e-15 -1.0297106338319804e-09 4.2358055700194106e-10 2.308230990710077e-10
50 5.6361989070549043e-14 -5.040472665865052e-13 -4.1372854433814954e-14 2.4622296105311983e-10 -1.7382805362805716e-10 -2.3662134818675824e-10
51 6.767762351175795e-13 -2.5601189855754244e-13 8.738445215392679e-14 -1.908516390424997e-10 -2.8567464847632877e-11 8.48617655734724e-11
52 -1.0567433332819623e-13 -1.3527767500892402e-13 -1.851091221742492e-13 1.671587108405473e-10 -1.3476804396729504e-10 -4.553134647647694e-11
53 -2.6734614895213187e-13 1.2933270010227475e-13 -4.906801267627241e-13 -2.4946498866854825e-10 2.0955867814568044e-10 -4.942859974804179e-10
54 -9.995455603080978e-14 -2.6100184805750124e-13 -1.0355061624854595e-13 -1.505651808950263e-10 4.273897696536134e-10 1.3746400871206974e-10
55 -5.41315814155862e-13 4.439667008690465e-13 4.831598619685154e-13 3.60255136645318e-11 -5.494184302291413e-10 -1.9420251603282743e-10
56 1.0502542191828958e-13 -2.922665917608271e-15 -2.70253898158679e-13 1.1538129896870404e-11 1.3499122956463374e-10 9.304287972202154e-10
57 6.020885600745715e-13 -2.7074165289453933e-13 4.753895928444495e-13 -9.800447694213452e-11 3.6229087356066677e-10 4.157789605656834e-13
58 -2.04512336262253e-12 -9.086929760315669e-13 7.504150417888744e-13 1.0696869913726232e-09 -4.2928123376901717e-10 1.6511300015194488e-09
59 2.725211762939757e-40 7.500645413465558e-41 2.215959366680022e-14 -9.375590396437858e-38 3.4064360897540732e-37 -4.723577213813684
60 -4.703678711903108e-13 -6.994381303244535e-14 -1.3046651752833333e-13 -8.054682995521367e-10 -1.074905792949483e-10 1.0486028856268236e-10
61 -2.311061639577289e-13 -5.410625945054513e-13 -1.8767358985357962e-12 8.691501663634573e-10 -2.431378202740625e-10 -1.2601570310903886e-09
62 4.117610449913336e-14 1.401409750390183e-13 -8.48194818471321e-14 -4.1297719951787586e-10 1.7171753457892458e-09 -7.336579282465983e-10
63 -9.688283309191676e-13 -4.706755161747565e-13 3.737190540433185e-13 -5.231665632924228e-10 -8.763467014973152e-10 -5.694691778798311e-10
64 6.338572366625932e-13 3.110346683766798e-13 2.703395024259032e-13 -3.8889382619074037e-10 7.874239027002861e-10 -6.913281026636654e-10
65 6.040880340863456e-13 -5.694621737231066e-14 2.2250416375532137e-13 4.1741964999509155e-10 -1.2827783132601565e-10 4.058017258592841e-10
66 4.537267344435782e-13 2.8056605929465067e-13 6.041255591750017e-14 2.0188825104930182e-10 1.0595451555858504e-09 1.8023751042497674e-10
67 -1.2267646980364835e-12 1.2443291395903176e-13 1.7517513908896083e-13 3.1785249943513673e-10 1.60698683170016e-10 1.3961386539980216e-10
68 -9.2627867287567e-14 5.264738042472739e-13 2.5683430352874793e-13 -2.3126032937717948e-10 -7.752317760293354e-10 -6.037891309510609e-10
69 -1.0449478366425862e-12 -1.2061133041258716e-13 3.019419637085043e-13 1.1010276338692954e-09 -1.3560825712734528e-09 -7.048605080247327e-10
70 -1.1138544327298466e-12 -2.0653752869475875e-13 -4.6455115466110015e-14 1.2421892570342036e-10 -3.3654517789527354e-10 -1.7031949384635123e-09
71 5.153644489483916e-13 5.077017176703883e-14 -5.537141867181304e-13 1.9135609530028148e-10 6.25548444778363e-10 -1.0239812219434727e-09
72 -9.232060996002585e-13 -1.776325933956678e-13 2.069065966726606e-13 -1.2796686042109612e-09 -6.241600725893133e-10 -7.131986867787497e-10
73 -1.1302320665182925e-13 -9.921673409534115e-13 -1.0591379021660482e-12 1.202878717157213e-09 -5.555068713183903e-10 6.415477812772262e-10
74 6.488751551987783e-14 -1.1197031441474479e-13 -2.1175612473558562e-13 1.3605935264995508e-10 8.584999639755598e-11 -1.1144524961629622e-09
75 -5.41473812298769e-13 -1.0583635818075678e-12 5.75112018918858e-13 -1.6873325131361342e-10 -1.5076525833710763e-09 -7.53388554093028e-10
76 7.858583155254263e-14 3.8315123013975195e-13 -1.0841512146656742e-12 -1.8481333456442029e-10 -7.819426249373816e-10 -7.711594840683858e-10
77 2.657012001384174e-13 -1.07939279019218e-12 -5.324973286653759e-13 3.082081295340953e-11 3.786030305500331e-10 4.800603257682219e-10
78 1.3260017371790165e-14 2.1559854659471353e-13 2.0157386510244367e-13 -5.711602596385113e-11 4.662087366097544e-10 -1.5403194940449465e-10
79 -3.837357714242083e-14 -1.478235670980463e-12 -1.7639143749941235e-13 6.458804129652532e-10 6.063331569108135e-10 -5.285354843428415e-10
80 -4.1569020665269513e-13 -1.700834240112403e-14 -3.3217078056391763e-13 -2.1337266588291683e-10 -4.718728251292448e-11 1.6310930962653064e-11
81 -1.876832228314772e-13 1.9296311065358853e-13 4.76434854402727e-13 -3.219520095436885e-10 -9.079249744666221e-10 1.2113048972626325e-11
82 -2.492958373872803e-14 -2.464565868460889e-13 -2.7058420038875656e-13 3.0425805806923207e-10 -2.646051480626083e-11 6.742352423486411e-11
83 -6.403138840582472e-13 -9.006395650352794e-15 2.1163691496446158e-13 -8.662942742315995e-11 2.497064357654271e-10 -6.803801946108307e-11
84 -5.1009979340200506e-14 -2.523511797198869e-13 -6.085106773056876e-13 1.9588251697274435e-10 -4.7410284559694956e-11 -1.5539560126015685e-10
85 -2.376163602167182e-13 8.198090188755184e-13 -5.410741765692127e-13 -6.888432108956693e-10 -1.8780551408102175e-10 3.6025137665143445e-10
86 -9.890298733108129e-14 8.729887240636274e-14 -1.8168211800066595e-13 -9.165956104257215e-11 -1.3684124582268031e-10 -4.431340745254871e-11
87 -6.990355579808768e-14 1.6003439373991663e-14 6.623436174546104e-14 1.423492182778457e-12 -8.691703051167656e-11 4.768570135482386e-12
88 -2.937950835792699e-13 -8.47832297603298e-13 -7.963169581555443e-13 2.8531959628644725e-09 -1.6882086004581684e-09 -1.060229060656464e-09
89 2.1116891104016243e-13 -5.456939864194796e-13 1.9545481684630528e-13 -7.518644367208068e-10 1.4836674000207162e-09 1.7625816727795174e-10
90 -2.261361989926155e-13 1.6275967434153402e-12 -1.7992302239862137e-12 -1.5365395806796963e-09 -5.216830303339221e-11 -9.484016077038312e-11
91 -2.958485827647664e-13 -5.014867779133651e-13 1.927132465206996e-13 5.64860157501081e-10 4.990399890867474e-10 1.4838581652218748e-11
92 -5.496932209491629e-14 -2.14809183578902e-14 -2.6824736625282704e-13 3.170276562430557e-11 -6.89473927591027e-11 -3.357010617980945e-10
93 -9.955650574588186e-13 -4.688346929758365e-13 8.13916743160208e-13 -7.00236270961956e-10 1.2820038715114912e-09 1.1260366719368393e-09
94 -9.171220242159034e-14 5.207385798292679e-13 3.0979224642344877e-13 -7.520340673280201e-10 -1.287038188927161e-09 5.435570703228104e-10
95 -3.655469221097107e-13 -1.6884543607835082e-13 3.2085884700740706e-13 -1.4252486488516094e-10 -3.975702673881441e-10 -2.767013780669704e-10
96 -1.470219740639227e-13 -4.2813437536069353e-13 4.9796199220555925e-14 -2.3953850078652755e-10 9.223586844100968e-11 -2.5951019845783376e-10
97 -6.196935788330113e-13 1.5302946125132315e-13 4.7340509916073284e-14 -1.9112045555127332e-10 -7.735508151553318e-10 3.3599910011787556e-10
98 2.7082042209617276e-13 -2.7074674610419426e-13 4.1211422688663627e-13 -6.169649286412017e-10 1.4833150454266734e-09 -1.2412154799032955e-09
99 1.087298857047911e-13 1.0471855322354877e-12 -1.5647417919740592e-13 -1.8139978163948947e-10 -2.551498917198613e-10 1.061116895294012e-09
100 3.777318328862764e-13 2.65750306729767e-13 -8.080873797180398e-14 -3.318167233194885e-10 4.711128535037215e-10 2.235693752029437e-11
101 -6.779915910214525e-14 -5.259074595720594e-13 4.4028709151504394e-13 -9.182599977365644e-10 -5.966072532923461e-12 2.578923488559374e-10
102 -5.419868444387898e-13 1.051077208440411e-12 -4.314966712379669e-13 1.5882355332447566e-10 9.504988896315283e-10 8.731646939225997e-11
103 8.307623202105571e-13 1.3543825196223617e-13 -6.251123962775949e-13 -3.289936118190645e-10 5.846400228658136e-10 -1.2621537763911476e-09
104 -2.485708725781599e-13 -2.729045381840848e-13 -2.1445422412561032e-13 -1.0209237114421722e-10 1.186450987676917e-10 2.999188033288166e-10
105 8.507462693273837e-14 -3.788271425538583e-14 -2.0871648939406605e-13 4.456908199520126e-11 8.903068712416501e-11 3.2098985044746676e-10
106 7.726761678974258e-14 1.0440156690073672e-12 -1.010516746077947e-12 -7.992131299312427e-10 5.034527531782504e-10 2.701349464932125e-09
107 1.1236416815179796e-13 -4.0487998122353646e-14 -1.6964798310639568e-13 9.721369275247365e-11 -2.0092226310660495e-10 6.566718154230262e-11
108 -5.398491812580343e-13 -1.0451899427898791e-13 -2.586448046085638e-13 1.2229685053719151e-09 1.4209713654171158e-11 2.9817506442083754e-10
109 5.036864871942711e-13 1.6853096410169282e-13 -1.0158224276788983e-12 -4.738881237237125e-10 -5.151413919524934e-10 -3.1931589206646328e-12
110 -2.5912454745368777e-13 -6.787820396164929e-13 2.1579321542766643e-13 -7.903317041465649e-10 3.4727638217277436e-10 3.0340406082078247e-10
111 6.781661148384424e-13 1.993416119264522e-12 4.071698807804899e-13 1.2781814688073362e-09 -4.122335435649216e-10 4.1965973316007165e-10
112 -1.7242239055024494e-13 -3.868542100743032e-13 1.6688871028536022e-13 4.839630346230784e-10 -2.1643467540470823e-10 -9.824334319955754e-10
113 -1.0400033918946411e-13 -1.0826639639172742e-12 -3.5524299174775307e-14 3.527616738263488e-10 -2.495061289336941e-10 1.139958720120935e-09
114 -3.3253330600821197e-13 4.145344384039612e-14 4.764137662140316e-13 -5.537392130341107e-10 -2.745633599016251e-10 -3.9619407304957187e-10
115 -9.37204133809593e-13 -5.08929032257253e-13 7.783392117695695e-13 1.1949319692165628e-09 -2.7445758281533204e-10 4.4996489513632764e-10
116 -6.595827271136371e-13 5.919504207040244e-13 7.047028304626945e-13 -5.384298298346596e-10 -2.8552539280931136e-10 -5.465807984011651e-10
117 -6.57884718958883e-13 -1.4659569544726278e-13 -6.945160593638574e-13 -1.0961751968250047e-09 -1.1276912221441813e-09 -3.927597093314645e-10
118 -5.419017766450956e-13 -1.1818130522997317e-13 8.0255900644487e-13 4.816834473968631e-10 -1.1664019823009166e-09 -1.144008944691561e-09
119 3.137100976180343e-14 7.126631052608946e-13 3.0647914450197244e-13 -4.0389134999957773e-10 4.930950655944173e-10 2.8767385177501233e-10
120 3.110878123454466e-14 -8.57951691446685e-14 -1.810827156191988e-13 1.0664329842622365e-10 4.051133230727595e-11 1.329171580752287e-09
121 1.1404585473468636e-13 -1.790810733485724e-13 -1.7398936644923987e-14 2.503645884532896e-10 1.4923093429351565e-10 -2.1056554836582232e-10
122 2.5176122073094386e-13 -2.680172069857497e-13 1.0885349288464999e-13 2.934601311849978e-10 3.1755653428706545e-10 2.321311014015224e-10
123 3.905231134883154e-14 -1.0785732421287098e-13 2.7029742458692935e-13 1.4367103643267784e-10 4.52609645794917e-11 1.534952842537759e-10
124 -1.8235061930073086e-13 -1.3508723224476683e-13 -4.5156935625825974e-13 -9.658459568923564e-11 -2.1415820683585755e-10 1.905498891177742e-10
125 -5.155532633253034e-13 1.78101806733401e-13 3.514269878438983e-13 -1.7440077610399185e-10 -2.2247155345743739e-10 -5.89108292234136e-10
126 -2.9665449012047144e-13 -1.112386756323701e-14 -2.5581431719834273e-13 1.1759530170048021e-11 -3.6952256400672574e-10 -1.7698066461140227e-10
127 5.108415891980945e-14 1.1419502899824213e-13 1.2526577696082373e-13 -1.4302612686291742e-10 6.477070255049363e-11 4.596160272995382e-10
128 -9.413632684315684e-13 2.75505508694435e-13 4.999164835914462e-15 -4.4534452157584025e-11 2.5517041486124738e-11 1.5550182810946764e-10
129 1.230374525002953e-13 -2.2715036708416352e-13 -3.993917177463057e-13 7.063884362491562e-10 -4.695120077892588e-10 -1.9519442268431143e-10
130 -7.94221985408946e-13 3.8554995479936924e-13 -5.105978410046828e-13 -1.1665087699838154e-09 -1.3572462552708181e-09 -2.2326863727066647e-09
131 -1.397073692358466e-13 -5.029565045060302e-13 -1.0837504020937162e-12 -1.1074797034455186e-09 5.247268203257538e-10 7.228392958934813e-11
132 -2.9492774326007085e-41 1.092895730454116e-40 3.536483867615835e-14 -1.3660881364100207e-37 -3.686511713229527e-38 -0.598415784507067
133 1.9727749826090312e-14 2.2534876299766012e-13 -2.0000138010386782e-13 -2.8362791679220064e-10 2.8938040264317382e-11 2.1766472057609243e-10
134 -9.222269254756475e-14 4.578593176510102e-13 -5.393243906566895e-13 -2.9441119484781e-10 1.1181158086437976e-10 -2.3833776977180064e-10
135 -6.206767460604557e-13 -5.57468316511037e-13 -4.2320200351347913e-13 2.6243817035119027e-10 -4.6130127882860463e-10 2.3690757963291724e-10
136 -1.1063108292696557e-12 -8.763032489031068e-13 -6.29040426240161e-15 -1.6429429756545756e-09 -3.9446321873605854e-10 -1.7712644882478037e-09
137 2.7253370955220524e-13 2.0411897212882609e-13 -2.703430062646371e-13 -2.492582476837528e-10 3.4710386338818923e-10 -4.238487000261894e-10
138 -2.7002754635373547e-13 -9.621555936476787e-13 -1.485960106789848e-13 1.249288012516291e-09 5.4155975778959485e-11 1.2860617609315882e-09
139 3.6852624102472897e-13 1.4748963573835561e-13 4.978194058397669e-13 -1.0251638849994091e-10 5.52806888538962e-10 -4.367738908735716e-10
140 -1.1954576798699572e-13 4.1381407877286025e-13 -1.4330397169096978e-12 -4.1799307688130915e-10 -5.952125746665765e-10 3.4406498057238764e-10
141 -1.605065401595745e-13 -1.2886687908172074e-13 -2.7083910991347385e-13 1.5560990145051348e-10 -2.0030045092652667e-10 2.27375977371139e-10
142 -9.252533606237327e-13 1.315354581379024e-13 1.2811388249155525e-13 -1.040463044517938e-10 1.2363030635184562e-10 -5.282093626754541e-10
143 -2.792687819136926e-41 1.083353434502414e-40 3.53648386948612e-14 -1.3541605417360828e-37 -3.4907792135252583e-38 -1.4619766651698123
144 -2.5154232363139876e-13 1.0504202211420324e-13 1.8816341297434618e-13 -1.3067883423225494e-10 -3.122940996946389e-10 -2.449483761463988e-10
145 -1.485973635872111e-13 1.6888192411285332e-14 -5.7026779858094e-13 -1.1569672256406328e-10 -3.730123054582679e-10 5.5393927826090486e-11
146 -1.1502594388069153e-13 -3.202114622678473e-13 1.7364718352844482e-13 3.5195463388712623e-10 -3.449974362731315e-10 -4.2469232157350174e-10
147 -1.3470211005118337e-13 -1.2009661764204103e-13 1.7308998083290666e-13 1.505523357460024e-10 -1.6514826612632898e-10 5.073740956451012e-11
148 3.593961967850058e-13 9.141538162245848e-13 -5.993129323210067e-14 -5.4186154529028e-10 -1.5372050700667574e-10 -2.6396198244649684e-09
149 -2.2694328920503108e-13 -6.420208782460208e-14 -2.864659393942252e-13 2.808460082643383e-10 7.951070863812883e-10 -2.8603641447531063e-10
150 -1.9079199376345471e-13 1.4538272614762396e-13 -2.6065933555362574e-13 -1.8697275371143885e-10 -2.3495031061326554e-10 -9.545613465570589e-10
151 3.895019204957065e-13 4.60546013433256e-13 1.0838691933158837e-12 1.864301249787511e-10 -6.965204689773612e-10 2.932014931970053e-09
152 -4.2685043651401903e-13 -2.691709103448711e-13 -1.3972565049236196e-13 -8.226413083327921e-11 -8.893350743370838e-10 4.3982612623347687e-10
153 -8.97631830746008e-14 -1.3437835741104557e-13 -3.8580922369293825e-14 -4.940891382087293e-10 7.327814269950955e-12 1.8108795548276298e-10
154 -9.491235744890463e-13 -1.646081751056265e-14 -2.804891242724576e-14 -2.47850014691839e-10 -8.37652543549511e-10 -6.754921404658216e-10
155 -2.6504965461009547e-13 -3.607529074953944e-13 4.8100290121098463e-14 -1.2990101415981503e-10 -1.1054091982726934e-09 -2.95388456273694e-10
156 3.3981164971745096e-13 -4.551276239527766e-13 2.9728940581297813e-13 -2.578520441492713e-10 -9.88678409800345e-11 2.587557843890242e-10
157 -3.2645070589035025e-13 -4.723618705469862e-13 2.1109777488758071e-13 -7.574811228500912e-11 9.950772803945663e-10 -2.989423661110515e-10
158 8.649148311141451e-14 -4.2191798077721724e-13 1.7666020421487987e-13 1.14666768559353e-09 1.8998985472253801e-10 -7.441645190969492e-10
159 -1.4549608505126538e-13 -3.924742131970481e-13 -2.7067268877340586e-13 4.907756113462753e-10 -1.8316052627512347e-10 -2.679154816181439e-09
160 -8.78579662515633e-14 2.0947716304632433e-13 5.326337951030944e-13 -7.477254438060795e-10 1.476941343189674e-10 -2.1125004845800365e-11
161 5.351066818494081e-13 6.957467052735511e-13 -9.445025065955963e-15 -4.6566901695234146e-11 -1.0905539165370345e-10 -1.922047069683679e-09
162 -8.014118117415931e-13 -7.553672827835882e-13 6.756496534944368e-13 1.0353729920073475e-09 -1.869815280762335e-09 1.8523218428636986e-10
163 -2.5295584116433725e-13 6.645615407929501e-14 -1.9216002750456027e-13 1.7293752241487743e-10 2.444820872075166e-10 9.053797753189403e-11
164 -2.6815303653423186e-13 2.9182995572176713e-13 2.5290409296161893e-13 -3.897850707993289e-10 5.498461699284679e-10 -2.990918419701567e-10
165 -8.831372038980291e-41 9.231043716683477e-42 8.378348105222162e-14 -1.1538538358827467e-38 -1.1038960290988786e-37 -0.07069112139369299
166 1.1401932518752478e-13 8.127174989231778e-14 -5.127368525418526e-13 -4.836612158783144e-10 1.3968647943424806e-10 5.909395459888885e-11
167 -2.358663877973663e-13 -5.69798550899367e-14 -1.8910599712169624e-13 6.675900285027224e-11 -3.0152946268958693e-10 2.1571526685407885e-10
168 1.10036536147567e-13 2.5288613263113124e-13 1.3018599465538852e-13 -3.22371953250124e-10 1.3042589568707643e-10 2.4949188995560044e-10
169 3.1698693477684225e-13 -4.654736038217058e-13 2.0168511726194982e-13 3.775019283718797e-10 -4.927715942773822e-11 6.160424170052168e-10
170 1.3489602437576052e-13 8.141604565813585e-15 5.934515273738388e-13 -4.974691458462546e-10 1.375274538666954e-09 4.124710047111881e-10
171 -2.609666738441617e-13 -6.497784260387151e-14 1.5369588738704144e-13 -1.3081702025973729e-14 -2.5922866670431745e-10 -2.77984192303707e-10
172 -2.8600093867115075e-14 -5.531730398394094e-13 -2.698649832068207e-13 6.809385347413457e-10 -5.008837480091602e-11 -5.80534632550805e-10
173 7.727998421247936e-13 4.615956041047259e-13 -1.2536120557856812e-12 5.010195833297595e-10 1.560615189204879e-09 1.0272464842626687e-09
174 -2.7103816525342953e-13 9.015490381885623e-13 -9.355862574904126e-13 -4.115656490354243e-10 1.1043087785210334e-10 -2.0775025027383432e-10
175 -1.0530555259559799e-12 3.5560838841776347e-14 8.86885062750466e-13 -7.386341490922204e-10 -1.1828364400617346e-09 1.6448152383353669e-10
176 -1.0790077508199303e-13 -3.5927018739336085e-13 -1.9823718148125114e-13 4.4918766786780615e-10 -1.3498116960556172e-10 -3.978485088885342e-10
177 -1.6934196748588176e-12 1.0626324856149207e-12 3.608807927937264e-13 8.941268768261982e-10 -2.1884500708734913e-10 4.825744134862384e-10
178 3.247916216105524e-13 6.578134374296322e-13 -4.995439554730686e-13 -4.2288300817544637e-10 1.6062540880442085e-09 8.16483690816313e-10
179 2.6446529105327457e-13 -4.884277030322735e-13 4.668002061449945e-13 -7.650841070574041e-10 -3.5765312735035416e-10 9.75512831127371e-10
180 -1.694281306029242e-13 3.3129533095653703e-14 -5.417002442919885e-13 1.6104773195242743e-10 6.519178282547326e-11 1.6821677526947336e-10
181 8.760762030810741e-13 6.350864086040079e-13 -2.2010424920937033e-13 -7.544437623102448e-10 -5.144494986942644e-10 1.8510726600534898e-09
182 -4.0589517073146507e-13 2.6765522519778135e-13 1.7505742898136944e-13 4.165065712228641e-10 4.422001565173921e-10 4.062434447148856e-10
183 -5.181324381159535e-13 6.999265376152167e-13 -7.486997060693107e-14 8.72284542485363e-10 6.095050293869935e-10 -1.0857187442486972e-09
184 -2.715008966714787e-13 -1.5455231204441367e-14 -1.536946752578636e-13 1.3921689606344123e-11 -3.344681554024273e-10 2.977035608279439e-10
185 -5.269501409056959e-13 1.4447608554257603e-13 -8.022414913084484e-13 1.5287940476282694e-09 2.939479586216189e-11 -1.9941965494502145e-10
186 -5.420685938075632e-13 -8.011962389135781e-13 4.996899172472709e-13 2.2216734210183816e-10 1.5116962872082693e-11 -3.0314968559987306e-10
187 -9.559501231928481e-13 2.9063062312707316e-13 -1.7698768902707408e-13 4.898304793249659e-10 -4.398095520441276e-10 -8.751486096437112e-10
188 9.758950347091018e-15 -4.845053153445739e-13 -8.524045966046718e-13 -4.0522396870775945e-10 5.939084642030837e-11 6.272074039217136e-10
189 -5.415505602669122e-13 1.2468427226859496e-13 1.0189073963899928e-12 2.4652150579170126e-10 -4.4120278231231667e-10 -1.676123118069435e-09
190 1.223042619399261e-12 2.1578030518270892e-13 6.465384100232098e-13 9.670289618812278e-11 1.2213613031484286e-11 -1.219429176797685e-09
191 -2.151759372429814e-13 4.344120881146244e-13 2.5380616701014717e-13 6.457880974257147e-10 2.2617870760867808e-11 1.2873309201139753e-09
192 2.2399882183275488e-13 -4.54760122113598e-13 -2.6564639733185444e-14 3.269349381758138e-10 1.0577977228895559e-09 3.733544726371203e-10
193 -1.0829275192158292e-12 5.028108451732822e-13 1.705638836859725e-13 2.0658950244893984e-10 6.614178790670341e-12 4.663324676577247e-10
194 -5.688808782148867e-13 1.8325217108301777e-13 -5.780776689049161e-13 -2.0819816283752042e-10 -4.166275165278201e-10 1.2934395521431198e-09
195 -2.6952012113909397e-13 -6.895680132252346e-14 -4.856888852679586e-13 -1.873278405999345e-10 -1.045948684513695e-10 -3.39056996109693e-10
196 -1.3532519627844152e-13 1.0471358010527722e-12 -1.443693603162076e-12 -4.953568301261725e-10 6.740904354303839e-10 -2.0247595573435046e-10
197 -2.7445484378709598e-15 -2.700744200965113e-13 -1.9400437701826199e-13 -3.138368012125468e-11 1.9130357949687939e-10 -4.3778874723981075e-10
198 -3.201307596979889e-13 -5.415280883149387e-13 7.404694081882154e-13 7.125918936784625e-10 -7.835591553808002e-10 -5.523254715546189e-10
199 -6.813507534872804e-13 9.963579636109543e-14 2.7104006110567597e-13 -1.3162747578895795e-10 -8.291647067058196e-10 8.156648690741265e-10
200 -5.388397784428998e-13 5.134223596274777e-13 4.857258059000955e-13 -1.9099048922120198e-09 4.5341766015686874e-10 -4.830681333131519e-11
201 -3.1935008629490286e-13 3.7434271845897826e-14 -1.1203985911043412e-13 -3.7408895354923774e-11 -4.0124833570401447e-10 3.6007226225441403e-10
202 1.5241887114569188e-12 -2.9282711811690813e-13 7.220212391566064e-13 2.0897728444960626e-09 1.8949840217383607e-09 2.2916504505720944e-09
203 -2.6801043341351375e-13 -1.6920197545698322e-14 -8.680606620306337e-14 -1.9070237023036534e-11 1.3001886787353525e-10 -4.252060594100237e-10
204 2.290821650217903e-13 1.9050205904317844e-13 3.704690423421282e-14 -2.444337556408374e-10 2.9581695742369653e-10 4.019369974292725e-10
205 -8.76051606655176e-13 -5.022942491620669e-13 1.8084963248036956e-13 -6.975036677937101e-10 -1.2921295877309315e-09 -8.182838674198066e-10
206 -6.477338282501966e-13 2.7049514565371976e-13 4.031472166581776e-13 -2.730142811902599e-10 5.18908859494759e-10 -2.912680177485651e-10
207 -4.0017948733528077e-13 -2.7101097399393984e-13 2.15125410927375e-13 -4.272675181058232e-11 6.103169171166922e-10 -3.247166531845153e-10
208 2.4124374262450913e-13 -2.242853499965653e-13 3.688314768297629e-13 1.2405179040688511e-09 -5.598827776932899e-10 9.268018713134329e-11
209 2.181105513399121e-13 8.215268962802687e-14 -2.2483905139920045e-13 -1.032677159904721e-10 2.72000139034526e-10 -6.639335201111196e-10
210 1.3823435214746328e-13 -2.8442044885098294e-13 -1.734168861240151e-13 3.5772250025572904e-10 1.6967238581189092e-10 3.364556956588656e-10
211 2.9027612180116275e-13 4.585573206916655e-13 3.2672998903843114e-13 1.969209686312776e-11 4.9975194844078235e-11 2.1037226728704149e-10
212 -3.593961342677782e-13 4.09610478486259e-13 -2.705775450630782e-13 -5.098564873200254e-10 -4.501985971264834e-10 -1.4806202609295682e-10
213 2.492640620588105e-13 6.740624316554826e-14 3.8435650485031684e-13 1.3693321813948382e-10 4.265862118923799e-10 5.773590325437274e-10
214 -1.3520477749265528e-13 -9.383821496801795e-13 -3.7064345745329076e-13 -1.1676985215482191e-10 4.2845062055133234e-10 -1.0648550804125008e-10
215 2.350294189564742e-13 1.6428964727349673e-13 9.069807011420132e-14 -1.4138375628621018e-10 1.1332603882272187e-09 -3.314984183585247e-10
216 -4.94541591032875e-13 -9.286318126217654e-14 6.48405571600584e-14 -1.2756707418509643e-09 -2.80206154686636e-10 -3.777364774012399e-10
217 -6.963286122924489e-13 2.498384567395945e-13 9.933581007293546e-13 -1.0777057130057284e-09 -8.485864683612894e-10 -2.4807537905915994e-10
218 3.067396512366501e-13 -3.762835381861996e-15 -1.8629845675784277e-13 -9.723608651886887e-11 1.4241064801594523e-09 6.08464654224297e-11
219 -3.260001239656498e-13 3.180032597288574e-13 -4.4953068735781126e-13 -5.821073132857596e-10 -7.203460295876084e-10 -4.852742473190063e-10
220 -9.66087278385059e-13 -5.417314355582322e-13 1.938369260936881e-13 5.344269375939363e-10 1.1270940390630726e-10 5.004157015607885e-10
221 2.446052495329141e-13 -2.9476890629913343e-13 2.958295895151302e-14 3.5796537991355244e-10 3.0037113617165766e-10 -5.208647773723382e-10
222 8.431177363467882e-13 -7.819938478591117e-13 -8.29076805374621e-13 1.1474672963361906e-09 1.6732799631141392e-09 3.3591882864807997e-10
223 -2.7020871283657545e-13 -1.0131072790028363e-13 -7.827943107851923e-13 -1.927785941054185e-09 8.141884888596925e-10 2.905664083572543e-10
224 4.0974839259851983e-13 3.500080070064556e-13 1.0364344788355846e-14 2.854381400942789e-11 4.934836173102803e-10 -1.286040422267112e-10
225 -5.374670642924594e-15 -2.0624293742011814e-13 -3.9897037227906423e-13 2.2864782608860043e-10 9.658989898499362e-10 -2.6722641137098574e-10
226 -4.3178673283486377e-13 -1.312107115176036e-13 8.931759093048212e-13 4.4324098979632205e-10 -1.940612746176742e-10 -1.2085936957847635e-09
227 3.333300739994233e-13 -5.907778708599643e-13 -1.4480688963949774e-13 7.549839978592153e-11 3.201140386094577e-10 -8.224968403986375e-10
228 -4.2020505689277003e-13 -3.3570268298678374e-13 5.771827846678602e-14 -5.902613801843199e-10 -3.7106141298127084e-10 1.207144079792396e-10
229 -2.7005069434831244e-13 -2.1055646621259384e-14 -2.709057661413437e-13 2.354295667551148e-11 -3.4198826022782584e-10 1.153745920293404e-10
230 -1.2755910480834168e-13 -4.1337563819273545e-13 2.0803613690223393e-13 5.244324150793863e-10 -1.439013617294172e-10 -4.5095136404399134e-10
231 -2.630923559074607e-13 -1.3564241329953922e-12 -3.5355528911073736e-13 -3.864766443374609e-10 6.76963762361468e-10 1.4492042189256052e-09
232 -3.6937265301136176e-13 4.306743274469491e-13 -2.6979195271617146e-13 -5.398634075612596e-10 -4.6007800657679415e-10 6.259029491160535e-10
233 -1.736868009184889e-12 1.1138631822647994e-12 -1.170327519717257e-14 -4.608723035839095e-10 4.5235039332033495e-10 6.273019838195369e-10
234 1.7372845872290228e-13 2.2388250055590536e-13 -2.7060872938352725e-13 -2.7859641495670796e-10 2.17917970137379e-10 2.30122170270712e-10
235 -5.294617481129783e-13 1.63866064584961e-14 -1.9920773477893742e-13 -2.0988913181450927e-11 -6.617115117565475e-10 1.3925753134702962e-09
236 1.7402242744390268e-13 -8.383140606805113e-13 1.0122314561694895e-12 -2.187373412122429e-09 -4.915125253083854e-10 8.716108277444311e-10
237 -8.429905937824563e-13 1.2255401206063041e-13 2.707753659621238e-13 -1.522449817096552e-10 -1.0528127633206211e-09 -7.092719965400558e-10
238 4.800488393294824e-13 2.927400017345539e-13 3.4989757047348586e-15 -9.808392633226656e-11 -4.036897471195382e-10 -2.7669493746070476e-10
239 -1.1812451025470033e-13 -5.40889109612335e-14 -2.690827312308227e-13 6.6198917652784e-11 -1.4891844891571383e-10 3.893083473534818e-10
240 1.0987455391121657e-13 -1.6370048743389472e-13 -2.431434876313583e-13 2.0803187341282107e-10 1.3974239164036442e-10 1.0416271067920476e-09
241 -1.5782120250975712e-13 4.762887414963622e-13 -6.323136262048078e-13 -6.464474698918585e-10 -3.092792433971121e-10 1.131291185724721e-11
242 -1.0777680249003975e-12 1.2528766687517614e-13 -1.0795493550282025e-12 9.903669573570883e-10 1.0438933452079483e-10 -2.0252795647005348e-10
243 1.079511224612593e-12 1.0551916642721367e-12 7.082938228384739e-13 9.595345051744811e-10 5.323171176597822e-10 -1.067507523086239e-09
244 7.371331112654751e-13 3.723415057424767e-13 -1.3266545295091459e-12 -4.357810106842781e-10 1.3285942808990164e-09 1.2679850450676626e-10
245 -1.0782488736621458e-12 -1.1359088300963311e-12 2.824103568153887e-13 1.1072223210845238e-09 -4.70155175583386e-10 -1.136066360563699e-09
246 -1.5733428641042214e-13 -2.1597468314325597e-12 2.3500405744043256e-12 -1.1558469623594881e-10 3.336060841800269e-10 -1.544525277846649e-09
247 -1.8397552120601107e-12 5.492971495575198e-14 -5.062923241619359e-13 -4.498820518496115e-11 -5.508486058570927e-10 5.265112151383106e-10
248 -4.2037247858354687e-13 4.925049450677863e-13 -9.624111785858817e-13 -1.4461845626282979e-09 -2.9583024382568245e-10 7.251129654349138e-10
249 1.5597369387576104e-12 7.329771018445779e-13 -1.0845106628101063e-12 -2.2845531064738593e-10 -2.07630261290383e-09 6.703584937742525e-10
250 3.324217240494893e-13 4.083613387322325e-13 7.106328660110566e-13 4.737130237800937e-10 -2.0326328125017383e-10 1.6296893737349643e-10
251 -5.364796405071771e-13 3.7750980568468946e-13 -2.975509918420382e-13 -3.81546865505101e-10 1.1939904581537166e-10 7.869385144252432e-10
252 -6.505291313585486e-13 2.3122493101848734e-13 1.1256969655957628e-12 -1.5556790114757877e-09 5.919512675260045e-11 -8.522189435072188e-10
253 -1.7845457631804719e-12 2.7007310668118683e-13 9.14748681983443e-13 -6.503336561873663e-10 2.512949199360636e-10 -2.047194865062078e-10
254 8.802309477099975e-14 -6.935433715175927e-14 -3.9604825311402094e-13 5.962212273048162e-10 4.2866070782169984e-10 5.6907110449911044e-11
255 -9.89704610654347e-13 -1.0851712205230096e-13 7.760218701874652e-13 8.555845213988068e-10 4.5188516365636514e-10 -2.8672213524001942e-11
256 -5.103269080913089e-13 -8.791839130316505e-13 4.165006526765018e-13 3.952197016125548e-10 -4.750556399621397e-10 5.788272695305937e-10
257 -8.806232915715569e-13 -1.8704124872949828e-13 -4.042074149069051e-13 -2.06244916347163e-10 -1.0925713797437964e-11 5.514310404895457e-10
258 -9.0164901389315e-13 1.022773369593959e-13 2.08584731285521e-13 9.687426086174428e-10 -5.335504127713315e-10 -1.7320637498603895e-10
259 -5.556092370615299e-13 -1.0827299019689792e-12 -1.7992401555705069e-12 -2.268766301117572e-09 2.772039777027404e-09 -1.946886007947942e-10
260 -1.0838580392339847e-12 -4.948663852034462e-13 5.451922538976661e-13 -9.628126867953692e-10 6.597669506207165e-10 3.023620503702148e-10
261 -1.0057360725445209e-12 -1.4773792220310542e-14 1.7225676496040855e-12 -2.166725057188247e-09 4.711002124055205e-10 -1.7238472943953798e-09
262 7.915116571378949e-14 8.751251016152818e-14 -3.24937992632016e-13 -4.30620228790281e-10 -4.733030167433057e-10 -1.266035124520292e-10
263 -1.0821544456153674e-13 1.010448077984855e-12 2.0028209265123017e-12 3.270314636321221e-09 -1.1524767114314394e-10 8.494937934381466e-11
264 -5.339037922990603e-13 7.244596329328389e-13 1.3504295125671085e-12 -1.4789597483588488e-09 5.842669283646294e-10 -7.196008627491287e-10
265 -1.0839086358978063e-12 1.0837788696826518e-12 -3.787359430795588e-13 -9.865987495844171e-10 -1.801817992828486e-11 -7.452211738312546e-10
266 1.3079398674530913e-14 -2.059596407393048e-13 3.014673474531757e-13 -5.425301691727036e-10 8.858729786546126e-10 -4.760646518694063e-12
267 -3.811342591287354e-13 -2.868995318940856e-13 -1.238275693672093e-13 -4.512719608814867e-10 5.634429121904028e-10 7.090611017018807e-10
268 -2.7081776391702695e-13 1.2893750028344081e-12 -1.3838661091681394e-13 -1.3777345337356805e-10 -3.212534617992012e-10 1.3818618402070881e-10
269 -1.032448495756594e-12 8.371254170836545e-13 7.45281972512606e-13 7.835076504975744e-10 5.331143452948465e-10 7.933082420105904e-10
270 1.922931174807152e-14 -4.4252984343470575e-13 -8.765067167711859e-14 -5.725777014653259e-12 -1.4573828517793975e-10 3.4346085733609547e-10
271 -8.550414833725141e-13 -7.744211230583189e-14 -4.284505727058441e-13 -3.048653365100435e-10 -9.842786694435152e-10 8.829742295579551e-11
272 -1.0789356307909902e-12 1.1217811872574406e-12 -8.752950978003765e-13 1.1677430162719464e-09 8.943206488882475e-10 8.869625747174526e-10
273 -2.372409636026447e-13 -8.404346189557617e-13 -2.921486809214861e-13 -1.2396731037977782e-09 -3.505419038793737e-10 -7.299747483953295e-10
274 -1.3555052891569156e-13 3.162383483484115e-13 1.0565462378991127e-12 -2.579416116557048e-10 -8.672009826808366e-10 -1.131043949203491e-10
275 -1.2396327929610552e-15 -1.1632770225543356e-13 -7.565500964882962e-14 5.05806025816211e-10 1.6575625996348938e-10 9.873697185539076e-11
276 -1.94710721667281e-12 5.118586600819014e-13 -7.146465423926409e-13 -7.818288435010784e-10 -1.2042808496950867e-09 -3.488932981745373e-09
277 -2.7097868725010403e-13 7.924846411315449e-13 5.128938500213149e-13 -3.5361612457883553e-10 7.525541483370558e-10 5.683835124186194e-10
278 -9.657963178859804e-13 -6.902016707875848e-14 2.1810008086913e-13 2.992471168716118e-10 3.63522472660305e-11 -3.4335249704402927e-10
279 -2.64202846504927e-13 5.401505246876567e-13 -1.0862876465244695e-13 5.740498133795402e-10 3.4805733075407005e-11 -5.207492772844874e-10
280 -6.732343652368275e-14 4.847847003802773e-14 2.9705571080791077e-13 -1.5923422251344381e-09 -5.000055465646924e-10 2.031615637767211e-10
281 -1.6635871342607486e-12 -2.6983046759279476e-13 6.965440613672243e-13 1.323240465553094e-10 5.320116469474801e-10 -2.9504383089449455e-10
282 -7.980910910046141e-13 -1.7225650061520863e-13 1.0689778778795165e-13 2.7133965375114435e-10 -5.193326534131369e-10 6.196184615665779e-10
283 8.124951765562458e-14 6.201492299155054e-13 -1.0963364478048403e-13 -3.303237901687459e-10 -4.733120394758647e-10 1.61341436212827e-10
284 2.1207585092598408e-13 -5.122649771384667e-13 1.3535945922938966e-13 -2.0838655460819163e-10 -8.064389985013755e-10 -5.171876131591267e-10
285 -4.630980273173457e-13 1.6633214936752613e-14 7.911410249337716e-13 2.798343550808575e-10 -2.3256209353417104e-10 5.093392230950987e-12
286 -1.971773500364483e-12 -2.689135245306629e-13 2.4658722992204087e-14 4.017126211327575e-10 -1.4396294415215819e-09 -8.658752363915945e-10
287 -5.411814129625221e-13 8.826789526836053e-14 -4.385353184245707e-13 8.778206315215327e-10 2.826427935652144e-10 3.260074077117914e-10
288 -5.414185666627594e-13 5.475160150594312e-13 -4.3337178556657085e-16 1.7444188539982283e-10 -6.127186121500798e-10 -4.688774660360944e-10
289 -1.6323425509589664e-12 8.547207976578062e-13 -8.030524321080098e-13 -1.3299517803127187e-09 -2.903104399136615e-09 9.00862639761088e-10
290 -1.3272403432591462e-12 1.3555607738794682e-13 5.193848478353622e-13 -1.0385537620859267e-09 -5.937480266572749e-10 8.415958365935134e-11
291 2.709877358764442e-13 2.0210639670537347e-13 -4.825179910653552e-13 -4.5128882018734536e-10 9.98613452142825e-10 2.388522927585218e-11
292 -1.6721497509356056e-13 -2.848702595896884e-14 -7.557971625539022e-13 -3.6930261443744255e-10 -1.98765843121499e-09 4.432041925033119e-10
293 -6.692498252972858e-13 -6.76162101513656e-14 -2.1608152054231166e-12 9.258669714346498e-10 -2.628890131360556e-10 1.5141440042034446e-09
294 -2.9257564607529524e-13 1.1045603312992143e-12 -5.941630298337448e-14 -1.553390864144346e-10 -2.5260763653381747e-10 6.770907418595948e-10
295 -1.2480291001911421e-12 1.1974359624142242e-13 -2.29992923237437e-14 3.692640463826624e-10 1.0675827289033629e-10 2.6411089919614175e-10
296 -5.388172777605369e-14 5.980869371157611e-13 -5.58374388884633e-13 7.608819283254573e-10 1.013782848897475e-09 -3.519388658823218e-10
297 -2.038903498925716e-13 5.233803806552972e-13 3.311199038466048e-14 1.7908944965775695e-10 -1.1648427546229813e-10 -2.1012735734708152e-10
298 -8.261835793548392e-13 -1.0832206126070456e-12 2.9061352111095105e-13 -7.803363281861552e-10 1.6585406347865806e-09 1.865310642335556e-09
299 -1.306003519942676e-12 5.37770112916744e-13 -1.8451412997800163e-12 -9.69308703829847e-10 -7.529819656682371e-11 1.8662685672214492e-11
300 4.5240252807622e-13 1.083816978787397e-12 -1.4836788799961387e-12 -7.56634415657064e-12 -5.683971603224232e-10 -5.469883093220509e-10
301 -1.1845489198951142e-13 -4.217857147890769e-13 -3.75314635074596e-13 3.893641257602593e-10 8.87068216242263e-11 -4.963266060828793e-10
302 -2.263826108504031e-13 8.227495000713442e-13 -4.1191894688645964e-13 -5.415136053160062e-10 8.759661006935031e-11 4.5940676891073357e-10
303 -6.936701180668652e-14 -1.678226427540385e-14 -1.237545698271558e-12 -1.5894210826299954e-10 2.174372603720319e-09 1.5160307498690288e-10
304 1.4749913885260523e-12 3.5431396761796633e-13 1.344000434081651e-12 -1.230925624798769e-10 2.2099636933392915e-09 9.46922741530938e-10
305 -7.741515588098062e-14 2.1677549690935612e-12 -1.923411002615906e-12 -1.2320775871922239e-09 3.122647249899036e-11 1.3429230921019189e-11
306 -8.508952528561558e-13 1.7975482182206564e-12 -1.4848099738680195e-12 8.083604678453988e-10 1.2578436713083814e-09 3.3972174549832917e-09
307 -8.890055854820671e-13 4.0901168728471247e-13 -1.4900968371179598e-12 7.179809597476476e-10 -1.7156329581639267e-10 8.177116467843149e-10
308 -8.270694411317365e-13 -3.308605902760481e-13 -1.261331934798991e-12 7.514451175349532e-10 1.3872504153710021e-09 -8.378811627960684e-10
309 1.0354860556488439e-12 4.327601786435117e-13 -6.634098488523611e-13 -1.8091783529426378e-09 -3.4566078716829556e-11 -3.907083699416507e-10
310 -7.065932356809844e-13 6.439042720398704e-14 -3.5630056111213096e-13 6.720784952357606e-10 2.0494126774549284e-10 1.919241011823457e-09
311 -2.1683525326756524e-12 4.141926279434022e-13 2.404612633096128e-12 2.8432103973629704e-09 -2.1340807071891474e-09 2.3896141167906275e-09
312 2.7102222860348765e-13 2.2758886283663685e-13 -5.22490646243757e-13 -2.2304823359515813e-10 9.158129813790863e-10 8.4638880303164e-10
313 -5.418868335323825e-13 5.10046313787805e-13 2.9135276621796314e-13 1.4560985951999542e-09 -1.5697415650953322e-09 -8.486675810039051e-10
314 -1.0841581353029116e-12 3.353765200809354e-13 -7.589318447914198e-13 -3.72342389081936e-10 -1.1095880810336983e-09 -4.6205604655656187e-10
315 4.038476006807831e-13 4.214137697303858e-13 -8.726481737885824e-13 -3.59197753850601e-13 -1.3832383068831402e-09 -3.9045498751235986e-10
316 -8.085128642951123e-13 -5.203111235635517e-13 -4.7214742844646693e-14 5.7342017471107936e-11 -1.5725056846383127e-09 -5.766565755933772e-10
317 -8.339307144874791e-13 -3.083386918887755e-13 -2.1660675775190676e-12 -5.875792577372532e-10 1.2830257331316668e-09 1.693006710385212e-09
318 -8.625395557791345e-13 5.031461133510553e-13 2.505963588985733e-13 -2.4468250485009796e-09 1.6223089213383163e-09 -2.0630302790504004e-10
319 -1.0548230257268663e-12 3.6618365129745425e-13 -5.147059721157742e-13 1.0587577788883811e-09 -9.504282489248503e-10 -1.1478604075550908e-10
320 5.463643885034204e-13 -6.51845447988011e-14 -1.5146275284096595e-12 -2.623509692356785e-10 3.631772727062745e-11 -4.784166951024683e-10
321 -1.3321691518383155e-12 -2.5618654555872615e-13 1.8807612735545122e-13 3.069528387362573e-10 7.581145928961036e-12 1.1166677274900712e-09
322 1.5681483430546943e-13 1.741384333565548e-12 -5.065670739663813e-13 9.627232758216312e-10 2.184627060320441e-09 1.1165685887843375e-09
323 -2.3692060008986403e-14 9.700945111950181e-14 -4.046940941412815e-13 5.097345706448439e-10 1.9695454917068378e-11 -1.7173354636389402e-11
324 1.9492810744381403e-13 6.504110145671027e-13 1.2932492376525071e-12 1.9758935890896467e-09 -7.885485501009182e-10 -4.881231688454845e-10
325 3.279105283564813e-14 -2.0585602682424086e-13 1.4852238992760203e-13 -1.997541456907433e-10 -7.803896033408904e-10 4.2564044089256873e-11
326 -6.671009522491103e-13 -1.5581251945552991e-13 2.6797680209590796e-13 2.4984623941520944e-10 6.329049541815499e-10 -2.3344221964165164e-10
327 -1.4082448105074114e-12 -2.2772386026314507e-13 2.888889401143915e-13 -6.704397621799428e-11 5.644901112372116e-10 -1.3159056964564368e-09
328 -7.059627281298628e-13 -1.0065423301932293e-13 1.3002462450604343e-12 8.534316706233745e-10 1.7578672718130849e-09 8.170820035570369e-10
329 -1.6436327135902948e-12 1.0823774401113634e-12 -1.7739532852768178e-12 8.325860905697993e-10 2.869719299383935e-09 -4.518089915753615e-09
330 -9.243069415495497e-13 -6.970551812651425e-13 -3.3715190888765655e-13 7.720977282391077e-10 1.191829968723192e-09 2.0338747182046997e-09
331 -7.26933320454308e-13 2.719949153645465e-13 8.676167769561154e-13 4.922285926567922e-10 1.5388073088727406e-09 9.359683901225209e-11
332 -7.764902120094861e-13 -1.6249722102812053e-12 -7.458845358200394e-13 2.6588148408647606e-09 -2.7129165623699793e-09 -1.8603564107387783e-09
333 -5.110839074558606e-13 -4.304782459548958e-13 -8.117279332382291e-13 2.560557664966803e-09 2.4144750416437133e-09 -1.2626639377946488e-10
334 8.303675466772678e-14 -5.363166359503593e-13 -1.3005864810528348e-12 4.1360196127384924e-10 6.156278264572652e-10 -1.263731496077805e-09
335 -1.3390862912151575e-13 4.522225199133413e-13 5.897807445470179e-13 5.770520168054071e-11 3.6753172308525137e-10 6.551199976501334e-10
336 -1.0823486610109906e-12 5.869273636173763e-13 -5.556130173896247e-13 2.908532019654319e-09 -1.3011392890402751e-09 -1.342448727540039e-09
337 -1.2785362469556423e-12 -5.406289488948209e-13 7.81070651881225e-13 -5.160859370422141e-10 -1.0838902939327327e-09 -4.1409817976600255e-10
338 -3.22273629401021e-13 8.619702124928391e-13 4.191782229547749e-13 -3.2010981893079067e-09 3.6831295344438612e-09 1.4219342297212535e-10
339 -1.1558351645836376e-12 3.680163823557385e-13 -8.703591664707336e-13 -8.375314463572009e-10 7.401149146975493e-10 1.1897868309003607e-09
340 -8.039566932976521e-13 -1.00727962496085e-12 1.91605909588062e-12 6.924027065608051e-10 -9.51513342150747e-10 7.200326631177266e-10
341 8.967014806719056e-14 7.773093997551406e-14 -2.644857188493185e-13 -3.4422861844377534e-10 -3.011829680118787e-10 -1.0478063303602223e-10
342 -1.026527826160598e-12 1.7495097137356347e-12 9.321637678096524e-13 6.139541219321751e-10 -1.2227699354097428e-09 2.1936535943964355e-10
343 -5.397252115455098e-13 -5.470661572513904e-13 -2.271326844155838e-13 -9.439046331929112e-11 -1.0289944438304235e-09 7.837006535704045e-10
344 8.234906083505548e-14 1.7671534388801405e-12 -4.376939961881418e-13 -1.708499729558159e-10 -1.6202385925988293e-09 2.4728108523032308e-09
345 1.03239066379239e-13 1.199434970220275e-12 -1.23725518621107e-12 -2.256125024962708e-09 -2.3155307578459502e-10 -1.2923387020530297e-09
346 -1.083447384849747e-12 5.945337863787464e-13 -2.2290833819069006e-13 2.79841092156442e-10 3.426123647432892e-11 -1.017150139098195e-09
347 -2.7086877064840044e-13 3.149653052014236e-13 -2.765020996555459e-13 -8.143217300202958e-11 1.7526553228464003e-09 -4.662100210897805e-10
348 1.0954693495628783e-13 2.166318625168815e-12 -1.0943997798994743e-12 1.3036875886448398e-09 -1.7247735193871247e-09 -9.100025368823095e-10
349 5.419685903289894e-13 9.429637499940603e-13 3.1082243042492745e-13 -1.1365146723086675e-10 -2.1623453984996207e-10 -1.6988882926735378e-10
350 -1.72528409549847e-14 -2.8863370904599045e-14 -8.425718845097496e-13 -8.092565266652059e-10 -4.98430633827332e-10 6.539823049954743e-10
351 -1.0323178094166493e-12 5.093758549065606e-14 -1.5116022604297344e-12 7.511467518946603e-10 -1.505190842363883e-09 2.0013317983711394e-09
352 2.0970046537337095e-14 4.244600567260389e-13 -5.097523155027917e-13 7.485109211918539e-10 5.070194344810346e-10 -1.7953590565879174e-09
353 -1.6787543101981445e-12 -2.7073223850065704e-13 3.336690727824293e-12 -3.284755868135826e-09 1.3043608088292412e-09 2.491528466672857e-09
354 -4.108819537870466e-13 3.797687468398394e-13 -2.1673367376009516e-12 2.064510828858249e-09 -1.683571732209823e-09 -1.634323289697146e-09
355 -1.6010586289559978e-13 -1.5973646279941168e-13 -1.4710013931792473e-13 1.611929986035949e-09 -4.376211241772439e-10 -2.5745038927303677e-10
356 -1.0618161932304745e-12 9.155842088677809e-13 5.975267920982331e-14 5.970205584512993e-10 -4.657492653451241e-10 2.898961021808431e-10
357 1.1833299835054605e-13 -5.417036853951642e-13 -8.70031567509102e-13 -7.383881438388734e-10 -3.4146123218481936e-10 -3.2425161669142977e-10
358 2.6956659195310495e-14 1.735113400962521e-13 7.294686392900617e-14 3.998332308515551e-11 -3.6961190038147123e-11 -8.106328477662177e-12
359 -1.1410584675024243e-12 -3.427447840012194e-13 -1.475632589790605e-13 8.503346099380734e-10 -1.331682885939292e-09 -2.028411885997474e-09
360 -8.524406621939708e-13 6.424458262113506e-13 1.4161476382737019e-12 7.112319153352099e-10 1.2890251649572442e-09 6.857487822905341e-10
361 2.710624800933974e-13 -6.747185812449092e-14 -5.553686119736088e-14 1.9406812823268853e-10 -3.8143129294621675e-10 -4.2453274993447063e-10
362 -5.434160047475301e-13 -2.7042367816859937e-13 -2.181875055523455e-13 -9.958198911543681e-11 7.130909735092007e-10 -2.399790564242602e-10
363 -5.420848572838795e-13 6.823970162353228e-13 -5.218038383159409e-13 -1.46740818424491e-10 -1.0591408390125245e-09 -5.325303305601137e-10
364 -1.3531241897289838e-13 -7.568266713705289e-14 1.9476890594949283e-13 2.2637364498118525e-11 -3.472378523423032e-10 1.053982082595322e-10
365 -2.3494543815648915e-13 1.2042827634214675e-13 -1.4078348787755595e-12 -1.884274503478586e-10 -1.0926065886956351e-09 -4.315053543249969e-10
366 -2.43779142672746e-13 2.1679575617569457e-13 -7.117998968944274e-13 1.0431308658559945e-09 -9.78205779790651e-10 -1.7749062980578489e-09
367 -1.9845679261386475e-12 -2.574712639540229e-13 -1.3417913856736628e-12 -2.439803824183733e-09 -1.6403430807977277e-11 9.010227320103001e-10
368 -1.1083811872532957e-13 4.482442353041849e-14 1.8510295279233865e-13 -1.6025993667640545e-10 -1.0367053716393645e-09 1.0380866907373948e-10
369 -9.245065449706953e-13 6.232671845408848e-14 6.923417634648291e-13 2.5927455778815505e-10 1.9496571451501497e-10 1.0313333675302325e-10
370 -1.5633993793511074e-12 -3.9326374441207794e-15 -1.679873119327629e-12 -9.272425130996166e-10 -8.767852939053576e-10 -3.878102699317598e-10
371 -1.6842029740117992e-13 -2.9785223740650695e-13 -5.836210570476098e-13 -7.463902505334671e-10 -1.2517926386591454e-09 2.0690102056380305e-10
372 -8.612938744754534e-13 -2.168699895084075e-13 -1.6395123602778957e-13 2.5038369555136906e-10 1.7153482180564294e-09 7.891038343235549e-10
373 -1.634739912013379e-12 2.709747313802679e-13 -1.1918619055508088e-12 -8.101006029336301e-10 2.1209768422783857e-09 1.2114481391304553e-09
374 1.3139349134655638e-13 -1.46576645663491e-12 1.2419517365523564e-13 1.1033576627215058e-09 -1.623175916011649e-10 -4.0743038163296444e-10
375 -4.2946648054710335e-13 2.8661451325752024e-13 2.083927546468542e-13 2.7947228995426422e-11 6.324065454987054e-10 -8.702887399109796e-10
376 -8.511386332736535e-13 6.817824313613587e-13 -4.828532030462253e-13 7.469624669749806e-10 1.269486759252546e-10 5.043045909242638e-10
377 2.705929373284227e-13 7.347122891506556e-13 3.151921104350597e-13 -4.89478442234771e-10 -3.4154709127276025e-10 7.205467556552725e-10
378 1.6763062768495874e-13 9.182920263502076e-13 -8.5765474437695e-13 5.267496926837338e-10 -1.0902176654405496e-10 1.0917418258361193e-09
379 -2.3126500115303497e-13 -8.436901679661731e-15 7.244833761487403e-13 -4.663648303758258e-10 -6.318751257490365e-10 -1.877582208973722e-10
380 -1.1034210050157784e-12 -3.6711785556912467e-13 -7.794652321409363e-13 6.391323060808054e-10 1.6110326264989156e-09 4.112539077588481e-10
381 3.39219838261178e-13 -2.719218851761118e-13 -4.526722930130741e-13 1.223686495016496e-09 -8.686385518570154e-10 6.529484961451766e-10
382 2.693128709758187e-13 1.5123076652519085e-13 1.1177535825909291e-13 -2.2201324161941972e-10 -2.7445952798598176e-10 -2.0639647757341484e-10
383 -1.0841908914929516e-12 3.2300724343665433e-13 3.049273369666692e-13 1.395213340661407e-10 1.3798897372160561e-10 4.411703464973397e-10
384 -1.033928013392168e-14 -2.0947020413483123e-13 9.180837173169388e-14 -1.2113434910703293e-10 1.3079203437139514e-10 -3.2759497548118204e-11
385 9.325453279338968e-13 -1.2741080197669488e-13 -5.013802703431258e-13 -1.2603976300652053e-09 -8.485063438509048e-10 1.9127397722088375e-09
386 -4.6374762422756e-13 -4.581033503085863e-13 6.540257676496837e-14 5.463624830662112e-10 -1.0282385138186875e-09 -8.756483481256905e-10
387 -5.493302791800005e-13 -5.410190694070141e-13 -2.794166761256854e-12 -2.2092800897905712e-10 2.6476522728801664e-09 -2.056923874418206e-10
388 -8.903954773281995e-13 4.326859148168735e-13 2.852249293040758e-13 -3.14155909291277e-10 9.252764429691153e-10 4.862895773426824e-10
389 -5.079413923502655e-14 1.040309809934304e-12 -1.1795975057558164e-12 -7.000369158713084e-11 4.286750584916034e-12 6.123806869197151e-10
390 -5.309169123398011e-13 5.421224343210624e-13 -1.8312212923320352e-12 7.309036540952863e-10 -8.702615847986918e-10 -1.8846966970080866e-09
391 -2.161389719937853e-12 -1.0811668308368975e-12 -2.1679899687743704e-12 -7.046854994583613e-10 -1.4632081268746005e-09 2.6782995027478257e-09
392 -1.0838473010994153e-12 3.3477725635102756e-13 1.1103780342755087e-13 2.38196284075299e-10 -2.7679578572829836e-10 -7.151752736186218e-12
393 1.0979839280196134e-13 3.556655067468896e-13 4.0516013157581443e-13 1.0220077331581924e-10 3.3973715299846983e-10 -5.096964493091709e-10
394 -1.0836389485959377e-12 -9.885546231231693e-14 -1.0347036610251348e-13 -3.24146287397571e-10 7.138311076697942e-10 4.81973401685381e-10
395 6.070231833070635e-13 -9.232244001259545e-13 7.093962097659689e-13 -1.8149441780938745e-09 1.8187393182919832e-09 -1.5137509989093615e-09
396 1.233680200340383e-13 -4.2222797572584463e-13 -4.766859532652895e-13 8.219238493539124e-10 1.3427099941492562e-09 2.2995896604114235e-10
397 4.924191086044978e-13 -6.794338113500707e-14 7.134430936298665e-13 -1.3438801361381869e-09 -4.1843356679245425e-10 -1.4292898453592223e-10
398 -2.167049506518794e-12 -1.1895233169201194e-12 -3.656086715974714e-13 5.22129685086703e-10 1.2824807532578686e-09 1.0755999578297723e-09
399 -1.0828857486677568e-12 -4.479186235955806e-15 4.691528078017909e-13 -3.242351317783739e-10 -1.0268336114744815e-09 -1.4148613166780508e-09
400 -9.899464060355504e-13 3.6192801895640006e-13 -2.6092936057928784e-13 9.700784786137282e-11 -1.8623455113270204e-10 1.388913257563588e-10
401 -6.567110519298919e-13 -6.229167172974848e-14 -6.908533941858966e-13 1.970744898254778e-10 5.626420032502004e-10 5.850115165002268e-10
402 5.263664818515491e-13 -1.0821198037095265e-12 4.904920783683681e-13 3.4620702879214246e-09 9.710132261538559e-10 -1.506861854527748e-09
403 -1.3775500925326343e-12 3.430998798271302e-13 -3.1707416783925856e-13 -1.210417575066209e-09 6.903706831182971e-10 3.9856277389429105e-12
404 -1.3571993565839146e-13 -6.778331720690726e-14 -1.3911814320829407e-13 7.137378287980789e-10 -8.496515576591618e-10 6.75458681610618e-10
405 -5.418207229986748e-13 -2.542445985289803e-13 2.177043223013604e-13 -1.1885585351906571e-09 6.211800722220401e-10 -1.847874178507699e-10
406 -9.643162424010994e-13 3.7061125088490603e-13 -1.5216379595479542e-13 9.684966700440564e-10 -4.911684443001349e-10 -8.816756403509943e-11
407 -1.8323310483808815e-12 1.9571959574977503e-13 -4.2103939936611717e-13 6.342216724667203e-10 -1.509811745255354e-09 -2.1426762089456038e-09
408 -1.0838712119416787e-12 3.551388292273954e-13 1.2386845813081514e-12 -1.404318354516818e-09 1.9608714351960087e-09 1.148709388180934e-09
409 1.8020492167219234e-13 -9.788778980123704e-13 1.0997861178252311e-12 2.0399250498728235e-09 -1.903085327081647e-09 1.1975476587989097e-09
410 3.0844777498860975e-13 1.6095983416698183e-13 -2.0671216978398945e-13 1.3696384776249687e-09 9.969815716643297e-11 2.5175156531541863e-10
411 4.956877666808402e-13 5.189735820274295e-13 -1.2984185858015193e-12 -7.035707713691835e-10 5.235523036665728e-10 -1.9167100975967234e-10
412 -7.382509541969402e-13 7.546537967484574e-13 -6.749477588631656e-13 -1.1850157813389774e-09 4.293355348970087e-10 -1.2169132346298068e-09
413 -3.2015809527647426e-13 -5.209202310422716e-13 4.468917139529417e-13 8.704691775765878e-10 -3.7557730416970443e-10 6.820639941246625e-10
414 -9.404843162489436e-13 1.5557062441599745e-12 3.7179832696159964e-13 -9.262501882148671e-10 5.918279447247174e-10 5.504555375272021e-11
415 -3.7883283526877914e-13 5.418420416997693e-13 3.975007602594415e-13 -1.1831406784444323e-10 1.322998284769688e-10 3.388574543007954e-10
416 5.609412558684675e-13 1.0209093009824298e-12 1.3540979577035767e-14 9.008231210263859e-10 3.5287232050063717e-09 1.2240643252269913e-09
417 -3.5355177794380863e-13 1.7185491948626822e-12 -4.254307305754509e-13 -5.223384621428513e-10 -2.7350589780819296e-10 -1.5240985043546213e-09
418 -1.0390786209978723e-12 3.040709253677226e-13 1.3574554688161884e-13 -9.548563826960122e-11 -4.875075850769701e-10 -7.117370804954004e-10
419 2.4373802889470767e-13 -2.7313348930644186e-13 -5.050792092070827e-13 1.0056829121368108e-10 -1.5428515202808982e-09 4.0796405041531767e-10
420 -8.285156021880446e-13 1.6652351663712812e-13 -2.4497788631505516e-13 3.805055120582533e-10 -1.7911961049416847e-10 1.3120351608521375e-10
421 -1.0617712355516964e-12 -6.953816966778721e-13 2.182206140220251e-13 -1.2523409370846202e-09 -9.44067555934614e-10 1.1924259179859804e-09
422 -1.0822740935833156e-12 -2.1662519230136747e-12 1.79563718841826e-12 2.7800760788165474e-09 -2.9206295418750045e-10 1.497952988427226e-09
423 3.2844407666410654e-13 2.5023012130246056e-13 -5.281258315406901e-13 7.450750626499335e-11 2.0256748159946187e-09 -5.896756162539159e-10
424 -3.642528467764871e-13 -8.148784533164052e-14 1.3402302728960108e-12 1.3742558490062983e-09 -1.0085457355668889e-11 5.378298048537547e-10
425 -2.9158176405303197e-13 -6.271413497090392e-13 8.481402706877557e-13 8.90122720004848e-10 1.4089603150935248e-10 1.163128192265956e-09
426 -1.4171021747007795e-12 1.5162538232164834e-14 5.20999710795185e-13 8.377248433990626e-11 -6.493185212560704e-10 -7.572326756520338e-11
427 -2.1562877388874697e-12 3.325380458066133e-13 -3.712970240395509e-13 -5.453240228882591e-10 -6.520532339770831e-10 -1.171641643353879e-09
428 1.4497701050091597e-12 5.407619191744072e-13 -1.922609419205527e-12 -9.125463697816525e-10 1.0184026227506884e-09 -3.865736966615928e-10
429 -5.415896999091228e-13 -3.80204810212453e-13 3.157312862994699e-13 -7.962503383199726e-10 6.092729546957717e-11 -2.4898155237779915e-10
430 -1.856777075867212e-12 -2.369471283274531e-13 -1.6157349556547733e-13 7.368513919146004e-10 -2.699242438024048e-10 5.066316417525765e-10
431 -1.288324793285348e-13 6.042657998770334e-13 -1.574144122938005e-12 5.123731494757129e-10 3.2790662023196134e-10 1.0612545446884936e-09
432 -1.0831334606738167e-12 1.1374865171778809e-12 -1.1704699362302858e-12 3.7127277662362315e-10 4.2724516397491696e-10 -3.828068355512909e-10
433 -9.94507865323875e-13 1.8644357198730066e-12 7.505394981902569e-13 -1.1517580351995521e-09 4.517683958529591e-10 -4.0109377439350654e-10
434 -1.172981704091542e-12 7.924667285254862e-13 2.0752016021930028e-13 -8.04435540840738e-10 4.490769804410685e-10 -3.4639691501373613e-10
435 -3.93055243594952e-13 5.41372941628765e-13 -1.641399078313795e-12 -5.600179617394641e-11 -7.105699475652725e-10 9.147817960112152e-10
436 -1.0194785646466757e-12 1.6816638433960894e-12 -1.8250701465838027e-12 7.027363146152465e-10 -1.1891902800752827e-10 8.726738521986106e-10
437 -6.477864790435825e-13 3.2804653499202617e-13 -3.7712474171628243e-13 -3.872382189598602e-10 4.5086318615163864e-10 9.05546048909158e-10
438 -2.702101156503985e-13 7.64666614263883e-13 -8.138616309245621e-13 6.819215698205515e-10 -1.231906723481074e-09 5.971203660926648e-10
439 -6.745531756924502e-13 6.749678953153441e-13 -1.8070776010061917e-12 -7.271132889821339e-10 -2.098537039897629e-09 -1.68220372981535e-09
440 -1.155232294683092e-12 -1.234857373589989e-13 -2.440715952288046e-13 2.543510268679986e-10 -1.1061447607995449e-09 3.2572535847707087e-11
441 8.635607785409471e-14 4.699509163833452e-13 1.1436308564003596e-12 1.3029578416919499e-09 -1.1526803663985366e-10 9.133111446276516e-10
442 2.7594787112989155e-13 -6.216363518595353e-13 -6.498909491020424e-13 1.8560135098341693e-09 1.0749711712066577e-09 7.47351060091919e-10
443 -1.2840979991557774e-12 -1.3063868252060986e-13 1.790350814731296e-13 -2.628844887036732e-09 4.4571785088845285e-10 2.9529937049326247e-10
444 -6.812078020873536e-14 -8.073442421046294e-13 1.0882788474931684e-12 2.274087622052613e-09 -5.530915366155099e-10 -3.3912967384757326e-10
445 3.737646793913157e-13 -1.7555119589926088e-13 -1.3297219334241015e-12 -1.9007694189508544e-10 -2.331256211041907e-10 6.794990708113752e-10
446 -6.163190941436688e-13 1.3394278790141163e-12 -2.1956017814119995e-13 1.392385200326884e-09 -1.0978991008126318e-09 5.711053551690311e-10
447 5.0721085091538515e-14 -1.1179200186014767e-13 2.7400680848169137e-13 3.162876452336502e-10 -8.363496279356594e-11 -8.451437308495879e-11
448 1.16026308605934e-13 -1.8889444514286644e-13 2.336985904170602e-14 2.1076752295169358e-11 -1.9115636051433833e-10 6.760690450383002e-11
449 2.167753718909354e-12 -1.356486153271658e-13 -1.1989800305128177e-12 6.910231291444704e-10 4.819772088462049e-09 -4.523581826978457e-10
450 -1.0540831489595729e-12 6.574546844990442e-13 -1.047045048159962e-12 4.565692465278331e-10 -1.7711128732479156e-10 -3.0175877369364826e-10
451 -2.5873099285181294e-13 -7.249725137978334e-13 -2.568100277078659e-13 1.7821082601552898e-09 -1.2080375123771504e-09 9.50306016479791e-10
452 -8.14730468835815e-13 2.708631932502664e-13 7.551430495972842e-13 3.1679173135529005e-09 1.3799527179780555e-09 -4.696962880067294e-10
453 2.0513721433396374e-14 7.038312179803016e-13 -1.4160849708720719e-12 3.1180497352673867e-09 -1.3622802366716287e-09 1.814378945974684e-09
454 -3.4842099068672215e-13 -2.69990421638704e-13 2.1681834770667424e-12 2.3108139075281027e-09 2.527302750878066e-09 4.3102548818138405e-10
455 -1.5273953348059762e-14 -5.894897864475835e-13 -9.92173779012031e-14 -7.478429121864963e-10 -3.3204844427165057e-10 -2.9020357002694166e-11
456 -2.2526937040809318e-13 3.463039609856419e-14 -1.1497188634949997e-12 -4.068063331615722e-11 1.4190671040810319e-09 5.948730917530944e-10
457 -7.070712782509124e-13 6.397869390116222e-13 -7.741736313163507e-13 1.8024432506599983e-09 -2.325262003154874e-09 4.029346735320585e-10
458 -9.607496974693067e-13 -1.045437777473394e-12 -1.2452907552401995e-13 3.504134160892119e-10 1.6961255414612462e-11 5.759449781592367e-10
459 -1.2432062822336155e-12 4.244507892760016e-13 -3.4332166448168336e-13 -3.440778015154534e-10 -3.370818693670647e-10 -5.010471091049165e-11
460 -2.3043703870396475e-13 -5.415684835960175e-13 9.131022264842259e-13 8.072600044125051e-10 1.140530383741825e-09 -6.264693361759812e-10
461 5.419134986073984e-13 1.0840505657127157e-12 -6.699770635748581e-13 -1.1840866062611432e-09 -1.1071570666225603e-09 -1.1186923012360631e-09
462 -4.0670038099171976e-13 -1.368247369070293e-13 2.1553299272703882e-14 4.837884283076522e-10 -7.440560050444967e-12 -8.495363090508074e-11
463 5.317820840497404e-13 -6.796970742022131e-13 1.9361376403993204e-13 -7.715674469914514e-10 -7.353596929439807e-10 -6.90990323437946e-10
464 -6.75063191491608e-13 9.390251453588357e-13 1.735450608860454e-12 -1.6386498188499424e-09 7.386030789211923e-10 1.6449977990941797e-09
465 1.6565690347015598e-13 -1.6624860690933751e-12 9.809157559172141e-14 -2.3074035269958053e-10 -3.3104064341276604e-10 8.008447205428484e-10
466 -6.167679509978219e-13 -5.812611337005132e-13 9.83341673226777e-14 9.433447661439542e-10 1.702670668156026e-09 3.335529711050605e-10
467 -7.88706087121004e-13 7.039063598222838e-13 -5.614467524696156e-13 -4.698152215713003e-10 1.237093174619545e-09 1.1088018692926154e-10
468 -3.385926876596532e-13 -2.7070059328410803e-13 -2.7647573107650115e-13 1.3175759785645097e-09 -1.5894408111202752e-10 5.218706617756154e-12
469 4.606807707432232e-14 3.393758437871018e-13 -5.732535735170867e-13 -1.4971811957702677e-09 1.0727017308106096e-09 -1.5913728993563248e-09
470 6.189560637034063e-13 7.790833528953356e-14 -2.205094159428992e-12 -6.133649069005933e-10 -1.6857512107957888e-10 -3.988877702946134e-10
471 -5.407641149687354e-13 -6.228360762051808e-13 -1.1077446831247616e-12 8.758328660554082e-10 1.7419170040115555e-09 2.3933054619660333e-09
472 -1.3003081105115526e-12 -1.8005288579685476e-13 4.0101500741325135e-13 -8.747403260100954e-11 -7.440258202060715e-10 1.829953658228268e-10
473 -2.7471167580962085e-13 -1.963936108509486e-13 3.4848889643253075e-13 -5.894860013139993e-10 -4.413339703832398e-10 -2.5365210900619615e-10
474 -2.1644049644928594e-12 -2.383689750536745e-13 -5.400262104987122e-13 -9.578425472809133e-10 5.873933117473767e-10 -1.6255912836486298e-10
475 -9.020389855542863e-13 1.9721050147574568e-12 -3.524587616771105e-12 4.174981323115799e-10 -4.636039691258909e-09 -5.250011113191254e-10
476 -1.910021848590829e-13 1.083633844763522e-12 -6.134828036093719e-13 -1.2214355135223393e-09 2.843899413667675e-12 7.033056913575323e-10
477 -2.4266537210912975e-13 4.4187991291039976e-13 1.171145923952622e-12 1.9290985266090733e-09 5.77407535921549e-10 1.109107804650083e-10
478 -5.80152633949055e-14 2.709177761072577e-13 -1.960114418279733e-12 -3.8378483598521644e-10 5.462446170924087e-10 -3.52265632716842e-10
479 -1.01967262344923e-12 -1.472128461440184e-13 -2.8355982351009136e-12 -9.466143508559246e-10 5.148945349823171e-10 -9.492084629153893e-11
480 -5.15860117406691e-13 5.029910334489414e-13 1.159590820028996e-13 -1.8035832022152775e-10 -2.168717581286254e-11 -8.639660369435794e-10
481 7.981845603418004e-13 -4.661565454250275e-13 -1.9437238736633383e-12 -3.134396861249501e-10 -1.5802516445379526e-09 1.6555030795773082e-09
482 -4.762470571578031e-13 1.3143748807537421e-14 -3.0472267256601486e-12 -3.1682107604856855e-10 3.2440334535810955e-09 6.399589019940596e-10
483 -2.92809347579644e-13 4.354745846869689e-14 -5.31061816164346e-13 3.6954316864418656e-10 -5.846359425008669e-11 5.406236778710391e-10
484 1.3924541793790687e-13 -4.178452544299539e-13 -1.3685148252734453e-12 -5.86732852678104e-10 4.5664624916047564e-10 1.248036449268573e-10
485 -1.0285122405437542e-12 -8.783446538286571e-14 1.236301021351552e-13 -2.671075392809981e-09 -2.8357847109459207e-09 -8.953136601786205e-10
486 -7.462743048662021e-14 5.415900781325768e-13 3.9829796290096183e-13 5.718445053375135e-10 -3.4736067438575e-10 -3.8246977471354203e-10
487 4.1628106118449664e-13 -1.0838328876887711e-12 -3.4434995546971235e-12 2.3115507350725227e-09 -4.804635792176303e-10 6.786520269859471e-10
488 -8.358531979181977e-13 -2.7087983955529135e-13 8.29888340010289e-13 -6.021060877210343e-10 9.695796515810277e-10 2.2595441995042096e-10
489 -4.5336516640519934e-13 7.037684784942308e-13 -3.149597652978298e-14 -5.575912102449999e-10 -1.2040164823841458e-10 5.595778594233363e-11
490 2.096703632011516e-12 1.4026059638435187e-12 -2.655600492298294e-12 -4.328334831178128e-10 2.5408775954189394e-09 1.1560703828843395e-09
491 -1.4376845671469444e-12 -9.79856385626654e-13 -1.2581735439858522e-12 8.292170045899264e-10 -1.3380845831170998e-09 -1.4451113152676694e-11
492 -2.548473807104107e-13 -5.291249111095763e-13 -8.08347439590277e-13 -5.5694761053203e-10 -3.453678847542078e-09 9.265619039082848e-10
493 2.5317664636190883e-13 1.3385356491905693e-13 -9.322800607820046e-13 1.3731914495179499e-09 1.576062709418058e-09 2.9300362160329473e-10
494 -6.730764839887831e-13 2.455738362937121e-13 6.086526158153966e-14 1.998017123920971e-09 6.283356928095126e-10 -2.8806283632509703e-09
495 -8.156478737256807e-13 -1.0231447895969388e-12 -1.3676951595687483e-12 -2.0150887600242866e-10 1.6105887776213622e-09 -3.05017980134337e-11
496 -1.0825581550394066e-12 1.0392316312091738e-12 -1.414264632662483e-12 5.139757996886281e-10 9.80449780885587e-10 -7.224104622444803e-10
497 5.090929283564026e-13 2.1890266602227765e-13 -1.4394004442573771e-12 -1.4976886111382035e-09 -1.8131068529974858e-09 -1.1378231059168333e-09
498 -1.9729273765765314e-12 3.0501849055517613e-13 1.1899717434887224e-12 -5.631000466078939e-10 -1.3771321346923462e-09 -4.0167806343072037e-10
499 -9.161927145261277e-14 8.039702574015716e-13 2.5713631194882593e-13 6.517824552272902e-10 5.040235040692624e-10 -7.331406786386812e-10
500 -9.435227150977453e-13 1.0027410486967648e-13 -7.264353371402591e-13 -1.7120187982548973e-09 -2.0246931194528893e-09 -2.4320060995731534e-10
501 -1.6015275367709434e-12 -1.829093802327054e-13 7.792140176778148e-13 -1.1564451131936503e-10 -1.7890405034357443e-09 1.434310498801072e-09
502 -2.3558367316598457e-13 -4.663958163974781e-13 -1.1141494173784151e-12 -1.7943339952575446e-09 2.0987292484756505e-09 -9.393016588979775e-10
503 -1.9047698370137947e-13 -1.356768953610137e-13 -8.657463490599202e-13 1.1583675296244449e-09 4.148121180203784e-09 1.730683868494279e-09
504 -9.325570256643544e-14 1.96666804288587e-13 -6.139380022071522e-13 9.361559199886619e-10 -2.1889178906606743e-10 -2.626535340200308e-10
505 -4.712223133779973e-13 7.469953606135583e-13 3.4544973260182633e-12 -4.0051958111416634e-09 3.0752152968369716e-09 1.4448058819915973e-09
506 1.3449729353130204e-13 6.234411699021644e-13 -7.134275614333484e-13 1.03379375427298e-09 8.565128258392224e-10 -4.166926069672025e-10
507 -5.415852884846684e-13 1.2070485545373865e-12 1.457899928266796e-12 -1.4550404551227598e-09 -6.856018832312846e-10 2.5263100383139425e-10
508 -8.498339020012525e-13 7.131592778761555e-14 -3.034549662659915e-13 5.184135211416108e-10 -1.4901667250206266e-10 -8.931635656163217e-10
509 2.7121873476878064e-13 3.538712259797556e-13 -8.812350786084011e-13 -6.242127105043235e-10 -5.371827916800652e-10 -1.2026671859694318e-09
510 -3.3500483260940323e-13 9.688192413313111e-14 7.493940318468844e-13 9.47121316083889e-11 3.307172504549592e-10 6.488819135352754e-11
511 -2.1648590954020402e-12 -4.88656892651549e-13 -4.5637945991649925e-14 1.364482307350392e-09 -6.425258681043756e-10 1.4386837635042734e-09
512 -2.6310739606155715e-14 2.709719334471671e-13 4.1155944207008973e-13 6.690887753248995e-10 9.71998102325113e-10 1.1515733201019344e-10
513 -3.9174860879294225e-13 -4.1684544383585677e-13 -1.0093312047724963e-12 -1.3093423442454344e-09 -8.761961186252728e-10 1.3882682247991273e-10
514 7.169331693274846e-13 3.1026938131680715e-13 -2.239374977057821e-12 -2.8516542770647866e-10 6.95154074802414e-10 -9.384974705910677e-11
515 -5.21757155043232e-13 1.635122619231392e-12 -7.369142158016142e-13 -5.300131483578742e-10 8.466459918441323e-10 6.862359702339e-10
516 -1.0559998107239471e-12 -2.3426367152813244e-13 -9.531489703536163e-13 -1.6076343099052136e-10 -2.072253998611488e-09 1.301843114107535e-09
517 -1.3530024142654975e-13 8.573084229018078e-13 5.042059748355284e-13 1.5111924433920117e-10 1.0934900107071691e-10 -3.303635425905814e-10
518 -1.064658043253476e-12 3.521562449174182e-13 1.9772343059999615e-12 -1.3514448792060314e-09 1.1286610913425468e-09 -1.9350520936615856e-10
519 1.7775987284227079e-12 1.5139877184361778e-12 -3.070282876787686e-12 -2.135231317890438e-09 3.2460811766385563e-09 -1.2284953738525446e-11
520 -1.6957860213008082e-12 -1.3480238420055012e-13 9.36802348448512e-13 -1.1641983228077977e-09 -4.987222626631517e-10 7.295480362608819e-10
521 7.708691394005824e-13 6.238821287838039e-13 -1.1119267120137485e-12 -5.194539581123876e-10 -5.353908467546476e-10 1.5306380154201e-10
522 -5.604088596452309e-13 3.7531556317501313e-13 -1.037975801589098e-12 8.867758016828427e-10 1.1944201744819597e-09 7.672632182140308e-10
523 -1.1688455502981032e-12 -1.6224324280225562e-13 -3.4195736027192147e-12 -2.2387961908729638e-10 1.2207529626659803e-09 -2.533169447921643e-10
524 3.5662332874897954e-13 5.421250577623659e-13 -1.831610033941074e-12 -1.9439176830743517e-10 1.400241116125786e-09 1.2943780777104085e-10
525 -3.653599795528368e-13 9.372402809364712e-13 2.2442148029904132e-13 -2.0113533343064235e-10 4.726963596168351e-10 -3.944097617101347e-10
526 -6.783163639632383e-14 -9.533065455277431e-13 -1.0668012621594724e-12 -8.084206688884834e-11 -4.5273769892581816e-11 -3.4921001365828543e-10
527 -1.651628077249391e-12 5.41480754100814e-13 -7.766278519950662e-13 -6.309421328673305e-10 3.27782669223178e-10 -8.145791144895201e-10
528 -7.977596319557217e-13 2.3013370358726347e-13 1.838329768137296e-12 -4.081371966714002e-10 -4.97705756503563e-10 -1.198581172358375e-11
529 -5.097945453943488e-13 6.181132149382786e-14 -6.641430584672815e-13 -1.8957726266261444e-09 -2.1186136468505616e-10 -1.1508263820026752e-10
530 -7.434278411912261e-13 1.0045259925971048e-12 -1.2904644229970925e-13 2.1547844172814498e-10 -2.0221989324997705e-11 -2.023271372286653e-11
531 -3.7996715465910264e-13 9.163943872443836e-13 -9.835626273317436e-14 -3.478649521234222e-10 1.4198601880158536e-09 8.840336826725808e-10
532 -3.293831841460771e-13 -2.101570004317656e-14 -1.4804305983928102e-12 2.854313895933787e-10 1.5676896300830683e-10 7.332281820296925e-10
533 1.5990261549492267e-12 1.8656916394036254e-12 -3.786487776789653e-13 -2.94979433635716e-09 -3.153563165665513e-09 -2.3103315338332623e-10
534 -1.0835408376736905e-12 2.8228413843521076e-14 -6.00393372376155e-13 -3.3699982817343214e-09 -1.190167755734783e-09 4.6516444200088957e-10
535 4.147951386818696e-15 2.5034033473518764e-13 4.484694192125963e-13 -5.316165613963116e-10 -1.0043286391031671e-10 4.323341785156248e-11
536 -4.2580071148904986e-13 1.7695431568417998e-12 -5.019790880982662e-13 -6.076405692918342e-10 -2.2468437798468855e-09 7.457648285411451e-10
537 -5.215508730868516e-13 -1.0345275778075086e-12 1.2421816735736125e-12 -5.05936084802859e-10 1.3497220041229831e-09 8.071160827071228e-10
538 -5.418897988787758e-13 2.7098004169906166e-13 -1.5887730305459088e-13 1.0231567401018476e-09 2.0395780420804157e-10 -2.1571189307133205e-10
539 1.0841384254661536e-12 3.7030232468607216e-13 1.9890971867990917e-12 3.197737886656965e-09 7.228196942444665e-10 -1.0071591851418897e-09
540 -1.012055800704426e-12 2.7049796959444755e-13 4.707899960165013e-13 -2.395722811396035e-10 -5.494858112953927e-10 4.271377373517449e-11
541 -7.313519757067035e-13 6.735444441251712e-14 1.3449105640099258e-12 -3.0622030440702324e-10 2.4393758659761093e-10 -2.2831378272665458e-10
542 -1.8952074580096957e-13 2.2141392097073084e-13 3.40500237587038e-13 1.602955235577035e-10 1.8400760689949687e-11 -4.998934205588403e-10
543 8.957682052497651e-13 1.0248315039209383e-12 -1.6496515995766768e-12 9.97313815622099e-10 2.914779024358449e-09 1.6747511615453473e-09
544 -9.432817745477515e-13 3.9215039402840194e-13 -3.0031572708117893e-13 1.1117875331241231e-10 3.476413508268117e-10 4.76642859599786e-11
545 -7.023317857170341e-13 1.6525009884410394e-13 -1.7319531435067682e-12 -9.404492663382617e-11 2.279568697437009e-09 5.111459814179521e-10
546 5.418741786368202e-13 4.190804043500313e-14 4.4186769152715794e-13 2.4256759351022805e-09 7.931201037519933e-10 -8.122999281524929e-10
547 4.3991813677544445e-13 -2.4530891275048343e-13 3.1610245051780733e-13 6.541011130891835e-10 2.281572274877945e-09 -5.708642926708314e-10
548 1.3139358733204274e-13 1.0772601095189395e-12 1.8544197190971716e-12 -2.128163360588313e-09 -9.956189946701556e-10 3.79092169998387e-10
549 5.422605865055529e-13 2.167818858829972e-12 -2.7432385212018555e-12 -4.271633211564507e-09 2.850506715810852e-09 -1.439958965237958e-09
550 -7.396827934425305e-13 -1.7749245967878383e-12 4.676189918746175e-13 1.8519284366238062e-09 2.2155650531394516e-09 -1.5521690050366133e-09
551 4.986487154788567e-14 9.364041689573201e-13 -1.0952687841880439e-12 -3.600783517802967e-10 4.0127168094108167e-10 -1.0473598415881956e-09
552 1.2044398464389667e-13 -2.3067150855137563e-13 1.19034149387718e-12 -2.0281395384456156e-09 -3.539384286769401e-10 -1.0956586897397651e-09
553 2.740659261202026e-13 1.5356315978726364e-13 -2.1157029019811036e-12 -4.1026244049577814e-10 -4.3276081678792404e-10 -1.4901313127030361e-09
554 5.160240182767437e-13 -4.989457458945265e-14 -6.539647206464232e-13 -4.6485553782983523e-10 2.025529521138093e-10 5.494678866087998e-10
555 -1.4124521630809546e-12 -2.7436736457438345e-13 1.1012349494841604e-13 1.6347493774021947e-09 1.2577846069249704e-10 -5.77823823798347e-11
556 -1.953284462114326e-12 -6.39590099813258e-13 -6.678417005848661e-13 2.9008001607993036e-10 1.9148980787099818e-10 2.7817315573004787e-09
557 -6.070247371671329e-13 1.0836612656761613e-12 -1.545104909363468e-12 5.262475775698929e-10 -1.1678809648701655e-09 -3.7799958180704985e-10
558 -1.1826949488035433e-12 -5.416463274984042e-13 1.0150495389383572e-12 -2.1662639243784176e-10 -2.5428248693247027e-09 -1.845633068738916e-09
559 -1.0835466785302674e-12 4.920825324757207e-13 3.698388002725657e-13 7.133258645211954e-10 -8.105031807242026e-10 -2.1729463001579453e-09
560 1.6842505445030906e-13 8.409295663393202e-13 -1.9408762724989535e-13 -2.1419471838112004e-10 6.031428813391626e-10 8.524868775711054e-10
561 -2.16133226938867e-12 -4.791373067077378e-13 -1.1278330413019648e-12 7.349686790682085e-10 1.9253484208890216e-10 -8.378995092073899e-10
562 -1.7788803121675878e-14 -1.4409334845670748e-12 6.216843860663486e-13 -8.915196010139203e-10 1.5345925813512724e-09 1.5113962744170757e-09
563 2.9473714681915863e-13 -5.350521900692884e-14 -1.3319540515506213e-12 -2.899674942506233e-10 1.0007791037547774e-09 2.8844320674211754e-10
564 -3.9807099637596973e-13 -1.6573560556700425e-12 7.431229135835988e-13 -2.5103841808631247e-10 -3.7019707001605573e-10 5.836843350324234e-10
565 -7.890516670109683e-13 1.0812396345510552e-12 -1.0204698951120665e-12 1.5666481401335274e-09 2.261140546832101e-09 2.806652012799965e-11
566 -2.682496229814848e-13 -2.2289161374582265e-13 1.215648734297331e-12 4.0218342771001973e-10 -6.56474124041471e-10 -9.777231344285252e-11
567 -5.315075722392147e-13 6.884043287387527e-14 -1.0575653183773804e-12 1.9259930961902183e-09 2.1632970769269773e-09 2.1793948723015506e-10
568 2.005094139663238e-13 -5.419802733469834e-13 -1.032045370388979e-12 -8.499104846278415e-10 1.7176653961343581e-10 -2.1734212530169772e-10
569 2.999738775681014e-13 -1.7448268086712248e-12 -3.631892344997948e-13 -4.42881761424658e-09 1.0501957135025787e-09 -5.901630510841166e-10
570 -1.368161228251929e-13 -4.394326935856175e-13 -1.8616581479584227e-13 -1.311978001548014e-10 8.096115427036357e-10 -3.7803802560731803e-10
571 5.515302823044023e-13 6.716940302575995e-13 5.82906604041153e-13 -8.05890459202258e-10 2.5063302972007696e-10 -7.026553916610401e-10
572 -5.406394784202943e-13 -4.568160521265721e-13 -5.51138712647853e-13 1.1732605696817703e-10 -5.054638133224123e-10 -2.3262340346646703e-10
573 1.3643753912924763e-12 -9.284347905272996e-14 -1.3120724932611854e-12 1.4054385829241502e-09 -1.9420321467819548e-09 -7.083889416918238e-10
574 2.708624763666027e-13 1.5272792898956877e-13 -6.59683743820189e-14 -1.721889441724222e-10 9.872941673074214e-10 3.284023992367912e-10
575 -1.0616989368297597e-12 -5.4954510617888605e-14 -7.839593653315986e-13 -2.618434480795746e-09 1.7015494730595035e-10 6.353221188535711e-10
576 1.1170615531128556e-13 -6.100942643481571e-13 -3.0102444636212617e-13 8.331631572087777e-10 -7.319827077598939e-11 1.7546825636254465e-10
577 -2.703998580627063e-13 6.755483558585692e-14 6.679177058926947e-13 -2.754212314373705e-10 -2.1332247156621596e-10 -4.0246838681444876e-11
578 -3.309888464905829e-13 -1.044320299246619e-12 -7.565898760141468e-13 2.421415976012393e-09 9.247987871100357e-11 1.0135363827079002e-09
579 -2.69942836884244e-13 -1.0176925432136216e-15 4.5419758842050116e-13 -5.162060427068925e-10 5.470315071940426e-10 -2.7471499024053794e-10
580 -1.493516845814959e-12 -5.514786911509617e-13 1.824488320156901e-12 8.678351406587634e-10 -7.004748360931546e-10 -8.135335109335224e-10
581 -1.895650795201272e-12 -6.251285418402941e-13 -1.275565070043574e-13 1.917738412800966e-09 5.573921000697333e-10 -1.1277035759202761e-10
582 -5.416549807532562e-13 2.7040587857978197e-13 3.8624615384095526e-13 2.7095042412014782e-11 2.1367109867470274e-10 -1.480909627964793e-10
583 -1.3443650776914525e-13 3.241190764904633e-13 -3.21822182481191e-13 8.642702151093005e-10 -4.899268744345786e-10 -1.8588043281413915e-10
584 1.3431348088384e-13 1.0837362664921857e-12 -8.231846287082976e-14 -5.628055452541927e-10 -8.643468382075486e-10 2.414001022983557e-10
585 -1.3537026740391482e-13 -2.1310058551085684e-12 -2.450668460033955e-12 -7.91439667848027e-10 -4.558183374837268e-09 3.993519453990236e-09
586 -2.1611658219087673e-12 4.4978370960523515e-13 -1.5004046704620387e-12 4.933334285240984e-11 -2.7027870916149924e-09 1.5473061112935946e-09
587 -2.0676128244987656e-12 7.281173492684704e-14 -6.867794409123496e-14 1.617114607131437e-09 -1.3781276118233103e-10 -1.9339893173181704e-10
588 8.086149737712978e-13 2.8033493975971912e-14 -1.5289559215157433e-12 1.1593447098487704e-09 7.923371890670988e-10 6.127020523599908e-11
589 2.709036827811283e-13 1.0874079629476212e-12 3.474102996793375e-13 2.9986256580425e-10 -5.338159324128319e-10 -4.493000286422617e-10
590 3.3829432677489284e-14 1.483307672580531e-12 1.5533732303446366e-13 -1.8790193427814037e-10 1.150632824024684e-11 3.017237642062956e-11
591 2.1665680537034098e-12 -4.191399318354839e-13 2.617523421742076e-12 1.7149045561166616e-09 -3.4284382992360032e-09 -9.31840675872098e-10
592 5.417322340404797e-13 1.2973191593351039e-12 -2.134461821173911e-12 -7.857502346300834e-10 -2.1727522797326356e-09 -1.3887961188497043e-09
593 3.3745233958773897e-14 3.4108276504218717e-13 5.91866300485325e-13 -7.345833478306765e-10 -2.339493366617582e-10 5.6671511573824015e-11
594 -2.709968042103378e-13 -2.127656494221947e-12 1.1595546016373605e-13 -3.4946130289756913e-09 -9.262469870342844e-10 -1.8412643404707417e-09
595 -7.489961784351099e-13 5.420024191843085e-13 -1.8790907792783848e-12 -5.735199881040089e-10 7.933543087383087e-10 1.6669679655545752e-09
596 -9.3635002101095e-14 -1.2463065532637512e-14 1.756054563666392e-13 -5.611747287885131e-11 -8.130415418045917e-11 1.8421624358317636e-10
597 -1.1162728486751225e-12 2.673043975924156e-13 -9.750862509057604e-13 2.9777690362736423e-09 2.3249533352891306e-09 7.691779247326085e-10
598 1.4453490260656487e-13 1.250693587067119e-13 5.921691305808744e-14 4.639084959352466e-11 6.860307859787658e-10 1.6202171442419912e-10
599 -9.064165581425948e-13 3.756487922051347e-13 -6.82307613346654e-13 1.3925899634310187e-09 3.515585506435631e-10 2.68048089490735e-10
600 -4.282051972321628e-14 5.799294493971894e-13 1.835058891131377e-13 3.6496434380051234e-10 3.072965893150058e-10 1.0813314513689885e-09
601 -2.3448562328012827e-13 1.2334012992572105e-12 -4.512622249827166e-14 -1.0147019852033946e-10 -2.4894037696075723e-10 3.003341303616871e-10
602 -2.162550145997503e-12 -1.0124893164136771e-12 1.9548146824124047e-12 1.6004381765910568e-09 -1.9816898377151598e-09 1.1146262459143255e-10
603 3.9096392886219713e-13 -4.802308537551921e-13 -6.886902818967681e-13 -3.4894585768621565e-10 3.7798237457680174e-10 8.730136723099368e-10
604 -3.765055622434352e-13 1.354824489183529e-13 -2.773992422167022e-12 -5.499044289688413e-10 2.0855990798754917e-10 1.3463017426690256e-10
605 -2.6949873127945164e-13 1.6855299021539972e-13 1.17530268070346e-12 1.850598185510975e-09 5.034864523242814e-10 4.0256574517825825e-10
606 1.0841043055689774e-12 3.612575292381732e-14 -6.860900133232912e-13 -1.0660801106347499e-10 -5.781040763438314e-10 2.2485174494389474e-10
607 1.8582029458244662e-13 4.932866696192977e-13 -3.179307552555806e-12 3.006166347995897e-10 -4.060600538820828e-09 -2.076031528661793e-09
608 4.888097092311465e-13 -1.8863198899052704e-13 7.709540793264037e-14 -2.1636356122087334e-11 -2.2943223094433675e-10 4.84070258757319e-10
609 -1.083962098232146e-12 -2.8981076271690236e-13 -6.161378559013467e-14 1.6618899261706468e-09 6.551979646614757e-10 -6.53144857968785e-10
610 -1.038894391472317e-12 1.7635066077272097e-13 1.499632756525169e-13 1.63073481838151e-10 -3.153509059335608e-10 8.606948190407275e-13
611 -4.118780797068937e-14 -3.584509622365453e-13 6.721616511596952e-13 -2.9430030078792006e-09 -7.959160170782072e-11 4.052344665372298e-10
612 -7.422668279033857e-13 -1.1592382308119524e-13 -1.3207166501696362e-12 -1.1159404874335457e-09 -2.389564667282352e-09 -2.7939550559544278e-11
613 -1.5859514672946532e-12 -7.860226136473403e-13 -2.699719320046861e-12 -2.541447685233143e-09 -1.9918373332304118e-10 5.842160946235138e-10
614 -3.504023987063901e-13 7.818714168526016e-13 -1.8844554338167667e-12 -4.5947578440721145e-10 -2.0314107542630696e-09 2.5085695783647763e-10
615 3.5648345355211594e-13 -1.812100509109096e-13 -1.7503662516221323e-12 4.132503926805957e-11 1.591786927618884e-09 7.46723532391359e-10
616 3.849148315691023e-13 -2.906082209040585e-13 7.10230027841649e-13 -6.139465504107717e-10 -5.108347320269966e-10 1.4140360299295417e-09
617 1.915608411011808e-15 1.083121618932e-12 -9.28601515241256e-13 1.8640520418270116e-09 -4.504986264075918e-10 -5.236221327452373e-10
618 -5.177318003839066e-13 1.04046243681879e-12 -1.945704566576519e-12 6.175565025825732e-10 -6.77116106917243e-10 3.232875837891398e-09
619 6.78319143996162e-14 -5.6559657632363586e-14 -5.179107774879858e-13 -6.255299432379286e-10 -4.753276035238548e-10 2.5282439662424156e-10
620 -8.895774960664364e-13 1.0841071498795554e-12 -1.4593805036178395e-12 -6.667830041674308e-10 -1.7413996868423609e-10 -5.659478189521286e-10
621 6.998339595078416e-14 1.4289157055673063e-12 1.6141743656826585e-13 -1.7329170161622782e-09 3.1565682400024973e-09 -1.0293397009534443e-09
622 3.684323372579636e-14 -2.1633229590967885e-12 1.1370959888698244e-12 2.0262333984279306e-09 -2.6477456666353693e-09 5.677653140877288e-10
623 -6.293737730117854e-14 2.0905750410101658e-14 1.977421589898084e-13 1.7761790596532588e-10 5.569884978802989e-11 -2.33398872851986e-10
624 -1.4372653430276693e-13 -3.761025066887205e-13 -1.4308031211780505e-12 6.696713439221823e-10 1.658648576961477e-10 1.079791535289632e-09
625 -4.2265265226880005e-13 5.414821823427978e-13 8.643963568609188e-13 -5.751897808254959e-10 -1.541139704974237e-10 -1.2086499477594342e-11
626 5.421294358131606e-13 -2.6497147864588406e-14 -1.9494649978284948e-13 -1.0441055054695462e-11 9.4354111638014e-10 -6.479639367164615e-10
627 -1.1136890030832264e-12 -4.2517199117974186e-13 3.7823803067685763e-13 -1.550761977182711e-09 6.498863946254584e-10 -1.2929070334298273e-09
628 -2.1608881859769257e-12 -1.082632770690673e-12 -1.0913208985831242e-12 2.8288871463099383e-09 -1.6727240542835103e-10 -1.089567935620047e-09
629 -8.403923463993557e-13 -2.6939254233522195e-13 9.009074821135976e-13 3.581585970397684e-10 -1.322379375014237e-09 -8.213366091951429e-10
630 6.809541459398779e-14 9.639954764555852e-13 -2.7098175288603298e-14 1.2333109015580565e-09 3.256272982057054e-10 9.582691900148805e-10
631 -9.634570911823219e-13 1.6535925093589308e-13 -1.9486113910874457e-12 1.121149747052293e-09 8.194558715489008e-10 6.993730948688504e-10
632 6.583154900503659e-13 1.565906300263659e-12 4.853293278383803e-13 1.485159297035434e-09 1.9854450631196796e-10 1.6690664849694744e-10
633 -5.420807162297953e-13 -1.0649152986362168e-12 4.033341008139049e-13 -2.4881808671196037e-10 -7.243995195782554e-10 -2.8468225738292713e-10
634 -1.4061876727363388e-12 -3.558239965376468e-15 4.532379439534747e-15 -3.795322557769908e-10 9.570878244947488e-10 6.397739856816731e-11
635 -3.46342189992891e-14 1.3876388640935888e-12 2.6258121670443624e-13 1.224614088942449e-09 1.7381662201480814e-09 -7.694906986200665e-10
636 -7.370620329727347e-13 -2.4343374565798406e-13 4.2929653066659595e-13 1.0619340152249936e-09 4.303027607352902e-10 3.9134942241946426e-10
637 -2.709537495109986e-13 -4.4750422330125085e-13 -7.871035664850793e-13 3.5184723379983736e-10 6.111432562183227e-10 -4.5653871773905425e-10
638 -1.0799935080222366e-12 -7.182724762987826e-13 2.0320716724297535e-13 -1.8142168159094395e-09 4.1278631369929075e-09 1.6088351298245072e-09
639 -2.675997584377213e-13 1.1470613842022063e-12 -5.784031230453352e-14 7.813107182328919e-10 8.431055189294998e-10 2.9414273173855274e-10
640 -7.477114496599132e-13 -1.0809667847937463e-12 -2.118744360547585e-12 -7.495110361796698e-10 -1.7619456515869307e-09 -3.87719337910166e-10
641 1.0053879103944952e-12 4.373789948091071e-15 -1.770016154168155e-13 -5.318994534310447e-10 9.99259441103798e-10 -1.09942059593126e-09
642 -9.789281075349947e-13 -8.187899730093546e-13 -5.024268701031193e-14 6.676122592087456e-10 9.257857236994263e-10 2.5587609652888814e-10
643 -6.45755978756053e-14 9.230309915198921e-13 -5.124216866956576e-13 8.072749101224278e-10 -2.1722362275972557e-10 -7.83683832505024e-10
644 3.4309264596746697e-13 4.7313005684917984e-14 -4.152909489072237e-13 -9.218793642543913e-10 -9.422154664242127e-10 2.4511175974413016e-10
645 1.0058416889153398e-12 5.324158714314193e-13 -1.11001237992113e-12 8.425124424430776e-10 1.7986842577583693e-10 1.2630039665409533e-10
646 -1.0835034136000494e-12 -7.490140140480341e-13 -7.814556905381586e-13 1.3017862191163548e-10 8.398986971408685e-10 3.4781030079127653e-10
647 -1.4096755273566527e-12 2.711110270497862e-13 -3.208641487314974e-13 2.7742062952391664e-10 3.597271928844476e-10 5.412088795056204e-10
648 -2.107238698787291e-13 2.986853478775381e-13 -1.4491482926228432e-12 -5.644997734687715e-10 2.045679281671655e-09 3.0497083303977333e-12
649 4.101608589368298e-13 5.633900162181557e-15 -1.799927183948297e-12 -2.172576949168771e-09 1.953649721831859e-09 -6.801254448388217e-10
650 -3.3318612693479374e-14 -5.200872852155934e-13 -2.0537582021688652e-12 6.068177291966871e-10 2.72244745582194e-10 8.751747698977726e-10
651 -5.016386818633508e-13 -2.1048606911917183e-13 -2.6661777735414644e-13 -2.4262839869282365e-09 9.865301328170158e-11 -3.909234715403001e-10
652 -1.3571324267619432e-13 -1.235334818925564e-12 -4.4434556660556575e-13 2.939622440097563e-09 -4.3630316611972184e-10 1.152184689301113e-09
653 -1.5673177220001377e-13 -4.1374987756913913e-13 -3.885092531132204e-13 1.493372408306796e-10 6.059028883150864e-10 -1.67655402116002e-10
654 -1.8354658501787573e-13 -1.2717293886043777e-13 -1.2588645533982544e-12 -5.946132953233535e-10 -4.925396451022998e-10 1.7755186411608398e-10
655 7.281310707254775e-13 -1.127015452790585e-12 1.5602282393924431e-12 -2.6456865206429803e-09 2.0842255136037834e-10 1.656792529730344e-09
656 3.6826111197336663e-13 -4.621791061877791e-13 -5.516875836854396e-13 -7.375992100678203e-11 -9.00205889958101e-10 -5.053980971124303e-10
657 5.713402959665858e-13 -5.411025936666327e-13 1.140411692312965e-12 2.017956720948876e-09 5.135378104381602e-10 2.1225413529515484e-09
658 -3.1571332827487047e-13 -6.610127120498847e-13 -1.4511497531797966e-12 1.5689996843100425e-09 -9.667316983950917e-10 2.88519172974304e-10
659 -2.4656911390837185e-14 -8.043823919361993e-14 -1.9416805007635452e-12 8.829588640622214e-10 2.7054019544902002e-09 -1.043502601693266e-09
660 1.0841442678576186e-12 -1.9880182713299695e-13 -2.0752501853339175e-12 5.524281437199314e-10 -1.967842630058599e-10 -5.205290108491797e-10
661 5.42288973657021e-13 5.415963188408048e-13 -3.249142483022411e-13 3.509956384416048e-11 1.100945721363229e-09 1.2751471258619416e-09
662 4.358416185867579e-14 2.7517419095459146e-14 1.2018095346383003e-12 9.419389732657081e-11 4.522622592198607e-11 8.821107499391047e-10
663 -1.5315834073220612e-14 7.405260875349277e-13 1.292557119269454e-12 -3.4182434734564812e-09 5.133214963387428e-10 3.154853639831669e-10
664 -5.417702827381372e-13 1.0846216003635194e-12 5.520157351557642e-13 -1.5575458389613676e-09 -2.0536366953751945e-09 -2.828668710494967e-09
665 -1.5997778633717289e-12 -8.530781178939574e-13 2.1885438755023772e-13 -1.8463634304787314e-09 -9.078452150203227e-10 -2.256628397635181e-10
666 -3.883656665926574e-13 1.0135759015468254e-12 -8.809354756725662e-13 1.3271798891241075e-10 6.667629640365395e-10 5.264883512287136e-10
667 5.420205791861473e-13 1.5943389150693474e-12 -2.831149004574659e-13 4.865582240548169e-10 5.066464714209529e-10 1.9124856750514081e-10
668 8.692684297446111e-13 -3.938371313074845e-13 -7.639832471452213e-13 4.1535824282013506e-10 -2.1117352312381666e-09 1.2463653997347994e-09
669 -1.0839597506817117e-12 -8.242971247408756e-13 -4.01672691621198e-13 -1.3773707960635254e-09 2.7704010299133794e-10 -1.5413269904041858e-09
670 -4.4327473681063744e-14 2.0330519368336998e-13 -3.569352651163861e-12 4.395781493468704e-10 -1.2301760353485708e-09 1.4527440889741315e-09
671 -7.752143680080694e-14 -6.402666601118687e-15 7.077450030611743e-14 -2.833097798862214e-10 8.335790261763352e-10 4.366432335094288e-11
672 -2.102999320385871e-13 -4.220799026627714e-13 -1.2446980709541328e-12 2.322111010118686e-10 2.3593093849371546e-10 -2.574463918725923e-10
673 -2.710503430004554e-13 -5.670295678771234e-13 -2.9518696998956854e-12 -3.6719026203458833e-09 1.1853144832412138e-09 -1.944835298308787e-09
674 9.785315217948082e-13 2.70605334585235e-13 -2.280420315145284e-12 2.2762381294638464e-10 1.1853255957639261e-09 9.503172838858283e-10
675 -2.1637741559667564e-12 -5.042473126611541e-13 -8.712869366997502e-13 2.904167670816532e-09 -1.1460901281791377e-09 4.3115004158585626e-11
676 -3.3314137518124927e-14 2.210186278817307e-14 -5.429226337218961e-13 -2.0066602591513206e-09 9.350909690424606e-10 -1.4089003591569449e-09
677 5.012831956755703e-14 1.0820461856635506e-12 7.353316482194187e-13 -3.3198768895891546e-09 3.129023237021995e-09 -5.000100149323399e-10
678 3.3861100397497274e-13 5.042686990478973e-14 -1.8445872559590862e-12 1.4942762756918797e-10 1.3493727015972784e-10 -8.770559715953492e-10
679 -9.19921520563984e-13 -6.681500345161751e-13 -1.0035437640999892e-12 -2.142951773510835e-11 1.541932362409211e-09 -1.3235092563554703e-09
680 1.0837118218188496e-12 -5.419814554892333e-13 -1.7730699636902033e-12 1.240227461312426e-10 -6.951161039622916e-10 1.761999196171802e-10
681 1.2238378996346347e-12 -3.95021399557944e-13 -5.480827275532641e-13 -3.711790462194682e-10 1.8424984350402419e-09 3.5838988157125126e-10
682 -1.8523781134874107e-13 -6.201186241662459e-13 -1.4648645598252587e-12 2.8848531286794236e-09 1.3297558756780016e-09 1.7269215004206073e-10
683 1.9715933439935822e-13 2.2660824949435115e-13 -1.2955135349780962e-12 -8.768828429649049e-10 -6.188115661167345e-10 -3.45426887927429e-10
684 -9.498754351955721e-15 5.028213043167389e-14 -1.504923468103139e-12 7.902400915859834e-10 2.1350289605690163e-10 -1.5853233299765723e-10
685 6.836049221528724e-13 9.528194088180095e-15 -1.8055144993966949e-13 -4.288856395044415e-09 -2.4215627511533595e-09 2.6903505757722e-09
686 4.903512215517283e-13 -7.721077159312061e-13 -5.775088196746586e-14 -3.0349555636325335e-10 -8.305258585625773e-10 -6.901821009843632e-10
687 1.6705151838282914e-12 -8.121278651522796e-13 -3.08592144343653e-12 1.8671881954953285e-09 3.540534662624848e-09 6.986355434860615e-10
688 -1.0822903933289021e-12 -9.112573047816045e-13 1.3654803646884236e-13 -5.602176349980618e-11 -1.7696966639911316e-09 -2.7680169658797695e-10
689 -1.3571922374639805e-13 5.418943377293789e-13 -1.4643116406851086e-12 5.3959579423269557e-11 6.762418377429916e-10 3.789576175119145e-10
690 1.3635829763662553e-13 1.735638543953577e-12 -3.126614778363974e-13 -3.7376940812015544e-10 8.995286274125276e-10 -7.308764381282874e-11
691 -1.546565143278217e-12 1.6495243061019002e-12 9.120742648740792e-13 -5.318401670764065e-10 -2.0934772944080424e-09 2.8228786615904118e-09
692 -1.5958613551114253e-12 -2.631136098351059e-14 1.4472671791595209e-13 4.3793765371370136e-10 9.306493800358636e-10 -1.5951191853319717e-09
693 -7.545987487158205e-13 5.543081264526498e-13 -9.510748451258163e-13 -2.2976982973387154e-09 -3.3381183666877274e-10 -2.7801946666419623e-10
694 -2.7034242901630814e-13 -1.0558157918599456e-12 1.0394474611942622e-12 2.3454007173532055e-10 1.6129072901346608e-09 2.0781205221101866e-10
695 5.979421227006053e-13 -1.2818419797288369e-13 -3.3524634203394544e-12 2.7347202574211844e-09 -3.0259855177021456e-10 1.6020804058134653e-11
696 1.4938643035740567e-13 -8.824094341532174e-13 -1.443295691355603e-12 -6.544814123668622e-10 -1.1565712896383448e-10 -1.230674928846892e-10
697 2.707155518927308e-13 -1.1848549556508876e-12 -2.1159938901170493e-13 1.6021322519260053e-09 7.877474256991035e-10 -9.639207690562023e-10
698 -2.0938908459590898e-13 -2.1592476623919325e-12 2.5115738161716158e-12 -3.789792224553611e-09 -2.804302754732341e-09 2.9974284802758444e-10
699 -2.167182321364735e-12 1.0832236039599854e-12 4.329513807185336e-12 -1.888258463506184e-09 -1.8485131627489049e-09 -3.4638732921127714e-09
700 1.2977971514043616e-13 6.077037518172968e-14 -7.617737940803163e-13 -6.030849494419976e-10 1.5009721861937872e-10 9.36871545982959e-10
701 9.388070084042633e-13 3.008968190107839e-13 -2.737788602086125e-14 -1.1832254943498265e-09 2.3571517957375454e-09 1.2178425518548518e-09
702 1.13776145525314e-13 5.418641605264164e-13 -2.1443561943653295e-12 -1.3317296359584271e-09 1.4300616822380008e-09 1.5427364457479834e-09
703 -3.706716372052399e-14 1.1894620582800237e-13 -1.9462425650168257e-12 1.303310661771664e-09 -5.719509942024306e-10 6.981641502504902e-10
704 -2.9621817430003125e-13 -5.56797118541449e-14 -1.953637330547766e-12 2.240142870728327e-09 -2.656437898677304e-09 1.0448736739025894e-10
705 4.231898965860768e-13 5.420781293983779e-13 -2.4902176953870187e-12 1.780996670686826e-10 -5.093349430698352e-10 -3.400294629582305e-10
706 -1.2649411207389567e-12 5.412016733065431e-13 3.921312467360405e-13 -1.8692521949030006e-09 7.887366709630963e-10 3.6260184829700546e-10
707 -7.897797269560095e-13 1.0267622431768996e-13 2.0912251025296673e-13 1.2143799805982245e-09 -1.8481378150872217e-09 -6.5673629045465e-10
708 -2.709588090808926e-13 -8.762025295597447e-13 -4.3962660680113177e-14 -1.580735308284768e-09 5.675451154513689e-10 5.910630193181018e-10
709 8.418909925352539e-15 4.844737901987968e-13 -1.1811748043585203e-12 2.8440508171591153e-10 -9.065233231454166e-10 -1.1179859304478538e-09
710 -1.3525672712576486e-13 1.7131774643438292e-13 -2.6624040724702648e-12 5.185282582574842e-10 -6.073269746532355e-10 2.3751014742897334e-10
711 8.502552640810669e-13 -6.553708593632948e-14 -2.227318525868723e-12 1.2554156248102822e-09 -1.3989598032246603e-09 1.6029368252651476e-11
712 4.568421770629062e-13 6.663907782422728e-14 -3.452293892023733e-12 -1.4677813003990585e-09 1.6102082386602958e-10 -1.2550235160313828e-10
713 1.583743070304969e-12 -3.511686889046563e-13 -6.967372961160754e-13 -5.827370427826399e-10 2.0632559908686644e-09 1.2571374350204625e-09
714 -2.194021095876956e-13 -5.420675013739828e-13 -6.959234927614388e-13 -3.2460553661266025e-10 -1.6273540039868186e-09 -1.215355856812558e-09
715 1.354198971899149e-13 1.0840146697671614e-12 -3.520216716152007e-13 -8.189922006379886e-10 -3.3168406521032127e-10 -7.371352087844654e-10
716 -4.4949514177891107e-13 -6.613219007641871e-14 -1.2759495071145125e-12 -7.910074553202373e-10 7.479200453577515e-10 2.0936675012394158e-10
717 -5.699467630786868e-13 9.446254413402959e-14 -1.4515143017623024e-12 1.9639205048363837e-09 6.273167275325017e-10 -4.196165642353211e-10
718 -1.083083539797696e-12 -4.786219993358255e-14 9.96893843192134e-13 3.0885317071101526e-09 -3.6894142703145625e-09 1.2762582089281863e-09
719 -5.41405935276734e-13 3.9739500601196817e-13 -2.2994567711548797e-12 -2.522500671334601e-09 -1.750075885169255e-09 -5.200220912401252e-10
720 -8.086433569631825e-13 -1.0829630943502858e-12 1.3602818728148796e-12 -9.987678600485624e-10 3.0705940033276747e-09 -7.556216842766672e-11
721 -2.5117693606882764e-13 -3.9574575427091836e-13 4.0823912279921256e-13 1.1734743097598657e-10 -4.779548467779771e-10 -1.5174833620809185e-10
722 6.077727584063871e-13 -6.751491679304706e-14 1.2481447315584605e-12 1.533417199656156e-09 1.1084362540242393e-09 -1.4238275697830565e-09
723 -2.1470714816037985e-12 4.344926654484742e-13 1.0529211009972098e-12 2.423603261603521e-09 -2.23552984190735e-09 -2.0014430194637627e-09
724 -5.418597365218047e-13 1.0823632828748133e-12 -1.3204657399309969e-12 5.119856206331122e-10 1.1889954559379805e-09 1.8665147035364523e-10
725 1.1850058951115266e-12 3.6678388993051847e-13 -2.40909274859932e-12 -1.1978879778949745e-10 -1.175622060807545e-09 -6.951359452455283e-10
726 2.79889300899596e-13 -1.5263839169212668e-13 -5.991260595372021e-13 1.154655241823972e-09 -1.6308983845586006e-10 2.3686772870714054e-09
727 5.41692678470168e-13 8.528744818546387e-13 3.4717488796213205e-13 -4.863108822576319e-10 2.1360655194657887e-10 8.845451429432905e-10
728 -2.1672819585752497e-12 1.0380520871716551e-12 1.3775586118536614e-12 1.0470080633638275e-09 3.83332225065394e-09 -2.4261711564811446e-09
729 -6.790231521519094e-14 4.961425515411774e-13 -1.6350689793080807e-12 -3.5587115649787593e-10 -6.808624545177701e-10 -4.5982926368197965e-10
730 2.9520889626988813e-13 5.894533465856598e-13 8.68780127068963e-15 -2.1896152407461347e-09 -8.129504204306401e-10 1.2170397884567718e-09
731 -5.346739919175025e-13 1.388818429028482e-13 -1.5034857816965068e-12 -3.6299996159948034e-10 -1.0556890754293531e-10 -5.160428181766345e-10
732 5.420871575189122e-13 2.710727084808093e-13 -1.6051319538200992e-12 -9.60772510827499e-10 -1.326990779245693e-11 1.979636866847784e-10
733 -1.0839726467877493e-12 -8.104837844128122e-15 -1.343759288278508e-13 8.636792833349013e-11 3.273886622756006e-09 1.343368580900564e-09
734 -1.0823776155760306e-12 7.03343951263344e-13 -4.905641527775524e-13 1.2399830390617727e-09 2.3868981783469495e-10 -1.6430650214620477e-09
735 -4.044895104364749e-15 1.2687336529238133e-12 5.025028002402986e-12 -7.23281501535113e-09 5.263861200373462e-10 6.022737885779358e-09
736 -8.232195557069407e-13 -8.105744888268261e-13 -8.863277402898626e-13 -1.8564282206117165e-09 -1.4848116957956255e-09 -1.858656036147238e-10
737 1.221534142801119e-12 1.0814426941326714e-12 -1.2435496730459434e-12 1.5136602729024559e-09 -1.0519516377363042e-09 -6.584918626479159e-10
738 -6.88004975941011e-13 -1.0319198042395153e-12 -1.0293371539795444e-12 -1.8398215237735763e-11 -1.5854531490697152e-09 -2.6483982328243704e-09
739 2.351802816762139e-13 -6.969203954131652e-13 -3.238942551825457e-13 5.965942259148279e-10 1.9177943349194572e-10 7.870367197613132e-10
740 -2.9660263816241837e-13 1.644045310134043e-12 -1.245703804662428e-12 2.1572564518061097e-09 5.260172248611262e-10 -2.0751269366116573e-10
741 -2.16545160301101e-12 1.0070295701594767e-12 -1.84511171521444e-12 -2.5823476159538618e-09 3.2081648675779666e-09 1.9966452365917566e-09
742 8.65487928686596e-13 -1.3404713506192937e-12 -8.698059017216887e-13 9.371233947864365e-10 -2.271538322442629e-09 5.330474825256545e-10
743 -1.6294067031350068e-12 -5.411652763887888e-13 4.28795909442958e-14 4.202259293115197e-10 -1.111822227496619e-09 -9.242409681895325e-10
744 -5.38510484886166e-13 -1.504096842272196e-13 -1.967167731051945e-12 -2.5284675365224904e-09 7.696081271222805e-10 -1.909575219007231e-09
745 5.734537201534748e-13 6.55504747309171e-13 -9.407364165696263e-13 -8.559455445016443e-10 1.6409812917243477e-09 1.030118061784664e-09
746 -3.152704265611883e-13 2.7095248486298925e-13 1.0191883865655594e-12 -4.690455730088357e-10 -5.39397562296689e-12 3.7127587010707485e-10
747 -7.93818664871989e-13 5.411093828516032e-13 6.998489601154918e-13 4.069741173026177e-10 -4.1685379274606724e-11 1.4382002611038806e-10
748 6.827927531245458e-15 -2.709974431723212e-13 -2.357187221961896e-12 -1.3511299889660523e-10 -1.7291402499192942e-10 -9.399599911064052e-10
749 1.343389846811135e-13 1.013542710017437e-12 -6.447058994026274e-13 5.230669178144086e-10 -7.273237477243008e-10 5.757097439959528e-10
750 -2.512305474845746e-13 5.405508479896427e-13 -2.392280773952992e-12 -1.1237349831247919e-09 -5.129207094627995e-10 8.168340813244501e-10
751 -4.745125035711285e-13 -5.196024822877675e-13 -2.3633872345023727e-12 1.7326053557682326e-09 3.5566757405540578e-09 1.2373249456688163e-09
752 -1.083677622399689e-12 -5.66238164479596e-13 -1.203301953985031e-12 4.493638978065623e-10 -2.900646482379463e-10 -5.125299551246598e-10
753 8.561453236210846e-13 1.1059737228529408e-14 -4.949221129839908e-13 -4.925667038423745e-10 6.324682645424692e-10 -1.004708642573376e-09
754 1.391765684517495e-13 2.1739505170682462e-13 -2.311435281741571e-12 -1.1470720531084764e-09 5.145724360005733e-10 -1.6816422844695813e-10
755 8.557670998222667e-13 1.0707853320765356e-12 -1.4446330655967082e-12 -1.2574297273493846e-09 4.577684089128071e-10 -2.734194574988199e-10
756 1.748882181299648e-12 9.197850222719434e-13 7.435362461350852e-13 1.3627487659914879e-09 4.4681129554053524e-10 -1.2407361586609036e-09
757 -7.467608315074949e-13 -5.417914388995247e-13 -1.6062786168173685e-12 -1.4870378279029052e-09 -1.1557155482236828e-09 -6.021305727684634e-10
758 -2.1683055846522526e-12 -1.3544634200167886e-13 -3.2526334589753758e-12 1.2565427666225258e-09 -6.790294061759258e-10 -1.6573350112454158e-09
759 -6.213833967573911e-13 -1.0413475912405534e-12 1.228292884306892e-12 1.6207664151229484e-10 2.0773286383487295e-10 -1.841327522242246e-09
760 -1.0125704739126827e-12 -2.2239263991628775e-13 8.737770328717378e-13 -1.6325902022870592e-09 5.004256024127043e-10 -1.2385069854378943e-09
761 2.16828293718918e-12 -3.1795989121103e-13 1.0647964240952649e-13 -3.674427557962525e-10 -1.1111721003835998e-10 -3.542753112119998e-10
762 5.727566186512567e-13 6.648243434836663e-13 -1.998652048214919e-12 7.008545775359218e-10 -1.1528266227369258e-10 6.55067168560053e-10
763 -4.681520840370149e-13 1.2281522017055958e-12 -4.33037618402903e-12 8.213661697199496e-10 4.271332526705449e-09 1.2026779403092923e-09
764 3.346598437215835e-13 -9.852152363076078e-13 -1.7904791259325542e-12 3.257126388087437e-10 2.2960605978157157e-09 3.418704422171439e-10
765 -2.764665051661378e-13 1.6099817822513091e-13 -2.0479859902671677e-12 -1.4094911478377571e-09 2.196635547796282e-09 2.913302470453215e-10
766 -6.53378299844973e-13 -1.0551071763922012e-12 1.4081107721674926e-12 2.4537670481584195e-09 1.0728698568029325e-09 1.7433814569259003e-10
767 -1.0837521588110594e-12 -1.6821020112168201e-12 -1.2311014672800994e-12 -1.6595816627227664e-09 8.728765901018393e-11 -8.873674990796202e-10
768 -6.238644453091104e-13 1.0204903267776766e-12 -7.904585579056465e-13 1.5095445419569816e-09 -2.1679632062945395e-09 -2.8189883042173533e-10
769 -6.654569807732219e-14 -1.8970810840437625e-13 -1.7034290771005462e-12 -2.4385138169223444e-09 -8.458480637527554e-10 -4.814815638396137e-10
770 7.262515835603217e-13 1.039545407040527e-12 5.419417304526631e-13 -8.296549618902493e-10 8.29170443069741e-11 -2.0724401239085761e-10
771 -2.7082022850591145e-13 -9.917819809635114e-14 -2.4167729974944818e-12 -5.384742881847128e-10 -7.866236934266613e-10 -2.488242093829741e-09
772 -1.0774407663621549e-12 -1.520910870655471e-12 -2.066615831083972e-12 6.644114469710586e-10 1.3876635145753567e-09 -5.396857499772662e-10
773 -8.251508333937594e-13 3.3486962439938995e-14 -5.985314720840015e-13 -5.144407016085508e-10 2.7805718237871516e-09 -3.8184911818966595e-11
774 -1.358235427592106e-12 3.842120693306798e-13 1.2975068226397257e-12 -2.6205481403472183e-10 -1.7316845389392884e-09 8.883806349787802e-10
775 4.731968794851314e-13 -2.7081220887298805e-13 -2.411587092750934e-12 3.690927175685622e-11 -1.653130076559032e-11 -1.9327311163761839e-10
776 -1.0289944537293006e-12 -6.386673574569731e-13 -3.980638988325685e-14 1.2611962698877994e-09 1.5374902094482033e-09 3.021191270027286e-10
777 -5.4164674577376e-13 1.3522798493662587e-13 -2.05204123898636e-12 -6.120369495256824e-11 1.021220277124367e-09 3.67161832379837e-10
778 -1.970249618403557e-12 -3.6436147221091976e-13 -4.172938046351755e-12 -4.4423751946690946e-09 3.4814643908831336e-09 2.003744589319585e-09
779 2.167182050355862e-12 -5.415954880562056e-13 -2.91948213723135e-12 2.7435936672437838e-09 3.2524463997801904e-09 7.384023645090001e-10
780 -4.4166798153138316e-14 -4.95206318222677e-13 7.385340545720078e-14 5.582750814003858e-10 -1.022183853481641e-09 -3.752889586893516e-10
781 4.4151197096268434e-13 -8.776917258407346e-13 -1.5910963180490657e-12 2.1535001922061285e-10 1.6723933713631913e-09 3.5323692038952456e-10
782 -7.938834736560165e-13 7.699957799276646e-15 -1.291432263356768e-12 6.467218364728982e-10 2.0605916320279944e-09 -2.7530344924110354e-10
783 -9.446903968386583e-14 -3.0249521274775184e-13 6.256261236445314e-13 3.4827737632602076e-09 -9.507951341426878e-11 3.9685154537959384e-10
784 -1.2192039851144648e-12 5.421222511724309e-13 -2.3109505164275047e-12 -3.5749922153126022e-09 -1.4946363918185934e-09 2.334198544797041e-09
785 -6.888157566490269e-13 -3.6064797805571875e-13 -5.371088673423424e-13 1.3763225150342153e-09 -5.008328153111279e-10 6.651519877499548e-10
786 -1.867977964369106e-12 -4.8787915773144e-13 -6.331000486395069e-13 3.930743669911638e-10 -4.1177436215986885e-09 1.1758944839117002e-09
787 -1.319807547593691e-13 6.826186342597125e-14 -7.122617900327496e-13 -1.2063949655838116e-09 -6.980568691925142e-12 -2.8996920635745737e-10
788 9.55119959989728e-13 1.3056456737791282e-12 9.811880133942116e-13 4.504227949466642e-09 2.9106577258481985e-09 2.3139040743675105e-10
789 -3.1707254776266066e-13 2.2374620787574593e-13 -2.7573565833874562e-12 4.981700450929241e-10 3.844438227868123e-11 1.776039503198067e-12
790 -1.4772720004171787e-12 1.3415231177640168e-13 5.23463274566073e-13 -6.183138915037318e-10 6.410262848382572e-10 -2.6450287411001513e-10
791 1.2617813949340708e-12 -1.697822962337426e-12 1.2540425543229053e-12 -9.738487650136502e-10 2.6007523988618066e-09 8.136979300672742e-10
792 -1.0840011729428799e-12 -5.912004119239444e-13 -1.3927255828928592e-12 8.303784838899764e-10 -1.1578164926813985e-09 -1.6572425908584738e-09
793 -2.0157292716290013e-13 -6.875436851187297e-13 -9.883745445494688e-13 9.054894477399697e-11 -9.975854434034216e-10 -4.771378900606058e-10
794 -1.6784819339644825e-13 2.1471353269667853e-12 4.1047187264073815e-12 2.3298253809082e-09 -4.630325048165473e-09 2.2255780395400223e-09
795 -3.069077594424369e-13 -1.3437660838722474e-12 1.5896394030213967e-13 -2.0705154606051658e-09 -2.5501035109623537e-09 6.696853988616738e-10
796 -8.460062122263685e-13 1.0264023181858793e-12 7.413603861364599e-13 -2.4018641263939704e-09 4.703587379487823e-09 2.7379728989247048e-11
797 1.0736964402208046e-13 -1.4939863757845201e-12 -5.711010836010673e-13 -7.710185688686687e-10 2.5411729090555467e-11 -7.647221744317401e-10
798 2.705768331429188e-13 7.493523010723523e-13 8.154210435462637e-14 -3.37723011532148e-10 1.171556435345016e-10 7.847539701235708e-10
799 -1.8788317402180672e-12 -3.356765180323789e-14 -3.7752751918322543e-13 3.852464798888738e-10 -1.0109483773187372e-09 2.241094192949387e-10
800 -7.022790618063969e-14 -6.351376174905049e-14 -7.041307839520741e-13 3.583118815052282e-10 1.4425605267564006e-09 -1.2224672529880175e-09
801 -1.1263124324447579e-12 8.812540325770331e-13 2.96627061433668e-13 -6.715998853855688e-10 6.759633825871547e-10 1.84359474088389e-09
802 1.8206811562454622e-13 1.3495061805416463e-13 1.059468969481943e-12 1.609517344325149e-10 1.3573757110404055e-09 -1.5731568748845328e-10
803 4.315392133974421e-14 6.763300971609378e-14 2.373531736618106e-13 -1.419177479928186e-10 1.271923322412534e-09 9.89314728506445e-10
804 -7.181023456816798e-13 -2.6342008153561743e-13 1.7937599537828565e-13 3.025484351763615e-10 -4.003886399090707e-10 -7.100611424289499e-10
805 -3.5076518048290416e-13 -1.0099086980093658e-12 -1.822282560813229e-12 2.5047928188929144e-09 1.9603194995669895e-09 -4.842880471733998e-10
806 -2.3103114336908376e-13 2.647120536328542e-13 -2.2786907479902317e-12 2.4760755483784855e-09 1.417812203811577e-09 2.759081913688344e-10
807 -1.083561577217078e-12 -1.6187547381830063e-12 -3.4817487330515727e-13 -1.519228989280723e-09 2.095048800511547e-09 -2.7635530688051224e-10
808 -5.409609724193283e-13 -9.700160166401388e-14 -2.450517304209786e-12 -4.183922871971063e-10 3.519186645722627e-10 -9.422207734460623e-10
809 8.82003365242941e-14 -3.153433838151291e-13 -1.1528003398818317e-12 1.6565358908261987e-10 6.94659790538788e-10 6.981449865969843e-11
810 -2.0178595384516448e-13 -5.610335897092862e-13 -1.3373353210093955e-12 -1.1770096871768347e-10 1.719976259459448e-10 6.70953032686438e-10
811 -1.3519707073141626e-13 -1.7115960994285454e-13 -1.7313337594654362e-12 1.5893245448688265e-09 -7.747755572684395e-10 -1.630936022802063e-10
812 -1.2081246669483024e-13 -4.24266212988841e-13 -1.287238890700078e-13 -6.476241911170474e-10 1.3596145934624618e-09 3.4982847291160367e-10
813 -1.0821765421255988e-12 -9.016495376019197e-13 1.682827543220637e-12 -9.41667376353564e-10 5.987451523677298e-10 2.021418456086268e-09
814 3.8539748284477556e-13 -1.0549589175313915e-12 2.453223595853861e-13 -5.369889031886573e-10 5.066932873684531e-10 1.0918355500864934e-09
815 3.526109927059352e-13 2.444678779112834e-13 -4.224983479146302e-13 -1.6313389561782893e-09 2.3744133284104873e-09 1.2034345498043383e-09
816 3.608409514355725e-13 -9.069747802061496e-13 -3.3039575481690254e-12 6.736801440654879e-10 -8.614418089832831e-10 -2.7043943608954855e-09
817 -3.170375857395722e-13 1.0837674684470422e-12 1.3679985751592329e-12 -1.2402836677150072e-10 -2.029711228033017e-09 1.3967590716681572e-09
818 9.567127856998018e-13 3.354790208386655e-14 -1.3006269073879902e-12 7.205980689342485e-10 -9.778716743640753e-10 3.455022827275423e-10
819 -5.419793200587266e-13 -1.0203610520947849e-13 -1.0036060467590687e-12 -7.974138893750793e-11 -4.679816501422363e-11 1.0325603513214234e-09
820 5.418157032818134e-13 -7.594079205376031e-14 4.642733140753839e-13 7.595767292096365e-10 1.6080943198446817e-09 -5.444103524305066e-10
821 -3.12108740216695e-13 -9.710862503927e-13 1.942608585434362e-12 -4.5838499662777594e-10 3.520046357466445e-09 -1.1554819435296185e-10
822 1.5770554902584466e-12 -2.162315812143543e-12 -4.0484255206080127e-13 2.322584154523842e-09 -3.1647469547876003e-09 4.4087854271551e-10
823 -6.091017326108446e-13 4.978274646325846e-13 -9.487291607870425e-13 2.3168453326585768e-10 -7.838392391014659e-10 1.1282532899162428e-11
824 -5.973358115608283e-14 -9.793119603946356e-13 -7.032788748468091e-13 2.910064270835007e-10 -2.643064797632616e-10 8.554660926533033e-10
825 6.595629737238039e-13 2.696510643203632e-13 -2.92661297760373e-12 -2.5305087293250527e-10 9.816872017424242e-10 9.249787445784838e-10
826 1.3548234228771114e-13 1.8986151619454217e-12 -2.9200634923195593e-13 -2.1651811233389594e-10 -9.06637198113237e-10 -2.939988481139323e-10
827 -7.389648617560949e-13 1.567671737078795e-12 -1.0251501069071845e-12 -3.6367088557589804e-10 7.710118588282618e-10 5.871930248504162e-10
828 2.710613926263812e-13 -7.584199063450271e-13 -3.856246741921961e-13 -5.706304594791203e-10 -8.410894470983479e-10 -4.714828968981627e-10
829 6.39956215271225e-14 -1.083366786848316e-12 -4.722661247900571e-13 -5.681492893273519e-10 -1.37924984030929e-09 -1.793783920602636e-09
830 2.8298557795796956e-13 1.084041450763011e-12 1.846277824703203e-12 -1.6078330146809905e-09 -2.987503597460089e-09 1.1938769732324543e-09
831 -1.6274603972403146e-13 -2.109049085709012e-12 -2.0807849993650064e-13 3.4710929300583434e-09 2.0129897757193094e-10 8.714604219642104e-10
832 9.587754736317466e-13 -3.4177451474002675e-13 -2.087338949470938e-12 5.996260388853374e-11 1.3218512516704078e-09 -4.57512222450049e-10
833 5.345221724329092e-13 -5.391697555472195e-13 3.139215501792847e-13 1.1515763354919193e-09 -3.8518619358349993e-10 -9.393471072213978e-10
834 1.1540813522406838e-13 -5.413592715815055e-13 -1.0233466400756449e-12 1.77849934667882e-10 6.76602670858914e-10 5.921046894467716e-10
835 8.393589390564443e-13 -1.5594698293308488e-13 -2.4175746959615827e-12 3.034009414123503e-10 -1.4064362811002651e-09 -8.593638762354478e-10
836 2.1683803764133083e-12 -1.498799318102274e-13 1.0012031815135629e-12 2.363836979310869e-10 -1.0412019332857357e-10 2.429125384819521e-10
837 -9.870073543076682e-14 -1.5960922171271748e-12 -1.0807338211100959e-12 1.4853699229948852e-09 4.349117003199182e-10 4.288701724705472e-10
838 4.5335413760057363e-13 5.41886893868712e-13 -1.5309316648163937e-12 -6.113488468447692e-10 -8.389881712803145e-10 1.3836747211346886e-10
839 -1.2672708893205994e-13 9.70516716114527e-13 -2.4592310942251234e-12 2.0226994059595438e-10 5.349751783752883e-10 9.279254615526327e-10
840 -7.448369360644367e-13 9.54722691412623e-13 -7.977696410283838e-13 1.1617813362161842e-09 -2.9449319647407633e-10 -4.842428156731151e-10
841 8.481353224697208e-13 -6.390892060360757e-13 -1.0166805039403685e-12 -1.1520662310733423e-11 -1.4220205575897332e-09 2.665813608918492e-10
842 -5.18162641919113e-13 -2.1306802349068996e-13 -1.731172163997122e-12 -3.614325306542343e-10 -7.382047015297412e-10 2.982132031516444e-10
843 9.70003180750628e-13 -1.8529395514988167e-13 8.233971132470616e-13 -2.683956604025804e-09 -6.618275389931846e-10 -5.889481956838298e-11
844 -8.342695568156631e-13 -9.065409214955025e-13 1.9193585357422987e-14 3.1595101914723263e-09 1.3561157391771868e-09 6.387381759020306e-10
845 -1.385714136362488e-13 1.2531191899034478e-13 -1.0879868709806998e-12 -5.7685147378623605e-11 -5.431494957878724e-10 -2.2680664407595624e-10
846 -1.100092830486849e-13 -6.154374832659053e-13 -1.3640242173166815e-12 7.299875950307091e-11 -2.1450185264989222e-10 2.0505508597994928e-10
847 1.0788496330899946e-12 -5.415890163358534e-13 -1.6990619688459747e-12 7.833216573950025e-11 1.1252110606147845e-09 5.318218380747565e-11
848 2.036881709617917e-13 1.6655125963805723e-14 -1.0310964446148174e-12 -6.601304579874614e-10 -6.796288199695257e-10 -8.493274036870682e-10
849 4.115161997682375e-13 -5.414445661411449e-13 4.1398190248273085e-12 9.624712662571305e-10 5.403920808290584e-09 1.4069309844278087e-09
850 -6.661517483003389e-14 4.120612250545341e-13 -4.1096879118887416e-13 -2.2806508579287944e-09 9.69972360729762e-11 -1.1674027107633845e-09
851 -2.7960284756506174e-14 -1.0832365834878745e-12 -2.686725941727436e-12 -1.44814661053505e-09 3.8293484003055237e-10 4.940252255576956e-10
852 -6.092966695367845e-13 -1.3965103297286866e-13 -3.4067288134069955e-14 -1.6166253427782949e-10 1.4535222392421115e-09 -7.475102803570875e-10
853 2.3926964023717664e-13 1.6686959334140679e-12 -6.428015169850642e-13 6.736730357770855e-11 -1.2029126943002321e-09 -1.0807632592041147e-09
854 8.704996086554693e-13 -9.250779271527567e-13 -4.852427977247537e-14 1.9878391327829512e-09 -2.7137917951663864e-09 2.3213650751244965e-10
855 -3.8049186837753224e-13 -7.97529559512707e-13 -1.024073024831745e-12 -1.4192025719830178e-09 1.7481162559670937e-10 -6.459495943350294e-10
856 2.7052563745740476e-13 -1.458232549594041e-12 -1.9843783061642435e-12 -2.0386725296709553e-10 -5.6021824288108284e-11 -4.309889478422103e-10
857 1.534981501337897e-12 2.683432741943569e-13 -1.130377267406686e-12 -2.353899676867791e-10 -1.384274083420396e-09 -7.780397867411236e-10
858 -5.412373478571231e-13 -1.0828690093091343e-12 -1.0875734881781344e-12 -2.102423497938962e-10 7.312175583645492e-10 -3.884799074844104e-10
859 2.167570969567573e-12 -3.1359653126407744e-14 1.878849568760756e-12 -8.911838587355289e-10 6.501373751710692e-09 -1.2744899865094185e-09
860 -6.950065241913003e-13 -9.224615505965715e-14 -9.557383870114e-13 -5.909467186251255e-10 -1.3728387073941607e-09 -8.458873344301782e-10
861 1.40194294496702e-12 2.168457457866865e-12 7.937352195344392e-12 6.259555804475176e-09 4.915627660057303e-10 -1.4830176591981973e-09
862 -1.2941914953070003e-12 2.7367525689562485e-14 -4.787335253174843e-13 -5.744970282002306e-10 9.414157669619323e-10 -7.603543455079023e-10
863 1.282669050774782e-12 -1.0842270353816686e-12 -1.417935362125193e-12 -2.845366646266641e-09 -2.3949446297234625e-09 7.34068471717696e-10
864 1.8873411183533943e-12 -1.0840918361622217e-12 7.905076677402907e-14 1.220813543027829e-09 1.2962026465129001e-09 1.5184971400908535e-09
865 -5.884821215035931e-13 -1.0834937619405383e-12 -1.3910193017854883e-13 -3.2042834016677843e-10 -3.500516061731844e-09 -1.2295759643603726e-09
866 -8.503648137129972e-13 1.3247940739912698e-13 1.6389067425558558e-12 3.7937275015443734e-09 2.0021727570794787e-10 -4.2529931904890126e-10
867 -1.3971651484396811e-12 -1.3502551654671593e-13 -1.2967408470205961e-13 -4.5924679296409307e-10 6.655842404966484e-10 1.7516816721595395e-09
868 1.0834891689018048e-12 7.039259256512546e-13 -1.8634076464368524e-12 -1.835286529483326e-10 2.76481326774546e-10 9.002136867925527e-10
869 2.7024799188997614e-13 7.627856881211302e-13 -1.5056992437489195e-12 1.966556117884445e-09 -8.160571567441653e-10 4.363137320110421e-10
870 5.20502542918749e-13 -3.3626285705941093e-13 -4.421774397732863e-12 2.976390103707772e-09 -2.274543317567848e-09 3.0015893034337913e-10
871 -7.909992145618866e-13 1.7956378529494885e-13 -2.347889789211397e-12 4.820685093469494e-09 -1.0426664093954053e-10 -7.670923762133802e-10
872 -5.327245268071982e-13 -1.1090558565144542e-12 -1.9873699498550816e-12 -1.981157771585718e-09 1.7960907896781425e-09 2.4680078948712463e-09
873 -2.1680143490238783e-12 1.6256366511456948e-12 -1.5725801732877897e-12 -2.435981578342312e-09 1.7328280108926324e-09 2.4537382005246427e-09
874 -2.092885291866573e-13 1.1669286160304932e-14 -2.8427319378028543e-13 1.2552948532703835e-09 -3.0296544391626825e-10 9.506297140486093e-10
875 -5.42090608899537e-13 -8.488170947085276e-14 8.506973623100666e-13 1.019500521467245e-09 5.029447399181056e-10 7.174842176650892e-10
876 -8.473848093610889e-13 1.9209072128423883e-12 -2.9406836262179633e-13 1.2741007808294261e-09 -1.3035345174436341e-09 -1.9929990271483123e-09
877 5.564957638621745e-13 -9.273345141349051e-13 -1.8350157779687193e-12 -4.2178646747649326e-10 -7.091925117312419e-10 -2.3704562569905083e-10
878 -2.7092477029803666e-13 -4.822473210251383e-13 -1.67731805091489e-12 5.98568501724839e-10 -5.315437717084739e-10 -3.582748098235327e-11
879 3.060536254518529e-13 -1.6209668112304488e-13 -1.2044029761485862e-12 -2.9878238037998706e-10 -2.3258144696527548e-10 -2.4988294911990357e-09
880 8.411403134219353e-13 -6.20094675267148e-15 -2.1215398696217046e-12 -6.585504983641659e-10 7.291373906307899e-10 7.993433530836456e-10
881 -1.7444565603254808e-12 1.6455700881049872e-12 -1.2129163870001034e-12 5.230157451145205e-10 -1.8578961339593987e-09 -2.966260828966224e-09
882 1.2698711510022178e-13 -9.594482985901372e-13 -8.278663337864026e-13 1.2744654801475032e-10 1.0510042794452129e-11 -3.7977659897110784e-10
883 1.592939917146222e-13 -1.080594256474612e-12 -1.5082956970237788e-12 9.308993095691892e-10 -6.946696608470303e-10 5.032006861905524e-10
884 5.55526314672146e-13 -5.411826547569327e-13 -1.5123853083582478e-12 7.158170476719186e-10 -1.1108008564513762e-09 1.65016811583785e-09
885 6.409981366011917e-14 -8.121128273274764e-13 -2.695201865880544e-14 -4.327391738155903e-09 1.3725832958817443e-09 -4.341105846017806e-10
886 2.1666305823790355e-12 4.704719573795038e-13 -2.43540575776239e-12 -6.475015294676232e-10 8.286960862534134e-10 -8.174116323978608e-11
887 4.945350206050336e-13 5.420216969971363e-13 -2.607239700314784e-12 1.2327290887451087e-09 4.875566539894808e-11 -1.7525746485241888e-10
888 8.687971420515602e-13 -3.425137601324749e-14 1.1170186350443518e-12 3.3778413595995547e-09 -1.3359460402265992e-09 -7.232185252787804e-10
889 2.790220793718067e-13 -9.179118673789102e-14 -2.3563684872946285e-12 -4.039803966938192e-10 -2.984563549275137e-10 -4.2796289676010723e-10
890 2.705862062008929e-13 1.846351826308053e-13 -1.7198413932476133e-12 -1.2923432803986464e-10 2.737630715268103e-10 -6.386861097921626e-10
891 1.1439614553111163e-14 1.1107517779703526e-12 1.2677117541792952e-12 -1.6280126940614194e-09 2.6857096820359132e-09 4.188512885615405e-11
892 -1.2618775578300465e-12 -2.1039495342886133e-12 3.610835126736086e-13 7.10546724629608e-10 1.9072778747280786e-09 1.8765896054428574e-09
893 7.931289708482651e-14 -3.0084150313926e-13 -2.5683703170182645e-12 -2.509446620966129e-09 -4.4816926683580226e-10 -1.3584964766431334e-09
894 -3.748196833751293e-13 5.187935905795393e-13 -2.8240133776230165e-12 -1.4177963466309693e-09 1.7414589802856157e-09 1.287719727001505e-09
895 1.351409758128289e-13 8.018371748026921e-13 6.697246883559935e-13 -1.4046839879660983e-09 -7.210322694613723e-10 2.8926719985439684e-10
896 1.0840630901788907e-12 1.5350342673187766e-13 -1.081744920657346e-12 6.922637768846679e-10 2.62713818145316e-09 -9.297477009205939e-10
897 -1.829251746787981e-13 -1.0200549439132065e-12 -4.800478536110358e-13 4.775955033938209e-10 -8.002608255859604e-10 -5.532959427072996e-10
898 4.710679597576985e-13 -5.762971951443757e-13 -1.207288356855576e-12 -1.458060111033859e-09 -7.322824542547692e-10 1.9657055862224685e-10
899 1.948841594347836e-14 -2.1642081598625357e-12 -3.3512982491048463e-12 1.149062492453727e-09 9.850655555863533e-10 5.484473259410426e-10
900 9.237772868294814e-13 5.16025699544937e-13 -2.6427386110518988e-14 -9.97479382952075e-10 9.90143992574797e-10 3.8547587237840717e-11
901 -1.30547890968276e-12 -6.793552287977056e-14 2.6705131034712762e-12 -1.4633144179335546e-09 -1.2806870831389003e-09 -8.095959848460235e-10
902 2.602095783966825e-14 -9.820267554670228e-13 -1.8264829214379912e-12 -1.1646499661905762e-09 6.306574342515455e-10 -1.7619337179350598e-09
903 -2.0408943987331067e-13 6.441057656178609e-13 -9.534580212833862e-13 4.305109963281413e-10 3.543763290672532e-11 -3.215311727838424e-10
904 5.988003463562776e-13 5.41817158218126e-13 -4.251729952795647e-12 -1.4625066493509737e-10 -1.5631266867460893e-09 -1.5779880032962433e-10
905 -1.1787817526170637e-12 -2.5123595927826686e-13 -1.0747774181000566e-13 4.260197908532734e-10 7.043709929156408e-10 2.977822224900657e-10
906 9.44407609003238e-13 5.227067766839461e-13 -1.5913440678889966e-12 8.238199316959247e-10 -1.039820730085735e-09 -9.043895852702534e-10
907 2.8213533035596435e-13 2.7308356648599255e-13 -2.213670394414814e-12 4.6241568121384405e-10 -5.154566268313863e-11 7.842822034739236e-10
908 1.3468401114133803e-13 -1.0410814075279765e-12 1.0429552552737228e-12 3.1954035032592048e-09 -2.0406085633281557e-09 -2.7801198576216253e-09
909 2.7063787198277267e-13 5.421201421832117e-13 -1.4994397667047988e-12 -7.427300992300726e-10 5.450263886057773e-10 -7.408268585759536e-10
910 -6.744346153769395e-13 -2.1681896665026495e-12 -1.7715311738031818e-12 -2.8714684785583086e-09 8.136056476271526e-10 -1.7849038692224645e-09
911 1.855388520111634e-13 3.4935548107850987e-13 -9.420518088437894e-13 3.778241474336021e-09 1.6116921698123311e-09 3.960293649575634e-10
912 8.847622104164896e-13 1.1723858960297636e-12 -2.0429565320047084e-12 -3.8006814590975126e-11 2.2355455360601493e-10 2.698262707215992e-09
913 2.0680044197224628e-13 -2.5118531414991617e-13 -8.254559443841183e-13 2.102835143207893e-09 8.5877744661062e-10 1.6177424725013514e-09
914 1.5365454184417275e-12 1.1548390222568676e-13 4.847649698107227e-13 -7.763757465356379e-10 -1.1429411043616846e-09 3.982076904079835e-09
915 -1.5737884716794048e-12 -5.418344863440688e-13 -2.952960474104623e-13 8.42540414501432e-11 9.848426028032699e-10 7.140618131067924e-10
916 2.198338851865809e-13 5.603178903477186e-14 -1.6852633860501198e-12 -1.3052504922548411e-09 -6.118853243529052e-10 -2.1683207667128522e-10
917 -2.7027313274503183e-13 -1.5139561003101868e-13 1.8398135688520712e-13 -2.166015521391176e-09 -3.4132003432328387e-10 -6.43237972702107e-11
918 1.9488326505026255e-12 -1.8542795622583463e-12 9.395324183874874e-13 1.255026220837733e-09 1.137536283168322e-09 1.949779789530233e-09
919 4.880699286949604e-13 2.16834743093939e-12 -3.297535055675777e-13 1.3072837051850228e-09 5.919581403671421e-10 2.0760253059377945e-09
920 -2.844773299422724e-14 -7.947493211879906e-13 -1.537273870444045e-12 4.868109921974449e-10 -2.8990719002702796e-11 2.500291567606589e-10
921 -2.709512686873486e-13 -1.197459334570067e-12 6.060923436621636e-13 -1.2894238359746913e-10 -4.534548179959843e-10 5.118628312419843e-10
922 2.6049177051871556e-13 -6.724968361266342e-14 -1.7008255304571062e-12 1.770368306636673e-10 -1.275312380333833e-10 3.203056415239189e-10
923 -1.9899000837551675e-12 -1.6102913696768027e-13 8.28143538277043e-13 7.879755719695293e-10 1.539088101425424e-09 -4.803865313172001e-10
924 -2.707845971181294e-13 6.947660791605383e-13 -9.797773192950092e-13 -1.4648512705415827e-10 1.5327639693256557e-10 5.468931753816537e-10
925 -1.753906958980834e-12 -1.390997366228755e-13 -1.955891788938533e-12 -1.4178920283629627e-09 8.618890170683073e-10 2.1050994711840177e-09
926 1.0841781386053462e-12 3.762029937177056e-13 2.3278535894010865e-12 -3.1893428865050043e-09 3.771739546496408e-10 -2.849621236969374e-09
927 2.2386827006456894e-13 -9.279113427666519e-13 2.7354203442648793e-13 4.142832263187835e-09 2.5693510202754164e-09 -6.570301863005064e-10
928 -1.0836637204576412e-12 -3.9327122931126495e-13 -5.4989377102661884e-14 1.278289482925986e-09 -9.713439338142845e-10 1.8033315586300166e-09
929 -5.415475655321545e-13 1.083616312091666e-12 -1.275019997254852e-12 -3.285347070635816e-09 -3.2884802284018045e-09 -5.026566747094735e-10
930 -1.302882566149515e-12 1.1777747586137097e-13 5.092856902486908e-13 3.2507833165099055e-10 6.181583031028075e-10 4.8428247111858076e-12
931 -2.9948718831194503e-13 -1.0095448590584782e-12 -3.8329046812661126e-13 -1.4536195608519006e-10 -1.1974631997426977e-09 -1.11812251861062e-09
932 1.082061069366578e-12 -2.1662979268827933e-12 -2.0851270213709508e-13 3.6157936216195568e-09 2.0021925531727543e-09 -2.3356986321645873e-09
933 3.7456346709146037e-13 -4.0876664862780947e-13 -1.5037822910129454e-12 -5.323360453099809e-10 1.1170987528631626e-11 4.2841427951373403e-10
934 4.496798230180872e-15 1.9933079625680144e-12 -1.7433241236212136e-12 -1.8216884650116149e-09 3.873877460149642e-11 1.2878942100957115e-09
935 -5.35020393580004e-13 -3.3732198473237434e-13 1.8186679473200552e-12 3.7630969066272054e-09 -2.7637028622307016e-10 -6.031168018502814e-11
936 1.4541133284635934e-13 -7.049410665078244e-13 -1.1140020131432012e-12 -1.430764338840279e-09 6.295971814597234e-10 -6.816880244577234e-10
937 -4.206650368849171e-14 -3.320962644947642e-13 2.6401570462823977e-13 6.397162874967214e-10 -6.74992763238508e-10 2.685038610001972e-10
938 -4.210408662769435e-14 7.135782724619205e-13 -3.1532966371543956e-13 1.1486852008494653e-09 -3.2171560575373826e-10 -1.4210738838724389e-09
939 2.2113120608230415e-13 1.3561524178823055e-13 -1.4027694578148448e-12 -3.519477741594304e-10 -8.253457144337698e-10 1.3035752750033266e-10
940 8.668634077400622e-13 8.378437016835569e-13 -2.50519972279864e-12 1.5095415918166613e-09 1.77375041975543e-09 9.501109220853096e-10
941 -6.495798820500833e-13 2.1681343614531174e-12 -1.289358369632707e-13 -6.925212118730773e-09 2.012810495887591e-09 1.8535255805592914e-09
942 -3.802921279618304e-14 -1.7840466056677825e-12 8.738255601480827e-13 1.264982530256132e-09 -2.576305787272518e-09 -1.6951557038230148e-09
943 1.083739718138256e-12 3.96558241021617e-13 -1.1821591042237736e-12 -4.755619551367819e-10 1.20521878057076e-09 -1.3763670758561895e-10
944 2.653964123897704e-13 -1.9302104151189982e-13 3.0293050712529496e-13 8.82602045947432e-10 9.437608728347168e-11 -1.2424655719000778e-09
945 5.488847124090678e-14 -2.515577167327895e-13 -9.665646760482317e-13 3.008389674155443e-09 -1.7305683857837018e-09 -4.943574996016877e-10
946 4.686541758071085e-13 -1.0842049061960547e-12 1.4156232832769678e-12 -2.305140860853921e-09 -2.4404505500853633e-09 -1.2493279244857253e-09
947 9.131614716847562e-14 -1.080751926781323e-12 -1.5246767187299494e-12 2.153263277026089e-09 9.389766350485632e-10 -1.1529908045690037e-09
948 -8.469797199736765e-13 1.1687771608044837e-13 -3.960722233992498e-12 -1.985082215194189e-10 -1.991345282876986e-09 -1.0228736136955838e-09
949 3.379707877190638e-14 -1.213859730718084e-12 7.117975368036385e-13 8.576613914424291e-10 -1.440053335167153e-10 -4.316936454518171e-11
950 -7.128663925898428e-13 -3.0605542170587594e-13 -2.12983468401249e-12 -3.520296432412745e-09 -1.9636981588816777e-09 7.52833434356641e-10
951 -2.68733557709897e-13 -4.318958287302939e-14 3.617135184691383e-13 2.0540981685791806e-10 -1.5637832467109338e-09 3.3729718719196755e-10
952 8.408754918762497e-13 1.3473185778913092e-13 -1.3754586964712624e-12 1.0686470837379029e-09 -2.0832644212977615e-09 6.187840589577324e-10
953 -1.7275250522142736e-12 -1.0833951768774597e-12 7.0915120869844e-14 -8.685719482837052e-10 -8.532667767580635e-10 -1.2648031266368633e-10
954 -5.575267062076299e-13 -4.132038042784767e-13 -1.0359026825882062e-12 7.3291952308054e-11 -9.957685750325e-10 1.4782535135273458e-10
955 2.1678126658870826e-12 5.420074894940565e-13 -1.4816729707898615e-12 -1.3888096760366269e-09 -8.263189388703237e-10 2.9435269526934023e-10
956 6.540602347426669e-13 -1.8403946244829704e-12 -2.219283916399427e-12 1.4070817472461224e-09 2.6217455970343304e-10 8.959540268693173e-10
957 5.07971377151279e-14 -2.643879217646265e-13 9.674394879910978e-13 1.262963986177997e-09 7.933708549292144e-10 -1.8506182882583637e-10
958 3.919761992814101e-13 5.419951123662287e-13 6.320607672567239e-13 -4.1047341776461e-09 -1.6422738827388216e-09 -9.251777125169228e-10
959 1.0841749121780034e-12 7.42341952186446e-14 -1.958550939750334e-12 -4.971552490083883e-10 -1.4243520258151375e-09 1.9859938817476052e-10
960 -9.61696837285558e-13 1.0832310351660536e-12 -2.7921197691727867e-12 2.1656207764329383e-09 1.2632507400297468e-09 9.479571198901565e-10
961 5.419745999054609e-13 -4.835468117988023e-13 -8.267848998005602e-13 5.921752039677526e-10 -5.295290663493398e-10 1.0090267106565486e-09
962 -1.1160170078030021e-12 -5.420802039857897e-13 -7.2488528706456164e-12 2.1863946288228993e-09 -3.5886742562066007e-09 -6.051252710181747e-10
963 3.6341397112752133e-13 -6.529675613046674e-13 1.429286748611536e-13 -6.56559061582899e-10 -1.3650008648394502e-09 6.297867143483216e-10
964 -3.460557583032809e-13 -3.0893333105010053e-14 3.544286990412024e-13 -8.949550530130603e-10 -1.9423984005285123e-09 7.022013061297668e-10
965 -1.3546128086688916e-12 -7.148088296287605e-13 -3.1245069848952135e-13 -1.6551081931756895e-10 4.671866792583714e-10 -2.9071741425561765e-10
966 3.207786221620971e-13 -1.2924094528032402e-12 -4.068821324233042e-14 -2.3727263007940534e-10 5.156792515857164e-10 1.9914950953214959e-10
967 2.694413242162745e-13 -8.482996872651522e-13 -2.308543288938136e-12 1.8794183667708963e-09 3.838696138749237e-10 6.042641015992734e-10
968 1.3408965907883276e-13 5.281730422473646e-13 -1.3652012773537344e-12 8.993814315191665e-10 -5.322582663593424e-10 8.803525106533761e-10
969 2.105740154696962e-12 -1.0840876858339453e-12 -2.1322999526733097e-12 5.611906386776789e-09 8.687325971555252e-10 -1.4770555175025897e-09
970 1.0836724796156613e-12 -2.1676280837636323e-12 1.9611493767231616e-13 -2.513362370118605e-09 9.179431224694945e-12 5.137906943875438e-09
971 -9.589829069498159e-14 -5.440221648555302e-13 -1.3180429555272521e-12 -1.5823750367785655e-10 -8.423373267663479e-11 8.573283052687814e-11
972 -5.4547946146263965e-14 -2.725980621239908e-13 -1.333752155926505e-12 2.9852754415364785e-10 2.584537418074217e-10 4.309081884020944e-10
973 1.3262332656768492e-13 -5.240173919879294e-13 -1.0606608432755678e-12 3.825308649910581e-10 4.1824824163527325e-10 -8.027886231430631e-10
974 5.370555515902538e-13 1.700321745955734e-13 -2.291922311946962e-12 2.24234057931624e-09 -2.0966794030456944e-09 5.960752952841013e-10
975 -5.989062101896773e-13 -2.725648380261053e-13 -4.998251673385869e-13 -1.3103158580272156e-09 9.53649200556092e-10 -5.606259991005161e-10
976 2.0944244991115233e-12 -1.0837030069951858e-12 -2.2724962164582349e-13 -9.46425103723292e-10 -1.1162226316940634e-09 -1.446801730964276e-09
977 5.4432145982386635e-14 1.2353225831744713e-12 -2.3421666990199776e-12 2.366501426535147e-09 -2.2676002972483283e-09 -6.706134744174617e-10
978 6.047397927397025e-13 -3.9247460287020457e-13 -2.1350874958921335e-12 -1.081788927755578e-09 4.3647020639597774e-10 4.187707389058534e-10
979 -4.3064799594604143e-13 -1.0995093472001224e-13 -5.197681199099382e-13 -2.3647335067309035e-10 3.6375838838947434e-10 2.240561464107471e-10
980 1.0767229300645106e-12 -2.6838650519633723e-13 2.6829831035860007e-14 -1.0736083616056977e-09 1.250418121633265e-09 3.3790545694910547e-10
981 -9.438569258535404e-13 5.421852161854308e-13 -1.2244703487001785e-12 1.4278284699877718e-09 -8.245292391886038e-10 1.385626900785355e-09
982 -2.1204235130425755e-14 7.844416602116677e-14 -1.1749773196975824e-13 1.2954219890851244e-10 -5.327051008408422e-10 2.6348600517893346e-11
983 -1.881725029743225e-12 5.242812743674518e-13 7.313252017702544e-14 9.829111297946614e-10 -1.6171762064454364e-09 -1.5243396171155588e-09
984 9.059467581407191e-14 2.0433068613711742e-13 -7.838098760086503e-15 -7.432967878230424e-10 2.899390646506795e-10 -2.7933438966280336e-10
985 5.124584567225605e-13 2.5948342484138133e-13 7.580638436118146e-13 -3.0791086768282177e-10 3.462800422063831e-09 -1.0010779432241242e-09
986 3.4500806110334946e-13 1.3379622835193575e-12 4.009668842584609e-12 -1.796557457218619e-09 5.323620027646081e-09 -2.7194858443680854e-09
987 1.0455097818205027e-13 6.622065598252266e-14 -9.150962435751602e-13 4.921466612570365e-10 -4.0362761563159345e-10 3.45567520936439e-10
988 5.934449655557255e-13 -3.3398997537190367e-13 -4.2220433157772774e-13 -2.5738853682101374e-09 -7.801914525331896e-10 -5.580783955449436e-10
989 -1.4291327272792193e-13 -6.072554295145032e-13 -1.694183017322921e-12 -1.0725618030161646e-09 1.5337678799410545e-09 -5.833517942513287e-10
990 8.00881409924293e-13 9.546036574309503e-13 -9.52439226531673e-13 -5.612926430772976e-10 1.0070565901304556e-09 4.63927459599726e-10
991 -3.3332745355878353e-13 -9.043308539578933e-13 -6.113582370793357e-13 -2.4899271987363334e-09 -1.4844734041666578e-09 9.80096621914107e-10
992 3.8947103043685045e-13 8.389687949389722e-14 -9.603878727304296e-13 5.573150897176902e-10 -6.932707049763926e-10 2.9178702476614696e-10
993 7.706760953478002e-13 -2.706706269791208e-13 -1.961010846032029e-12 4.1926678693446737e-10 4.823333995353224e-11 2.2386715150147723e-10
994 1.4221083349527174e-12 2.0968659417360502e-13 -1.3424870574442755e-12 1.7624401176861309e-09 3.5043114877027815e-10 6.573128030017853e-10
995 2.707024045699516e-13 2.7096845264173924e-13 -1.7600499555062505e-12 4.9899250681991135e-11 -3.0914887563212296e-10 5.190141230226501e-10
996 -7.995626880824652e-13 -8.712086879245018e-13 -6.717166262793311e-13 2.2045176660272344e-10 2.0127984172413625e-09 8.305563647088133e-10
997 1.0831822740215755e-12 1.0838533761512395e-12 -7.924407485426422e-12 7.066630976200818e-09 4.5786294628712307e-10 1.049581978755438e-09
998 4.602092565486773e-13 3.3057010663843015e-13 -7.862390608276147e-13 -2.5451134008485116e-10 1.0749297554411556e-10 -1.4952511920157586e-10
999 -2.704954920045027e-13 -7.47295217061039e-13 -2.2279238007318224e-12 1.041814842540457e-10 -1.267091011301507e-09 -3.061220837247102e-11
1000 5.22957452475065e-13 -1.5805652130269678e-13 1.1145341903593547e-13 -2.017697601155639e-09 -3.2566145560509277e-09 -6.547026465545522e-10
1001 1.2103866240131684e-12 4.932079289381632e-13 -2.3295053367885988e-12 -2.9493040647738144e-09 9.756998632942816e-10 -2.163520513905002e-09
1002 -6.901308614685156e-13 -2.728374925710299e-13 1.4898610074168548e-12 -1.4984204987219977e-09 -7.257316163002071e-09 1.9616313413381002e-10
1003 5.418839448573015e-13 -4.2241675940076016e-13 -1.7145472623686684e-12 5.077979072561321e-10 2.3492056002802055e-10 2.234478766389538e-10
1004 1.0238896532320652e-13 -1.086629818579826e-12 -7.068152940952579e-13 -7.248669101455584e-11 1.877911279043377e-10 -3.309865621261723e-10
1005 -2.174183244116585e-12 1.0831293131972495e-12 -3.9107088636168904e-13 6.86691909625845e-10 -1.034847930516267e-09 -1.6498417505047556e-09
1006 -1.0717010241549053e-12 -6.67421732329361e-14 -1.6736352258831817e-12 2.889972625652534e-10 1.5626126425711778e-09 1.9728832286904135e-09
1007 5.1923618856164025e-14 -4.678032208397152e-13 1.6193762319328943e-12 -8.254193499840739e-10 -1.821997163663925e-10 3.388610093671869e-10
1008 -5.419879651610479e-13 -2.111031990765229e-12 5.793925898184415e-13 6.655311294676488e-09 -2.81132382107924e-09 -2.7819560819870116e-09
1009 4.748485445117076e-13 1.0640950101179059e-12 -3.5368502586291893e-12 1.2015085436600524e-09 -2.924675857091656e-10 -3.1792611321398845e-10
1010 7.62051088815532e-14 8.870180057022141e-14 -1.5357223006733543e-12 4.716441437712271e-10 -1.947037011089683e-11 3.49738638193409e-10
1011 -1.8068331080641513e-12 6.060701431519928e-14 1.0061195000676988e-12 -4.336007284403231e-09 9.138635032857231e-11 1.4668928069639671e-09
1012 -1.2801632136905467e-13 -9.00339469285865e-13 -1.1940621336952974e-12 -8.860041378973623e-10 -7.937772824308183e-10 -3.772112015984793e-10
1013 5.411228937051093e-13 2.1440475920816478e-13 -4.138640069598308e-13 -2.8065547778619183e-10 1.9730380876825096e-09 7.222567964575353e-10
1014 -6.653432876030735e-13 -1.5271636736493878e-13 1.2965024276475014e-12 3.3817983581427837e-09 3.6654869082631767e-09 7.114018305949611e-10
1015 -6.921662303411781e-14 -9.949774846831407e-13 -2.588497837560579e-13 -7.169502487518686e-10 7.583632751869848e-10 9.877926574709766e-10
1016 -3.1663577489010035e-14 -2.959863203333977e-13 -1.7578796306265425e-12 -1.0729214106250989e-09 -3.42765723234432e-10 1.904643916911499e-10
1017 2.6911474019250754e-13 -3.2812808450855906e-13 -1.4005682793145363e-12 3.762011154952468e-10 5.544796176919166e-10 -7.525012862698024e-10
1018 1.2135462779306913e-12 7.979621860171617e-14 1.3265306338923e-12 -1.2718660857111093e-09 -1.4362308899728033e-09 4.829331768392188e-10
1019 1.913462236567505e-13 1.0685967774453049e-12 -1.1371692499478136e-12 1.023799330401308e-09 -8.757752792493058e-10 1.903011086090368e-09
1020 -2.2030435213472886e-13 2.0642152691449228e-13 -5.341833879341827e-13 1.392380492323826e-09 6.791513490363758e-10 -4.705604110324413e-10
1021 5.917646125185841e-13 -9.5495206715486e-13 -2.0781718833672353e-12 -7.704919835676789e-10 -4.740008457578209e-10 -1.184449813066308e-09
1022 -2.299116502693004e-13 -3.8073117492304373e-13 -1.0530793191180485e-12 -3.045801216027973e-10 4.8898550872090035e-11 -1.8674818089143658e-10
1023 1.0836785337436337e-12 -1.3572855657772268e-13 -9.405186949626348e-13 -1.9415577702425735e-10 2.1762569416253418e-09 -8.58085304359454e-10
1024 -2.522654385558017e-13 1.0836307550574319e-12 -1.570943027627987e-12 1.9973118664712714e-10 6.0736181196004e-10 1.9087489177547401e-10
1025 1.7464410070978813e-13 -9.322309131268244e-14 -9.84297051770831e-13 1.5517515973108832e-09 9.919683525947793e-10 2.489913356783876e-10
1026 3.8751321986818817e-13 6.775904954895428e-14 8.118655343583241e-14 1.054531231660219e-09 8.726310084067061e-11 -1.0569771459148202e-10
1027 4.751488764910414e-13 -7.500327419708709e-13 1.1830150711759775e-12 2.4174701169883545e-09 -1.7639556650957836e-09 1.1439297426974611e-10
1028 1.5005189274369415e-13 5.826359335262633e-14 -1.4145126427560101e-12 1.2369125658578301e-09 -7.659087726169283e-10 7.766864171110837e-10
1029 4.687282379668538e-13 5.425168526486021e-13 1.081673536032078e-12 -5.767442650014852e-10 1.6878804914381994e-09 1.4454171649403942e-10
1030 9.212635580626342e-14 4.879585085502994e-13 -1.7444406082036883e-12 -1.088779548380018e-09 -5.149866651972424e-12 -5.193062013486947e-10
1031 3.6389592763684754e-13 2.69834946544122e-13 -5.450567969345895e-13 -6.32256471212069e-10 1.6026761777533295e-10 -2.9449559257669833e-10
1032 -7.29907450211357e-13 -1.883395501467024e-13 9.365568788370724e-13 6.904121986095787e-10 3.9389213995038497e-10 7.275423911469699e-10
1033 -8.205885088760934e-13 -5.651645552520388e-13 2.380906446134596e-13 7.755522373726706e-10 -8.798989008953904e-10 1.2645071480392225e-09
1034 -3.324158285223183e-14 5.985263066090333e-13 -1.926465107594469e-12 1.6394109048594617e-10 -1.2091872687580788e-10 -5.371267377805116e-10
1035 1.5091538367042018e-12 -3.5595682406440997e-13 5.364617143274257e-13 -6.71194740032461e-11 7.463323080689598e-10 -5.416860997118995e-10
1036 -1.0629876005494951e-13 8.867602983359597e-13 1.360631537358154e-12 5.406916575081939e-10 -3.141543119723968e-09 -1.0290392284039895e-10
1037 3.896770960918533e-13 -3.225685956393188e-13 -2.2821289426674424e-12 -6.598296968627031e-10 -2.1816320880782804e-09 -1.554834158715655e-09
1038 8.769832182773177e-14 5.538726121500537e-13 -2.284736233655756e-12 -8.077914192422825e-11 4.967888224707984e-10 6.965726256702902e-10
1039 -1.7532354550395145e-13 -1.0839441252954756e-12 -1.850534679521082e-12 -5.024280005125364e-11 7.916931394208574e-10 -1.323620342217107e-09
1040 5.97372781024766e-13 4.4838438674313127e-13 -7.320319886433336e-13 -1.5490853267396874e-09 -1.203491100902186e-09 -4.184095749150935e-10
1041 -1.7354677972692582e-13 -5.023546516630656e-13 3.407920607019853e-13 2.0133061007214666e-10 6.698009090431048e-10 4.2990163928445915e-10
1042 -1.17689285619778e-12 -4.844472886905066e-13 -1.834624796869207e-12 1.6830154714466644e-09 3.035883480849094e-09 -9.127070985548137e-11
1043 1.813909679303213e-14 -1.082316424343418e-12 -9.056921568509164e-14 8.348488790370747e-10 4.70249236791935e-10 -4.228207397059392e-11
1044 2.5819897736254326e-13 1.0832083095587606e-12 -6.863651120257253e-12 -3.1562425467392994e-09 3.559776914843489e-09 3.3600020855371943e-09
1045 5.356386401292651e-13 -1.242305991749148e-12 -2.001259019228865e-12 3.8727156725128475e-09 5.156906023476917e-09 9.192913129000378e-10
1046 -3.8612542213420306e-14 -8.401066085089627e-13 -1.5554195705409258e-12 1.3187185971648516e-09 4.2894700895872723e-10 5.390309191693538e-10
1047 -2.7086408426238025e-13 -9.058282194784765e-13 -1.4921757331338446e-12 -2.4723206479559294e-09 -2.0616085632389657e-10 -1.3374301352727497e-09
1048 1.1801954313570556e-13 -1.0348871371367787e-12 -3.3012774616651384e-13 3.8961348759894743e-10 -2.10810444662178e-10 3.294957113922959e-10
1049 -9.387501140093024e-13 -5.412569242686015e-13 8.813027837757421e-13 1.782640456258515e-09 -3.264079421939651e-09 -6.26743116662481e-10
1050 6.945941238953884e-14 -3.140647181102848e-13 -4.871407415724653e-13 9.425028009323947e-10 2.234759807508512e-10 1.9628376667921455e-10
1051 5.011225389994923e-14 -9.539894143390603e-14 5.851618093733302e-13 5.799737313733602e-10 -2.5759269087446735e-10 -1.671667045229863e-10
1052 1.1730641258369042e-13 -1.0977120399852412e-13 2.747354994258058e-14 1.2197842473058351e-09 8.977299806728299e-10 1.981111418980345e-10
1053 -2.1611469890037544e-12 -5.414504791888056e-13 -7.968293557228757e-13 1.8496961244272849e-09 6.101386641136197e-10 -1.3011124642698803e-09
1054 5.420424307657069e-13 9.665538108728879e-14 -1.6405457403578705e-12 4.6103778301059046e-10 -6.732269707718563e-10 -1.9972317166618183e-10
1055 3.383255351985279e-14 -2.83923776218766e-13 -8.462118416286803e-13 1.0273796713525009e-09 -9.062118969448798e-10 7.933968019701779e-11
1056 1.941449596207384e-13 -1.245812179386628e-13 -2.136611212378421e-12 -5.303492636231833e-10 8.053713142888192e-10 -5.458386049879864e-10
1057 3.736831433953519e-13 -1.4876185139492438e-13 -1.001094607773837e-12 -6.532351463910528e-10 -1.7724228363977305e-10 -6.608111125046649e-10
1058 -3.2392289084726116e-14 1.936799204310515e-12 3.0761907493311775e-13 -3.868259786891408e-10 -1.0655933026151327e-10 -1.1333189711003617e-10
1059 -1.643914983807687e-12 -5.414070876389335e-13 -1.5216469659147465e-12 2.906663892072175e-09 -8.983027333402541e-10 -3.521003713554434e-10
1060 -4.594826227668768e-13 -2.167894541972847e-12 8.786791238687626e-13 1.8241011592744986e-09 -3.717783129750576e-10 6.489990032595753e-10
1061 1.0839139505364889e-12 -2.0000576670136617e-13 -2.571693036919887e-12 -2.0712411676037814e-09 9.469344088770425e-10 -3.2417332875196966e-09
1062 3.563284760725041e-14 -9.573757402983935e-13 -1.4780788943570573e-12 -1.0486151193290968e-09 -1.5739784621444816e-11 -3.4626510587025976e-10
1063 7.914482299289098e-13 5.773915058343351e-13 -3.2473036425117316e-12 1.8437019217936173e-09 3.5345013335805167e-09 2.2006463746851646e-09
1064 1.350037847844284e-13 2.701890703374586e-13 -1.958780354271135e-12 2.6085704807097206e-10 1.1092199589617542e-09 3.8401178046487315e-10
1065 1.3761383766433222e-12 8.895494829034744e-13 2.049849587621734e-13 -8.96176735752722e-10 -1.4657119037764607e-09 -6.978960332732313e-10
1066 -1.35628127304162e-13 1.4615750766028466e-14 -1.5741666432672388e-12 2.8772239001710672e-11 -8.57683958092375e-10 -1.0594659342723772e-09
1067 -2.0705540476530882e-13 3.8264482147405144e-13 -1.4033338055551205e-13 6.724672521939497e-10 -1.422395555047974e-09 -9.560230709036869e-11
1068 -1.0814362245376118e-12 9.323216229346433e-14 6.070438112819141e-13 -8.380923677808937e-10 1.030923327504647e-11 -1.254412855823074e-09
1069 -2.433127323705313e-13 -5.148224395513212e-13 -1.4847797951330494e-12 -1.5936972699084224e-09 -3.917911451608107e-10 -3.2578628397312094e-10
1070 -1.5985201101453147e-13 -1.0805953601227233e-12 -6.571038678545006e-13 2.1020146853771372e-10 -8.061143802061939e-10 1.1902588564445774e-09
1071 8.342340735973652e-13 -1.4531515612162788e-14 -1.1883180054356298e-12 2.517866557066775e-10 -1.02314365541014e-09 7.899652151027613e-10
1072 -2.2841916294679806e-13 -3.1434187104783764e-13 -1.3565984436512012e-12 -7.702407716596584e-10 6.913554930823664e-10 3.1702659784321583e-10
1073 -2.745334945502559e-13 -1.0838755528174952e-12 -6.32690452615509e-13 4.406080624947619e-10 1.1397021138298764e-09 -6.281643237701311e-10
1074 1.7304967598174956e-13 -2.162988309505847e-14 1.2034004891915837e-12 -6.761650892666049e-10 1.6823847518799113e-09 2.2922387873593e-12
1075 -3.596215146663141e-13 8.177455281197159e-13 -1.0143584134589774e-12 1.6944571022913783e-09 -3.643071512592004e-09 1.0077519675260482e-09
1076 2.931043933284817e-13 4.2723297913296203e-13 -9.177380103110238e-13 1.0086690343952345e-09 -1.555414029074819e-09 -6.108261561632036e-10
1077 5.408927250722636e-13 3.1177344131676297e-13 9.382738134345733e-13 -1.9975303817137316e-09 1.46932243555661e-09 3.2020694541379236e-10
1078 1.9484680596565527e-12 3.54657154916965e-13 2.1552025759841404e-12 6.125454641495971e-10 -3.0088430550439227e-09 -1.397744877487682e-09
1079 5.406833097715183e-13 -1.0282617561705265e-12 -6.739770368108897e-13 -2.2424789520567345e-09 -1.928382607698243e-09 -1.2456642803322043e-09
1080 -6.808120031382548e-13 -3.459807153448615e-13 -1.4668405228258835e-12 -2.6741912184579934e-09 -9.235319578176796e-10 -2.2842438501286647e-10
1081 3.289009815467376e-13 -6.221370432025782e-14 -1.3615925524271556e-12 -1.8148072339760458e-09 5.385990514337536e-10 1.0404174445711225e-09
1082 8.208051345064257e-13 1.2965812651693515e-13 2.5831938961601564e-12 -7.772170108695132e-10 3.6525468853929836e-10 2.809630076268639e-09
1083 -5.416687493864867e-13 -8.255376877546488e-14 -2.8424766480782294e-13 -9.176286672545863e-10 -2.3221280260898637e-09 1.0704828241073072e-09
1084 -1.268960549276582e-12 5.415821712293317e-13 -2.302597481485833e-12 -1.419878886357835e-09 -1.1252843502203539e-09 -2.0362735336890364e-09
1085 -1.689487212836061e-12 -2.005875199706361e-12 -9.094197813341285e-14 -2.0131497687735023e-09 -1.3104756953488125e-09 1.5968960178015204e-09
1086 9.506938200302573e-13 -3.84458929173184e-13 -1.0721000190547464e-12 3.775235577448625e-09 5.715430662476704e-10 6.644743921581326e-10
1087 1.3937299424568387e-14 -1.2855768934490007e-12 -6.557235263917823e-13 -1.3329987868371815e-09 -9.569945715195474e-10 3.302942448030665e-11
1088 -1.9120206782865051e-13 -6.817991188611564e-14 -1.3058125017673266e-12 -2.640203897285661e-10 6.182779570677515e-10 -1.126884914008382e-10
1089 -2.7072239697184955e-13 -1.926438278534131e-12 -6.978366416423604e-13 -9.764357350961433e-10 -9.407946388277079e-10 1.6454843155344674e-10
1090 3.3949149647359806e-14 -5.790893880774648e-13 -7.466000482047663e-13 8.197872680568793e-10 -6.193079464736642e-10 6.579835735423707e-10
1091 -1.4808719867074795e-12 5.236084192348115e-13 -4.1296111652541273e-13 -6.305325850520854e-10 6.698904242754606e-10 2.7644694809890343e-10
1092 -1.083912763230952e-12 -1.0819547891327697e-12 -1.177829413710594e-12 -5.682306484994756e-10 -3.217102828892511e-10 3.120059196836033e-10
1093 -7.733872398681759e-13 -6.514069594384253e-13 -5.601525648064124e-13 1.9641721319680633e-09 -1.841067065280346e-09 -2.009900702806846e-09
1094 -4.156693312386932e-13 2.710057358176535e-13 7.192789725361697e-13 -4.2500831463521883e-10 1.1001736418326048e-09 -5.955047220814929e-10
1095 -1.3536276239808252e-13 -6.334350112759642e-13 -9.498571027064002e-13 3.1198688865747643e-10 -1.8320836333298587e-10 -1.8600606105309474e-10
1096 1.1411770753218443e-12 1.0824470373086468e-12 1.3131144710599488e-13 -1.5565068723600565e-09 -3.0257987012793583e-10 -8.739202768066095e-10
1097 -3.6582690039181325e-13 2.7101903786500156e-13 4.0556330588458063e-13 2.5114663649811555e-10 -5.101360409024465e-10 3.4260031778737325e-10
1098 6.837857219556449e-13 -5.416744388346695e-13 -9.581761794503439e-13 2.003674194260178e-09 6.751940870895599e-10 -5.395144328117597e-10
1099 1.0832458831891138e-12 -1.0842130464286576e-12 -1.217965366855854e-12 1.5212486089854205e-09 3.3251040873665914e-09 3.147134089139378e-09
1100 -3.7536611774854583e-13 -2.7058031329191247e-13 1.8153165333401142e-12 -2.181390523389543e-09 -2.327914982567493e-09 -4.953634108290542e-10
1101 2.358121605612052e-13 -1.623891220554374e-12 -1.2460253732858682e-12 1.742072705963757e-09 2.1957626661013502e-10 1.3477524978114273e-10
1102 5.421228012341433e-13 5.419396899138704e-13 -2.180872300477301e-12 3.6926587027827826e-10 -2.1092288228257788e-10 1.781120764141521e-09
1103 9.621327866525523e-14 1.2046105080826825e-13 -1.0200156733514368e-13 7.627413248600164e-10 -3.9797782647973196e-10 -1.7912673233421207e-10
1104 1.0140638018051191e-13 -1.0840945835649474e-12 2.6300579320532186e-12 1.1685587332846108e-12 -3.4486916643872704e-09 -8.20286145545168e-10
1105 6.367014359747223e-13 -1.0839134933369254e-12 -7.692321367880519e-13 -5.842403913101703e-10 -3.88791664286928e-10 -4.6313777928579603e-10
1106 -1.9448231033823631e-13 1.1632701972999997e-13 -1.3208709909714658e-12 2.100555740016868e-09 -6.057139193594385e-10 5.329621715315742e-10
1107 -1.3432588685442467e-12 -9.299549399535719e-13 -4.0842154481208983e-13 -7.480960007993578e-10 5.269246233498338e-11 -9.052997507365712e-10
1108 2.1654277545064908e-12 -1.16082655756512e-13 -1.1843812960923077e-12 -4.5752580928900587e-10 1.4051521407167027e-09 -9.888165977768765e-10
1109 -1.4155810075216834e-13 4.936428082233488e-14 1.6709889451861607e-13 5.218051517826058e-10 5.446597480903131e-10 -1.335837347721194e-10
1110 -1.4912286021206915e-13 2.7003828956990634e-13 -1.3559172136681112e-12 -2.0626502154950957e-10 4.0459574210228074e-10 -1.048743604732998e-09
1111 1.0274520697409398e-12 3.918715536421769e-13 4.4047345619214826e-13 9.401622077368943e-10 -2.577869160874453e-11 -1.145752131398709e-09
1112 1.4138702150989404e-14 -2.1682086102396693e-12 -6.052708873950982e-13 -6.09473210533648e-10 2.674558513874834e-10 -1.56896117377457e-10
1113 6.429959320445747e-14 -8.322388669689317e-14 5.984289868592622e-13 -7.292028476158046e-10 -2.3982000505821185e-11 2.4378589912721276e-09
1114 -7.443545732596655e-13 1.3139357176296076e-12 1.5362533608449707e-12 -9.039797155510256e-10 7.25140463468115e-10 -7.823010567339811e-11
1115 -5.765643856057896e-13 -5.416207913450863e-13 -1.9311376367770175e-12 3.239267440310575e-10 3.9054962676353996e-10 -4.743350559726033e-10
1116 -3.911055057852048e-13 6.916940973683648e-14 -1.1269570609238712e-12 2.6815140738117423e-10 -1.022426225485014e-09 -2.512276678013588e-10
1117 1.0817904166276912e-12 -4.60940669980477e-13 -2.577651149236552e-12 1.3694920792839721e-09 -2.73614556184982e-10 4.292845545548348e-11
1118 -1.3078021479886755e-14 -4.38182177824869e-13 -4.9232559056643e-13 -5.910308554683689e-10 2.522771525707183e-10 1.7162187841816079e-12
1119 1.2444404206751447e-12 -1.037248494705063e-12 2.982412772627137e-14 1.2063234958059107e-09 -8.77667752406375e-10 7.392590992766643e-11
1120 2.168084958931341e-12 1.904722661226321e-12 2.248701886936876e-12 -9.206587512879942e-10 2.8023396453773615e-09 2.9082392050347523e-09
1121 -2.8169398251382485e-13 -1.0514179716012427e-12 -1.1110266119873215e-12 6.890450899366733e-11 2.1780480320364473e-10 -1.3966576644477922e-10
1122 3.362719483647191e-13 -1.7270749835014504e-12 9.168126551669178e-13 1.5928043881187165e-09 -1.8421479474806016e-10 -2.0779638873383357e-09
1123 -2.073860652121173e-14 7.639448178161298e-13 1.589582316132619e-12 3.353162923259142e-09 5.9016096301241446e-09 2.6337532563072975e-10
1124 2.715625569891636e-13 -1.083722827886529e-12 -7.460260010761841e-13 3.0901378101280846e-10 3.1868299047392658e-09 -5.596183159045092e-10
1125 9.89836209080831e-13 -1.6352660656542008e-13 2.8485764817770923e-12 1.0051069172582031e-09 2.5227792115829803e-09 1.939550543532159e-09
1126 -3.4377978469702716e-13 9.389219824289242e-13 -8.399283557274458e-13 8.503194367820145e-10 8.878459197359244e-10 -2.407112878817625e-10
1127 -1.0809837482098198e-12 -9.165071665832495e-13 -7.843577676950833e-13 -1.1802003420798954e-09 -1.6034326051196598e-09 1.7443928187273193e-09
1128 -5.527088273471845e-13 -7.22929034341434e-13 6.623203104615602e-14 -1.206701269561193e-09 2.768242013375944e-10 4.535257934324696e-10
1129 5.415147733764455e-13 -1.7747486427424968e-12 7.837633330620661e-13 2.4544250911764498e-09 4.726290807911627e-09 -3.9792947821192306e-10
1130 3.1039740508570586e-13 -5.72395550068563e-13 -2.934439250515721e-12 8.038788908521683e-10 1.3593836373000283e-10 -9.865231117941033e-10
1131 9.706260493164722e-13 1.3531751028485177e-13 5.242471205235425e-13 1.994157651220873e-09 2.8499226953082023e-09 2.269417991874933e-10
1132 -3.5181818716543803e-13 1.3526334194929557e-13 1.6794970288000146e-12 -6.622465724961877e-10 -1.6650813770513372e-09 1.902361184732699e-10
1133 -9.23266310031291e-13 7.539089813018138e-13 -2.5561934502745797e-12 -6.05514298181567e-09 8.984478920471953e-11 -1.2806004012238108e-09
1134 6.292796483398593e-13 -3.47573895576696e-13 -9.657977743028387e-13 2.4130796307101225e-09 -7.182138595413735e-10 -9.790949702001924e-10
1135 3.0775981863920626e-13 -1.4544389687313838e-13 -1.3776173506615174e-13 -1.0699410745934154e-09 5.8487523865154364e-12 1.1840433058218562e-10
1136 -8.647884820864536e-13 -5.40720082258912e-13 -8.503289879722356e-13 2.2296905798284864e-10 3.234278436111115e-11 4.453280549564198e-10
1137 -4.963228854145983e-14 -5.135522267651149e-13 -1.1002363445971524e-12 7.374817865366831e-10 1.2939401340526264e-09 6.591608741067547e-10
1138 1.537024779162783e-13 -3.6194512872340757e-13 -6.424466061654219e-13 -9.530519162716331e-10 -9.621192688610565e-12 -1.6021886581694988e-09
1139 1.0841132353773543e-12 1.948975262527692e-12 -2.100621188683606e-12 -1.6849067789196792e-09 2.7922548393850117e-09 -3.3948657509393347e-10
1140 4.518219689855235e-13 -5.41268599592479e-13 -1.0033960881320463e-12 7.807086179744481e-11 1.209445537918154e-09 1.1702813996719059e-09
1141 -5.418656470524957e-13 -1.0839155209305264e-12 -2.333272717953288e-12 -6.347770360553137e-10 -8.557805842465786e-10 -8.806794201080842e-10
1142 -1.5602525042807508e-13 -1.2370337991088757e-12 6.597800320719402e-13 2.8696690739259956e-10 1.9737679950161e-09 2.0183358454337225e-09
1143 4.896090400253964e-13 -1.9399221878718784e-12 3.17260520794303e-12 8.832221576090947e-10 3.5138170226502037e-09 1.3981299146435895e-09
1144 6.335848363985567e-13 -2.237027208028365e-13 -7.359744004301688e-13 -2.0720243752591675e-09 9.340192524653084e-10 -7.000726906853559e-10
1145 1.5664667434857493e-12 -1.047376342933708e-12 -1.2465418656206446e-12 -1.0328607733575346e-09 -1.2211650671725826e-10 1.8345339908374801e-09
1146 -1.739242095801282e-13 -1.182645398551163e-13 -1.4299154017647064e-12 4.5966670544552556e-10 3.6450664387062995e-10 -1.991095904099239e-10
1147 -3.132247870412502e-13 -2.684613362503652e-13 2.723133430220567e-12 -9.720793140748332e-10 8.743773937535484e-10 -1.7439483325741258e-10
1148 -1.8618176019683826e-12 -2.7102970484796863e-13 8.315725758033487e-13 1.4227676211305853e-09 1.7515526559922875e-09 -1.6997723704908442e-09
1149 1.0842553945142578e-12 2.5387362929175934e-13 -3.9712865891355437e-13 2.2541800875019277e-09 -9.128173459126931e-10 -1.1003897528432833e-09
1150 -9.945651450479782e-14 2.6339915323293837e-13 -3.425863602796177e-13 -6.529566926857001e-10 -1.2018398381410923e-09 1.8159599960525835e-09
1151 -1.2670874874232117e-12 5.189809052698925e-13 -1.576467558243891e-13 -1.124992325145187e-09 5.620468784667186e-10 3.946145666319457e-10
1152 8.085308763618466e-13 2.584794744154831e-13 -1.0845081828683651e-13 7.369686566150744e-10 4.099742942941602e-10 3.6753253498185315e-10
1153 -8.564627955933593e-13 -3.7647451432909625e-13 -6.671088808671008e-13 1.2734965572180258e-10 2.6628327408569896e-10 5.772738884308261e-10
1154 -7.996136180549058e-14 -6.839424222541345e-14 -7.75697607299747e-13 2.2700323599132306e-11 1.8661358432167346e-09 -1.3322346733289455e-09
1155 4.835975593319848e-13 3.0560141634317573e-13 2.659798072907006e-12 -4.3283095688387495e-10 3.8192162675327445e-09 -9.312821335427378e-10
1156 7.747951179084185e-14 -5.629606921990254e-13 -2.785031825843305e-13 2.1737909136375172e-10 -3.6771842894786564e-10 5.812355229061486e-10
1157 -4.0527459690785183e-13 -2.7103463788876273e-13 -1.333284505878778e-12 1.0136106765647788e-10 2.7545378340040465e-11 1.443408294379912e-09
1158 7.131793487076982e-13 1.3541961816324854e-13 -9.68801996840729e-13 1.4067418324308317e-09 1.1010273353238448e-09 -1.440708388900404e-09
1159 2.213494726000032e-13 -3.23792024381996e-13 -3.8238045989498515e-13 1.6375457146937075e-09 -2.3796503933853074e-10 -2.4928363099903414e-10
1160 -4.963499746124371e-13 -1.0738595129277747e-12 3.3756842670602956e-13 3.0740837233080203e-10 9.798698865224506e-10 4.2706604661262016e-10
1161 1.866662290425274e-12 7.63005454963077e-13 2.0373833288044608e-12 1.1712989849157732e-09 -5.2102380267047665e-09 -1.282100628080764e-09
1162 2.6978268801618087e-13 1.8168520154590725e-13 -2.165632017197431e-12 -2.0752692703950845e-09 9.858261587207711e-10 1.8018412488969644e-09
1163 -1.0841913477737733e-12 3.7516248584118163e-13 -1.1937918857112633e-12 -4.486419738644626e-10 -2.438450462185287e-10 1.4256435364403644e-09
1164 -7.795187665598448e-14 -1.7868591335297127e-13 3.38249373528044e-13 2.816234397607157e-10 3.0337122009936374e-10 2.2894724517372988e-10
1165 -3.361831715687033e-14 9.173885898662527e-13 6.747974239067803e-13 -2.0444975833716127e-11 1.210898514879203e-09 -7.857899549911655e-10
1166 5.414333475265074e-13 3.4362597642748283e-13 2.8473003180558894e-12 3.213670653695707e-10 4.4884994972003864e-11 5.168237547938928e-10
1167 -8.921685878318644e-13 1.8344498232720016e-13 3.5457578173680084e-12 -2.8708990609921606e-09 -3.829512374691271e-09 1.3026632158206598e-09
1168 4.036638967735026e-13 -2.1625573441591385e-12 -2.055269703917799e-12 2.658912864809323e-09 -7.642804082860186e-10 3.09922004335294e-09
1169 -1.0840446922804853e-12 -9.18146085586356e-14 -1.6036501438770183e-12 2.330889028488247e-10 -1.6146694202720643e-09 -2.1643391885858362e-09
1170 -1.7976858234692367e-13 -2.4558143578156663e-13 -8.815193146251256e-13 -6.154437857556534e-10 5.574126308680817e-10 -4.460003728347712e-10
1171 3.5466993780729003e-13 -9.120245353821512e-13 -1.3900406745576512e-12 -6.374062315660501e-10 1.186387156846026e-10 9.02623102796781e-10
1172 1.0831630153565827e-12 -7.896008258043174e-13 2.1677309959054195e-12 -8.8076744872932e-10 -1.4366631321439287e-09 7.465958126584276e-10
1173 -5.417369186018106e-13 -1.7509558684606785e-12 -1.2075597522598643e-12 1.7425208309673054e-10 -6.481505348563907e-10 -1.1692734001050022e-09
1174 7.018522951824478e-13 -1.9266547107924954e-13 1.0904954613805005e-13 -2.396930870600476e-10 2.3644208418247263e-10 7.264052742664784e-10
1175 4.727602298328898e-13 -1.0839712784178885e-12 -3.1070681872408273e-12 -5.719565558514647e-10 -1.5156558677735546e-09 -6.554065727983756e-10
1176 4.488850792021497e-13 -1.671281624468997e-13 7.18285753343666e-13 -6.231126886098892e-10 -6.537888174019171e-10 1.8847786217090994e-10
1177 1.9772399286942073e-12 -7.960085348457263e-13 -6.780788599268659e-13 3.7397759013791e-11 -1.387647222860437e-09 -1.2827680196889497e-09
1178 -8.75553850667709e-13 2.5096860864344124e-13 8.488416166403544e-13 4.997187914394361e-10 1.1032884050601078e-09 -6.47685914426414e-10
1179 -4.406228410927583e-13 8.874457779988358e-13 -1.896320996981522e-12 3.3485027930349815e-10 -2.0627763336735887e-09 -1.6056719100606831e-09
1180 1.5766416360295552e-13 -2.700749105679524e-13 -1.542441051443717e-12 -3.402491842323809e-10 -4.058971143007233e-10 5.717215959333893e-10
1181 -2.7112226301765346e-13 -2.167919245306862e-12 5.976678584698549e-13 6.812319039218864e-10 5.90316452159796e-10 3.6543434003138e-10
1182 8.95749984259157e-13 1.9569053177231764e-12 1.7348851077935436e-12 1.954583234850648e-10 -2.405989838043909e-09 -4.045868338984988e-09
1183 1.3555441911032376e-13 -7.067877202741828e-13 1.3338913754307318e-12 -2.532743784592182e-09 4.033540075686115e-10 -6.410031203617031e-10
1184 3.4222102200552315e-13 -1.925764320300671e-12 -6.944676897202319e-13 -4.48984675080605e-10 -1.494463801585656e-09 -1.139291081847995e-10
1185 -2.7078056824822384e-13 7.457181122207386e-14 -2.9717852728779564e-13 -2.2894175204215787e-10 6.555841088334079e-10 4.604266938569741e-10
1186 -1.3362090224688874e-12 -2.7099389082594593e-13 -2.1296794146111095e-12 -2.448172812318555e-10 2.7168570257924352e-09 -3.892869318187112e-10
1187 -4.587695916074173e-13 2.790407651525308e-13 1.6905936585106075e-13 7.438522253072223e-10 -1.018075529894073e-09 7.301300575059954e-10
1188 -1.2893396193825874e-13 -1.360341500776413e-13 -1.2092745578035253e-12 7.245802074163607e-11 3.090782695040741e-10 -1.1818764110029335e-09
1189 -6.677653412618604e-14 -4.978673196316861e-13 -1.4006427381375282e-12 -7.76600247219062e-10 -2.3735980799153493e-10 7.258293044603317e-10
1190 -5.423099881852312e-13 -5.417700021599802e-13 -1.6917433569087732e-12 -1.4230341056685654e-10 -7.265298667345375e-10 7.940444271093609e-10
1191 -1.0841516320147736e-12 -1.4789811310940005e-13 -1.488618009782732e-12 -4.6394854884258856e-10 -3.223545865416542e-11 -4.5592563995878517e-10
1192 -2.7112040407303243e-13 -3.9999479868207247e-13 -2.1028293902292597e-12 9.081158988363315e-10 -1.4414325804268116e-10 2.7101712574125673e-10
1193 6.009112710662807e-13 5.094248072911552e-13 -1.4523088317356982e-12 6.422785266909911e-10 -1.4860795725612678e-09 -8.507625460904339e-10
1194 1.0839173475544066e-12 -1.2525073857752888e-13 -4.556818282617716e-12 -5.097316661877607e-09 -3.6464541833406206e-09 -6.066199461123185e-10
1195 7.641646279082464e-13 -1.0837151409664477e-12 1.3568092365734138e-13 -8.771526099633734e-10 6.753870560405632e-10 6.807700114725989e-10
1196 -1.3971962597093388e-13 -3.1750551496703973e-13 1.2319742372089652e-13 -8.685485356762974e-10 -4.736346229679627e-10 2.207193095319721e-10
1197 -3.0289783390823215e-13 1.4091973168253848e-14 1.5574349735605836e-13 -1.4590618561525948e-10 -4.4588727266742704e-10 -7.579378559263187e-10
1198 1.0140882361768464e-12 4.921351390717412e-13 -2.3065410433796545e-12 -1.1901154220208025e-09 8.352154428218669e-10 -1.0281229621768963e-09
1199 -5.418651542387277e-13 -1.084190976345354e-12 -2.163043770403598e-12 8.065587990133317e-10 2.3196244710523497e-10 1.2391817311972607e-09
1200 1.8960034382268569e-13 -9.448880849674033e-13 1.069061451346719e-12 -1.4369971839937202e-09 9.621077863881131e-11 -1.5988549225308713e-09
1201 1.3979892661438582e-13 -5.418410890839379e-13 -1.2617089601879836e-12 7.671086021115303e-10 1.5580394826317682e-10 2.0577863664730776e-10
1202 2.1682480200072382e-12 -2.6832231725941315e-13 2.077420538967337e-12 -2.3172931849835027e-09 -4.2186100588627596e-10 5.430810087512981e-10
1203 -6.225425247489701e-13 -8.102523578754098e-13 -1.8803684155272665e-13 4.1843827020690176e-10 -3.935783558556403e-10 1.2010462773619908e-09
1204 -1.055638468797095e-14 -1.2139319347271726e-12 6.33549182265211e-13 7.126565043276191e-10 4.68492464477042e-10 3.710295531324228e-10
1205 1.563838521470321e-12 5.340970943528008e-13 -1.1202592143159164e-12 -1.3212927965431133e-09 -1.2233556624147949e-09 1.2126493238969234e-09
1206 2.167204491135671e-12 -9.055543690083656e-14 -6.406958688596959e-14 1.6746489163129327e-09 -3.4179532782092023e-09 -9.479837827547773e-10
1207 3.4244330991393755e-13 -7.535583777920707e-13 1.7427945928950254e-14 1.1137825858614558e-09 -1.9477986094362996e-09 -1.0877519833269549e-10
1208 2.1680223406533777e-12 -2.164754003401864e-12 -2.288737575046171e-12 -3.527441233114855e-09 -2.4605600334953505e-09 2.1887642029642715e-09
1209 -1.5285355723569087e-12 -1.450501023627949e-13 -3.0511985869532956e-12 -9.081453459512435e-10 -3.7422732472228965e-10 1.3275887507634635e-09
1210 -4.493790431966483e-14 1.4897745336277248e-12 4.090944487998121e-13 -2.4895477821290516e-09 -2.624013854603452e-09 -5.1017294364409494e-09
1211 -2.2470986752014556e-13 -8.626481210181609e-14 -1.372671003124195e-12 4.758501830411564e-10 6.7275320621077e-10 1.245630239265683e-10
1212 -3.8833903292011056e-13 -1.0621798371620625e-12 -4.1490022081030774e-13 1.545710573919796e-09 -7.059116342538827e-11 -1.3144731362268814e-09
1213 4.1164652378077105e-13 5.030360406244496e-14 3.666903177895877e-14 -1.0797265192418842e-09 -1.366944026699743e-10 3.0686672163682064e-11
1214 -2.1339724596721121e-13 4.4671186431296274e-13 -7.816345568206573e-13 -1.2384327553867324e-09 1.3813521972843332e-09 4.09787730114367e-10
1215 9.319011301421024e-13 -2.4483496592980853e-14 1.4642836414468907e-12 8.090679677452974e-10 7.206677793456612e-09 2.425225696693755e-09
1216 6.121269439490672e-13 5.544637737271168e-14 2.9865066396041003e-12 6.052858401908022e-09 1.8193870628256384e-09 -6.563672581425476e-10
1217 4.658142509658801e-13 -9.933906685946945e-13 -9.53512754434728e-13 1.330150896128716e-09 -2.2967641536133168e-10 1.6635901349717929e-10
1218 6.768169658847588e-14 -3.5861205685495746e-13 -2.1174814483321523e-12 4.654786201725948e-10 -1.5895690310170797e-09 -1.257609948678988e-09
1219 1.0834934259936901e-12 -4.488894863646474e-13 -1.4834121843685883e-12 -1.3558828283256856e-09 7.937400753707037e-10 2.2006824975036713e-09
1220 -7.205931720415055e-13 4.093989411284493e-13 -6.124179801250585e-13 -4.127647985391894e-10 7.330132336945754e-10 1.0516042823940867e-09
1221 4.3858489774960575e-13 1.8189552505049094e-13 9.005157903518416e-13 1.5791212369981553e-09 2.151741843001819e-09 -4.689265001242823e-10
1222 4.771100017008486e-13 1.4023015112751235e-12 4.635467783126176e-13 3.4389964375834244e-11 -3.2477292488634717e-09 9.002526214037249e-10
1223 -8.056111269241543e-14 -1.1022127876385538e-13 -2.3168565607690017e-12 -1.0707712354340264e-10 1.1883416061449723e-09 8.706260296166228e-10
1224 5.421654188687688e-13 -9.707086416330738e-13 -1.2276760220279512e-12 -1.0816496690484655e-09 -2.844385893399571e-10 -2.8116987225345533e-10
1225 2.1848047608238968e-13 -1.7564440120654038e-13 2.6196615426413604e-13 -3.164089276376091e-10 -7.083634637554574e-11 2.0241604249955163e-10
1226 -2.7821367294008206e-13 -1.1427874028012054e-13 -2.7793258851776574e-12 -2.7729028665896284e-10 1.0836047313728748e-09 1.797106693328479e-10
1227 8.07516922420046e-14 3.161665090485745e-14 -6.287468414440775e-13 -1.235293097859171e-10 7.500421918212484e-11 -1.4099420155296699e-11
1228 -1.0841790962538269e-12 -2.709755676979957e-13 6.176756282544919e-13 1.1634549940842997e-09 -1.7551930148219683e-09 1.8760517384594052e-11
1229 2.7072617482914975e-13 -2.168385151908106e-12 -3.101548513367889e-13 6.780102410927296e-10 -5.2226258481663977e-11 -8.012347322724647e-10
1230 2.0685769920179368e-13 2.706390199177087e-13 -1.24080626244379e-12 -6.587072485978632e-11 1.2788120452707672e-10 -5.592184611322464e-10
1231 1.249575032094525e-12 -3.7783628904623423e-13 -2.194039007206799e-12 -1.9054358696446678e-10 9.245066984793187e-10 6.074395592041339e-10
1232 3.3874779866700146e-13 2.6487997422608965e-13 -7.171015133737177e-13 9.053143542668625e-10 2.7393067607673084e-11 4.239075242539747e-10
1233 -9.927225619649037e-13 -7.61531537361188e-13 -1.850529557874601e-12 -9.946351868753468e-10 2.6599606648562197e-11 -4.094366803002906e-10
1234 4.037006930330008e-13 -2.7019643463027787e-13 -1.410898388757891e-12 5.533260048907289e-10 -7.815177940092591e-11 5.217039795934538e-10
1235 -8.042729001822518e-13 -4.020388191154847e-13 2.892907492230199e-13 -1.1743651457675015e-09 1.2681407391289215e-10 3.504385632870764e-10
1236 6.006028412938817e-14 2.718774903763788e-13 3.514377048730816e-13 -2.865035674875415e-12 8.74319173258064e-10 -2.5568583350897585e-10
1237 -1.3433331784156607e-13 1.2120641919592107e-12 -1.5766581154591308e-12 7.064940354791201e-10 -1.0348711531199684e-09 4.5305648255902433e-10
1238 -4.486885131941889e-13 -1.0841936435066392e-12 3.0945856083882523e-12 1.3068385253889492e-09 1.7534988223712033e-10 4.417425116587079e-10
1239 -2.8717472314450103e-13 3.418473005847196e-13 5.110818321287194e-13 1.3578709189923988e-09 2.4800224742973926e-09 8.474090990713046e-10
1240 -5.055790588527585e-13 -1.2938468287766302e-12 1.0166242074778696e-12 -1.307392283473705e-09 -3.8605842799010946e-10 -1.4492220109715136e-09
1241 5.417563533881279e-13 6.612207894621404e-13 -1.2137273262105112e-12 3.2764600081316764e-09 -1.0558656837627414e-09 2.576038202549589e-09
1242 4.0552748246995196e-13 -8.532219323893519e-13 -6.15515208724658e-13 -7.75118852204538e-10 -2.2453029884074423e-10 2.028342668922184e-10
1243 5.147767052345294e-13 -1.4967277457700356e-12 -1.8252340888652873e-12 -2.8682548023413787e-09 -2.0442927106133326e-09 -1.0834253048146711e-09
1244 -4.870042833874746e-13 3.735847032639166e-14 -1.9277304572391517e-12 9.83788592400814e-10 -3.866763753850028e-10 -7.265059473720609e-11
1245 1.6598010666802928e-12 5.419303551377906e-13 3.3322404613718966e-13 8.957192815820796e-10 -3.2827147054439337e-09 2.3926791442535273e-09
1246 2.0861661399549058e-13 -4.026174476762856e-13 -1.85462556270147e-12 7.438853928619812e-10 3.3864690639183507e-10 -2.3255260802622377e-10
1247 -2.1677885615529206e-12 -2.7073701242925486e-13 -1.2280868069815058e-12 4.5068298975465737e-10 -3.957366077647052e-09 6.265965005983076e-10
1248 9.13739416794965e-13 -3.1228075625748667e-13 -2.0935697273618815e-12 -1.7546285198623913e-09 9.372267686927682e-10 -2.7728868655825454e-10
1249 1.0838363030221995e-12 -1.447120458850725e-12 -1.4545070389046344e-12 -2.774431754589466e-09 -1.9449001192009103e-09 6.950528689258865e-10
1250 -6.062868651338543e-13 -9.906476259979153e-13 -1.0593433143213821e-12 1.2085362339192448e-09 -7.220671812336031e-10 -1.0289083774177943e-10
1251 -7.126434854366061e-13 4.0625131777754934e-13 4.3437022505370073e-13 -4.735811960810032e-10 -4.661815309768465e-10 5.052281416760586e-10
1252 -3.956366468266352e-13 -5.706530432066947e-15 -2.926392580338251e-13 -1.328415935940212e-09 1.6370578192242434e-10 8.323442687663689e-11
1253 -2.1682097092350514e-12 -5.414472596164861e-13 -2.9054556284051556e-12 1.6512008658942923e-09 -3.2561997212477697e-09 -6.097956042973953e-11
1254 1.5824021573595205e-12 2.706566221308202e-13 1.4182795499973036e-12 -6.059321221743717e-10 1.7810233129260457e-09 2.036154258347578e-09
1255 6.732500694213709e-14 -3.7103092300733075e-13 2.315548910999151e-13 3.7398847073444883e-10 7.495034705647242e-11 -4.700235528625335e-10
1256 8.273077590285813e-13 -5.260348694471129e-13 -2.8143555234232626e-13 1.2758451969444528e-10 -6.900219875776663e-10 1.1815629762661314e-09
1257 -1.1479135458000501e-12 -2.7218538302453393e-13 -7.130595774997631e-14 5.38898207304109e-10 -3.833790061279809e-10 1.8926330020770406e-09
1258 -1.0025657755775843e-12 -1.2619395236586098e-14 3.8627215450180604e-13 -4.64031242768227e-10 -9.066381018548757e-10 -4.219875342088791e-11
1259 2.1676372146714568e-12 1.821511866221222e-12 -3.590646147792538e-13 -5.443679623925379e-09 -5.208078714894438e-09 -4.2408940750499723e-10
1260 -1.3550473163560615e-13 -7.660195781089031e-13 -1.041937737595366e-12 5.014296492800772e-10 -3.2162381377307825e-11 -1.2847471138770347e-09
1261 -1.3658154632326676e-13 -7.373802642529653e-13 -1.658178978315965e-12 -2.757461200349714e-11 1.2648359781106161e-09 -7.175396861847332e-10
1262 2.5496812973354383e-13 -2.7105077027120926e-13 -2.952946224083379e-13 -7.127966029955102e-10 -2.553781013731871e-09 6.416741122878646e-10
1263 -1.0493530686345456e-12 -1.498235713588759e-12 -7.310506489392862e-13 3.3976302102101993e-09 -2.864737238600661e-09 -2.1963451443709477e-09
1264 -1.0837286115455564e-12 1.8936993437707643e-13 1.0912844198395686e-12 1.3404292603931049e-09 -7.338520062952716e-10 2.9525554974582615e-09
1265 6.854553536593153e-13 1.1707429796489905e-14 9.126453267170705e-13 -6.568678952163301e-10 1.120103335197484e-09 -5.190908329253149e-10
1266 9.319465507335922e-13 -1.6718610326271758e-12 2.0914931493232817e-12 -2.1072645590283644e-09 -3.150627688794984e-10 2.6962085806231463e-10
1267 -5.895576270188012e-13 8.542451744894999e-13 3.1884980208412253e-14 -1.6450239382212413e-09 7.032914822681501e-10 -7.619692185334014e-10
1268 5.41598195671012e-13 2.2163445272330182e-14 1.5523588852595203e-13 -1.151840740358168e-09 3.5981189948181773e-10 -4.755278252812971e-10
1269 -1.800692466573948e-14 -1.0841735464199226e-12 -1.5377679397440813e-12 -5.714654635232724e-10 -1.588241482183338e-10 6.457822535944225e-10
1270 -2.5028046988812155e-13 1.7093787806333011e-12 -4.0059077125612133e-13 2.4631088341644483e-10 8.687419112733593e-10 -6.301098327512729e-09
1271 5.298538036027733e-13 5.881708831972136e-13 -1.2674350136353145e-14 -5.297595451663622e-11 6.656110461999023e-10 1.572767280570572e-11
1272 -9.921383180349144e-13 1.5831730019044888e-13 -1.6658240970977732e-12 2.3770520896550084e-09 2.913285185557077e-09 -1.8332767108513627e-09
1273 8.617743237929941e-13 5.623001403395661e-13 -1.794763444372488e-13 2.914451328793458e-10 1.2956502768164785e-10 5.589522561479562e-10
1274 -5.084553839751092e-13 1.1440008975348696e-12 1.9113030661181858e-13 -1.4377470646888008e-09 -1.4024443120478487e-09 -1.376546376873704e-09
1275 8.085990021257525e-14 -4.917099293431734e-13 2.8024547944728644e-13 1.833485329993827e-09 -7.272323295567535e-10 -6.322783183489768e-10
1276 -1.1149603105408279e-12 1.0820319697881275e-12 -8.857473698661814e-13 -1.1241523860874373e-09 1.4570776296186236e-10 1.075104549122671e-09
1277 2.6861720569068765e-13 2.6088064652772517e-13 6.415401675806204e-14 5.155649553813267e-10 4.118001113654228e-10 3.2308925928707364e-10
1278 -1.9485875059439765e-12 -1.278343969344582e-13 -1.890324574609569e-12 2.8017551478481034e-09 9.508346652764414e-10 -5.828623210566258e-10
1279 -5.522032285122047e-13 -1.5285460883585483e-13 -1.8771283132580924e-12 2.8412659820896066e-09 -6.129745947028848e-10 -2.1703056452133647e-09
1280 -2.565159117383961e-13 -7.497656939768127e-13 -1.3071522438036452e-13 -2.2035110913272424e-09 5.560158535391108e-10 -8.127153387017004e-10
1281 -6.190477455174488e-13 -1.0840830776640193e-12 -7.113416791112024e-13 1.1594808618511515e-09 -6.743894802728947e-10 1.0555129476458739e-09
1282 -7.29669845861871e-14 -1.0769839582342302e-12 -1.0815434388884102e-12 -1.4213314984817687e-09 6.889477975386175e-10 -7.512099589346678e-10
1283 1.0083243557563939e-12 4.3674479687752335e-13 -1.1670868751819489e-12 2.3492771338278132e-09 1.3830292203564189e-09 6.704443643817925e-10
1284 4.8438204717055695e-14 -1.165250424149316e-12 1.0148641848767728e-12 1.2521522690829887e-09 9.439370807808889e-10 1.4555036407729767e-11
1285 3.796902437317995e-13 -1.6145639894584517e-12 2.6948554833077504e-12 -3.3596526626793968e-09 -1.477965935069885e-09 7.784804069859824e-10
1286 1.7470486613623282e-13 -1.083632378863641e-12 -2.555918645930852e-12 5.387631126056097e-09 -1.2348438145146604e-09 -2.3816038063800797e-09
1287 -6.301917879815947e-14 4.672771859245556e-13 -1.1082955648538374e-12 5.546270492369701e-09 3.902871658849238e-09 7.464749903081831e-10
1288 -1.2522594090938617e-12 1.5434670998639486e-13 2.6211184735655446e-13 -2.6075437860450915e-09 3.539117957265695e-10 -1.9767892984544225e-09
1289 -6.661396163609105e-13 5.214733069119236e-13 -2.229016786915861e-12 -1.6068503727117233e-09 -4.975679693035101e-10 5.073630635834859e-10
1290 -9.292477346917731e-13 -2.675137105324256e-13 6.546738180829177e-13 9.881468367304478e-10 -1.709271808157021e-09 -7.338455830990194e-11
1291 -3.745002398561107e-13 2.696695957009514e-13 2.354919353860736e-13 4.6300692711619735e-10 1.3807252776992152e-09 1.1845809634093445e-11
1292 -7.184950043180959e-14 -9.38875049159561e-13 -1.40548662072284e-12 1.955694400092846e-09 -1.2511073737117634e-09 6.02514796921911e-10
1293 -1.1646841194573764e-13 5.634890058806909e-13 -6.505339197032693e-13 -7.262710208550695e-10 -3.93425496186528e-10 2.9150760525281286e-10
1294 -1.2145716769550061e-12 -1.0832174283851151e-12 8.739535775095867e-13 -2.656248412584257e-10 1.080786593836112e-09 6.748710024479912e-10
1295 1.3656311386631065e-13 -8.77425939558679e-13 -3.3254627144947055e-12 1.2864011449829678e-09 1.7352449310703896e-09 -1.5550931676094336e-10
1296 -7.242341504439176e-14 -7.461141161397123e-13 -1.5380377426380387e-12 4.439986426010594e-09 2.9675112684633814e-10 -1.0840835129274147e-09
1297 7.058732881960471e-13 6.742355161007643e-13 -3.2090597398036776e-14 4.281083656751453e-11 -6.185706751059064e-10 -5.689648522474547e-13
1298 -1.7933870201031041e-13 -1.4175649563184537e-12 -7.704830795409762e-13 9.345314419726683e-10 3.6518218168037085e-10 -4.0887666495954303e-10
1299 2.4239472786594968e-14 -1.2207524156859007e-12 -3.520835340079787e-13 5.458521143244307e-10 7.164699291093756e-10 2.2971061579642087e-10
1300 9.185591552833193e-14 5.955875429027661e-14 -7.919014636624173e-13 -7.894458421040657e-10 -8.534956325887975e-11 -7.477058470202222e-10
1301 1.7678463481232611e-13 2.712344194239428e-13 3.5247693387939287e-13 -3.2244547029451052e-09 -3.5336857583383622e-09 -1.944659874699748e-09
1302 5.760374876197164e-13 -3.112172475260797e-14 -2.0623972901034547e-12 -1.1060728960838877e-09 -7.21412074360628e-10 8.953031104961869e-10
1303 8.100910959190025e-13 1.069727532088595e-12 -2.2454094483211096e-12 -1.071980571773824e-09 1.9773244292954047e-09 -1.666375233821646e-09
1304 -1.161311302176578e-13 -1.0840266921352014e-12 -1.8138252041316246e-12 -1.0742038157702592e-09 1.7192634354205703e-09 -4.86702463019133e-10
1305 2.766803997217972e-13 -8.641169605040733e-13 3.3229917025776143e-12 -2.3375922593927004e-10 1.2464104670703046e-09 -3.4892462948869895e-10
1306 -8.803192268361103e-13 5.413681746733648e-13 3.6231382097870137e-13 4.2727667159467854e-10 -3.8916563362637933e-10 5.54791631427543e-10
1307 -5.415144741937904e-13 4.995452595516478e-13 2.3270505818149878e-12 -5.825779541204845e-10 -2.4715512752614823e-09 1.5075723186957372e-09
1308 -4.3663470727743993e-13 -1.4417073217852717e-13 7.07386109537907e-13 -1.8295021126746166e-09 -4.0128072403765426e-10 -1.9534807481356986e-10
1309 -4.1650556378729677e-13 2.1676059896115316e-12 -3.717569490312928e-12 2.489558291392275e-09 6.827040843774918e-10 -1.4018139582304086e-09
1310 4.761131160254186e-15 -2.1030540724214946e-12 3.066403159508728e-12 -4.373805062698361e-10 5.880997375662382e-10 -2.7188905316026295e-10
1311 8.708979312546833e-13 -1.0319862354010645e-12 3.1120905422313513e-13 4.847479429775933e-11 7.048088476517865e-10 -4.181805259359521e-11
1312 -2.711321050209688e-13 -9.090912703976678e-14 1.6938458056913085e-12 1.1333362377453157e-09 6.312499720805458e-10 -8.116812527872919e-10
1313 -6.078650721146706e-13 7.377096402973757e-13 5.595421504109602e-13 1.7250653859837224e-09 -7.090163617849591e-13 -4.684411582166595e-10
1314 -1.9067977756631354e-12 2.7040178554148e-13 2.1161887943250945e-12 3.908342439459015e-10 -1.319713198308097e-10 1.3721225395806165e-09
1315 1.7730886039545498e-12 -5.420056318586748e-13 1.5421536607956432e-12 -2.0852457315724346e-09 -9.561062632147469e-10 1.1766843499667993e-10
1316 -3.124813789317499e-13 3.462278271772908e-13 -1.6283598288451467e-12 1.0624678231820052e-09 3.678937392356665e-10 1.749852922679264e-11
1317 1.3549753274536442e-13 5.735562331802573e-14 -6.523434531129316e-13 1.4529449123154604e-09 1.1042662020386714e-09 -8.23486269568358e-10
1318 3.6645158811385877e-14 1.3482923953480868e-13 -1.4317274447458923e-12 7.042902069665784e-10 1.6498472802702293e-09 7.822697608076327e-10
1319 1.0083765960225233e-12 3.3585171078543756e-13 -2.492763055976355e-12 7.672837757538692e-10 -6.393212124489939e-10 -1.3178776985817257e-09
1320 3.5819210700871765e-13 -1.5228670408010614e-12 -2.983923748000499e-12 -4.545183789387159e-09 2.353632844847346e-09 -6.398752749837874e-10
1321 -6.069878365085722e-13 -8.874976409529856e-14 -1.1189009334309398e-12 -6.112526928164615e-10 2.4221455200946624e-09 -5.836640408510947e-10
1322 5.420201143091372e-13 -4.590763667097784e-13 1.1563791471876114e-12 -1.2440175183015876e-09 -3.1254721519550627e-09 -1.1963436464153305e-10
1323 -1.173475770070155e-12 9.661983316403851e-13 1.4558886737221596e-12 -2.154589248080016e-09 -4.3576462803389115e-10 -1.0654800896811734e-10
1324 7.71445712452201e-13 4.2188828663092666e-13 -3.336012086449143e-12 -6.296593016386635e-10 3.1865042542526137e-10 -1.3482080859770942e-09
1325 -1.011998652579631e-13 2.1531017280469896e-12 -1.6680493586947416e-12 1.6524098591006951e-09 -2.193586293400201e-09 -1.4206898173424281e-09
1326 8.591653204679195e-14 -1.6496984451227584e-12 1.1150859524966272e-13 -4.1728071663251653e-10 6.065242396820096e-10 -8.054679530229893e-10
1327 -3.4385621824950226e-13 1.3543062443065484e-13 7.078440760230767e-13 3.422151395719963e-11 -2.3614736946524834e-10 9.566834641541577e-10
1328 -7.636464054297643e-13 -1.0611798423836532e-12 -3.314097326005701e-12 3.581753888209861e-10 4.547548134503826e-10 4.204701760394051e-10
1329 8.067989479428454e-13 5.418196218830032e-13 -1.8342815903923253e-12 2.390886481743213e-10 2.5148843916081063e-09 -1.1940997961588931e-09
1330 2.7108496842679304e-13 8.869144760867153e-13 -7.68803690363546e-13 -4.3250420354303496e-10 -3.1321590060988144e-09 -1.8277595146858564e-09
1331 9.56905032749933e-13 -9.497224187411469e-13 9.59830713361056e-13 1.4981714023532236e-09 1.3862544846827449e-09 5.369082714356928e-10
1332 3.916289623671836e-13 -2.4295308079277137e-13 4.708694950688342e-13 3.4344198226707286e-10 -5.304493268940125e-10 -5.704017942348106e-10
1333 3.111052806126803e-13 5.419070046136377e-13 3.516231792328862e-13 7.740668917353531e-10 -3.557460973162123e-10 6.48493950822232e-10
1334 1.2938968956607123e-13 1.0487833788656731e-12 3.5348972169667804e-13 1.3715564813441418e-09 4.251899645353211e-09 -6.23569311912201e-10
1335 1.3850378624875854e-13 -6.668922377120066e-13 -1.805959967216624e-13 -5.98758380257287e-10 -2.3249129042878893e-09 -3.212732744852643e-10
1336 2.0174057125616718e-13 6.517916823725609e-13 -4.459466872733632e-12 1.9160864318360293e-09 2.0792707246421143e-09 -1.5526241755008186e-10
1337 -1.3566179286360802e-13 -2.160259545955775e-12 -3.001295468854293e-14 -1.1542204163348036e-10 -8.902167057168663e-10 -9.993823265117443e-11
1338 -1.0840616396480736e-12 5.417483346025852e-13 4.070453121716809e-13 9.563499445146098e-10 1.4505522514842526e-09 -3.4513100143576457e-10
1339 8.576866484583625e-13 5.977161159181075e-13 -2.53610819051613e-13 -3.642794614017773e-09 2.063601762478106e-09 2.7517942552532712e-09
1340 -2.1668823774430762e-12 -2.709702838251673e-13 -3.22757556487834e-12 -1.3709088723390033e-10 -4.0134399929740906e-09 2.629908340814635e-10
1341 1.338132492458083e-13 3.687346025373796e-13 3.7164180708778755e-13 -2.5847426380286554e-09 5.04711107680019e-10 5.698340896405467e-10
1342 -9.691950281904145e-13 -1.0839914337093145e-12 -6.945915163712007e-13 -2.13407381093015e-09 2.440661541067917e-09 9.59111297946635e-10
1343 4.95831592818919e-15 -1.0833761494256975e-12 1.0871224549876458e-12 8.952200611613002e-10 1.189298768983697e-09 1.3848333695359804e-09
1344 -1.0555855396346335e-12 1.0701262339457738e-12 -3.651150976219897e-12 -1.3934003169487048e-09 1.1496499506795949e-09 2.8989205074868915e-09
1345 1.6876578269766638e-12 -8.534469234763395e-13 2.065478259830583e-12 1.1318332307819646e-09 -4.2534468142175045e-09 -2.16033619808066e-09
1346 1.0602637199492222e-12 -1.7562360960439063e-12 -3.7612519606490083e-13 8.406976498791272e-10 1.0656627605162657e-09 1.9082850475480513e-09
1347 5.56991059334337e-13 1.0506589238485499e-13 1.042165353665191e-13 -1.0018191509063707e-10 6.068933309326241e-10 7.937640303994993e-10
1348 -5.893515660693531e-13 1.0617434505848151e-12 -9.780662597175213e-13 2.7098922088498787e-09 5.010230127843207e-09 -9.135437556704253e-10
1349 -6.963193244369415e-14 3.100935357203785e-14 1.1291469264739904e-13 2.925268766786642e-10 8.151042109052004e-10 -1.3572845723520984e-09
1350 2.5242623390569053e-13 -1.241140100917726e-13 -1.7090830643475305e-12 -5.827018600280772e-10 1.7533298602085304e-09 -2.1948686013600414e-10
1351 2.426899908541853e-14 1.0538826329789173e-13 -5.047959867963945e-13 -5.4207204547910926e-11 -2.362549485626683e-10 -1.7077418005703163e-10
1352 -2.1472890253471372e-12 1.902873285405727e-13 -1.35414592800464e-13 1.566793261990764e-09 -1.7878786764630685e-09 -2.1788422056810344e-09
1353 -5.416733123668104e-13 -1.1565781046381998e-13 -9.91158063896605e-13 -1.4700388360414813e-09 3.925946314025935e-10 5.292934668455923e-11
1354 -1.1241792032497098e-13 -4.997501822127806e-14 -2.944946675116807e-13 -8.35970451489063e-10 -9.90632741028957e-10 4.742456768691912e-10
1355 -5.423098531712661e-13 -4.580805515238222e-13 -1.2625090062348313e-12 2.278381262333482e-09 -1.3449791763683129e-09 1.5755769197882144e-09
1356 -3.395108736279191e-13 -8.24804276309314e-13 -2.0110497749911097e-12 -9.422690700210756e-10 2.0706575598324214e-10 -5.281997552592564e-10
1357 2.603465967243856e-13 -1.084186014443303e-12 1.9016761726452953e-13 1.7934281087786882e-09 -1.285996025032232e-09 -1.0793799613985098e-09
1358 -2.166753622702055e-12 2.168283741185127e-12 -2.9061558957882565e-13 6.774348617806073e-10 -6.545474299425811e-10 2.7731023209507937e-10
1359 2.4368321703030353e-14 -2.2455467436801585e-13 -5.048045356990117e-13 -1.223484324964782e-09 -4.864727253077192e-10 1.897070231741221e-10
1360 -2.7000011082562284e-13 -2.167948664858709e-12 1.3438888581049452e-12 -1.4660403439895017e-09 1.7900794955116745e-09 1.991553005100756e-09
1361 2.290675960870401e-13 -1.0725723891208024e-12 1.939256087926077e-12 -2.9328951922224597e-10 2.3619572057173333e-09 -8.85575017461472e-11
1362 -6.915660093274814e-13 -1.7164882659641994e-12 -9.294907637559574e-13 8.406143412334092e-10 7.830532689242916e-10 -1.9108682540300764e-09
1363 5.242885888785787e-13 2.5457257898807433e-13 -6.5686359920399e-13 -1.0217764790584817e-09 3.657057800407965e-10 -8.009219177216521e-10
1364 -1.8425928484605087e-14 -2.5062087040104063e-13 2.406927530734362e-13 -2.0594301826028716e-09 1.499754400678181e-11 -2.6249893328049234e-10
1365 1.9068892212374774e-12 -1.5057336240326463e-13 -2.233450232625992e-12 1.442614143818774e-09 1.5543427598107937e-09 1.2837375829124376e-10
1366 -1.5259629406194492e-13 -4.651897368433556e-13 1.3620977801908905e-12 4.2770009137877806e-10 1.147946290330165e-09 6.957950790738287e-10
1367 -1.997415324763874e-12 -1.1598857404166466e-13 1.4550345981385684e-14 -8.818421088877398e-10 1.5470176420704833e-09 2.997594956702986e-09
1368 2.674033616393376e-13 -1.7385646176009753e-13 4.851585876600488e-12 -7.40906403722737e-10 -2.9376960265649338e-09 2.6874516196307384e-10
1369 5.514053895689467e-14 -9.173930603197914e-14 1.5477601075110214e-12 -3.19982825239896e-09 -2.7385684839942534e-11 1.2722867872988729e-09
1370 -1.0672658074130932e-12 -1.763817867606517e-12 -1.6572687645575588e-12 2.2816549684896996e-09 -5.132686482086486e-10 5.733097643475585e-10
1371 1.2188675898443683e-13 -2.6709518047444294e-13 -1.6393159908050527e-12 -7.46648633600754e-11 -2.2274393624351957e-09 -2.1122875776424583e-09
1372 -1.0824156119018998e-12 -6.526660099485874e-13 1.129748141664883e-12 -6.05213101585781e-10 -1.6968538944247394e-09 -1.6356811576791292e-09
1373 -2.1833438762162024e-13 -2.3915881596803766e-14 2.8167442022290817e-12 -1.4023282192450643e-10 -4.659522924251014e-09 1.573240444100362e-10
1374 6.919473120799718e-13 2.704339130852208e-13 -8.70486395165553e-13 -1.4360742395865303e-09 -9.594163587531914e-10 -4.2559683419433686e-10
1375 -2.366591149613076e-15 1.0806509569771045e-12 6.484568506250218e-13 1.5778227925206675e-09 -1.942464946119515e-09 1.1127971982106492e-09
1376 6.687903706723492e-14 -1.8154299185271986e-13 6.798073576079765e-13 1.1471004950455648e-09 1.6802970712259123e-09 -1.3496548951873192e-09
1377 2.2338929767216976e-13 -1.4420244901850748e-12 4.478790370625789e-12 3.4446795947997364e-09 3.2835696692191023e-09 -6.828797126251165e-10
1378 1.083161048813078e-12 5.497537565634122e-13 -6.678805772399188e-13 -1.6751571320407132e-09 -3.4710257223736214e-09 -3.2141561266159605e-10
1379 -6.035757571027916e-13 -2.705917388094696e-13 -4.762462585566175e-13 2.0982937346690876e-09 9.889986103412027e-10 -1.1404198536189332e-09
1380 1.2059690778266608e-12 2.7095608054983255e-13 9.42911750045052e-13 -3.1717542788380205e-09 2.0160767000822363e-09 1.638077180756023e-09
1381 8.465259983003918e-13 -4.681195751777678e-13 1.5401489024815324e-12 3.835157060887481e-09 -2.654064344665052e-10 1.0667526847863131e-09
1382 1.9035910824728764e-13 1.345671359445811e-13 1.597495549592305e-12 -3.1506549202795425e-09 -3.073915146215866e-09 -1.6344780775887547e-10
1383 6.731960067805096e-14 -1.4411755546338815e-12 6.80647156892389e-12 -2.423724813201297e-09 2.888762416183174e-09 -4.677673025762114e-10
1384 1.277771227526689e-13 2.710572262825947e-13 7.596500790257902e-14 -4.480120927405146e-09 1.1731172141643758e-09 -1.3617727450319838e-09
1385 -6.051922834729682e-13 -1.3562293882656074e-12 -1.2440979843190361e-12 -3.8385786204802794e-10 -1.2685816141370782e-09 2.465490606718744e-09
1386 3.159067504897039e-14 3.0578194293019737e-13 6.611680179309884e-13 9.220329674439106e-10 -4.517229482684824e-11 -5.975486978404344e-10
1387 6.996206799521716e-14 -6.154961972906314e-13 -4.13699999393028e-12 -4.691101799361167e-10 -2.5568904492196767e-09 -1.8971239146081875e-10
1388 1.083642390009707e-12 -5.359397181738574e-13 2.999054007878275e-12 4.595936451395414e-10 -1.6780752926589886e-10 5.081000164277525e-10
1389 5.933158262166932e-13 -1.077034147435995e-13 -9.897194254924526e-14 1.9724130749451724e-09 -8.322483930194322e-10 2.421229778286441e-10
1390 5.975572284347367e-13 1.7667266719670382e-13 3.328269224521864e-12 2.47557473010743e-11 -3.6081539173504333e-09 -2.8610739142934956e-09
1391 1.2747685580366184e-12 1.073677109504617e-12 1.833368498693786e-12 -1.229967022032945e-10 -2.212349124548206e-09 -5.077924820742935e-10
1392 1.3220396996295704e-12 2.0080868003853528e-13 -6.44156382826599e-13 1.716567630293093e-09 -5.786915486511586e-10 -9.618490360833692e-12
1393 3.173796765769536e-13 -1.0830266938468268e-12 -1.1237453985541587e-12 2.5391836882369683e-09 4.7697264506589994e-09 -9.954520872253059e-10
1394 3.490958968723686e-13 1.4520735556346062e-13 1.7801135827760072e-13 2.0146834919882315e-10 1.3965332816178847e-10 -5.016768513777569e-10
1395 3.271842366017114e-13 -6.813174379004293e-14 3.733709328789782e-13 5.570039205717513e-10 5.783334123040389e-10 1.0602590348545113e-10
1396 -3.9344783086049953e-13 -6.636230075952565e-14 2.539953001126449e-13 -2.768325279555644e-10 -5.615102424213778e-10 -9.420548795687623e-11
1397 1.5726158241886635e-12 -1.5495437163972963e-13 -4.896563393424067e-13 -7.719689762635411e-10 6.582817609776631e-10 7.645622417314624e-11
1398 -6.874973399700679e-13 -4.779812096743719e-13 -1.5015072448755145e-12 -1.1461909034465182e-09 -1.589958136030224e-09 9.227479955905867e-10
1399 -2.2524803131139178e-13 -8.345128198132068e-13 -9.489379511621296e-13 8.475001548099113e-10 -7.9261039790169e-10 9.634289729722353e-10
1400 1.356419265588976e-13 -5.411395930644176e-13 -3.3935174831722864e-13 -1.508674038031014e-10 -7.205475158778048e-10 -1.2061645533975171e-10
1401 1.8278668508985724e-12 1.0840611079496655e-12 -2.1898443193226676e-12 -3.332453616112087e-09 -8.354186966923494e-11 1.9380089459885372e-10
1402 7.684388033423421e-13 8.906297329037845e-13 4.512707157772377e-13 -6.246927082403922e-10 -8.524392638378006e-10 3.03729467068716e-10
1403 -7.527945956355568e-14 2.650581242765152e-13 -1.5550597428243057e-13 -1.1262612030813625e-09 -2.941602487100972e-09 8.52633979215545e-10
1404 9.612822835360172e-13 8.368706969344931e-14 1.2208889278515154e-12 6.026402439671696e-10 -1.906174819070798e-09 -9.509736177290628e-10
1405 -3.8273022904422355e-13 -2.9811540073682276e-13 -1.411892086419028e-12 -2.2333263808179416e-09 6.40979775768782e-10 7.673066423149005e-10
1406 -4.115306550488979e-13 5.414223538975281e-13 3.361724632126251e-13 2.1195096285525184e-09 1.792666636257506e-09 -1.5616887229288241e-09
1407 -2.7049925590686094e-13 1.2361798580671749e-12 -7.859718942650324e-13 -1.4268866065096353e-09 1.0971133948381998e-09 1.0023970444985231e-09
1408 -7.427075174303812e-13 -2.536569782602496e-13 8.407163083954047e-13 -3.25078102028772e-10 9.824400404552483e-10 1.380793356852014e-10
1409 -4.246650785849677e-14 1.1811490598045206e-12 -1.504371432091638e-13 -2.0554239119500683e-10 -1.4703183454295535e-10 -9.96021057026301e-11
1410 7.017400360046961e-13 -1.234327979926439e-13 4.2531433308862543e-14 2.3442330613434017e-10 -5.036467697744586e-10 -7.623063456219322e-10
1411 -8.48431849379107e-13 -1.2244349472134576e-12 1.4030940961066824e-12 -2.062643961397479e-09 4.034483935772401e-10 -1.6024237977699251e-09
1412 -1.7630345398148623e-12 5.067605782926146e-13 2.4292435005937e-13 -5.491728804292313e-10 2.6483699406599182e-09 4.273892508623243e-09
1413 -5.115812085837176e-13 -1.6225260271922097e-12 -8.272461838493111e-13 2.38059521548779e-09 -5.401791561003418e-10 -1.9772542898681187e-09
1414 -1.2248641112788672e-12 6.224292555901231e-14 -1.0439620442547608e-12 -1.3004996098381986e-09 -2.28469673489336e-10 -9.0248513200675e-10
1415 -8.640293172388395e-14 6.027613891529207e-13 9.900823053335019e-14 3.912119192961673e-10 7.432653934785759e-11 4.8505271550864056e-11
1416 -2.7847914833215817e-13 4.451688536819171e-14 -2.2327176933691943e-12 -4.4959376353689887e-10 1.0822042860242752e-09 1.6945234712495314e-09
1417 1.084076637384893e-12 -1.3080456396457736e-13 -9.058141508082611e-13 8.293459787026138e-10 1.4534300716712443e-09 -5.727873573843082e-10
1418 -1.3714711141281313e-13 2.3942406043784194e-13 2.462531194562193e-13 1.6995187249833786e-09 -1.5432292007487507e-09 2.9363638609783887e-10
1419 4.2806960576129247e-14 -1.2343193411945927e-12 1.987291794841791e-12 -3.87138309610252e-09 1.2223971458661288e-10 1.2384828524390927e-09
1420 1.2814693891005606e-12 4.5405608754324987e-13 -1.9096612460080462e-12 3.6960809339973504e-09 -2.3955352334589226e-10 1.4204563622871176e-09
1421 1.3752701413444537e-12 -6.659808777808029e-13 -3.4394548923204405e-12 8.084046498752441e-10 -2.5678751964568258e-09 1.2929604570970883e-09
1422 -5.415556262745765e-13 1.4346855160141842e-12 2.1406732607150616e-12 1.7564172963275213e-09 -2.2178933188590764e-09 2.0378126628247447e-09
1423 2.7064206641790323e-13 1.2182477200338852e-13 -1.4781492339133248e-12 -5.428473808640772e-10 -2.1847429041279143e-10 6.049935738939941e-10
1424 -1.360990911827622e-13 -9.55727851723869e-13 -1.0708017198667413e-12 1.760388168654468e-09 -1.0168967729538708e-09 9.924886502392131e-10
1425 -9.64778632408095e-14 -5.419257555621391e-13 1.041472272457819e-12 1.6036291395631176e-09 -5.386100571101337e-09 8.569554253636188e-10
1426 -6.467431082745326e-13 -1.064601475260716e-12 -1.3850472803236269e-12 -1.9109280603186103e-09 4.841797312249539e-11 2.2203482614074927e-09
1427 9.141439226325528e-13 -2.7146379436790256e-13 1.3431648031945619e-12 -5.137548354569274e-10 1.222134673349322e-09 2.1896674666928508e-10
1428 -3.5605424142637767e-13 1.084090296299946e-12 1.199792946331694e-13 1.5473958423090534e-10 -2.6823340966451704e-11 1.4851933257465511e-09
1429 5.973335616683495e-13 -1.083832415951659e-12 6.287640709957281e-13 2.271525226498226e-09 -6.565499609346713e-10 1.460284416363909e-09
1430 1.0381259267700024e-13 -2.709054066825541e-13 2.3492289803909857e-13 4.644151434793969e-10 7.862825352697451e-10 -6.164814254488616e-10
1431 -2.966389412500501e-13 1.0802043228176922e-12 1.2621858805374652e-12 9.670664303451447e-10 -1.2248724881646395e-09 2.7637125013428035e-11
1432 -1.9485523126033914e-13 4.07820139831615e-13 -1.4871167388323317e-12 2.222738261073969e-09 -8.366328006385554e-10 -6.741449624408432e-10
1433 -3.414002332115023e-14 -7.105232486719119e-13 -1.505356298907671e-12 4.5892265304462536e-10 -2.4261259425110592e-09 1.346786151309767e-09
1434 -2.07760336334981e-12 8.346267688110005e-13 -7.595510418321685e-13 1.8211616028106698e-09 1.8870489340990677e-11 -4.481954814432926e-10
1435 4.006331330490434e-14 -7.148905435637048e-13 -3.0912312056455197e-13 1.7611324197637565e-09 3.503159623323181e-09 -5.256419194568867e-10
1436 1.9468838857816488e-13 -2.167658964286904e-12 -7.004790583930457e-13 1.8569046927078461e-09 1.7414814020622943e-09 1.0745771377961591e-09
1437 -1.1771000969273332e-12 7.812385797942514e-14 -2.639215519462536e-12 -1.5746074613264522e-09 -7.634643474502271e-10 1.0858972986943065e-09
1438 1.6557026853092926e-13 3.1194782652880855e-13 -5.755431907603483e-13 -9.99928163826428e-10 -1.597104073543534e-09 1.8341194713396186e-09
1439 -1.1807357056379003e-13 -9.61755706189408e-14 -7.775904319344443e-13 -1.877353464696949e-10 -2.595645958423448e-09 4.718745113876544e-10
1440 3.5493739221737903e-13 1.8631300403400468e-13 1.605676670952511e-12 1.8947830153140034e-09 5.0079271572087685e-11 -2.2258951366685378e-10
1441 -1.1488697004384642e-12 -2.2406273279768763e-13 -2.4684155132564955e-13 -9.379765593948248e-10 7.221660300122541e-11 -3.1777078729646214e-11
1442 3.065540077161123e-13 3.246125790567497e-13 -1.6079208554962001e-12 8.956998729977422e-10 -1.7255591527162166e-10 -4.279174836532668e-10
1443 -1.0836151674319869e-12 -5.832476168926069e-13 -5.633092820980707e-13 1.93976922654851e-09 2.056421686582625e-09 4.0834439695160087e-10
1444 -1.3516169499130628e-13 -2.1516827329940083e-12 -2.6007297090125094e-12 1.6148169752710279e-09 -6.327032739860617e-10 -4.662522586604112e-10
1445 -1.0839392171807656e-12 -5.420444824566396e-13 8.060407021158122e-13 -2.1090479429061504e-09 1.370985940377245e-09 8.907636004812105e-10
1446 -1.316667201117841e-12 5.419193311532958e-13 -2.3811336712012523e-12 6.739191003372343e-10 -1.6911837507424187e-09 -2.0713464963485437e-10
1447 -2.1112312862133424e-12 -8.451165163444459e-13 2.1852354508967477e-12 -3.634974972309307e-10 1.2127256440032144e-09 -4.093153168843741e-09
1448 2.6898436978513826e-13 -1.2104425685276624e-12 -2.2295615430793253e-12 -8.087329289663506e-10 -2.535681846285693e-10 2.1788980995177428e-10
1449 -1.6580904642790424e-13 1.308587426248096e-13 9.117792703061052e-13 -7.351187214026565e-10 1.3429755702874793e-09 -1.4396064058342002e-10
1450 1.4114555332186968e-13 1.844332288098472e-13 -7.93525948025864e-13 -1.0259319919467081e-09 7.930603782339326e-11 -2.417735518889376e-10
1451 -1.356734748544699e-13 -1.0435527701391748e-13 -4.656199871019971e-13 1.1350609729575187e-09 1.0468383047160548e-09 3.2617307374373523e-10
1452 5.421139000448119e-13 2.1934110016703473e-13 -3.197812673022654e-13 -2.221813048860465e-09 -1.0517121120328158e-09 2.856447673276344e-09
1453 5.258482085520643e-13 -2.7089209014159756e-13 -2.7449828068350943e-13 5.153019395580824e-10 -4.847664354342096e-10 4.6107417197413463e-10
1454 -2.2254389738984027e-13 -3.647017976295555e-13 -2.5123723642998694e-12 2.6936307607541574e-10 -4.290932804117461e-10 -1.760253357481024e-10
1455 -5.82295592485734e-13 4.5005842123037776e-13 -4.1851625390471227e-13 1.4884752508991354e-12 -1.2469589686117496e-09 -8.082750499802002e-10
1456 -1.3656470809672792e-12 -3.4414004791754965e-14 -2.0582358674935816e-13 9.293510466219568e-10 7.690949762232496e-10 -1.3431388624610917e-09
1457 6.780497809419187e-14 -1.1670603704312471e-12 5.08273238156969e-12 2.202631518499814e-09 -3.788146330347727e-09 1.9098368359695394e-09
1458 6.155163434215722e-13 -5.011756618938564e-13 7.850034308185576e-13 5.917953719676506e-10 1.7773686879499569e-10 -3.5702866439128e-11
1459 5.064321433854322e-13 -4.9419961659164e-13 2.5886623768476625e-13 6.466245605096415e-10 -2.2571706776116332e-10 -5.1595813612992805e-11
1460 -2.0914620799901068e-13 -3.656441102756522e-13 -2.0938578861487548e-13 4.2682935284909857e-10 2.0432644781569936e-09 8.881366412906106e-11
1461 -4.72574285220456e-13 -8.075900850324046e-13 2.3667578130378575e-14 -8.806244502568709e-11 1.7677870520313788e-10 1.233329103165567e-09
1462 5.137176372495859e-13 -1.1802812518887749e-12 2.6502879477539086e-12 2.170737609722775e-09 -1.9947392422882052e-10 7.441681465744978e-10
1463 -2.855089966631959e-13 6.919970813056236e-14 -6.11878561021193e-14 3.938118752758132e-13 -6.939420619905562e-11 1.79575235908325e-10
1464 2.2114452713718362e-13 1.842733830105083e-13 2.6775772997228105e-12 -1.8690265388265e-09 -2.8945133345926746e-09 7.332965202346439e-10
1465 -4.497439537531731e-13 -1.4950186691771207e-12 1.8221738502139019e-13 -1.1047056743172344e-10 3.624958519779948e-10 -5.885851401147818e-10
1466 4.848785913582681e-13 -5.397009251773321e-13 -3.350593870478691e-13 1.4214604143729532e-10 1.0054317612725112e-09 -3.8335976802139304e-10
1467 -1.0840586258121342e-12 1.412354655391265e-12 1.9768805584078138e-12 -1.599980013842475e-09 2.525085047566368e-09 -1.9270579188075315e-09
1468 -2.1668906731436704e-12 6.447660172555989e-13 -1.069027350720153e-13 4.6294869412444056e-10 2.20187941390713e-10 -2.265830384890933e-09
1469 -2.2608133599888405e-13 8.247075046907668e-13 -2.9378038830586194e-12 -1.651304892814851e-09 5.876655956023248e-10 8.656700157341323e-11
1470 4.1730942746152303e-13 -2.004011660283434e-12 1.4858892635154078e-12 1.9116634630949042e-09 1.6792033916337154e-09 -1.6089630149366234e-09
1471 1.01690757747358e-12 6.886516701343464e-13 -2.412674075384985e-12 2.148552003660584e-09 1.747745778022108e-09 8.172284739784903e-10
1472 1.0841352558777156e-12 7.363516490409062e-13 2.2085428083431967e-12 -8.934070676842431e-10 -1.5581739054241147e-09 -3.3956915208273566e-10
1473 -1.0836916495277376e-12 -2.15187540960123e-12 -6.4027903412280794e-12 5.595478097352894e-09 1.3716218494325465e-09 -2.4840042557111597e-10
1474 1.0842191004062984e-12 1.0770197834639174e-14 6.683581580423241e-15 -2.4685050566490067e-09 -6.713799320681422e-10 -3.779512082998174e-10
1475 2.909079489024988e-13 -1.7834723824346737e-12 7.619545281711193e-13 -4.692195545678191e-10 -1.2381740834659482e-10 2.932419811241211e-09
1476 1.9288794160335793e-12 -1.7952541381741874e-12 8.044981736783544e-13 8.411955471901696e-10 5.452096090383878e-10 -4.330054090462622e-10
1477 -2.285890564137138e-13 -1.789051311347265e-13 2.4288603287517172e-12 1.2769647177074568e-09 -1.4604358476186935e-09 3.207909457609723e-09
1478 -1.0839112071635189e-12 3.1884808758472407e-13 -4.307612726042598e-14 1.8951623632556924e-09 -1.8387982280489482e-09 2.3678149720371948e-12
1479 -1.0758175368326108e-12 -1.9668618215227227e-12 2.1120645820323422e-12 4.408722605685883e-09 -4.6970450897215175e-09 -6.296794373505248e-10
1480 -4.444769856885398e-13 -9.450035226094437e-13 -3.504748625006344e-14 -1.4411134125727284e-10 -5.219759641741303e-10 -6.116208949431487e-10
1481 1.3937310307477329e-12 -3.6589312064263327e-13 -8.438818389322143e-14 -9.147436431048952e-10 8.523671477518751e-10 2.521999054917544e-10
1482 -5.420126591424523e-13 -4.1951142136681617e-13 -9.103031479055535e-13 9.3681531492642e-10 2.002781257616141e-09 -9.896237951215593e-11
1483 -1.3120882748740829e-12 -9.89536210586759e-14 1.00288453202384e-12 6.62207264654078e-10 1.1067777317884619e-09 5.342930122237571e-10
1484 4.243514281613409e-13 -1.0838849837491098e-12 -3.6091895827546046e-12 4.787332672855299e-09 -2.4372324695604047e-09 -3.0994534373708123e-09
1485 5.421067959546198e-13 7.04088108778671e-13 -3.3821797519818814e-12 -1.6597528223992235e-10 4.226305959928324e-09 8.733165462669522e-10
1486 4.848189096747095e-13 -3.730266662390447e-14 -4.038885158862099e-12 1.8922648536032936e-09 5.842744615814348e-10 -2.9759649140470675e-09
1487 -1.0840596699264513e-12 -6.424089223342055e-13 1.2319291706274535e-12 1.089290700427746e-09 3.1599888488478697e-10 -1.3422970582644077e-09
1488 5.29084065423435e-14 1.1388442376984442e-12 -7.80304289096033e-13 -4.705215352576646e-09 -2.1047757573118543e-10 1.431818008705454e-09
1489 -1.0835624703833262e-12 5.402630473280817e-13 1.8474268764717336e-13 -1.3443110010239288e-09 4.635506637321188e-10 -1.6227858914500423e-09
1490 -2.0080489292029316e-12 4.2165232628513656e-13 3.092718338892898e-14 -3.5311192626694166e-09 4.435807086237454e-09 1.3661668976323616e-09
1491 -2.709087547848331e-13 1.9138891494842128e-13 3.002930405918292e-12 3.575415635454187e-09 -5.606026667951572e-10 5.06147440576175e-10
1492 7.662938209329588e-13 1.0479944958706921e-13 1.1074122558368643e-13 -4.506271952861534e-10 -4.520148736280927e-10 7.181645297983509e-10
1493 -3.4143237943389346e-13 -1.0857940364191333e-12 -7.86348699695829e-13 2.577128352850306e-09 6.700257908764259e-10 9.950510621346508e-10
1494 9.536113654262437e-13 -1.7341725849546363e-13 -2.5369409658740076e-12 -2.5777158948951405e-09 -2.8085775143707526e-09 5.65738742922943e-10
1495 -1.0841275577554396e-12 5.935939947033837e-13 2.0518123236952637e-13 -2.3270612531943425e-10 -1.16235024822942e-09 3.473272828155505e-10
1496 1.221595039223462e-13 -2.50510989123543e-13 -9.162056534028186e-13 9.437150418833823e-10 1.1158583205844822e-09 -1.825770389024464e-10
1497 6.803659796171529e-14 2.5830172541091046e-13 2.1483188569634895e-12 2.048969794865068e-09 5.254877980938823e-10 -7.137253759328467e-10
1498 -7.712773867060746e-13 -1.791174499631921e-12 5.209351407754253e-14 3.4832466493675262e-09 -3.558765946441397e-09 2.1390795202878274e-09
1499 -1.0842244942445314e-12 -1.0136884909048727e-12 -5.3294819507398645e-12 -4.853692404270227e-09 -2.120158578530182e-09 3.5951786685047977e-10
1500 -9.160515137520954e-13 -1.3511800603236117e-13 3.905101393349361e-13 1.9827137320756207e-09 -5.932281273732598e-10 -2.8574035642513383e-10
1501 8.315288432311714e-13 6.36099417031903e-14 -5.700372776385879e-12 4.905229856583903e-10 1.473672657834373e-09 -1.7416373373159726e-09
1502 1.714961687376643e-12 1.8503295364141678e-13 -5.140971615067136e-13 -1.5925900883440096e-09 1.0078124586116907e-09 4.526953535153651e-10
1503 -1.0703458052698376e-12 -1.7891093507647357e-13 7.646815813999879e-13 7.28599117396926e-10 9.022751712922817e-10 2.261616181627206e-10
1504 -3.0569080767197547e-13 1.003119396050532e-13 3.973030557143409e-13 -2.399872278667533e-10 2.2317440306551034e-09 -6.239042706363458e-10
1505 1.510913485519484e-12 -4.678432038122942e-13 -4.230373652166414e-13 2.1288998756925738e-11 -6.124433258191245e-10 -5.668327357477027e-10
1506 -1.0817641795990445e-12 2.357760991849011e-13 1.574349311945001e-12 -6.819773042641059e-11 4.705940766394725e-10 -2.1700833761823699e-10
1507 -4.4737204183617367e-13 2.1474597420683966e-12 5.250324178642939e-12 -1.7207203513155844e-09 -3.121236658014314e-10 -3.3655364121748848e-09
1508 1.0840719976195838e-12 2.2340181216925026e-13 3.132120921741629e-13 5.086931045981512e-10 4.50338620714812e-10 -1.2874009150032347e-09
1509 -1.3892114693551857e-12 3.663478843780858e-13 7.261313030220626e-13 -1.5124693865408798e-09 -2.0653782873529023e-09 4.09990315160038e-10
1510 -1.0842683649078923e-12 9.949268756310367e-13 5.555616474415141e-12 2.9003976693905253e-09 -3.0560944602922743e-09 2.9684275198414005e-09
1511 -6.033408580246073e-13 1.5373919405703418e-13 -1.1804666085801165e-12 -1.3557268911476637e-09 4.2232441494399534e-10 3.5090121490475055e-10
1512 -1.083861466488731e-12 4.1646600649384714e-13 4.446731659683065e-12 1.6265489715693813e-09 -1.6564422025545645e-09 -3.947318411903188e-10
1513 -2.4493441165112283e-13 8.940008989253101e-13 -5.436272188766432e-13 -3.668353536012336e-09 6.400038613527565e-10 -6.948152472790554e-10
1514 -2.131701633213465e-12 -1.8613773089548907e-13 5.270998092851016e-13 -6.332934755911832e-09 2.466424216335502e-09 -2.1369830106906157e-09
1515 1.0844532028733546e-12 6.459977100880225e-13 5.498108516143556e-13 2.043564810124362e-09 2.8236951019901157e-09 3.1835278265017767e-10
1516 -1.0833224926378107e-12 9.09789218543991e-13 -2.3723293727280424e-13 7.209668652358075e-10 -1.2905662177535625e-09 -6.349987683660221e-10
1517 2.1681129718940093e-12 -4.419077378205624e-13 -1.2129934931468751e-12 -1.6676734612267312e-09 -3.2566961195548634e-10 -1.7733798724095765e-09
1518 -1.904897995865146e-12 -5.376753020568891e-13 -1.1047783122261435e-12 -3.145505168511463e-09 -1.0882176702128086e-10 9.66853392544244e-13
1519 3.899029941958315e-13 5.418824283075554e-13 1.123787836790701e-14 1.8963185175375777e-10 8.437614250373218e-10 1.528768763395082e-10
1520 -1.0781544371019104e-12 -2.899924887374744e-14 3.258843515505117e-12 3.3513792898104226e-09 9.592597327588805e-09 -2.9162135228962026e-10
1521 4.1829802130189436e-13 -2.7094007327726505e-13 1.0083837707156109e-12 7.049259986486254e-10 -1.229535468695431e-10 5.626500898363173e-10
1522 6.019850863752145e-13 -2.2796821663846944e-13 -3.21943403235549e-13 -1.8978402326356395e-09 -2.257796149790714e-09 1.8238400703873045e-10
1523 1.1362008179982893e-12 -3.049338154175541e-13 3.99205316094944e-13 3.681475981765327e-09 -1.976678138035327e-09 -4.825202499048896e-10
1524 4.2766148721881e-13 -5.27666772990928e-13 -7.645451466636924e-12 -3.4284102130259512e-09 2.9978547735666596e-09 -1.5876396598306324e-11
1525 -1.4332617033943652e-12 1.0660982069269339e-12 1.8555780165244337e-12 -8.666145284228678e-10 -2.3254121899534172e-10 1.3589819650859054e-09
1526 -2.5822414237994355e-12 -9.38016777795594e-13 4.380217847089782e-12 7.019277558299805e-10 -4.4112676459756165e-09 -1.1562622881290192e-09
1527 6.234572528973234e-13 5.468108029015719e-13 7.381781825714721e-13 2.9907253729122847e-10 1.778317506073607e-09 -1.063711783023405e-09
1528 -6.479342818508344e-14 -1.0992429131397001e-12 -7.867012363168391e-13 1.7336825765665278e-09 1.066047756400932e-09 2.4835345246487425e-09
1529 7.182842304802702e-13 -2.0652639452206859e-13 -9.404938000793313e-13 -6.676686138400488e-10 -1.5879020167801082e-09 -7.453828361350284e-10
1530 5.421844108029526e-13 -5.661487701683306e-13 -2.388013470088364e-12 2.1047395998031904e-09 7.027595956787584e-10 -2.77945472441732e-09
1531 -2.4276859362733723e-13 -2.6057401021185567e-13 -1.8845114160268397e-12 -5.7173673118005136e-09 1.1641296942811204e-08 -3.314483797576798e-09
1532 -1.3321089805420004e-13 2.1651978498061086e-12 2.671844667507247e-12 8.107509751974922e-09 4.190393754730157e-09 -1.90076605043216e-09
1533 1.0427518813380796e-12 1.6508431748731454e-12 -4.553427053730047e-13 -3.3435819041212653e-10 2.4410146868422835e-10 -5.0923587808499e-10
1534 4.274402578907235e-13 -9.227829041769692e-13 6.264241202426045e-13 4.26698590618842e-09 1.1843831470748768e-10 -3.685761210240624e-10
1535 -6.082820651372238e-14 -1.083817470284705e-12 8.394711646502707e-13 1.2361609692243124e-09 3.78214322003877e-10 2.940638276966947e-09
1536 -1.8459180399810426e-12 5.421734913423324e-13 1.2881330600136395e-14 7.400765197476238e-10 -2.964090578772221e-09 -4.777658755960208e-10
1537 1.2388598526573237e-12 -1.0344137538225197e-12 -5.880766456145039e-14 8.732752407975988e-10 6.923047976969178e-10 -1.8893777287197374e-09
1538 -5.415124443215032e-13 7.024308554738944e-13 1.895390316800148e-12 -9.929989645279415e-10 -1.8187999582148998e-09 2.576670202598156e-09
1539 -1.051308804477893e-12 -1.871610303827608e-14 8.05377972276387e-13 2.2814577257991857e-10 9.214899229920462e-10 -3.599459386839208e-11
1540 1.3884600410146743e-13 -5.121662611169851e-13 -2.349459292545418e-12 3.5614440454723927e-09 5.592217889048382e-09 -2.190303629255506e-09
1541 1.0836865598093326e-12 -2.709620766461331e-13 2.3017324677026313e-13 8.707065231643634e-10 -3.3688722112511435e-10 2.795779647305604e-10
1542 4.264925538620682e-13 1.0200581173593698e-12 3.7539149126143635e-13 1.215551687007974e-09 4.3270811164360214e-10 7.746654667360749e-10
1543 6.586978469789372e-14 1.0443760281221278e-12 1.1439880259780735e-12 -1.8325027080716585e-09 -2.15766960179012e-09 1.2862574627316528e-09
1544 -8.731170325200362e-13 -1.0838531355929364e-12 8.716113575127079e-12 6.482380573345255e-10 -3.144630540818045e-09 -2.404024483800034e-10
1545 5.05223615172621e-13 2.168109654617744e-12 -1.938792484755751e-13 1.2849541327771677e-09 3.6603562451806547e-09 -8.17688198994812e-11
1546 -3.9028541824540915e-13 5.058877667888837e-13 8.539457539981953e-13 5.686297232161742e-10 -1.5002542412885757e-09 4.994008258987099e-10
1547 -5.825108237258182e-14 2.7002202614165566e-13 -6.43717407945811e-13 -1.0065063335594521e-09 -1.603938889159708e-09 -2.545828988363003e-11
1548 3.681375367893784e-13 -1.7950484790371734e-12 -9.204722486513152e-13 3.915581377063806e-09 2.2051994793480906e-09 8.278467922904297e-10
1549 -1.7449888527446016e-12 -9.466727397294268e-13 -1.1122026791954544e-12 -1.217079129721049e-09 -2.250597423612624e-09 -2.490885780784104e-10
1550 9.223157350510929e-14 -5.51176837551383e-13 6.346843380122446e-13 -2.162746339042589e-09 -4.8079865235084356e-09 2.018716236016201e-09
1551 -2.5849318772243905e-13 2.161398583814206e-12 1.4843834428832328e-12 3.8162425936142916e-10 -9.379533056841753e-10 -5.034116662854642e-10
1552 8.248169210362192e-13 -2.711946801687587e-13 -7.629106187821257e-13 8.31528180731781e-11 -9.674395634172622e-10 -5.791749782215101e-10
1553 -6.246515876814184e-13 -1.637925802641903e-13 9.422757811120574e-13 -1.2224252523759636e-09 -3.6490561233763394e-10 -8.245937776182267e-10
1554 -1.9645333872547973e-12 2.1463381924016103e-12 -7.050580923963334e-13 2.5273042492780176e-09 -8.563423981973094e-10 7.279723380734707e-10
1555 -1.981191919845091e-12 -5.418621710529506e-13 5.413055568983145e-13 -1.4004841728699754e-09 7.436005435550331e-10 3.2497361647870984e-09
1556 5.847022068799717e-13 -2.1679900260432653e-12 -1.5814647287447814e-12 3.4555709594838683e-09 2.2949452089293063e-09 -1.8752883783400767e-09
1557 -1.6998577419163814e-12 9.914621352804201e-14 3.1419205199600312e-12 3.903980111569297e-11 -3.936703108757064e-09 -1.867758352010705e-10
1558 1.0842008342483977e-12 -9.439072151238367e-14 9.91310966110395e-13 1.0639364552456234e-09 -7.640754795767079e-10 -1.8940113268581394e-09
1559 -7.157105358827386e-13 1.083854027333001e-12 5.018869071162283e-13 -1.6905690786450758e-09 1.7115400956925441e-09 2.392414576813362e-10
1560 -2.1170777479991165e-13 3.1997478652618964e-13 -3.672980946545959e-13 4.6206554411284496e-10 -5.263084073938873e-10 -5.173791860370981e-10
1561 2.315853328420609e-13 5.924313655197837e-14 8.523402763450768e-13 -2.2433265574714333e-09 2.4565539976766562e-09 7.795629046287283e-10
1562 -6.766525795497258e-13 -5.417562145892432e-13 4.586653559221987e-13 3.989703029282561e-10 -3.211734361398799e-10 -8.620225319344736e-10
1563 1.064928608165885e-12 2.0545427349608486e-12 -3.4373700263143205e-12 -3.393060674930537e-09 -6.154543533445536e-10 -4.639066167643307e-09
1564 7.154666261826101e-13 -1.0837014692616043e-12 -1.405007863701367e-13 6.848764323815431e-10 -3.839437305060514e-10 7.96477571877981e-10
1565 9.634164179454444e-13 1.4418297335106163e-12 8.890079226673158e-13 -3.6217408146414337e-10 -2.069982619330006e-09 3.2343093599556576e-10
1566 -7.979792568940368e-13 -3.277349332268455e-13 1.4198878105327209e-13 -3.341666294980436e-09 -1.05987005902817e-09 -1.2904399036977425e-09
1567 -1.1152511340894131e-13 -5.674424185809077e-13 6.223715570067946e-12 -5.644435998201919e-10 -1.6425453671615543e-09 1.4279584873514254e-09
1568 4.893702170026896e-13 2.167194449697161e-12 -1.206788531848572e-12 -1.508836412074283e-09 6.241077601065905e-10 -9.658359793706528e-10
1569 3.43424384460008e-13 -1.0842178628180164e-12 -6.247648831603283e-12 -3.0889970686382328e-09 2.5589707701677545e-09 1.0353160775782263e-09
1570 3.9149738776246236e-14 -1.0774463889316713e-12 -5.714981524764906e-13 7.734066690062384e-09 1.997369174266744e-10 -1.631284271372671e-09
1571 -3.8532261796624406e-13 6.751419993568078e-13 -1.3261375730938993e-12 3.087347951851595e-10 9.833460815502893e-10 -7.949301065010455e-10
1572 -6.082716943558791e-13 -8.599551414165915e-13 9.37254126974775e-13 1.0084799324839772e-09 2.7186436065390203e-09 -2.9821669909347326e-09
1573 2.507054229813482e-13 9.431622195809753e-13 -9.098255019860972e-13 4.95254575404059e-09 -1.4955722921703394e-10 -1.7741290435307092e-09
1574 3.6263879506098314e-13 -5.178525162924492e-13 -1.0007665751327504e-12 -2.9985845585909978e-09 4.27325736270749e-10 9.025595783593226e-10
1575 1.0582765068164275e-12 -1.2901354632824632e-12 -1.6395893863291288e-12 -2.409051985656621e-09 -2.699564200524249e-09 -1.3091827254564582e-09
1576 -1.3941050897246958e-12 -5.421582487113151e-13 -7.68174966836462e-12 9.898981308054467e-10 -1.8109369637324966e-09 -8.675831519255701e-10
1577 2.5770766663790057e-13 1.5008656674121197e-12 1.836232260083454e-12 -3.616906278525604e-09 2.251929348284915e-10 -1.3403962506945655e-09
1578 8.003440232401264e-13 8.748780767678849e-13 1.1441903468849497e-12 -6.128695285903512e-10 -1.698413129948956e-09 1.7227744900637973e-09
1579 -1.555516532110512e-13 1.5651000683203852e-13 1.0288748953900936e-12 1.9014055111321742e-10 2.620051785543635e-10 6.714071370310287e-10
1580 -1.0839119769699828e-12 2.166137540692083e-12 1.8647547807100876e-12 -1.6893939877700973e-09 1.5314901974677749e-09 -1.5283293455905777e-09
1581 -1.0844366768760247e-12 2.5730715928766294e-13 4.138512799440615e-12 -5.182929274360677e-09 4.494682468236795e-10 -1.897933762478237e-09
1582 -2.0456012843697067e-12 8.007153993075029e-13 -3.998365685311486e-12 9.281159350186569e-10 1.316413268291583e-08 2.781343270599417e-09
1583 -2.705331682644252e-13 -8.647110741618592e-13 -1.6551902965125047e-12 1.0996044959724293e-10 -5.79006388212066e-10 -5.403044815220322e-11
1584 -5.420730439573542e-13 6.412624547940948e-13 -1.3856270281375144e-12 1.744843891609486e-09 -3.258473057829688e-10 -8.772915292296541e-10
1585 -4.787438671973192e-13 -3.063143091987569e-13 -1.501416631212283e-12 3.651994315981695e-09 -2.4055632118240703e-09 1.354835670409683e-09
1586 2.7094612965431085e-13 -2.7077534546237547e-13 2.0303194610743916e-12 5.234188882825389e-10 7.067957363394416e-10 -4.2255740902541133e-10
1587 8.320002637938839e-13 1.0906047286337268e-12 -1.141411289792929e-12 -1.363000157192175e-09 1.5234728861219982e-10 -5.558945603209417e-10
1588 8.894758580919868e-13 -9.117875925872192e-13 -3.1844429761779074e-12 -2.261011859282288e-09 2.0921768598128511e-10 2.24686620098534e-10
1589 -1.7354791534179251e-12 -1.170135967972079e-13 5.482705490971248e-12 1.50832258858548e-09 -5.7138405778215635e-09 4.188697863588841e-09
1590 6.314447729479315e-13 1.0830716588319145e-12 3.410041037935973e-13 6.7453997217737e-10 -6.504555204606282e-10 1.5558731393738287e-09
1591 1.3202918073423744e-13 3.6102131841543575e-13 2.061096139045974e-12 1.321292696634335e-10 -1.937136533046179e-09 6.791441766038438e-10
1592 -2.6997535673166016e-13 -8.962473801828876e-13 -4.36427665218172e-12 -6.699956965481119e-10 2.028374891471942e-09 3.9753980959036455e-11
1593 -8.464722096049858e-14 5.381661756134937e-13 1.6621430545856124e-12 2.86785578650654e-11 -2.7167874947539637e-10 -3.6324879957144583e-10
1594 5.163847267065468e-13 1.6934189609890856e-12 -1.6603412570173012e-12 -8.197618053056168e-10 4.1393822769418167e-10 1.0277276241086167e-09
1595 1.9609102294578465e-12 -2.7120690573317115e-13 1.8471401215563823e-12 5.4283340755035866e-11 -2.146595759449408e-09 -3.7011861154456414e-10
1596 -5.421567375211722e-13 -1.565140209688011e-12 -1.2749960962589086e-12 2.0800363152031762e-09 -1.870514284253394e-09 -1.0984140152298348e-09
1597 1.0239229751231793e-12 5.3541420223307955e-15 2.1403894392518712e-12 5.361082679381373e-10 1.1136667846776767e-09 -8.369682539293394e-10
1598 -7.899844480033638e-13 -5.413430585002784e-13 8.368083543415018e-13 -1.1952835920711975e-09 -1.8140943502774602e-09 -5.235518718234937e-10
1599 1.4404318340103944e-15 5.853131160875518e-13 -7.552759600162509e-15 7.116174730714763e-11 -3.0234462976141475e-10 -2.883304932708789e-10
1600 1.3410070873411614e-12 -5.290449798728856e-13 6.249126009701563e-13 1.1615081088845037e-10 -9.322976137880615e-10 -1.5980224541688497e-09
1601 -5.401870005643051e-13 -1.9999123423978776e-12 6.988374342682138e-12 -6.7883152862056984e-09 -8.389817470799243e-09 -7.266881056863608e-11
1602 1.0835157768756884e-12 -1.0837495175266213e-12 -1.9651610549718457e-12 4.190654505651637e-10 -1.2125362463544991e-09 3.744118169750178e-10
1603 -2.6144594061710447e-13 5.418896214785392e-13 -4.3170522444602396e-13 1.5202867505880877e-09 -9.610436312022471e-10 -4.2258844785090573e-10
1604 -5.789960443761199e-13 -8.970598348187825e-13 1.0261352673400664e-12 -1.0144157594125945e-09 -1.172042777695957e-09 -1.0553451316617021e-09
1605 -1.5499115531205965e-12 5.331947239852107e-14 1.7512131467335415e-12 -8.108266460373467e-10 2.282285963184264e-09 1.7091288676425686e-10
1606 -5.414012728044898e-13 -2.9148907521450547e-13 -6.053851456120844e-12 -3.028386899155924e-09 -1.7059286761148002e-10 2.0427973887300306e-09
1607 5.416904448534347e-13 1.084140123691039e-12 1.4140200277516634e-13 -4.924160018752307e-09 -1.6160651845662194e-09 5.390706150061236e-10
1608 1.9366077895195178e-13 -1.3256827004836127e-13 -2.9710710499606043e-12 2.7887119657869445e-10 -2.2355929942293344e-09 -9.356548510845238e-10
1609 -1.0839918425096778e-12 -1.3152189475195052e-12 -3.5766166764704883e-12 -1.7532730549379102e-10 -1.971621015585456e-09 -5.222377669849282e-12
1610 1.0839419978592988e-12 -4.833440090481983e-13 -2.4548443956129452e-12 2.0852252737537444e-09 -3.677184794544013e-10 -1.553485696989647e-09
1611 3.7480701974313917e-13 -2.153999286374346e-12 -5.507192535529272e-13 4.939500470521237e-09 3.6413322694366427e-09 1.2726876931212622e-09
1612 2.1682461702223865e-12 5.417511576079716e-13 -5.122776385086665e-13 -3.166004578380058e-09 8.550924027043654e-10 -1.8543221354357386e-09
1613 -1.0735176315894814e-13 2.332315045889858e-13 -7.081797993710144e-13 -5.116328108710386e-11 8.559845598149847e-10 1.4837095866593232e-10
1614 4.297283041611718e-13 1.0840567362508212e-12 -2.1817828488157245e-13 6.371615359696978e-10 5.106414695913538e-09 -1.4895852808250166e-09
1615 2.228636658505604e-13 1.3070786062132558e-12 4.828534491694363e-12 -6.13970692326794e-09 -3.399932025824799e-09 -6.084140073525322e-10
1616 -1.198220256392249e-12 -5.22777716351058e-13 -1.911002307477327e-12 -2.5099072846910955e-09 4.293545242428921e-09 -1.316823797596087e-09
1617 -9.993202754951627e-13 -2.1673182219367905e-12 -1.4153212039509813e-12 3.248748833954604e-10 -2.4623679025739514e-09 6.994779339695825e-10
1618 -5.0452617586745734e-14 1.0797257267284598e-12 1.4318990658861606e-12 2.8434807272729113e-12 -6.552504147562859e-10 3.170720236546317e-09
1619 -3.0821617878243176e-14 -4.7207130141379e-13 -4.99254491817951e-13 -1.2620117818665805e-09 1.263058659772833e-09 1.2587703937732901e-09
1620 1.7032637758932272e-13 -6.731505601795266e-13 3.128682774349108e-12 -1.3460025008647287e-09 8.58551379743617e-11 1.8140327862478715e-09
1621 -5.42042254702088e-13 -7.903542914849644e-13 -2.6603058429367605e-12 1.0734591251260308e-09 -4.377012752383799e-09 -1.2784953786785287e-09
1622 -2.161987861724044e-12 2.0870120907443357e-12 -8.07490558039115e-13 3.441813103303143e-09 -2.3198069194407204e-09 -4.1255349428589187e-10
1623 -1.0841950428498388e-12 1.082811040573087e-12 -4.006076876169172e-12 6.503995055795908e-11 -7.596679930596748e-09 2.7544250903626546e-10
1624 -1.082888464859608e-12 -1.0842349214995747e-12 -7.711660787974199e-12 1.4700515582581361e-09 -8.914221558821088e-10 1.4301081452180773e-10
1625 -1.933296307135366e-12 -7.789622406625852e-13 -2.6296697458689897e-13 -8.000514112737505e-09 4.511523605785269e-09 1.1500099425838463e-10
1626 9.880780998596052e-13 -1.4116348034082134e-13 2.324897742312239e-12 1.1721274709674951e-09 2.606750980138852e-09 -4.157276973953477e-10
1627 3.7237432863257343e-13 -1.0479844344031471e-12 -1.175089694346979e-12 -1.767569837664276e-09 1.190375507930174e-09 -1.9980372328630025e-10
1628 -5.421177008276837e-13 2.5557079100832443e-14 2.1240567000137308e-13 -3.493756651700449e-10 8.374817116327265e-10 -7.131742709864865e-10
1629 1.0843028352670245e-12 1.2925120048543874e-13 4.644695003248469e-13 1.163302865462039e-09 1.668182062050292e-09 -5.553856556690797e-10
1630 4.801051618195496e-13 -1.1223252210850244e-12 -2.532010606838912e-14 -3.0309777290726095e-10 -1.7767530239339975e-09 -8.59410562333485e-10
1631 -5.41672312691521e-13 -6.486277275812828e-13 3.0703136334524875e-12 5.167973289869643e-09 -1.603634598274629e-09 8.300646577219647e-10
1632 -7.946782842509857e-13 5.582521499228338e-14 -1.8782359155965813e-12 7.303619138322666e-10 2.33197012125775e-09 -4.574735578820566e-10
1633 -1.3383883546881925e-12 -1.0821254097906343e-12 -2.5536688110533303e-12 -1.8257431882906709e-09 -4.04612050493149e-09 -2.060530492913107e-09
1634 1.9280092904306237e-12 4.623869944119751e-13 2.3235913560648682e-12 4.4198981129547167e-10 -2.8593945052443406e-09 -1.7172047387538351e-10
1635 -8.536105291967156e-13 -1.0825576276338122e-12 1.736062633644471e-12 1.379796264320199e-10 2.474984209233859e-09 8.342881334439018e-10
1636 -1.533839531168294e-13 9.738509971732783e-14 3.170640603149635e-13 -1.0874963302054653e-09 -5.073083791848805e-10 8.137135862421274e-11
1637 4.5455404719100635e-13 1.7714324825651647e-13 -2.4948513748638666e-12 1.4607273881039452e-09 1.669204302112717e-09 -1.1036104721381886e-09
1638 1.8018591877655174e-12 -5.421587417728134e-13 -2.6247634482625748e-12 1.5011056777244414e-09 2.8154568057967113e-09 -9.855910064382205e-10
1639 -5.430928149706881e-13 -2.6138324858540155e-13 -1.2863939566474116e-13 -3.9124427722083767e-10 6.266297729444033e-12 2.2161626640214893e-09
1640 1.083696379671232e-12 1.1479362615159581e-12 3.714328175936113e-13 -3.984270804729914e-10 2.7281123021920327e-09 -1.9152899457168186e-09
1641 2.376109573921929e-13 1.3453892300899312e-12 9.21860868327954e-13 9.55392217764577e-10 -2.124732304120216e-09 -7.595902357697841e-11
1642 1.0825154067424345e-12 -3.364601028081359e-14 -1.634645960801305e-12 -5.218182153944054e-10 1.1860572421924346e-09 8.550721701799093e-10
1643 8.624812394327405e-13 -1.5378015726937262e-13 -5.010440047088189e-13 -2.4940247281304256e-10 5.482959278888612e-10 -5.381523112253479e-10
1644 -2.7283665024820327e-13 -1.982469134919045e-12 3.236350485476862e-13 4.240981687916003e-09 1.8741059244055233e-09 -1.561577202838686e-10
1645 -4.991491380735566e-13 5.747150901418563e-14 -3.5085107041044116e-13 -3.552465082021988e-09 -7.595357852525148e-10 -1.6307722693839363e-09
1646 -7.46912561346276e-13 -4.85605438141502e-13 -2.276366590443204e-12 4.63956623814343e-09 -2.5467909118055175e-09 -1.9971135518721413e-11
1647 1.4731951447017559e-13 7.067875442643101e-13 -1.4663499875194346e-12 -1.8369363405451518e-09 1.0831429514783431e-09 1.604137023354053e-11
1648 -7.228202823794338e-13 -5.419936193927109e-13 -4.3366409670377834e-13 -2.0219958490725926e-09 -3.2965058788564734e-10 3.2440551589895604e-09
1649 4.9240650073555205e-14 -1.1767013981977554e-14 2.838002029578694e-13 7.95800523670455e-10 2.467261646583877e-10 -2.8789663816074135e-10
1650 4.603419932899018e-14 -1.8497757067539613e-13 5.836587505143122e-13 -1.014771995340769e-10 -1.4064066133093638e-09 9.191082251300128e-10
1651 -2.7158040080014883e-13 -5.981431591878402e-13 4.5745299228344026e-14 -2.3930389769755413e-09 -2.1535119378226914e-09 -8.488013954390799e-10
1652 7.211631670763086e-14 1.3736904577890663e-12 3.103174096434979e-13 -1.674095737650764e-09 -8.030796728087486e-10 1.0329767012210421e-10
1653 -8.371707032986621e-14 -2.020468654844979e-14 8.93215919063886e-13 -1.0264981515605519e-09 -4.1374327346430706e-10 -4.804521050782134e-10
1654 1.3898895317096664e-12 1.0839899333177012e-12 2.4389407478192467e-12 -1.1229754522959113e-09 7.767321044885446e-09 -5.876852564187208e-09
1655 -4.1434715753218657e-13 -2.168390996214618e-12 6.432833902235562e-12 -3.491115545545139e-09 4.901094963634207e-09 -9.907001015775068e-10
1656 4.2683788769446087e-13 4.3677334883297627e-13 1.9844842193896225e-12 2.2791308529009763e-10 -1.0649377711136742e-09 1.6694969852995632e-09
1657 -2.5659752694028887e-13 -1.7025881775157251e-12 4.3427483031528494e-13 -5.20397980963371e-09 5.901646645127837e-10 2.649326940802263e-09
1658 -4.2695312073554755e-13 -1.2562325004048031e-12 -2.0764256718610015e-13 1.769778484161462e-09 -9.925893070968477e-10 1.7081008693997487e-10
1659 -1.083992788220746e-12 1.0819267595021538e-12 -5.219303078534113e-12 5.196033772214344e-10 -3.547223096442751e-10 -1.1401181455176958e-09
1660 7.179144973139805e-13 -6.104313043995769e-13 -5.799223194492458e-12 -2.4176928309440494e-09 -3.985240876110082e-10 2.9635073095312657e-09
1661 1.0842045187955514e-12 5.424146169574704e-13 -1.7499206552682544e-12 9.831271498277035e-10 1.0237331156765548e-09 1.203945069957588e-09
1662 -9.109162828646818e-13 5.421698253380358e-13 -4.379263032545952e-12 -2.027790067182814e-09 3.3852670939410255e-10 1.4154949467001484e-09
1663 4.950314225570083e-13 7.136191889731914e-13 2.838217237104649e-13 1.6953909989857762e-10 5.474538900662891e-10 -2.768148081185467e-10
1664 1.0028485114507108e-12 -1.094687119565996e-12 5.418223809082963e-13 6.217546698461813e-10 2.502992291830711e-10 -3.376494045252609e-10
1665 -6.327508705534012e-13 -3.833955552818253e-13 -8.335355719941915e-13 5.597824110816947e-10 -2.4907434800576063e-09 1.2002644463227271e-09
1666 -2.168241484786243e-12 4.0196104665347855e-13 -3.6285469965142712e-12 -2.8845434204426984e-09 -3.97519970602857e-09 -6.594555545225367e-10
1667 -1.0842079513064475e-12 1.0636638648218523e-12 -5.529012753127384e-13 -2.5521845764859696e-09 -3.421550586127741e-09 -1.0861567007921284e-11
1668 -1.08287795391977e-12 1.2118169706344108e-12 -2.4048067496351236e-13 -4.562653480309107e-10 1.4715894555324128e-09 5.996788574650942e-10
1669 5.2604370534347e-13 4.907117779909312e-13 -1.2964792962790798e-12 1.3265493854335628e-09 2.554621858472993e-10 -3.224673131656562e-11
1670 -2.1332801039575155e-13 1.0738034765804068e-12 -2.151358682936014e-12 -1.7884867019485748e-09 8.649600682935953e-10 2.4208285350786876e-09
1671 -7.169117905644904e-13 -8.729647118522313e-14 -3.794763001010525e-12 -1.6297719982728767e-09 1.468325448268037e-09 -1.0334899237616652e-09
1672 -1.6657072257117157e-13 -1.0810294693289509e-12 -3.1248546480650608e-12 8.854191300823519e-09 3.74685574101358e-10 1.3195441211460673e-09
1673 -2.168011978077211e-12 2.168322036835062e-12 5.971579809968635e-12 -2.4293028175985355e-09 9.134812156029906e-10 4.6323330777631215e-10
1674 -2.6642212760522475e-14 -6.000413070103494e-14 4.301684255243607e-12 1.594160511593541e-09 -4.30134869875696e-09 -1.1366142895968966e-09
1675 -5.420885511164305e-13 1.2944293241724349e-12 1.448849392214193e-12 -2.2132679184587123e-09 -7.534642399353737e-10 1.6524935287208038e-10
1676 2.244723864253102e-13 3.502555075125383e-14 -3.7967888707473475e-12 -1.771152791860908e-10 5.727384100000263e-10 1.6774941414667827e-09
1677 -4.525198714105309e-13 -2.3923991041672316e-13 -2.0453605737257832e-12 -1.8772524945160815e-09 1.8281429419795203e-09 2.6303757618420444e-10
1678 -1.731326911106444e-12 2.695384779617072e-13 1.4321721629471812e-12 -5.585175198708652e-10 -4.664015029355316e-10 -5.943756249280922e-10
1679 -2.710138439059235e-13 1.445425683472254e-13 -6.349702721538834e-13 -1.1040631055994837e-09 1.2424304140084389e-09 1.020127067300583e-09
1680 -1.0818668204769365e-12 1.0839621479852081e-12 -5.901225030133982e-12 -1.2512003327766737e-09 -8.200015374889476e-10 -4.893878214065301e-10
1681 5.0237568502394e-13 -1.3020649295874076e-12 -8.609566017366134e-13 1.02164478996349e-09 -1.1420013365940782e-09 2.6638363898474497e-09
1682 -8.356025314854808e-13 1.0115903383171594e-13 -1.3778532121043587e-12 1.684053000758456e-09 -4.5547481416817825e-09 5.5091891122212795e-11
1683 -1.708599034584414e-13 -5.420840027672453e-13 2.3560430012397146e-13 -1.9066310544976668e-10 4.0092990921597665e-10 7.572678344981516e-10
1684 1.0841978179631977e-12 -1.8607980037443376e-13 -2.5417140279643293e-12 -2.2639898008180106e-09 -4.814399713860128e-09 1.3747686229529982e-09
1685 -2.0451628189493582e-13 -1.0840491393238399e-12 -7.657829257021516e-13 1.4266503109984152e-09 -8.425493495412701e-10 5.353220092084021e-10
1686 -5.635515075781333e-13 9.166010012602841e-13 -2.595596968177811e-12 -1.8264893306522066e-09 -5.795798110000395e-09 2.250883931327743e-09
1687 -8.0685111938208e-14 -2.756329120531816e-13 -1.911132433016135e-12 -1.5064229219223872e-09 2.289405962690619e-09 -5.882645554302777e-10
1688 -2.166948232930157e-12 1.3008376149480525e-13 -1.8552475280083387e-12 -4.31609728423158e-10 -2.570927068558219e-09 7.63785141968227e-10
1689 8.693749094038641e-13 7.298184912156386e-13 9.202771498843817e-13 4.098601978792142e-09 -1.8462438016090278e-09 2.343798750865883e-09
1690 -1.0842572145088775e-12 4.3360701195593796e-13 -5.064999394723413e-12 2.1257135833962404e-10 3.3228602004142296e-09 -1.8910065071141174e-09
1691 -5.059123371662286e-13 2.0834095205432536e-13 3.7514615697557954e-13 2.655557421816838e-09 3.751994574317972e-10 3.4860935789844812e-09
1692 -1.084174000297957e-12 1.8012816800553264e-12 5.326398173177443e-13 -1.7555671697131437e-09 1.7800914334995166e-09 -1.832651385419966e-10
1693 -1.594891254100718e-12 2.1678430425129115e-12 -8.669812228173986e-12 1.6882612014747352e-10 -5.860242037768242e-09 -5.800995260886658e-09
1694 1.848952692542734e-13 -1.0841674478661583e-12 2.047926313413418e-12 1.780194702684039e-09 1.8553211387671986e-09 -1.5971170685928605e-09
1695 -2.105130845945262e-13 -9.42931478383091e-13 -1.2648872790359236e-12 4.392073584060875e-09 -4.94986520160671e-10 -1.950173731671723e-09
1696 2.1680315185159057e-12 2.3984280971564753e-13 1.917881756748544e-12 5.072918189586659e-10 2.743071303571563e-09 -6.981056656525781e-10
1697 -1.590951776596932e-13 -4.503397469829799e-13 1.7016643812636296e-12 3.8120694050238885e-10 -2.6418608071596155e-09 -3.0939814271997724e-10
1698 -1.980168773493434e-12 2.167761865133771e-12 -1.6410024018202868e-12 -2.67141980716837e-09 1.7368231508385256e-09 4.680528486180668e-10
1699 2.124289296908032e-12 -5.518744771054085e-13 3.969254743757084e-12 -1.0449813964490678e-09 1.2724268871192725e-09 2.181176112823383e-09
1700 -1.0842307739435568e-12 -3.789257748398064e-13 -5.147885910021252e-12 3.762418621599881e-09 -6.200728570105878e-10 1.3610591915345956e-09
1701 -1.912328020752555e-12 2.0179672302795466e-12 -7.334848257570741e-13 -4.866575283875521e-09 4.2903178181294264e-10 -5.476960861604497e-10
1702 1.0189936899891995e-12 -8.750627798572682e-13 9.380885134649646e-13 9.483732552782156e-10 -5.040245034144391e-10 9.708733570070846e-10
1703 -5.414142653722019e-13 1.0028590436854216e-12 1.3213777312446991e-12 -4.473193111155043e-09 -5.354398626716753e-10 -1.4843303317754915e-09
1704 2.09681596171561e-12 -4.676106249299509e-12 -1.3051858874532204e-11 1.4156594135473183e-08 1.4679100157002142e-08 -4.399811862097594e-09
1705 1.603841944119323e-12 1.0810587296429136e-12 -3.6350066121237067e-12 5.490206990382005e-10 4.056434568203518e-09 -5.833290383243832e-11
1706 -1.0832895637752468e-12 -6.948743065057543e-13 4.5300827483599097e-13 -1.0041807224867721e-09 -9.102453672797876e-10 -1.255374551907638e-09
1707 -7.087032343909661e-13 -5.417245086596311e-13 1.0375881553943886e-13 -2.298197817884969e-09 1.0852357229486752e-09 -1.5270777841471024e-09
1708 -1.185297340480963e-12 2.168010046823801e-12 -6.506319688367059e-13 7.660038168228703e-09 2.69541348801984e-09 -3.0067158041631906e-09
1709 6.1880585916268e-14 -5.433582940703224e-13 -2.1177356630440867e-12 -5.532585562811031e-10 7.078692539229082e-10 -1.1339128756753412e-09
1710 -8.877168204876932e-13 8.370861035076357e-14 5.88953251054132e-13 5.765458200291646e-10 6.808582611961059e-10 -2.6597797049233763e-11
1711 -6.609857093480682e-13 1.08392931628077e-12 -1.838226103685556e-12 -8.442781205926818e-11 4.748849929977057e-10 -9.274333158416476e-11
1712 1.042060430034863e-12 1.0716485703076101e-12 -9.029337810616122e-15 -1.049675093056371e-09 3.025517069466563e-10 -1.4027004696039465e-09
1713 2.1636054949663096e-12 -6.799200945684195e-13 2.010537469051838e-13 1.2976374693932252e-09 1.7461216870705935e-09 2.5392904241484804e-09
1714 -8.923869828241859e-13 -1.5368040143618505e-13 -2.3422229696244244e-13 -2.217117081611785e-10 -5.868492138968651e-10 2.878085881055295e-10
1715 -5.421587361616061e-13 -7.77861093527872e-13 -1.934632846271792e-12 2.3102417236830733e-09 -1.0359413032097917e-09 -5.118167505854967e-10
1716 -4.792156018022687e-13 1.6094882172985713e-12 -1.1122021053396791e-12 7.590977930098644e-10 1.6644354803752143e-09 4.9124220678404165e-09
1717 2.4161772938470357e-13 2.7093393800291313e-13 -6.527645977336606e-12 -8.54995229160594e-11 -5.268110893336661e-10 -1.2323917567172972e-09
1718 -4.458081239889515e-13 -1.0756183239018396e-12 1.5611972604129873e-12 2.9740935714356592e-09 -7.815980128070401e-10 1.0943275973833967e-09
1719 -3.5427185300900733e-13 -5.420397577649235e-13 6.663095027972439e-13 1.2258888566465036e-09 2.597884782575707e-09 1.1626346434174312e-10
1720 -1.0696723033371523e-12 5.300161246627092e-13 -2.4452299569904295e-12 -1.763254727288922e-09 -2.1157905593900893e-09 -2.9353698597620757e-09
1721 3.337579430553931e-13 1.0340540545915095e-12 -5.4058130890249666e-12 7.249132720708828e-09 -1.003695263865805e-09 -7.453030788577599e-10
1722 1.0839777717990474e-12 5.571482050380689e-14 -6.667515248962658e-12 4.233794510715031e-09 2.6996285847716927e-09 2.8571895577515285e-09
1723 -2.2426858309020822e-13 -1.2750757649874783e-12 6.43230895012437e-13 -9.764796116106824e-10 1.397521381712745e-09 -4.259915819924304e-10
1724 -4.7747750107064094e-14 -1.7664770923515248e-13 -1.8663323826864667e-12 1.658439143585089e-09 -2.049171981635887e-09 2.934820987583513e-10
1725 1.334862966646726e-12 4.526932161696517e-13 4.460440587771699e-14 -3.5237089554982483e-10 -2.3198796612076428e-11 6.985232081710847e-10
1726 -1.0840333880356424e-12 -1.0547183613907739e-12 6.399674979192635e-12 -1.0918246734429325e-09 -5.9304264233881235e-09 1.4169047883608198e-09
1727 1.1827878370430451e-12 -1.0843227754632712e-12 -3.737409675844703e-12 9.752276899154814e-10 1.1247609210138535e-09 9.606819077280333e-10
1728 7.51779433073677e-13 1.4312081167088315e-13 -2.162346603317279e-12 -2.4970331768256697e-09 7.90700663379709e-09 3.6348511802599145e-10
1729 2.459939573062684e-13 1.774044768127683e-12 1.2902595243634998e-12 5.9984487059476645e-09 -3.566336269529765e-09 -2.5927443650483456e-09
1730 -6.69954366793045e-13 -2.3875864737575314e-14 -3.4311329117639092e-12 -1.1031706250304287e-08 8.275506949764864e-09 -4.303576704138882e-09
1731 2.104266662360163e-13 1.394948634009149e-13 -6.9610197809492114e-12 6.815949399300168e-10 -1.1791370366890567e-09 -3.331733328024316e-10
1732 4.3050077650230027e-13 -1.920966392077869e-12 1.7053598379347527e-12 -3.4955019725099253e-10 1.8391884538552775e-09 -2.0253800699179735e-09
1733 1.9499702193885757e-12 7.447905232539519e-13 3.564639851604175e-12 1.3735655063947169e-09 -8.840323127964335e-09 -1.2916521650886665e-09
1734 -7.291036254063542e-15 -1.973729099014889e-12 -4.91938899575651e-12 8.790354396120015e-10 -2.3558133640142807e-09 -1.4007791269729324e-09
1735 -3.9970024191968356e-13 -1.8094484560794403e-12 -7.705547685088963e-13 1.0569226861348843e-09 -5.696701784166025e-10 -4.26915039790751e-10
1736 -1.5147249734198317e-12 4.892833928750795e-13 2.1310325356672546e-13 2.8320989312114695e-09 1.3299030086239829e-09 -1.2841101848620601e-09
1737 9.81012827676146e-13 -2.1681708370484354e-12 1.6137962418269042e-13 3.2947182659056296e-09 1.5762684374760172e-09 1.5572187264119404e-09
1738 -3.7632701719252076e-13 8.84315838507715e-14 4.391438502812982e-12 -6.0027371837861315e-09 -4.5242313169227925e-10 -2.8574344799676264e-10
1739 3.0451632751439823e-13 -5.810761463478349e-13 8.195717671827466e-13 1.2588833846859743e-09 1.0944819318099256e-09 -8.230814775198204e-10
1740 -5.696516899924475e-13 -1.084063916778822e-12 -7.281731407806057e-12 3.84081344732456e-09 -5.243314333535107e-09 6.706125909055707e-10
1741 1.0788955998166657e-12 -1.1025171162116666e-12 3.5463987609356217e-12 1.5152320397368928e-09 4.0657762087276675e-09 2.0658034748456195e-09
1742 3.7090228251837905e-13 1.13873593347169e-12 1.2292896767025828e-12 1.0323879001146951e-09 1.16618084197817e-09 -1.3712402391493683e-09
1743 -8.578534384652377e-13 -9.8666792943449e-13 -3.5178078753052384e-12 3.00914003142483e-09 2.1353159964646774e-10 3.1275813647639974e-09
1744 -1.1999275118558786e-12 -5.400306178752244e-13 -4.055178212497954e-12 4.762013223275379e-09 -3.6608026669135663e-09 -2.7024841544077233e-09
1745 -1.027031467124248e-12 -1.0843346011701303e-12 1.876421742210239e-12 -1.6505784078591354e-09 -1.871476369892601e-09 1.5166552668133804e-09
1746 -6.167714077834846e-13 -9.573712684361664e-14 -4.943998674303895e-12 -5.899840772911649e-09 -4.673038883448232e-09 -4.627044776612071e-09
1747 -2.1675784005837506e-12 -5.350485590509784e-13 3.0349478247776545e-12 3.5805476766626253e-09 -1.6126416042838253e-09 6.465988837215121e-10
1748 3.262365049191989e-14 4.2205774713617035e-13 -8.122770902891932e-13 -1.3256917288520682e-09 -8.947308757269074e-11 3.9900297666937624e-10
1749 7.005192932162463e-13 1.2895701136004986e-12 2.0476604950616614e-14 -1.4971187864235693e-09 1.0000991032739267e-09 1.6618689533240719e-09
1750 -2.6067750683462144e-13 1.0669043695740207e-12 -2.40680228226245e-12 6.836711042181938e-10 1.4714397288310987e-10 1.95556502983182e-09
1751 -2.6983418697750965e-13 -6.567259113226737e-13 1.8346409227052973e-12 4.202950925704987e-10 -7.395135545742081e-10 -5.073173289405177e-10
1752 8.559019906537683e-14 2.1514614781728587e-12 -1.3608761308858074e-12 -3.173040719155303e-09 -1.9251913108990222e-10 3.5859813462331246e-09
1753 -1.0841349509831037e-12 9.277446611847001e-13 -5.733310472820337e-13 -1.586120392354966e-09 -5.443017296380493e-09 4.508031902927304e-09
1754 5.428501002547033e-13 -1.3358322589195528e-12 -1.454135369511044e-12 2.027467421730829e-09 3.452783527197208e-10 1.0790775263326287e-09
1755 1.76287441175417e-12 -5.420620612566717e-13 -1.107248158228117e-11 -3.3324758642675714e-09 -9.254005422699388e-09 1.5961596852878789e-10
1756 2.1213573353407006e-12 -8.36086788373486e-13 5.227205689051081e-13 -9.96274714341842e-10 -7.814554540498657e-10 1.7448336575068543e-09
1757 -7.18162995561567e-14 -2.159851374917806e-12 3.104300126808691e-13 -4.262563057208853e-10 1.5658734939477366e-09 -2.384423968094043e-10
1758 -6.198072185241207e-13 1.33843439336296e-12 5.63216215279494e-12 -3.64475096707761e-09 6.063662458228448e-09 -1.7423800538359299e-09
1759 -1.113001204026847e-12 2.852374193434964e-13 4.028018375688146e-12 1.7517529095591615e-09 5.222356573521155e-10 -3.4291056107605368e-09
1760 -5.668241916759551e-13 6.392536769583851e-13 -4.631894560528022e-12 2.568523693937845e-09 -2.425679777395304e-09 1.7027135736245135e-09
1761 -1.7312284443837353e-13 -9.294379665040208e-13 -1.2837825229266186e-11 4.174052975593572e-09 5.275945408908443e-09 -4.518688407589831e-09
1762 8.383052744458165e-13 -2.168447441489935e-12 -1.1901075087261252e-12 4.82455907315664e-09 3.4258430778642973e-09 1.110828373922406e-09
1763 -2.773266613735066e-13 1.68484613284884e-12 -1.0950336032294333e-11 -2.2451881984426927e-09 -3.4056281972398958e-09 1.709941714762614e-09
1764 9.288354434860843e-13 -7.34925102697137e-13 1.1678634465776755e-12 -2.085806873258444e-09 2.4088732185375774e-09 -1.1039244809282407e-09
1765 1.0830950516133228e-12 -9.510275280693732e-13 -3.788279036843033e-12 -3.4653486689488436e-09 -7.155621679742569e-10 -1.2080686606751903e-09
1766 -3.8690728531928297e-13 7.597970403860661e-13 3.3198817148129766e-13 -8.828728521241283e-10 1.4445963934256537e-09 -2.6074956582593677e-10
1767 6.557406411974169e-13 1.6669199965756218e-12 8.10769058557748e-13 1.6091240186785184e-09 9.562336067072509e-10 4.64582754454417e-10
1768 -5.420926707262381e-13 -2.933900838175268e-13 5.681237210983025e-12 -3.3188725168546844e-09 5.661317088833207e-10 4.0959006174523016e-10
1769 9.582105921307426e-13 -9.295078735465919e-13 3.875706486717706e-12 1.7417728339322918e-09 1.0430802356704737e-08 2.5570564358317845e-09
1770 5.446359005214544e-13 -6.071326517404325e-13 3.794448024275798e-13 -2.4574576439964463e-09 3.3502681918149365e-10 1.9953558925938855e-09
1771 1.7611377289737252e-12 3.416923547861087e-13 7.003765968972967e-13 -4.19504828798759e-09 3.525348530354741e-09 -6.831455252848892e-09
1772 -4.083071269592016e-13 -1.3208209731355755e-12 3.0284126214628884e-12 -1.8453966202631848e-09 -4.836380174918948e-10 -1.9364204246730403e-09
1773 -2.168088766262449e-12 -6.34888615938843e-13 8.695520790140613e-13 -1.7392559330720772e-09 -4.683174067996686e-10 -2.821864346370821e-09
1774 3.1565322789104346e-13 4.976405109759232e-13 -3.099195630776198e-12 -2.385178961237672e-10 -7.923952185018198e-10 -1.2926941556420539e-09
1775 1.4064968103637916e-12 7.600183161842165e-13 1.7904551067864966e-13 -2.3423815971382033e-09 1.7245390843175806e-09 -1.7380539055602707e-09
1776 1.0527468506529524e-12 -2.4448959576394838e-12 2.5377738227195557e-12 1.5186933711668015e-09 -2.1024956580035527e-09 -1.542768566683462e-09
1777 -2.885641604402588e-13 2.7020363597787754e-13 -4.899731847518604e-12 -3.71105069308734e-10 -3.384732486522226e-09 2.2852690406077273e-09
1778 6.027530384991954e-13 -2.501605742417769e-13 3.249542243124819e-13 2.4918514135429917e-09 -6.422404232520717e-09 -1.8215723817475229e-09
1779 -5.954150915866611e-14 1.1969299504380014e-12 1.0048781177614858e-12 1.0809397010266706e-09 -9.85462641966761e-10 5.257450802137152e-10
1780 -6.123362060248377e-13 6.637096179514296e-13 -2.9355277496101447e-12 -7.830824970544644e-09 -1.4709607330245985e-10 -4.675670111970777e-10
1781 -1.384555473794147e-12 -3.1590208361398014e-13 3.1503806770359356e-12 -2.556445578577294e-09 -3.469549179986934e-09 -1.1251801138613398e-09
1782 2.168016656625701e-12 -6.975089371188808e-13 6.052413492421306e-12 5.937277843757845e-10 8.757561856455582e-09 2.3476379584084404e-09
1783 5.00891706535112e-13 5.419897490854808e-13 3.244199650075002e-13 1.8889280250144453e-09 9.544659760567816e-10 -1.9912817049363313e-09
1784 1.578954415260958e-12 -5.276926244977547e-13 5.072050237695366e-13 1.5107107187576003e-09 -6.082253771892308e-10 -1.2641828887342682e-09
1785 -1.0600675743256484e-13 -1.1279030017365061e-14 2.7732671643712815e-13 -3.2687725217325815e-10 3.915563461029109e-09 2.9128216700502087e-09
1786 -1.8965957243656387e-12 3.5076979854545776e-14 -3.937926617253707e-12 -5.498190993417333e-09 -6.840057453450458e-09 -7.83850635270356e-10
1787 5.255538064263777e-13 -5.201140664075173e-13 -3.0077031053226148e-12 6.06176085461103e-09 4.5617022583213564e-10 1.0203048011212313e-09
1788 -7.951998030419335e-13 2.1036658673969606e-12 1.3029197998711356e-13 2.118274787790845e-09 -2.3778289431269376e-09 -4.3639643096786026e-09
1789 -2.168467872575296e-12 -5.275625091054415e-13 -2.027790155773924e-12 4.773733842325026e-09 6.0780993069900824e-09 1.2044610647265453e-09
1790 -6.029568868298678e-13 -2.1397915799459086e-12 -4.352944284026558e-12 1.5341882396362247e-09 -2.9072767894600465e-10 2.412756037921162e-09
1791 1.6678625037858564e-12 -4.225036532006959e-13 1.0057760047122415e-12 1.1762921359479392e-09 -7.21125217889488e-10 -1.5666831595038676e-09
1792 -1.0488706887551074e-12 -2.6264310219488953e-13 -1.0271641474377781e-11 3.8455303214248705e-09 -3.961323736068613e-09 2.3624549651113364e-09
1793 1.3339462608400384e-12 -1.0842337244405594e-12 -4.530600728562552e-12 -2.905037638716455e-09 8.397880338142608e-09 -2.008134311481291e-09
1794 6.497063195177231e-13 5.402867187201835e-13 4.779467019278623e-12 -2.8564071272128086e-09 6.570138668216405e-09 2.12460866830871e-09
1795 -2.1673377318562467e-12 1.736913332491663e-12 3.5129565095705334e-12 -2.248361233956206e-09 8.492608054526328e-10 2.27519651377584e-09
1796 -3.3061551797952917e-13 4.990373289171142e-13 1.1901453967577433e-12 -2.3170686691701143e-09 3.2677144721677657e-09 1.911919262785131e-09
1797 2.1684312527861004e-12 -4.016379480609563e-13 3.3818291856541306e-12 1.8764224114357554e-09 2.260877776683395e-09 -2.8144230864358675e-09
1798 -1.0768643704497829e-12 -8.902299013968065e-13 2.5396218707938984e-12 -1.4895120949237632e-10 -8.125676876061903e-10 4.0353698612170785e-09
1799 -1.003196813443865e-12 8.574503611599577e-13 2.92992725882794e-12 2.0828517075599806e-09 -2.4792107773149344e-09 -2.6811290679492224e-09
1800 -2.7113896252382865e-13 -9.439395987488502e-13 3.6802284943869693e-13 1.3940280434974172e-09 6.56613670704492e-10 -2.5051279026773965e-09
1801 -3.451169124009369e-13 2.057112476102153e-12 -2.605974001906499e-12 -3.898351525785369e-09 -8.558559131517133e-10 -1.639402948440458e-09
1802 -9.544556146749404e-13 -6.95218464747789e-13 4.726324601668099e-12 -2.3487134004121193e-09 -1.3197684294367718e-08 -2.9837153986193883e-09
1803 -4.392812890850954e-13 -2.1672110325772456e-12 -3.101597105534299e-13 -5.698590495205419e-10 1.4100386149401083e-10 9.194178636974293e-10
1804 -1.2313869630174406e-12 5.426189977102736e-13 2.5926536690970735e-12 3.3479941922114686e-09 -4.2085177670782985e-09 -2.2149382208998622e-09
1805 -5.42072928804608e-13 -4.4449819402270464e-13 -7.191814116505621e-13 -8.729393447599865e-10 1.291978676670167e-10 7.661550927938515e-10
1806 1.0838793654509606e-12 -4.738124155107325e-13 5.077005416486235e-12 -1.3849413113033658e-09 4.414698088678138e-09 -4.111730332953654e-09
1807 -1.6020076556706557e-12 -4.626450201230675e-13 -2.6424072698700002e-12 1.1615798737366969e-09 3.850983593154501e-09 -2.6590597654225873e-09
1808 1.1180668188799363e-12 -9.508332336561658e-13 1.0237798500567934e-12 2.0350248917157586e-09 -1.4224290653937623e-09 -8.870393845061247e-10
1809 8.787991180450967e-13 -6.371635238451021e-13 1.1483755993024003e-12 1.0899510899251021e-09 -8.621079130304826e-10 -1.3381264785958105e-09
1810 5.937655538688685e-13 -2.167751720238063e-12 7.134042127415386e-13 -4.462351636733385e-09 -3.3378424067284203e-09 -1.5400476009763791e-09
1811 -1.520681126535934e-13 -2.0643724418948674e-12 1.2704696866317798e-12 1.780730562473038e-09 -3.4448231320548984e-09 2.978929954413185e-09
1812 1.3236783104769211e-12 -5.421457195890387e-13 -2.828716307755408e-12 1.6530329458558176e-09 2.296812808142459e-09 5.6083058088396685e-09
1813 -1.0876376668489262e-12 1.000258416837595e-12 -7.087820960441768e-12 4.156169159508632e-09 4.5097301215089975e-09 -1.545141581425053e-09
1814 -1.972227858603009e-12 3.2473069893028823e-13 2.835103630776046e-12 8.424872265665756e-09 -2.4430234687714727e-09 6.15763207219559e-09
1815 3.9076215265516256e-12 -8.47591908506901e-13 -1.723063524467574e-11 -2.105945525043601e-08 -7.070743613466559e-10 -9.549504997651067e-09
1816 -1.0081889307552246e-12 1.2302090890192676e-12 3.722638749227244e-12 -2.5077287010416904e-09 -2.1587996786066625e-09 -1.596874926718756e-09
1817 -5.066972997356778e-13 1.0830582682679286e-12 4.77666607540162e-12 -3.6498627134269526e-10 3.4329013072615775e-09 2.670413680480768e-10
1818 -2.1674674736575913e-12 1.0164773146965959e-12 -3.389955089979026e-12 -7.42983877170864e-09 -7.034893432710963e-09 -2.074713183756649e-09
1819 -5.227833020614957e-13 -2.1620007789927995e-12 1.0918188270912082e-13 -3.452467309111441e-09 -6.225160412669359e-09 7.071892903501918e-10
1820 2.4709500748273496e-12 -1.0843537218176615e-12 -2.855817366970093e-13 -5.831161515723425e-09 1.6315023606111053e-09 -9.742963736116316e-10
1821 -7.142340565696678e-13 5.41475851250218e-13 6.197073087280108e-12 6.678246781351089e-09 5.442883312821297e-10 -2.9634101846024914e-09
1822 1.0425990167725226e-13 -1.1100191653227567e-12 8.589075859689213e-13 1.0453038987727777e-11 -5.681078863501874e-09 1.3324473022977912e-09
1823 1.2098964358951681e-12 -5.5006707349150667e-14 -6.6369729571104355e-12 -7.304926028465536e-11 2.5417716748678473e-09 -7.799733124177592e-10
1824 2.229304080023318e-14 1.2939715057070945e-12 2.8225266908663547e-12 1.3167590384129003e-09 1.402811639424595e-10 -2.851654489479637e-10
1825 -8.473035321762191e-14 -8.06377922066568e-14 -7.2304900743541455e-12 1.0499962001682384e-08 -2.2559055970344898e-10 6.780088839288071e-10
1826 1.953125678704896e-13 -1.0839422931378642e-12 3.3393928932635207e-13 2.6263133984126032e-09 5.2518173934114206e-09 1.5370879613776477e-09
1827 -2.1673760513860483e-12 -7.969895835663997e-13 -5.827373465805506e-12 2.8825058008369187e-09 -2.0521077283354387e-09 -1.5887538815540669e-10
1828 -9.50987051764619e-14 -2.4517900551269016e-13 -3.710922562201459e-12 -7.1391881334890406e-09 -5.460196311010705e-11 9.837537806896556e-10
1829 -1.843699746487304e-12 1.0842417289534379e-12 7.489770092756394e-13 7.146612735196705e-10 -3.808590916857786e-09 1.2001679838320212e-09
1830 -8.082551855488212e-13 -3.683697314771637e-13 3.977494130147359e-12 -6.064819548522372e-11 -2.2425726508139102e-09 -2.481677159261549e-10
1831 -2.1682185302981263e-12 1.5270835182704184e-12 4.758159178259052e-12 -2.7698200909104624e-09 -5.421429981315536e-09 -9.55446670458073e-10
1832 8.050522776775958e-13 2.2731477395676708e-14 -3.227095690069871e-12 -6.630343871981095e-09 2.3318634408397826e-09 1.7827873488001176e-09
1833 -4.914685032678989e-15 -1.0595783543880743e-12 -3.449776219568175e-12 -5.316197881571789e-09 -8.916689191991694e-11 3.3379627889188073e-09
1834 1.0825771501384857e-12 3.8326238774669464e-13 -1.3078089097224966e-12 1.281329772208818e-09 5.30599833759928e-10 9.53276576129379e-10
1835 -9.635838667045587e-13 -4.611239676295103e-13 -2.811585526092682e-12 -2.219206317804198e-09 -1.1168182036196052e-09 -2.422129747459273e-09
1836 -1.0841486115529535e-12 -8.237263060859152e-13 2.203633192152467e-12 1.1429849451127374e-09 9.555541487700564e-10 -8.69007577679447e-10
1837 1.4717512037537615e-13 -5.203706723410924e-13 1.1530832583958283e-12 -1.639554429833114e-09 1.1792206113913354e-09 -5.6382507761141576e-09
1838 1.0798441432321722e-12 6.452634569357369e-13 1.7612887698559812e-12 4.789838728807751e-09 1.4430221956689797e-10 8.790065725566392e-09
1839 -9.220039637560624e-13 -5.421515588933735e-13 4.310785317854868e-12 3.0313307607624142e-09 -2.299886002627616e-09 7.439998282068875e-10
1840 -8.000866542239619e-13 5.420981662789584e-13 -2.064575664454645e-12 -3.1396983423055222e-09 6.437302344934432e-10 3.8667284676437684e-10
1841 1.59632029271987e-12 1.0841245060309133e-12 -2.046434965949699e-12 3.5618062896011715e-09 -2.4645772369972697e-09 -1.7776447786198656e-09
1842 -5.419719843188039e-13 -2.155365104529901e-12 -3.5154037768452905e-13 -4.060877866622274e-09 1.7035076035851245e-09 1.9005340629853248e-10
1843 -7.467451564433143e-13 -5.421405739374652e-13 1.6774195455407144e-12 2.7883969269823485e-09 -7.670661794984413e-09 3.84200094956097e-09
1844 -5.190473347192063e-13 1.0815830957495357e-12 9.479982894084953e-12 -2.19210793941624e-09 7.724659986347766e-10 1.242909224521837e-09
1845 -4.2113485038629004e-14 -2.7022973950134446e-13 4.102885317460404e-13 -1.897059703512732e-11 7.975059313869068e-10 6.950689406800767e-10
1846 1.2552529744101433e-12 -1.7134140636850846e-12 -4.484027352517127e-13 5.799493528113727e-10 1.7199030611092515e-09 -2.0322405249250717e-10
1847 2.0458458634352673e-12 -5.41329659500852e-13 -5.405554238170841e-12 6.689187239965436e-09 6.1345909672045026e-09 -6.625584509811296e-09
1848 5.586845644543394e-13 5.385737071670076e-13 4.215273809858044e-12 4.258216251622637e-09 3.2973883055842316e-09 -9.657941984103974e-10
1849 1.005627472456936e-12 -1.0061374799460057e-12 4.686389933545432e-13 -6.013588521798666e-10 4.896743442678215e-09 -6.382038152949912e-10
1850 -5.419190229812792e-13 4.5077418398512964e-13 -3.896607629937956e-12 -1.5828126277186392e-08 2.3656918078548046e-09 -2.0511088432993337e-09
