ITEM: TIMESTEP
4000000
ITEM: NUMBER OF ATOMS
1850
ITEM: BOX BOUNDS ff ff ff
-8.0000000000000002e-03 8.0000000000000002e-03
-8.0000000000000002e-03 8.0000000000000002e-03
0.0000000000000000e+00 7.0000000000000007e-02
ITEM: ATOMS id type x y z radius mass vx vy vz omegax omegay omegaz fx fy fz f_tubeWall[1] f_tubeWall[2] f_tubeWall[3] f_tubeWall[4] f_tubeWall[5] f_tubeWall[6] f_tubeWall[7] f_tubeWall[8]
1 1 0.00319027 -0.00374381 0.00208253 0.0008 3.43146e-06 5.44969e-14 -8.62736e-14 -3.69516e-15 2.53959e-10 1.53452e-10 -3.03455e-10 4.10488e-16 3.92372e-16 2.85671e-16 0 0 0 0 0 0 0 0
2 1 -0.00141665 0.00272457 0.00166775 0.0008 3.43146e-06 -2.95513e-14 8.75473e-13 -7.64418e-14 -5.23786e-10 3.07393e-11 -1.21826e-10 3.0545e-16 3.18047e-16 3.32616e-16 0 0 0 0 0 0 0 0
3 1 -0.00222559 0.00681854 0.00239882 0.0008 3.43146e-06 6.63168e-13 5.67029e-13 -8.84496e-13 -1.01638e-09 1.63824e-10 -4.40337e-10 3.88496e-16 6.52342e-17 6.66056e-17 0 0 0 0 0 0 0 0
4 1 0.00207936 0.00689398 0.000799569 0.0008 3.43146e-06 -4.21125e-14 -8.5269e-14 -8.41103e-14 9.66272e-11 -5.79203e-11 -1.80226e-11 -9.24042e-18 -8.57554e-17 -1.45261e-16 1 -5.39985e-05 3.49527e-05 0.000585456 0.00207936 0.00689398 0 0.0008
5 1 -0.00509047 -0.00189314 0.00473429 0.0008 3.43146e-06 8.25971e-13 -5.40138e-13 3.26379e-13 1.75965e-09 3.77175e-11 -1.36761e-09 1.11544e-17 -2.49481e-16 7.41394e-16 0 0 0 0 0 0 0 0
6 1 7.00442e-05 0.00430117 0.00213982 0.0008 3.43146e-06 -3.41694e-14 -3.0067e-15 -5.5039e-13 -4.14903e-10 -4.7289e-10 -4.85294e-10 3.34986e-16 -1.44742e-16 -1.12475e-15 0 0 0 0 0 0 0 0
7 1 0.00329488 -0.00136523 0.0021059 0.0008 3.43146e-06 -2.06487e-13 2.39957e-13 -2.55767e-13 -4.97062e-10 -1.61819e-10 -3.13371e-10 3.58952e-16 1.17367e-16 8.24081e-17 0 0 0 0 0 0 0 0
8 1 0.00583997 0.0007285 0.00163185 0.0008 3.43146e-06 -2.36779e-13 -1.41899e-13 5.24304e-13 4.88334e-10 4.77572e-10 -1.12058e-10 2.01222e-16 1.38414e-16 -1.22039e-16 0 0 0 0 0 0 0 0
9 1 -0.00250323 0.00118449 0.00218204 0.0008 3.43146e-06 -6.73921e-14 -4.36972e-13 -8.45785e-13 6.82997e-10 4.64024e-11 -4.65872e-12 -1.01694e-16 1.31967e-16 1.34529e-16 0 0 0 0 0 0 0 0
10 1 0.000694701 0.00115277 0.00210855 0.0008 3.43146e-06 -2.70567e-13 2.53589e-13 -3.40402e-13 -1.03428e-10 1.1003e-10 4.34525e-10 -1.58752e-16 5.23273e-16 1.2917e-17 0 0 0 0 0 0 0 0
11 1 -0.00502465 0.00312902 0.00210442 0.0008 3.43146e-06 -1.60262e-12 -9.39555e-13 1.96568e-13 6.46339e-10 2.11885e-09 7.54095e-10 -4.39018e-16 -6.95848e-16 8.34272e-16 0 0 0 0 0 0 0 0
12 1 -0.00328267 0.00122506 0.00495046 0.0008 3.43146e-06 8.58521e-13 5.42076e-13 3.85339e-13 -2.45289e-10 3.57953e-10 -5.05248e-10 2.58924e-15 6.79919e-17 -4.02076e-16 0 0 0 0 0 0 0 0
13 1 0.00259584 -0.00487576 0.00492133 0.0008 3.43146e-06 -8.13165e-13 9.14682e-13 1.38617e-12 -1.22795e-09 -2.13025e-10 -8.32769e-10 -2.59063e-16 8.33158e-16 1.00692e-16 0 0 0 0 0 0 0 0
14 1 -0.00478699 -0.00336228 0.00417933 0.0008 3.43146e-06 -6.28172e-13 -1.08211e-12 -3.80488e-13 -1.00159e-09 -1.73351e-10 -7.66307e-10 -4.1813e-16 2.25717e-16 7.55906e-16 0 0 0 0 0 0 0 0
15 1 -0.00277607 -0.00156833 0.00323696 0.0008 3.43146e-06 -4.78043e-14 -4.27314e-13 -1.08303e-12 9.47156e-10 7.31421e-10 2.62816e-11 1.22701e-15 9.27195e-17 1.27752e-16 0 0 0 0 0 0 0 0
16 1 0.00124351 -0.000293935 0.00316892 0.0008 3.43146e-06 -5.29513e-13 1.17419e-13 7.8866e-14 -4.49095e-10 -9.05603e-10 2.89757e-10 3.82664e-16 -5.67851e-16 -5.50384e-16 0 0 0 0 0 0 0 0
17 1 0.00295635 -0.00643106 0.000799466 0.0008 3.43146e-06 1.31621e-13 -1.50806e-13 -2.11578e-13 1.86707e-10 1.63553e-10 -2.54468e-10 -7.30071e-17 1.99625e-16 -2.05513e-18 1 8.08833e-05 0.000195755 0.000808135 0.00295635 -0.00643106 0 0.0008
18 1 0.00304307 -0.00297009 0.00468607 0.0008 3.43146e-06 4.3718e-13 1.08372e-12 5.08215e-13 -1.20573e-09 -1.6787e-09 -6.11965e-10 2.76979e-16 -4.59665e-16 1.22281e-15 0 0 0 0 0 0 0 0
19 1 0.000524915 8.48008e-05 0.000799478 0.0008 3.43146e-06 -9.91736e-14 2.30157e-14 9.5202e-14 -4.28961e-11 -1.2412e-10 -2.34081e-11 -1.95334e-16 -1.38671e-16 -2.91357e-17 1 -8.70971e-05 -8.5143e-05 0.000782524 0.000524915 8.48008e-05 0 0.0008
20 1 0.0071907 0.000368867 0.00241018 0.0008 3.43146e-06 8.19477e-13 -1.30778e-13 3.58245e-13 -7.7186e-10 4.21297e-10 2.18017e-10 2.81115e-16 2.32543e-17 -1.64831e-16 1 -0.000134175 -3.08892e-05 1.91829e-05 0.00798949 0.000409843 0.00241018 0.0008
21 1 -0.00421258 0.00583787 0.00292557 0.0008 3.43146e-06 3.79545e-13 1.37808e-12 7.99131e-13 -1.23238e-09 1.60496e-09 -2.84075e-09 4.77635e-16 -3.89246e-16 2.68879e-16 0 0 0 0 0 0 0 0
22 1 0.00468681 -3.82837e-06 0.000799532 0.0008 3.43146e-06 -5.8733e-13 4.15682e-15 -6.89789e-14 -4.834e-12 -7.4243e-10 -1.78888e-10 1.71343e-16 -9.87509e-16 -5.04781e-17 1 1.56633e-05 -4.2508e-06 0.000664122 0.00468681 -3.82837e-06 0 0.0008
23 1 0.00708339 0.00129304 0.000799496 0.0008 3.43146e-06 2.4455e-14 7.83665e-14 3.97885e-14 -9.63572e-11 3.15645e-11 -9.30291e-11 -1.16583e-17 2.18721e-16 -2.37635e-17 1 -0.000166986 -0.000110836 0.000742201 0.00708339 0.00129304 0 0.0008
24 1 -0.00153861 -0.00425755 0.000799367 0.0008 3.43146e-06 1.48379e-13 -3.57017e-13 -2.56312e-13 4.5898e-10 1.79772e-10 5.02914e-10 -1.23711e-16 -1.60372e-16 -2.54208e-16 1 0.000123073 -8.76013e-05 0.00104363 -0.00153861 -0.00425755 0 0.0008
25 1 -0.00320193 -0.00644895 0.000799871 0.0008 3.43146e-06 -5.68877e-15 3.18518e-14 -4.05228e-14 -4.89534e-11 -5.56325e-12 2.25511e-11 -2.08929e-17 2.06609e-17 -4.0857e-18 1 2.50484e-05 -7.25656e-06 9.56421e-05 -0.00320193 -0.00644895 0 0.0008
26 1 0.00185428 0.00459784 0.00209072 0.0008 3.43146e-06 -4.37908e-14 -1.11562e-12 3.97777e-13 9.89104e-10 -4.27945e-10 -3.01205e-10 -3.41963e-16 8.66722e-17 4.75302e-16 0 0 0 0 0 0 0 0
27 1 -0.00449895 0.000854103 0.00197129 0.0008 3.43146e-06 8.44454e-13 -2.68035e-13 6.04318e-13 6.83141e-10 1.72398e-09 1.61259e-09 5.75727e-16 3.26355e-16 8.1005e-16 0 0 0 0 0 0 0 0
28 1 -0.00149605 -0.000891087 0.00255716 0.0008 3.43146e-06 1.90749e-14 -1.88294e-15 -1.07712e-12 7.3553e-10 -2.12142e-11 -3.95961e-10 3.47639e-16 3.4939e-16 -8.8876e-16 0 0 0 0 0 0 0 0
29 1 0.000505916 0.00718224 0.000799792 0.0008 3.43146e-06 3.20124e-14 -1.39784e-13 -7.26608e-14 1.56671e-10 3.76859e-11 6.89954e-11 1.0085e-16 3.93877e-17 -5.479e-17 1 -3.64843e-05 -1.00089e-06 0.000197184 0.000505916 0.00718224 0 0.0008
30 1 0.00518593 0.00499517 0.00335258 0.0008 3.43146e-06 7.7502e-13 8.52967e-13 -1.91442e-13 -1.32462e-10 -4.54904e-10 -9.81292e-11 -9.57511e-17 3.46553e-16 1.28295e-16 1 -0.000372029 -0.000363039 7.46519e-05 0.00576183 0.00554989 0.00335258 0.0008
31 1 0.000147131 -0.00308383 0.00209984 0.0008 3.43146e-06 6.72512e-14 -1.08421e-12 1.96263e-13 8.16781e-10 2.4041e-10 2.12469e-10 -3.15166e-16 -3.48729e-16 4.19609e-16 0 0 0 0 0 0 0 0
32 1 -0.000138676 0.00154046 0.000799489 0.0008 3.43146e-06 -6.77395e-14 -6.07687e-14 2.52998e-14 7.9921e-11 -1.31366e-10 -2.90679e-11 -1.45579e-16 1.00485e-16 3.34626e-17 1 0.000106939 -5.43937e-05 0.000756907 -0.000138676 0.00154046 0 0.0008
33 1 0.00090324 0.00269825 0.00351954 0.0008 3.43146e-06 4.65084e-14 -2.57902e-13 -4.07166e-13 2.10337e-09 -3.63791e-11 3.07231e-10 2.99188e-16 1.13418e-15 3.54646e-16 0 0 0 0 0 0 0 0
34 1 0.000914552 0.00452054 0.000799152 0.0008 3.43146e-06 4.68188e-14 -2.45698e-13 -1.05276e-14 3.10484e-10 6.02702e-11 2.01375e-10 -2.91173e-16 -8.46536e-17 4.33232e-16 1 3.4098e-05 9.69344e-05 0.00161759 0.000914552 0.00452054 0 0.0008
35 1 -0.00435915 -0.00105566 0.00220056 0.0008 3.43146e-06 -4.39777e-13 -1.6153e-13 3.20615e-14 3.92238e-10 1.66695e-10 4.85431e-10 -5.29237e-17 3.22244e-16 5.10275e-16 0 0 0 0 0 0 0 0
36 1 0.00370329 0.00435155 0.000799609 0.0008 3.43146e-06 -1.1336e-13 1.97517e-13 -1.37354e-13 -2.45649e-10 -1.48303e-10 -6.84259e-10 1.63407e-17 -4.83364e-17 -7.53798e-17 1 -4.86686e-05 1.88308e-05 0.000507007 0.00370329 0.00435155 0 0.0008
37 1 -0.00173897 0.0054557 0.00141797 0.0008 3.43146e-06 -4.62411e-13 1.38356e-12 -3.50377e-13 -6.11407e-10 -1.01988e-09 -3.1879e-10 -2.04427e-16 -2.34015e-16 -6.36275e-17 0 0 0 0 0 0 0 0
38 1 0.00196396 0.00692754 0.00316704 0.0008 3.43146e-06 -4.62615e-13 -9.82437e-13 -4.54772e-13 2.96126e-10 -1.04299e-09 -2.22247e-10 -2.28611e-16 2.5779e-16 3.31883e-16 1 -0.000411713 -0.000798854 2.86582e-06 0.00218201 0.00769668 0.00316704 0.0008
39 1 -0.00191963 -0.00530495 0.00194675 0.0008 3.43146e-06 5.42091e-13 -4.13964e-13 -5.41763e-13 -3.55041e-10 -3.21688e-10 2.88239e-10 -3.90246e-17 -3.8365e-16 -1.43203e-16 0 0 0 0 0 0 0 0
40 1 -0.00577927 0.000960626 0.00409293 0.0008 3.43146e-06 -3.21861e-14 6.03984e-14 -4.7572e-13 -1.39852e-09 6.79319e-10 -1.70864e-10 -9.2356e-17 1.3714e-15 6.17656e-16 0 0 0 0 0 0 0 0
41 1 0.00633449 -0.00342264 0.0032812 0.0008 3.43146e-06 -2.85015e-13 6.59028e-14 1.66559e-13 1.58494e-10 1.33508e-10 1.13993e-10 -2.73007e-16 1.07953e-16 -2.77799e-16 1 -3.11648e-06 2.25682e-06 1.78951e-07 0.00703831 -0.00380292 0.0032812 0.0008
42 1 0.00227654 0.00362834 0.00079995 0.0008 3.43146e-06 -1.20112e-13 7.57014e-13 7.35351e-14 -9.42536e-10 -1.56962e-10 5.7225e-11 1.64764e-16 -3.90658e-16 -1.53631e-16 1 -5.32186e-06 -2.19387e-06 2.29111e-05 0.00227654 0.00362834 0 0.0008
43 1 -0.000407713 -0.00558703 0.000799726 0.0008 3.43146e-06 2.38278e-14 -7.65523e-14 -6.46256e-14 9.49145e-11 2.92215e-11 -1.1781e-10 -7.00272e-17 9.02332e-17 7.45764e-17 1 -1.96357e-05 -1.83035e-05 0.000297296 -0.000407713 -0.00558703 0 0.0008
44 1 0.00421549 0.00514612 0.00208996 0.0008 3.43146e-06 5.31472e-13 5.61212e-13 -3.83711e-13 -4.74014e-10 5.96292e-10 -4.22987e-11 -4.89496e-17 2.00563e-16 1.24561e-16 0 0 0 0 0 0 0 0
45 1 -0.00667552 -0.00269813 0.000799688 0.0008 3.43146e-06 -8.56007e-14 -4.27516e-13 2.56972e-13 5.42988e-10 -1.11504e-10 -4.45157e-10 -9.1822e-17 1.4729e-16 1.14843e-16 1 6.45041e-06 5.90224e-05 0.000361479 -0.00667552 -0.00269813 0 0.0008
46 1 -0.000313019 -0.00469694 0.00449525 0.0008 3.43146e-06 4.72796e-14 4.49295e-13 6.2318e-13 -1.05187e-09 8.993e-10 -4.12481e-10 8.72703e-18 9.75524e-16 6.46038e-16 0 0 0 0 0 0 0 0
47 1 -0.00256333 0.00521154 0.0046144 0.0008 3.43146e-06 -1.07649e-12 7.13037e-14 -7.48256e-13 2.05448e-09 -1.05512e-09 2.31509e-09 -4.16665e-16 2.31279e-16 -3.08043e-15 0 0 0 0 0 0 0 0
48 1 0.00391514 0.00604259 0.000799506 0.0008 3.43146e-06 1.13529e-13 -4.44708e-14 -8.96293e-15 6.59355e-11 1.4251e-10 1.50578e-10 6.0031e-17 5.85494e-17 8.24695e-17 1 -0.000126635 4.0876e-05 0.000718652 0.00391514 0.00604259 0 0.0008
49 1 -0.00161519 0.00579713 0.00346827 0.0008 3.43146e-06 -3.56865e-13 1.55161e-12 -6.38977e-13 -8.32414e-10 2.46408e-10 -1.37109e-09 8.60321e-16 -1.72554e-16 -1.19688e-16 0 0 0 0 0 0 0 0
50 1 0.000494479 0.00118089 0.004861 0.0008 3.43146e-06 2.70991e-13 2.53086e-13 -1.59016e-13 4.5705e-10 -8.22023e-10 5.70489e-10 9.31899e-17 -3.83235e-16 -2.18492e-16 0 0 0 0 0 0 0 0
51 1 -0.00147767 -0.00125138 0.00411561 0.0008 3.43146e-06 -4.90531e-13 -5.41901e-13 -1.25189e-12 -3.43929e-11 -6.67194e-10 5.55085e-10 5.11112e-16 -4.43353e-17 -1.41699e-15 0 0 0 0 0 0 0 0
52 1 -0.00276832 -0.00018797 0.00433395 0.0008 3.43146e-06 -6.24651e-14 -4.68011e-14 -1.87595e-12 6.51704e-10 -3.2161e-10 7.80506e-11 9.34542e-16 1.44082e-16 -2.12843e-16 0 0 0 0 0 0 0 0
53 1 0.000496539 -0.00139429 0.00405703 0.0008 3.43146e-06 -1.98528e-13 1.02788e-13 -2.51809e-13 -2.02521e-10 -4.51542e-10 1.13242e-09 -2.26593e-16 -1.58923e-15 -7.07271e-16 0 0 0 0 0 0 0 0
54 1 0.00109102 0.00590664 0.00157808 0.0008 3.43146e-06 -2.23915e-13 9.61002e-14 -7.09529e-14 -6.01856e-10 -4.25825e-10 2.90184e-11 -6.37986e-17 -1.74079e-17 1.71117e-16 0 0 0 0 0 0 0 0
55 1 0.00174648 -0.00698524 0.00393712 0.0008 3.43146e-06 3.05283e-13 5.58068e-13 -4.0691e-13 -5.69455e-10 1.97707e-10 -5.41155e-10 1.93607e-16 -4.11632e-16 4.49649e-17 1 -2.78931e-06 0.000288981 -2.28595e-05 0.00194046 -0.0077611 0.00393712 0.0008
56 1 0.000383643 -0.00398422 0.000799341 0.0008 3.43146e-06 1.12044e-13 -2.39984e-13 -2.69958e-13 2.93666e-10 1.4041e-10 4.74067e-10 -3.91935e-16 6.1184e-16 -2.51722e-16 1 -0.000187632 0.000122859 0.00110812 0.000383643 -0.00398422 0 0.0008
57 1 0.00709948 -0.00120128 0.00211912 0.0008 3.43146e-06 4.12264e-13 3.50195e-13 8.26518e-13 3.90607e-10 9.71237e-10 -5.16477e-10 1.9589e-16 2.55608e-16 4.51379e-16 1 -0.000532429 1.63271e-05 9.93725e-07 0.00788788 -0.00133468 0.00211912 0.0008
58 1 0.00335737 0.00636974 0.00482721 0.0008 3.43146e-06 -5.39233e-14 -6.36785e-13 1.15077e-12 -2.17874e-09 -1.03874e-09 3.02953e-10 -8.53888e-17 3.73199e-16 4.12898e-16 1 -0.000192582 -0.000468822 0.000139281 0.00373021 0.00707711 0.00482721 0.0008
59 1 -0.00286132 -0.00313898 0.00352673 0.0008 3.43146e-06 5.63669e-13 -9.44963e-13 -1.07701e-12 -7.85826e-10 5.9296e-10 5.20508e-10 7.59066e-16 -2.32758e-16 -1.13228e-16 0 0 0 0 0 0 0 0
60 1 0.00477308 0.00159352 0.00079934 0.0008 3.43146e-06 3.0774e-13 -2.91455e-13 2.28992e-13 3.62244e-10 3.84436e-10 -9.47561e-10 1.90059e-17 1.88879e-16 -1.00259e-16 1 9.82329e-05 0.000136969 0.0011114 0.00477308 0.00159352 0 0.0008
61 1 -0.00306748 0.00193132 0.00347896 0.0008 3.43146e-06 3.82988e-13 -5.38569e-13 -7.15714e-13 -1.34324e-10 -2.91723e-11 -1.07177e-09 -1.21682e-15 2.84247e-16 -7.1883e-16 0 0 0 0 0 0 0 0
62 1 0.00341575 -0.00472106 0.000799936 0.0008 3.43146e-06 3.60508e-41 -2.38642e-40 7.05786e-14 2.98295e-37 4.50625e-38 -7.72036 -1.28753e-44 8.52293e-44 1.48585e-21 1 5.15008e-45 -3.40914e-44 3.36626e-05 0.00341575 -0.00472106 0 0.0008
63 1 -0.00126766 -5.3594e-05 0.00121346 0.0008 3.43146e-06 -1.54759e-13 8.37918e-15 -2.97915e-13 -1.227e-10 4.59822e-10 -5.38728e-11 -3.51284e-16 3.64392e-16 -5.5349e-16 0 0 0 0 0 0 0 0
64 1 0.00154606 -0.00106398 0.00124303 0.0008 3.43146e-06 2.9366e-13 -1.6444e-13 -1.74774e-14 1.19252e-10 4.49479e-10 1.85661e-10 -2.76501e-16 -9.7094e-16 1.02633e-17 0 0 0 0 0 0 0 0
65 1 0.00686546 -0.00217098 0.00412423 0.0008 3.43146e-06 -5.73275e-14 -2.62337e-14 5.18642e-13 5.22665e-10 5.17085e-10 5.34697e-11 -3.90706e-16 1.4417e-16 1.44388e-16 1 -0.00081925 0.000143653 0.000141428 0.00762772 -0.00241202 0.00412423 0.0008
66 1 -0.000903863 0.001185 0.00215854 0.0008 3.43146e-06 -2.7049e-13 -2.44892e-13 -5.36186e-13 1.56786e-10 -4.16529e-10 2.01618e-10 9.80774e-17 3.66771e-16 -1.93493e-17 0 0 0 0 0 0 0 0
67 1 -0.00109664 -0.00607381 0.0047151 0.0008 3.43146e-06 3.6018e-13 1.76627e-12 -4.22637e-13 1.39806e-09 -2.45527e-09 1.07668e-10 -1.79683e-16 4.62618e-16 5.81214e-16 0 0 0 0 0 0 0 0
68 1 0.00567475 -0.00108709 0.00420783 0.0008 3.43146e-06 -1.4818e-13 3.79869e-13 6.75824e-13 -3.52226e-10 -2.22203e-10 8.90883e-11 4.08052e-17 6.32975e-16 -2.06581e-16 0 0 0 0 0 0 0 0
69 1 -0.00601425 0.00125344 0.0022954 0.0008 3.43146e-06 -6.24241e-13 6.92582e-14 -3.39908e-13 -8.92386e-10 -1.06563e-09 1.53922e-09 2.91978e-17 5.34035e-16 -3.02074e-16 0 0 0 0 0 0 0 0
70 1 -0.00570071 0.00439884 0.00140539 0.0008 3.43146e-06 -1.90437e-12 -1.82146e-13 5.41455e-13 -6.29727e-10 -3.76994e-10 -1.62187e-09 -2.02274e-16 -7.32379e-17 2.09987e-16 1 0.000717346 -0.000481856 0.000302358 -0.00633364 0.00488723 0.00140539 0.0008
71 1 -0.00275815 0.0026505 0.000799618 0.0008 3.43146e-06 3.06471e-14 5.09286e-13 8.07e-14 -6.38031e-10 3.72984e-11 -8.00078e-11 3.4933e-17 3.41425e-17 -1.77793e-16 1 3.45055e-06 1.06643e-05 0.000488892 -0.00275815 0.0026505 0 0.0008
72 1 0.000720809 -0.0059408 0.00187726 0.0008 3.43146e-06 -2.18559e-13 4.92443e-13 4.68839e-14 1.20865e-10 -5.52335e-10 1.25437e-09 1.11255e-17 1.3558e-16 -7.32949e-17 0 0 0 0 0 0 0 0
73 1 -0.00575146 -0.000686356 0.00150557 0.0008 3.43146e-06 -9.19751e-13 1.8483e-13 -9.61452e-14 -7.13942e-10 7.82986e-11 -9.59239e-10 3.00382e-16 -1.52276e-16 3.63379e-16 0 0 0 0 0 0 0 0
74 1 0.00523652 0.00340028 0.00324169 0.0008 3.43146e-06 -7.66813e-14 2.12034e-13 8.11351e-13 -1.1328e-09 -9.28524e-10 -1.08527e-09 -2.17585e-16 1.81676e-16 9.90545e-17 0 0 0 0 0 0 0 0
75 1 0.00494261 0.00304568 0.00520861 0.0008 3.43146e-06 7.4206e-13 1.30974e-13 7.96124e-13 1.9156e-10 -1.88076e-09 -6.5671e-10 -5.55128e-16 -3.92469e-16 -7.38901e-16 0 0 0 0 0 0 0 0
76 1 0.0010012 0.00266287 0.000799604 0.0008 3.43146e-06 -2.94662e-13 1.27647e-13 2.65577e-13 -1.48169e-10 -3.64069e-10 4.37759e-10 2.44889e-16 7.16837e-17 -2.60799e-16 1 3.92298e-05 -4.805e-06 0.000515949 0.0010012 0.00266287 0 0.0008
77 1 0.00588906 -0.00214221 0.00539064 0.0008 3.43146e-06 -4.6419e-13 2.78797e-13 1.74586e-12 -4.94797e-10 1.42583e-11 -6.65582e-10 5.11386e-16 7.20808e-16 2.52941e-16 0 0 0 0 0 0 0 0
78 1 -0.000843536 -0.00648412 0.00205053 0.0008 3.43146e-06 2.693e-13 2.91106e-13 -1.61853e-13 -3.26057e-10 2.84446e-10 7.93799e-12 -4.00617e-17 -1.11956e-16 -1.96562e-16 0 0 0 0 0 0 0 0
79 1 0.00391384 -0.00312135 0.000799209 0.0008 3.43146e-06 -5.38562e-14 -3.10932e-15 1.58178e-13 2.04767e-12 -6.77087e-11 2.45551e-10 2.60791e-16 2.20442e-16 8.28161e-17 1 3.84698e-05 9.36733e-05 0.00145729 0.00391384 -0.00312135 0 0.0008
80 1 0.00270422 -0.00207425 0.00079926 0.0008 3.43146e-06 -1.3492e-13 7.90316e-14 -5.13459e-14 -1.03813e-10 -1.76053e-10 -2.58131e-10 -1.01147e-17 -4.60278e-17 1.54835e-16 1 -0.000106604 -5.92008e-05 0.0013193 0.00270422 -0.00207425 0 0.0008
81 1 -0.00166529 -0.00246804 0.00210665 0.0008 3.43146e-06 2.81159e-13 -8.55192e-13 2.53678e-13 1.32172e-09 8.24901e-10 1.73725e-10 1.85012e-15 -3.34201e-17 -1.01379e-15 0 0 0 0 0 0 0 0
82 1 -0.00201536 0.00218034 0.00474834 0.0008 3.43146e-06 5.14182e-13 -7.08798e-14 -1.10963e-12 -2.07968e-09 2.94618e-10 3.51533e-10 -1.34901e-16 2.7944e-16 -2.11782e-15 0 0 0 0 0 0 0 0
83 1 0.00419579 -0.00585151 0.00162762 0.0008 3.43146e-06 -8.85074e-13 -3.65851e-13 3.46521e-13 1.18219e-09 -9.04165e-10 1.16384e-09 -7.92625e-17 2.63536e-16 -7.38254e-17 1 -0.000215906 0.000352193 4.94026e-05 0.00466177 -0.00650138 0.00162762 0.0008
84 1 -0.00169916 -0.00699685 0.000799875 0.0008 3.43146e-06 1.58653e-14 2.75198e-14 -3.45139e-14 -3.54646e-11 2.62135e-11 -1.49491e-11 6.31463e-17 1.22121e-16 -9.37179e-17 1 7.6367e-07 7.84706e-06 9.17658e-05 -0.00169916 -0.00699685 0 0.0008
85 1 0.000819812 0.00368416 0.0049674 0.0008 3.43146e-06 1.78892e-13 -1.75762e-13 4.83417e-13 -3.95122e-10 -1.16651e-09 -2.32199e-10 3.37003e-15 2.62546e-16 1.34435e-16 0 0 0 0 0 0 0 0
86 1 -0.00151108 0.00417105 0.00234626 0.0008 3.43146e-06 -5.41985e-13 8.22671e-15 -9.92536e-13 4.18131e-10 -1.64734e-10 4.26856e-10 -3.6128e-16 6.97869e-17 -1.59775e-15 0 0 0 0 0 0 0 0
87 1 0.00449883 -0.00364933 0.00308499 0.0008 3.43146e-06 2.46782e-14 5.35982e-13 6.82543e-13 2.11551e-10 -8.29082e-10 3.77623e-10 2.78064e-16 2.00601e-16 3.36389e-16 0 0 0 0 0 0 0 0
88 1 0.00689301 -0.00208089 0.00079947 0.0008 3.43146e-06 -3.06232e-13 -2.60739e-15 -2.70896e-13 8.53304e-12 -3.77069e-10 1.17351e-10 3.59082e-18 -1.02997e-16 -7.97322e-17 1 0.000116493 0.000177865 0.000798614 0.00689301 -0.00208089 0 0.0008
89 1 0.00501464 0.00343569 0.000799111 0.0008 3.43146e-06 3.13619e-14 -9.41346e-14 -3.08572e-15 1.13425e-10 3.83715e-11 4.79535e-10 8.60985e-17 -1.11544e-17 -1.67234e-16 1 -0.000187078 7.68889e-05 0.00173565 0.00501464 0.00343569 0 0.0008
90 1 0.00185109 0.00198559 0.00459297 0.0008 3.43146e-06 -5.61224e-14 3.12345e-13 -1.30378e-13 -2.59376e-09 -3.53881e-10 2.09972e-10 7.3162e-16 1.63848e-17 9.93408e-16 0 0 0 0 0 0 0 0
91 1 0.00147988 -0.00704642 0.000799332 0.0008 3.43146e-06 4.85094e-14 7.91445e-14 -6.93723e-14 -1.02212e-10 6.50383e-11 -5.6511e-11 -9.57849e-17 3.89646e-17 -7.92296e-17 1 0.000194087 9.12134e-05 0.00113139 0.00147988 -0.00704642 0 0.0008
92 1 -0.00548186 -0.0023387 0.00180483 0.0008 3.43146e-06 -2.18101e-13 -4.95809e-13 5.28429e-13 5.43126e-10 9.17668e-10 -1.92387e-10 4.45614e-16 -2.82487e-16 5.00344e-16 0 0 0 0 0 0 0 0
93 1 0.00172689 0.003006 0.00218321 0.0008 3.43146e-06 -3.86569e-13 6.65725e-13 -2.55386e-15 -6.14013e-10 3.73469e-10 -3.06951e-10 2.61127e-16 8.67161e-17 4.32837e-16 0 0 0 0 0 0 0 0
94 1 -0.00654731 0.00299701 0.0044445 0.0008 3.43146e-06 -7.67774e-13 8.9245e-13 -2.60921e-13 5.55369e-10 8.64927e-11 6.23592e-10 -5.15567e-16 3.38358e-16 -1.05215e-15 1 0.00106192 -0.00034013 8.96602e-05 -0.00727413 0.00332971 0.0044445 0.0008
95 1 -0.00514379 -0.00503839 0.00217951 0.0008 3.43146e-06 -1.63365e-13 1.53961e-14 9.79822e-14 1.23695e-11 -1.9568e-10 1.49163e-10 -8.48238e-17 -5.77882e-17 -3.49913e-17 1 0.000171832 0.000253556 8.68482e-05 -0.00571511 -0.005598 0.00217951 0.0008
96 1 0.00444165 -0.00133855 0.00322092 0.0008 3.43146e-06 1.11321e-13 2.36345e-13 4.55083e-13 2.08406e-10 -2.11677e-10 4.20483e-11 -6.14337e-17 2.98378e-16 -6.08333e-16 0 0 0 0 0 0 0 0
97 1 -7.5168e-05 -0.00140206 0.000799936 0.0008 3.43146e-06 3.69697e-41 -2.36665e-40 7.05786e-14 2.95824e-37 4.6211e-38 -0.0645786 -1.32035e-44 8.45234e-44 1.48583e-21 1 5.28135e-45 -3.38091e-44 3.36626e-05 -7.5168e-05 -0.00140206 0 0.0008
98 1 -0.00414927 0.00344054 0.000799417 0.0008 3.43146e-06 2.87323e-13 7.44578e-13 -2.69764e-13 -9.37259e-10 3.5982e-10 -3.34327e-10 5.56204e-16 -1.133e-16 -3.35845e-16 1 4.76221e-06 0.00013405 0.000921631 -0.00414927 0.00344054 0 0.0008
99 1 -0.00468059 0.00547144 0.000799558 0.0008 3.43146e-06 6.03074e-14 -1.49063e-13 -1.29013e-13 1.71327e-10 6.86125e-11 -6.16794e-11 8.75889e-17 9.27178e-17 -1.97023e-17 1 -1.45355e-05 -1.58419e-07 0.000609173 -0.00468059 0.00547144 0 0.0008
100 1 0.0019277 0.00131769 0.00311378 0.0008 3.43146e-06 -5.42055e-13 -1.22563e-13 6.21839e-13 9.4239e-10 -1.18924e-09 -4.37903e-10 1.89821e-16 2.02878e-16 -7.41726e-18 0 0 0 0 0 0 0 0
101 1 -0.0071953 0.000263762 0.00314433 0.0008 3.43146e-06 -1.19621e-12 1.16473e-13 6.52169e-13 -1.19204e-09 -7.68772e-10 9.50988e-11 3.8563e-16 3.43833e-16 1.03985e-16 1 0.000104292 -1.67311e-05 2.58421e-05 -0.00799463 0.000293064 0.00314433 0.0008
102 1 -0.000518789 -0.00453482 0.0019997 0.0008 3.43146e-06 2.43191e-13 -5.66357e-13 -3.91305e-13 1.15107e-10 -6.46695e-11 -2.65122e-10 -4.93995e-16 -2.22879e-16 3.24869e-17 0 0 0 0 0 0 0 0
103 1 0.00356438 -0.00494727 0.00306717 0.0008 3.43146e-06 -5.94344e-14 -1.48716e-13 5.89769e-13 -8.2278e-10 -2.1053e-10 1.34867e-11 -6.76369e-16 1.82995e-16 4.71138e-16 0 0 0 0 0 0 0 0
104 1 0.00411366 0.00398809 0.00421751 0.0008 3.43146e-06 5.57163e-13 5.02453e-13 -2.58819e-13 -2.26833e-10 8.15119e-10 1.10375e-09 3.90317e-16 -3.39155e-16 -3.38553e-16 0 0 0 0 0 0 0 0
105 1 -0.000757771 -0.00286069 0.000799718 0.0008 3.43146e-06 -8.68582e-14 -2.86091e-13 2.67754e-13 3.55138e-10 -1.11567e-10 -2.51452e-10 -1.36618e-15 8.0162e-16 -4.17036e-16 1 8.44901e-05 -1.93603e-05 0.000310557 -0.000757771 -0.00286069 0 0.0008
106 1 -0.00326284 -0.00432448 0.000799071 0.0008 3.43146e-06 -2.67669e-14 -2.1872e-13 -2.70917e-13 2.69464e-10 -2.83226e-11 7.20122e-10 1.32259e-16 -9.68552e-17 -7.14816e-17 1 -3.39801e-05 0.000171989 0.00185466 -0.00326284 -0.00432448 0 0.0008
107 1 0.00460812 -0.00242647 0.00206116 0.0008 3.43146e-06 1.96662e-13 5.53078e-13 7.75803e-13 -1.73746e-10 3.0384e-11 5.83789e-12 2.76911e-16 4.47708e-16 -5.8606e-16 0 0 0 0 0 0 0 0
108 1 0.00313937 0.00442212 0.00302601 0.0008 3.43146e-06 1.89478e-13 -9.91237e-13 8.93767e-13 3.97999e-10 -1.09851e-10 1.58557e-09 -9.24622e-17 -5.33128e-17 3.10574e-16 0 0 0 0 0 0 0 0
109 1 0.00249253 -0.00550692 0.00201982 0.0008 3.43146e-06 1.63628e-13 -2.31371e-13 5.88461e-13 5.82037e-10 -5.89805e-11 -2.36348e-11 -2.77824e-16 5.0795e-16 1.53037e-16 0 0 0 0 0 0 0 0
110 1 -0.00318309 0.00490872 0.000799835 0.0008 3.43146e-06 -4.04342e-14 -2.68864e-13 -2.70915e-13 3.46099e-10 -5.28849e-11 -1.13449e-10 8.56961e-17 2.70561e-16 -3.31427e-17 1 -1.24761e-05 -7.52548e-06 0.00013943 -0.00318309 0.00490872 0 0.0008
111 1 0.000372214 -0.00719074 0.00281307 0.0008 3.43146e-06 1.35274e-13 4.36305e-13 -1.31753e-13 -1.6341e-10 -1.7051e-10 -1.97881e-10 -3.51177e-17 -3.38065e-16 -2.16413e-18 1 -5.60186e-05 0.000466773 2.8995e-05 0.000413551 -0.0079893 0.00281307 0.0008
112 1 -0.0046834 0.00193287 0.000799832 0.0008 3.43146e-06 1.38582e-13 -4.58311e-13 1.43248e-13 5.81805e-10 1.69609e-10 6.58778e-10 -1.99954e-16 -1.85247e-16 7.64035e-17 1 1.66829e-05 3.61025e-05 0.000142735 -0.0046834 0.00193287 0 0.0008
113 1 -0.00698281 0.00175596 0.00103442 0.0008 3.43146e-06 -1.85666e-12 -5.38044e-13 -3.61135e-13 -1.84509e-09 9.29979e-10 -1.21526e-09 -1.88261e-16 5.30487e-17 -1.60525e-17 1 0.0001889 -8.94665e-05 3.07628e-05 -0.00775845 0.00195101 0.00103442 0.0008
114 1 0.000982785 0.00541804 0.00473132 0.0008 3.43146e-06 4.50392e-16 1.52826e-12 1.74784e-12 -9.81084e-10 1.84068e-10 -1.44867e-09 1.5311e-16 9.61731e-16 -4.4351e-16 0 0 0 0 0 0 0 0
115 1 -0.00168598 0.000478376 0.00336223 0.0008 3.43146e-06 -3.47206e-13 1.17439e-14 -1.05485e-12 -6.87887e-10 -4.80432e-10 5.91246e-10 1.3693e-16 1.53723e-16 -2.30738e-17 0 0 0 0 0 0 0 0
116 1 -0.00446479 -0.000247857 0.00516789 0.0008 3.43146e-06 6.00218e-13 -1.34986e-13 1.11633e-12 -2.63086e-10 -1.72292e-09 2.73259e-10 -7.07159e-16 3.11608e-16 1.49078e-15 0 0 0 0 0 0 0 0
117 1 0.00550733 -0.0046379 0.00414057 0.0008 3.43146e-06 1.82243e-13 -5.45951e-13 1.42856e-13 1.80413e-09 -1.29786e-09 3.87839e-10 1.30671e-17 -1.53208e-17 1.9309e-16 1 -2.06342e-05 1.63707e-05 6.19389e-06 0.00611921 -0.00515318 0.00414057 0.0008
118 1 0.00332211 -0.00256838 0.00315979 0.0008 3.43146e-06 -1.57971e-13 -4.6792e-13 4.31818e-13 4.70548e-10 -1.6077e-10 6.38542e-10 6.30438e-16 4.53213e-16 1.84819e-16 0 0 0 0 0 0 0 0
119 1 0.002245 -0.00360665 0.000799499 0.0008 3.43146e-06 -4.40991e-14 3.0251e-14 1.56243e-14 -4.20652e-11 -4.99974e-11 3.73758e-10 3.10071e-16 2.25557e-16 3.55863e-16 1 2.87037e-05 2.48928e-05 0.000733778 0.002245 -0.00360665 0 0.0008
120 1 0.0054925 -0.00285445 0.00079934 0.0008 3.43146e-06 4.1023e-13 1.45625e-13 -1.26583e-13 -1.8143e-10 5.09256e-10 1.52901e-10 -1.4402e-16 1.26545e-16 -5.69126e-17 1 -0.000280726 0.000113227 0.00111113 0.0054925 -0.00285445 0 0.0008
121 1 0.00693443 0.00194017 0.00225484 0.0008 3.43146e-06 2.93016e-13 -2.15223e-13 2.51269e-13 4.9197e-10 4.65161e-10 3.61995e-10 1.88077e-16 2.81394e-17 -9.77228e-17 1 -0.00130991 -0.000265561 -1.45837e-05 0.00770413 0.00215553 0.00225484 0.0008
122 1 -0.00300621 -0.00171682 0.00166132 0.0008 3.43146e-06 -3.45911e-13 3.44796e-13 -4.70758e-14 -8.40413e-11 -1.49941e-10 8.96601e-11 1.84814e-16 2.99826e-16 -1.8286e-16 0 0 0 0 0 0 0 0
123 1 0.00548713 0.00466118 0.00594045 0.0008 3.43146e-06 1.65658e-12 1.77564e-12 -1.37005e-12 -4.51123e-09 -4.09649e-10 4.00594e-09 4.76874e-16 -3.86704e-16 4.48485e-16 0 0 0 0 0 0 0 0
124 1 0.00295278 0.00198329 0.00208148 0.0008 3.43146e-06 1.1324e-13 3.58354e-13 -1.83569e-13 -1.07578e-09 1.26199e-09 5.71025e-10 4.82741e-18 4.98978e-16 6.89376e-16 0 0 0 0 0 0 0 0
125 1 -0.00245309 -0.00294504 0.000799127 0.0008 3.43146e-06 -2.2468e-13 8.45238e-15 1.07959e-15 -2.04264e-11 -2.72239e-10 -3.61604e-10 9.28394e-17 2.54688e-16 -4.81566e-16 1 -9.72911e-06 -2.72408e-05 0.00168954 -0.00245309 -0.00294504 0 0.0008
126 1 0.00515316 0.00502914 0.000799614 0.0008 3.43146e-06 -1.49413e-13 9.9457e-14 -9.67053e-15 -1.27372e-10 -1.65316e-10 -2.24566e-10 7.77286e-17 1.23921e-17 -2.71148e-17 1 -8.53562e-05 6.81063e-06 0.000497471 0.00515316 0.00502914 0 0.0008
127 1 0.000364413 0.007191 0.0042794 0.0008 3.43146e-06 -1.20631e-13 -8.92497e-13 1.3608e-12 -1.79272e-09 -1.82915e-09 -9.57972e-11 -6.66818e-16 1.97533e-16 5.29846e-16 1 -3.74057e-05 -0.000231471 -6.62035e-05 0.00040489 0.00798975 0.0042794 0.0008
128 1 -6.38888e-05 -0.000248801 0.00224858 0.0008 3.43146e-06 -3.33973e-14 -1.35428e-13 -5.93224e-13 4.35729e-10 -1.12347e-10 6.07193e-11 -3.17696e-16 -2.52885e-16 -7.3855e-16 0 0 0 0 0 0 0 0
129 1 0.0042802 0.000135426 0.00382003 0.0008 3.43146e-06 -3.39902e-13 -6.67701e-14 -2.8436e-13 -9.35303e-10 -1.3512e-10 5.05771e-10 1.41437e-16 4.52809e-16 -5.02127e-16 0 0 0 0 0 0 0 0
130 1 0.00568423 -0.00115464 0.00128992 0.0008 3.43146e-06 -1.47927e-12 5.40719e-13 -7.83293e-14 3.42099e-10 -2.09154e-10 4.77317e-11 3.7757e-17 1.39737e-16 -1.98648e-16 0 0 0 0 0 0 0 0
131 1 0.00604907 -0.00057206 0.00567442 0.0008 3.43146e-06 -1.27485e-12 2.69496e-13 -2.16774e-12 -7.97678e-10 -4.26714e-10 -1.711e-10 6.45446e-16 4.51372e-16 -5.79369e-16 0 0 0 0 0 0 0 0
132 1 -0.00268266 -0.00491265 0.0032972 0.0008 3.43146e-06 2.2603e-13 9.97498e-13 -8.2275e-13 -1.40918e-09 -4.35099e-11 -6.68112e-10 4.90089e-16 2.94751e-17 -1.66335e-16 0 0 0 0 0 0 0 0
133 1 0.00343265 0.00267645 0.00483104 0.0008 3.43146e-06 -1.2723e-13 -2.3401e-13 -5.58112e-13 8.05933e-10 7.0953e-10 1.02482e-09 1.65604e-17 -1.61256e-16 -2.24603e-15 0 0 0 0 0 0 0 0
134 1 -2.89057e-05 -0.00312281 0.00450293 0.0008 3.43146e-06 2.54137e-14 -8.60683e-14 -3.49685e-13 6.2873e-11 4.23989e-10 3.06189e-10 2.76152e-16 -7.26912e-16 3.26123e-16 0 0 0 0 0 0 0 0
135 1 -0.000112424 -0.00719921 0.000799843 0.0008 3.43146e-06 -3.1179e-14 6.23478e-14 -3.04774e-14 -5.98224e-11 -2.96401e-11 5.42718e-11 1.69816e-18 6.93708e-17 -1.36421e-16 1 -3.26687e-05 -2.08027e-08 0.000128941 -0.000112424 -0.00719921 0 0.0008
136 1 -0.00479669 -0.00536356 0.00370656 0.0008 3.43146e-06 -8.56465e-13 -1.68821e-13 -4.42901e-13 2.06844e-10 -3.55522e-10 -9.38083e-10 -6.59531e-16 4.30447e-16 -7.42412e-16 0 0 0 0 0 0 0 0
137 1 -0.00384999 -0.00309465 0.00163611 0.0008 3.43146e-06 -3.79686e-13 -6.05634e-14 1.39671e-14 -6.45966e-11 -1.69487e-10 -5.23999e-10 7.05266e-17 -1.72064e-17 2.49247e-16 0 0 0 0 0 0 0 0
138 1 0.00297761 -0.000498066 0.000799572 0.0008 3.43146e-06 9.65027e-14 -1.72535e-13 3.81097e-14 2.13407e-10 1.11802e-10 -8.36976e-11 -3.49767e-17 1.4517e-16 2.57884e-16 1 -5.6785e-05 2.52988e-05 0.000579513 0.00297761 -0.000498066 0 0.0008
139 1 0.00695424 -0.000307599 0.000799936 0.0008 3.43146e-06 -2.43433e-40 -1.04252e-41 -2.11131e-13 1.30312e-38 -3.04284e-37 0.0161403 8.69406e-44 3.72329e-45 -2.05458e-21 1 -3.47759e-44 -1.48931e-45 3.36626e-05 0.00695424 -0.000307599 0 0.0008
140 1 -0.00710679 -0.00115792 0.000799491 0.0008 3.43146e-06 -3.19673e-13 3.29037e-13 2.60889e-13 -4.05298e-10 -3.98761e-10 4.71418e-10 8.05271e-17 -7.06368e-17 -8.32957e-18 1 7.53631e-05 2.41483e-05 0.000753462 -0.00710679 -0.00115792 0 0.0008
141 1 0.00146857 -0.00271912 0.0049055 0.0008 3.43146e-06 -5.41985e-13 1.08237e-12 7.52366e-14 3.27643e-10 -1.3318e-10 -3.74386e-11 1.33218e-16 -1.33413e-15 -8.85961e-17 0 0 0 0 0 0 0 0
142 1 0.00149278 -0.0041605 0.00209794 0.0008 3.43146e-06 2.73464e-13 -3.14483e-13 -8.5098e-13 6.88685e-10 -2.12016e-10 1.16862e-10 -4.03554e-16 3.24209e-16 5.01635e-16 0 0 0 0 0 0 0 0
143 1 -0.00469905 0.00519225 0.0043056 0.0008 3.43146e-06 -1.6852e-13 9.81699e-13 1.69439e-12 1.64864e-09 -1.27306e-09 1.4634e-09 -2.05087e-15 -2.26846e-16 -1.96963e-16 0 0 0 0 0 0 0 0
144 1 0.00325916 0.00107666 0.000799729 0.0008 3.43146e-06 -1.56587e-13 -3.38965e-14 2.70793e-13 5.38571e-11 -1.8173e-10 4.40799e-10 1.16525e-16 1.14062e-16 -1.33411e-16 1 -9.74969e-05 1.87239e-05 0.000292731 0.00325916 0.00107666 0 0.0008
145 1 -0.00416477 -0.000996112 0.00378698 0.0008 3.43146e-06 8.90249e-13 -5.41329e-13 5.97115e-13 1.3952e-10 1.3967e-09 -4.22263e-10 -2.59414e-16 3.16634e-16 1.44878e-15 0 0 0 0 0 0 0 0
146 1 -0.0036823 0.00337666 0.00314975 0.0008 3.43146e-06 -8.4518e-13 2.7499e-13 7.78504e-13 -1.97372e-09 -1.90237e-09 1.46704e-09 -1.05779e-15 6.0438e-17 4.54644e-16 0 0 0 0 0 0 0 0
147 1 -0.00404687 -0.00409795 0.00286672 0.0008 3.43146e-06 5.06745e-13 1.06125e-12 -4.39755e-13 -5.72457e-10 1.35563e-09 5.42128e-10 -3.9225e-16 7.5202e-16 6.25528e-17 0 0 0 0 0 0 0 0
148 1 -0.00373956 0.00615332 0.00515057 0.0008 3.43146e-06 -1.08412e-12 -5.39317e-13 1.18996e-13 -1.53565e-09 2.21487e-09 -1.55825e-09 -3.28718e-16 1.13518e-15 -2.91698e-15 1 0.000398229 -0.000725894 -1.0741e-05 -0.00415476 0.00683652 0.00515057 0.0008
149 1 -0.00166928 -0.00154575 0.000799614 0.0008 3.43146e-06 -1.79056e-13 2.31911e-13 1.53319e-13 -2.93056e-10 -2.21485e-10 -2.16101e-11 -2.25345e-16 5.48715e-16 -5.05211e-16 1 -2.64135e-05 4.43189e-05 0.000496136 -0.00166928 -0.00154575 0 0.0008
150 1 -0.000270544 0.00559496 0.000799177 0.0008 3.43146e-06 1.26675e-13 3.00966e-13 9.64093e-14 -3.73787e-10 1.60773e-10 -7.71097e-10 -1.59317e-16 1.12255e-17 4.89485e-16 1 0.000175055 6.60727e-05 0.00154733 -0.000270544 0.00559496 0 0.0008
151 1 -0.00454677 -0.00558293 0.000799409 0.0008 3.43146e-06 4.17142e-14 1.77121e-15 -3.40587e-14 -4.03858e-12 5.37484e-11 -2.62516e-11 -5.80588e-17 -1.09441e-16 8.40669e-17 1 3.97763e-05 0.000104586 0.000942227 -0.00454677 -0.00558293 0 0.0008
152 1 -0.00592929 0.00293648 0.000799359 0.0008 3.43146e-06 -1.67305e-12 -7.61231e-13 -2.7101e-13 9.51541e-10 -2.08795e-09 1.06749e-09 -1.7471e-16 -2.67087e-16 -1.32368e-16 1 9.48161e-05 0.000231379 0.00106302 -0.00592929 0.00293648 0 0.0008
153 1 0.00110555 -0.00303248 0.00337942 0.0008 3.43146e-06 -3.31086e-13 -9.16331e-14 -4.6594e-13 -1.45278e-09 -1.22507e-10 1.07584e-09 1.07562e-15 -4.85537e-16 9.74097e-16 0 0 0 0 0 0 0 0
154 1 -0.00424049 0.000601161 0.00383133 0.0008 3.43146e-06 9.85328e-14 1.53129e-13 1.08407e-12 3.52989e-10 1.40858e-09 1.42978e-09 7.56648e-16 -1.42592e-16 7.00275e-16 0 0 0 0 0 0 0 0
155 1 -0.00663486 0.00279641 0.00222836 0.0008 3.43146e-06 -1.82126e-12 -8.75754e-13 -1.06988e-12 -3.03146e-10 1.56806e-09 -1.90105e-09 -6.27564e-16 4.45962e-17 1.97237e-16 1 4.6803e-05 -3.18313e-05 8.10201e-06 -0.00737198 0.00310709 0.00222836 0.0008
156 1 0.00587442 0.00416322 0.00193536 0.0008 3.43146e-06 -1.15278e-13 -1.88252e-13 -3.58304e-14 3.86134e-10 2.16444e-10 1.06466e-10 2.09068e-16 -5.58652e-19 -6.15094e-17 1 -4.5068e-05 -3.36703e-05 -1.04221e-05 0.00652706 0.00462575 0.00193536 0.0008
157 1 -0.000988962 -0.00542668 0.00324229 0.0008 3.43146e-06 -3.73311e-13 -2.90282e-13 -2.15661e-13 8.18737e-10 -9.18558e-10 5.7316e-10 -5.67439e-16 2.53412e-16 4.50452e-16 0 0 0 0 0 0 0 0
158 1 0.00600161 -0.00397782 0.00181827 0.0008 3.43146e-06 4.1149e-14 3.17434e-13 -3.82038e-13 2.94633e-10 -7.66161e-10 -3.55015e-10 -2.08955e-16 4.37982e-17 2.11531e-16 1 -0.000128935 6.66783e-05 3.53686e-05 0.0066683 -0.0044197 0.00181827 0.0008
159 1 0.00154495 -0.00509308 0.000799427 0.0008 3.43146e-06 -6.12698e-15 4.36076e-13 3.78948e-14 -5.44619e-10 -7.20357e-12 -9.47864e-10 -2.49285e-16 1.78828e-16 1.32873e-17 1 0.000118923 4.32949e-05 0.000897766 0.00154495 -0.00509308 0 0.0008
160 1 0.00410987 0.0035359 0.00211428 0.0008 3.43146e-06 2.54264e-13 -2.72639e-14 8.28207e-13 -4.29141e-10 8.10395e-10 -9.48428e-11 4.88883e-17 3.30934e-17 -1.54783e-16 0 0 0 0 0 0 0 0
161 1 0.00244291 0.00533642 0.000799707 0.0008 3.43146e-06 3.15919e-13 5.28402e-14 -1.51148e-13 -7.57027e-11 3.88543e-10 4.96722e-10 -4.13877e-17 2.95214e-17 -1.04207e-16 1 -1.79296e-05 2.30744e-05 0.000328005 0.00244291 0.00533642 0 0.0008
162 1 0.00662439 0.00282209 0.00383138 0.0008 3.43146e-06 -5.99008e-13 -6.66561e-13 -9.81306e-13 -6.7163e-11 -1.36214e-09 4.71649e-10 -2.14625e-16 -3.15886e-16 -1.0743e-15 1 -0.000600313 -0.000340577 5.61687e-05 0.00735996 0.00313545 0.00383138 0.0008
163 1 -0.00719388 0.000254695 0.00154472 0.0008 3.43146e-06 -1.32594e-12 -1.33516e-13 5.05992e-13 8.78544e-10 9.39039e-10 1.25641e-09 1.00166e-16 -3.34764e-17 3.15973e-16 0 0 0 0 0 0 0 0
164 1 0.00655532 0.00295337 0.000799936 0.0008 3.43146e-06 3.72388e-41 -2.37455e-40 7.05786e-14 2.96812e-37 4.65474e-38 1.67636 -1.32996e-44 8.48055e-44 1.48579e-21 1 5.3198e-45 -3.39219e-44 3.36626e-05 0.00655532 0.00295337 0 0.0008
165 1 -0.00159702 -0.00281133 0.0044503 0.0008 3.43146e-06 -3.47874e-13 -2.59211e-13 -1.12879e-12 -3.13335e-10 -1.34978e-09 -6.49915e-12 6.62262e-16 -6.87293e-16 -7.52472e-16 0 0 0 0 0 0 0 0
166 1 -0.000574427 0.00458713 0.00357564 0.0008 3.43146e-06 -1.2508e-13 1.94857e-13 -5.03933e-13 1.95793e-10 4.0547e-10 4.05065e-10 5.02103e-16 9.7417e-16 -1.50564e-16 0 0 0 0 0 0 0 0
167 1 -0.00437244 -0.000227131 0.000799628 0.0008 3.43146e-06 2.01786e-13 -4.43545e-14 -2.06267e-13 5.21691e-11 2.52453e-10 -7.13855e-10 -1.91615e-16 -4.34505e-18 1.59329e-16 1 -1.51331e-05 5.96193e-05 0.000470617 -0.00437244 -0.000227131 0 0.0008
168 1 -0.00279385 0.00517297 0.00258622 0.0008 3.43146e-06 -8.84553e-13 8.21197e-13 -2.1908e-13 1.09042e-10 4.89076e-10 1.77536e-09 8.34758e-16 -7.39112e-16 7.03717e-16 0 0 0 0 0 0 0 0
169 1 -0.00539933 0.00476458 0.00293285 0.0008 3.43146e-06 -9.37689e-13 5.31385e-13 -3.45594e-13 -8.38466e-10 1.3175e-09 -2.90674e-10 3.02528e-16 -6.42561e-16 -1.20042e-15 1 0.00146364 -0.00141552 0.000105878 -0.00599845 0.00529326 0.00293285 0.0008
170 1 -0.000878777 0.00714656 0.0015998 0.0008 3.43146e-06 -9.0219e-14 -3.18253e-13 -2.9761e-13 4.06695e-10 -3.62843e-10 -1.46335e-10 5.50901e-18 1.07627e-16 7.14404e-17 1 -6.72268e-05 -0.000517733 -0.000112044 -0.000976366 0.0079402 0.0015998 0.0008
171 1 -0.00303069 0.00653122 0.00375116 0.0008 3.43146e-06 1.06083e-12 2.52229e-13 -7.74486e-13 9.65997e-10 2.07051e-10 1.33446e-09 2.89483e-16 7.82576e-17 2.07076e-16 1 6.17651e-05 -8.29921e-05 -2.45202e-06 -0.00336737 0.00725678 0.00375116 0.0008
172 1 0.00544201 0.00244292 0.00197761 0.0008 3.43146e-06 5.59785e-13 -8.53686e-13 6.14072e-13 3.82957e-10 -3.93177e-10 4.36161e-10 1.56282e-16 3.02824e-18 -8.08743e-18 0 0 0 0 0 0 0 0
173 1 0.00106008 -0.00253127 0.000799936 0.0008 3.43146e-06 -7.33816e-41 -8.62253e-41 7.27793e-14 1.07779e-37 -9.17249e-38 0.201097 2.62078e-44 3.07948e-44 -1.12293e-21 1 -1.0483e-44 -1.23178e-44 3.36626e-05 0.00106008 -0.00253127 0 0.0008
174 1 0.00716873 -0.000670134 0.00362669 0.0008 3.43146e-06 8.54115e-13 2.70854e-13 1.08416e-12 -2.1676e-10 -5.69857e-10 2.60971e-11 6.02182e-16 -1.03689e-16 -2.33471e-16 0 0 0 0 0 0 0 0
175 1 -0.00352412 -0.00534094 0.00200557 0.0008 3.43146e-06 1.12029e-13 1.81648e-13 -2.00807e-13 -7.45184e-10 1.06754e-11 -4.90738e-10 4.07143e-16 -2.96172e-16 3.67693e-16 0 0 0 0 0 0 0 0
176 1 -0.00369764 0.00223753 0.00202668 0.0008 3.43146e-06 1.39557e-13 3.66947e-14 1.01957e-12 1.55069e-09 1.09594e-09 -5.32933e-10 8.22536e-17 4.8592e-17 4.35943e-16 0 0 0 0 0 0 0 0
177 1 -0.0048573 -0.0040136 0.000799652 0.0008 3.43146e-06 -2.28052e-13 2.84175e-14 -1.22772e-13 -4.43592e-11 -2.8778e-10 3.48589e-10 -7.65294e-17 9.48552e-17 1.44795e-16 1 4.60036e-05 3.45403e-05 0.000425019 -0.0048573 -0.0040136 0 0.0008
178 1 -0.00277602 -0.000389067 0.000799569 0.0008 3.43146e-06 -1.67573e-13 1.16628e-13 -6.8165e-14 -1.44947e-10 -2.20914e-10 -1.56955e-10 -1.3073e-16 4.43563e-16 -1.48138e-16 1 6.0345e-05 -6.2703e-05 0.000586823 -0.00277602 -0.000389067 0 0.0008
179 1 -0.00252403 -0.00674372 0.00444731 0.0008 3.43146e-06 -2.5703e-13 1.00097e-12 -6.93637e-13 2.15155e-10 3.04516e-09 7.36778e-10 -7.22792e-17 9.78884e-17 1.2846e-16 1 0.000277941 0.000934459 -5.93557e-05 -0.00280425 -0.00749241 0.00444731 0.0008
180 1 0.000363793 -0.00619079 0.00406153 0.0008 3.43146e-06 1.09385e-13 1.18007e-12 -8.77714e-13 -1.14087e-09 5.5297e-11 1.10808e-10 5.23296e-16 1.99808e-16 7.90281e-16 0 0 0 0 0 0 0 0
181 1 -0.00223045 0.00684622 0.000799282 0.0008 3.43146e-06 2.68852e-13 -1.24472e-13 -2.11508e-13 1.62065e-10 3.34096e-10 2.81207e-10 -8.04291e-17 9.99935e-17 4.73492e-17 1 2.83771e-05 -0.00019655 0.00126025 -0.00223045 0.00684622 0 0.0008
182 1 -0.00160901 0.0025452 0.00324508 0.0008 3.43146e-06 -1.51469e-13 -2.62502e-13 9.42774e-14 1.75847e-09 -2.96403e-10 1.4555e-09 -8.73485e-16 8.59293e-16 3.46569e-16 0 0 0 0 0 0 0 0
183 1 0.00313715 -0.00648116 0.00321864 0.0008 3.43146e-06 1.96614e-15 -3.27486e-13 4.75779e-13 8.34514e-10 -3.55552e-10 1.73756e-10 -6.41855e-16 1.58539e-16 4.28171e-17 1 -0.000298802 0.000676444 -7.57955e-05 0.00348548 -0.00720079 0.00321864 0.0008
184 1 -0.00610292 -0.00382061 0.00178476 0.0008 3.43146e-06 -4.603e-13 -9.70376e-14 -2.30977e-13 -3.93489e-10 9.43403e-11 2.0773e-10 -7.62453e-17 -2.67113e-17 1.76529e-16 1 0.000149776 8.18954e-05 5.63982e-05 -0.00678084 -0.00424502 0.00178476 0.0008
185 1 -0.0035404 -0.00627002 0.00330693 0.0008 3.43146e-06 -7.97162e-13 7.62869e-14 7.68376e-13 1.41568e-10 -1.69791e-09 9.07389e-10 -1.50188e-16 1.39557e-16 2.89976e-16 1 0.000426849 0.00068072 -4.85062e-06 -0.00393349 -0.00696618 0.00330693 0.0008
186 1 0.0035888 0.00269997 0.000799936 0.0008 3.43146e-06 3.69768e-41 -2.37542e-40 7.05786e-14 2.96921e-37 4.62199e-38 0.187835 -1.3206e-44 8.48367e-44 1.48579e-21 1 5.28236e-45 -3.39344e-44 3.36626e-05 0.0035888 0.00269997 0 0.0008
187 1 -0.000474317 0.00312313 0.00421285 0.0008 3.43146e-06 -1.19338e-13 -1.50458e-13 3.21403e-13 -1.06795e-09 4.66943e-10 -7.98155e-10 8.47139e-16 1.45282e-15 3.63924e-16 0 0 0 0 0 0 0 0
188 1 -0.000314652 0.00166189 0.00356741 0.0008 3.43146e-06 1.35547e-13 1.68601e-13 -6.25559e-13 -8.57189e-10 7.42068e-10 -6.82709e-10 7.66288e-17 -6.20811e-16 8.53498e-16 0 0 0 0 0 0 0 0
189 1 -0.000342259 0.00353093 0.00079958 0.0008 3.43146e-06 -1.91047e-14 5.76319e-14 -1.13045e-13 -8.34169e-11 -2.92694e-11 -5.50871e-10 3.00146e-16 1.72697e-16 -1.56164e-16 1 -3.10708e-05 -7.5259e-05 0.000564466 -0.000342259 0.00353093 0 0.0008
190 1 0.00166472 0.00120746 0.000799503 0.0008 3.43146e-06 5.2955e-14 -2.0661e-13 2.50323e-13 2.70479e-10 9.25333e-11 -2.45459e-10 4.93723e-18 -1.78546e-17 -2.01347e-16 1 4.96424e-05 -8.62586e-05 0.000725347 0.00166472 0.00120746 0 0.0008
191 1 -0.00251904 -0.00383339 0.00212747 0.0008 3.43146e-06 -6.39071e-14 -4.18745e-13 -2.71266e-13 6.38999e-10 4.54572e-10 4.33498e-10 -1.31788e-16 6.73487e-17 6.88258e-17 0 0 0 0 0 0 0 0
192 1 -0.000534769 0.00591703 0.00465205 0.0008 3.43146e-06 2.60303e-13 2.16765e-12 -4.6174e-13 7.04524e-11 -2.79328e-09 5.83033e-10 -5.4597e-16 4.22566e-16 5.20413e-16 0 0 0 0 0 0 0 0
193 1 -0.00187548 0.00398714 0.00079943 0.0008 3.43146e-06 -8.42326e-14 1.28725e-13 -2.70799e-13 -1.63538e-10 -9.79023e-11 4.83877e-10 2.93353e-16 1.79068e-16 1.04967e-16 1 9.87845e-05 0.000241362 0.000891464 -0.00187548 0.00398714 0 0.0008
194 1 0.00420849 -0.0015302 0.000799048 0.0008 3.43146e-06 -1.28016e-13 3.53439e-13 4.95187e-14 -4.37594e-10 -1.56676e-10 5.86313e-10 3.32457e-16 6.23096e-16 -1.12221e-16 1 0.000150364 -0.000427899 0.00192487 0.00420849 -0.0015302 0 0.0008
195 1 -0.00411047 0.00444759 0.00204099 0.0008 3.43146e-06 -4.79251e-14 5.67647e-14 -1.08258e-12 9.45652e-10 -1.25025e-09 -1.46159e-10 -4.88958e-17 -3.988e-16 2.17798e-16 0 0 0 0 0 0 0 0
196 1 -0.00300797 -0.00209472 0.00472984 0.0008 3.43146e-06 -6.218e-13 -6.75797e-13 -2.14616e-12 -3.2756e-10 -1.8204e-09 4.65558e-10 6.1861e-16 -5.42067e-16 -9.9149e-16 0 0 0 0 0 0 0 0
197 1 0.00139302 0.00422485 0.00357598 0.0008 3.43146e-06 2.39958e-13 -1.18907e-12 5.38135e-13 -9.43718e-10 8.18917e-10 3.92843e-10 1.30981e-15 1.06031e-15 8.11916e-16 0 0 0 0 0 0 0 0
198 1 0.000571053 0.0071777 0.00239828 0.0008 3.43146e-06 -8.29146e-14 -9.38103e-13 -6.68094e-13 8.35204e-10 -1.35792e-10 -9.96417e-12 2.63068e-16 2.39634e-16 -1.38638e-16 1 -0.000228872 -0.000488049 4.41181e-05 0.00063447 0.0079748 0.00239828 0.0008
199 1 -0.00702238 -0.00158988 0.00392975 0.0008 3.43146e-06 2.91041e-13 -4.94167e-13 4.00137e-13 -1.42187e-09 -8.27119e-10 -6.78644e-10 2.9701e-16 -2.3642e-18 5.28874e-16 1 7.73268e-05 1.32597e-05 2.27714e-05 -0.00780253 -0.0017665 0.00392975 0.0008
200 1 -0.00352301 0.00627944 0.00155172 0.0008 3.43146e-06 7.75828e-14 -4.2193e-13 -5.0713e-15 1.01101e-10 -1.562e-10 -1.72335e-10 -3.62368e-17 2.20452e-16 -7.8705e-17 1 5.7874e-05 -0.000192218 5.72327e-05 -0.00391435 0.00697695 0.00155172 0.0008
201 1 0.00513742 -0.00504553 0.00263838 0.0008 3.43146e-06 -1.07945e-13 3.83022e-13 6.85741e-13 -7.63913e-10 1.9498e-09 -2.48946e-10 -1.12019e-16 6.24092e-17 1.09947e-16 1 -0.000888514 0.000970486 5.98266e-05 0.00570767 -0.00560558 0.00263838 0.0008
202 1 -0.00330542 0.00112052 0.000799657 0.0008 3.43146e-06 1.00655e-13 6.86902e-14 -2.70884e-13 -8.42045e-11 1.43975e-10 -1.18446e-10 -8.16069e-17 -2.84349e-16 -2.16564e-16 1 9.50234e-05 4.06284e-05 0.000415944 -0.00330542 0.00112052 0 0.0008
203 1 0.000939005 0.00569991 0.00315713 0.0008 3.43146e-06 -2.07564e-13 9.9058e-13 -7.31521e-13 -2.99772e-10 4.78087e-10 -1.11182e-09 -5.36006e-16 2.90811e-16 -9.3937e-18 0 0 0 0 0 0 0 0
204 1 -0.00586131 -0.00418223 0.00332417 0.0008 3.43146e-06 -2.76586e-13 -3.19327e-13 2.41177e-13 5.31864e-10 1.10522e-11 -1.18683e-10 -2.30362e-17 3.74661e-16 -1.76269e-16 1 0.000497058 0.000272098 4.59504e-06 -0.00651219 -0.00464665 0.00332417 0.0008
205 1 0.00331934 -0.00142878 0.0043567 0.0008 3.43146e-06 -9.17528e-13 4.38505e-13 9.5214e-13 -1.44488e-09 -3.17996e-10 7.43768e-10 7.25021e-16 -4.08568e-16 -2.16894e-15 0 0 0 0 0 0 0 0
206 1 -0.00173385 0.00141945 0.000799377 0.0008 3.43146e-06 -1.83815e-13 -3.55341e-14 -2.63153e-13 3.98276e-11 -2.1222e-10 2.3378e-11 -1.04618e-16 -7.08529e-17 1.89615e-16 1 9.04977e-05 6.02382e-05 0.00102002 -0.00173385 0.00141945 0 0.0008
207 1 0.0037508 0.000168017 0.00208522 0.0008 3.43146e-06 9.8706e-14 -6.35586e-14 -6.37296e-13 2.3284e-10 9.78966e-10 -1.75968e-10 8.83136e-17 1.05478e-16 1.02302e-16 0 0 0 0 0 0 0 0
208 1 0.00202246 -0.00265134 0.00212573 0.0008 3.43146e-06 -5.43697e-13 -1.86986e-13 -8.07481e-14 4.36446e-11 -5.58756e-10 8.91583e-10 9.33927e-16 3.45733e-16 4.48176e-16 0 0 0 0 0 0 0 0
209 1 -0.00550205 0.00206386 0.00521795 0.0008 3.43146e-06 1.10649e-12 -1.08242e-12 2.58161e-13 3.20426e-09 7.48866e-10 -4.76996e-10 -1.06716e-15 2.46145e-16 8.92651e-16 0 0 0 0 0 0 0 0
210 1 -0.00413315 -0.00287656 0.00555584 0.0008 3.43146e-06 2.76549e-13 -6.12999e-13 -2.16514e-12 -2.95069e-10 2.0002e-09 4.27785e-10 -3.82003e-16 7.24475e-17 -5.24292e-16 0 0 0 0 0 0 0 0
211 1 0.00301916 0.00651547 0.00203722 0.0008 3.43146e-06 4.65758e-14 -5.18204e-13 1.45574e-13 5.32459e-10 -1.38184e-10 9.99273e-11 8.11479e-17 -2.34277e-17 6.46152e-17 0 0 0 0 0 0 0 0
212 1 0.00200881 -0.0016879 0.00340246 0.0008 3.43146e-06 -8.42038e-13 3.31376e-13 7.1139e-13 3.77528e-11 -2.80854e-11 -1.07296e-09 5.53129e-16 -4.82753e-19 -1.24341e-15 0 0 0 0 0 0 0 0
213 1 -0.00538308 -7.00012e-05 0.00293517 0.0008 3.43146e-06 -7.39252e-13 -1.35752e-14 4.87158e-13 7.59492e-10 -8.33891e-10 -1.00873e-09 5.6732e-16 8.57046e-16 3.22653e-16 0 0 0 0 0 0 0 0
214 1 -0.00575881 0.00074882 0.000799416 0.0008 3.43146e-06 2.00493e-13 -2.70721e-13 -1.89893e-13 3.46517e-10 2.4714e-10 -7.59291e-10 -8.77646e-17 2.38617e-16 -1.69565e-16 1 8.99198e-05 6.61574e-05 0.000925156 -0.00575881 0.00074882 0 0.0008
215 1 0.00134871 -0.00443459 0.00602001 0.0008 3.43146e-06 -5.42045e-13 2.16796e-12 2.59733e-13 -1.3287e-09 1.63442e-10 1.3247e-10 -4.23751e-17 -1.79946e-16 6.95611e-16 0 0 0 0 0 0 0 0
216 1 -0.00647314 -0.00311726 0.00434916 0.0008 3.43146e-06 -3.84161e-13 -1.08371e-12 -1.2266e-12 -1.19954e-09 -7.05732e-10 6.64989e-10 4.96059e-18 -2.47335e-16 -6.64018e-16 0 0 0 0 0 0 0 0
217 1 -0.00434892 -0.00182646 0.000798997 0.0008 3.43146e-06 -1.32445e-13 3.62756e-14 -2.07589e-13 -4.67588e-11 -1.65297e-10 2.98304e-10 5.792e-17 -9.57464e-17 2.45751e-16 1 1.03456e-05 -3.08404e-05 0.00208028 -0.00434892 -0.00182646 0 0.0008
218 1 0.00215686 0.000228524 0.00196453 0.0008 3.43146e-06 2.65129e-14 -6.77977e-14 1.39779e-13 -3.42739e-10 -1.09127e-11 1.82988e-10 1.52379e-16 4.68076e-17 -1.47674e-16 0 0 0 0 0 0 0 0
219 1 -0.000172695 8.64655e-05 0.00380888 0.0008 3.43146e-06 -1.72943e-13 -1.22012e-13 -1.08315e-12 -6.0844e-10 -3.00239e-11 2.97509e-10 -2.17263e-15 1.23537e-16 6.03191e-16 0 0 0 0 0 0 0 0
220 1 0.00385092 0.00608395 0.00333329 0.0008 3.43146e-06 9.52432e-13 -1.04797e-12 -5.80491e-13 1.43999e-09 9.07518e-10 1.71274e-09 3.92299e-18 8.14947e-17 -8.78089e-17 1 -0.000230065 -0.000235331 8.99308e-05 0.00427864 0.00675968 0.00333329 0.0008
221 1 -0.000450336 0.00581339 0.00237298 0.0008 3.43146e-06 -7.00175e-14 7.44797e-13 -6.7987e-13 -3.425e-10 -4.63599e-10 1.08656e-09 3.89543e-16 3.79225e-16 2.8874e-16 0 0 0 0 0 0 0 0
222 1 0.00526168 0.00200927 0.00403244 0.0008 3.43146e-06 8.59145e-13 -7.57083e-13 -7.04962e-13 2.58378e-10 2.0979e-09 4.92385e-10 -7.10269e-17 -2.65881e-16 -1.02122e-15 0 0 0 0 0 0 0 0
223 1 0.00499843 0.000408937 0.00637536 0.0008 3.43146e-06 -1.71509e-13 -1.33719e-13 -1.34389e-12 2.60746e-09 7.82797e-10 -9.62554e-10 -2.11419e-15 1.57392e-17 1.04484e-15 0 0 0 0 0 0 0 0
224 1 -0.00666393 -0.00272756 0.00280955 0.0008 3.43146e-06 3.23676e-13 -8.64838e-13 4.63075e-13 1.94532e-09 1.68342e-10 -1.15537e-09 1.20705e-16 -1.36625e-16 3.38001e-16 1 0.000762879 0.000267042 -9.88985e-06 -0.00740383 -0.0030304 0.00280955 0.0008
225 1 0.00478481 0.00119911 0.00273792 0.0008 3.43146e-06 2.90774e-13 -5.06432e-13 -4.67202e-13 4.56244e-11 -1.10423e-09 -3.9819e-10 -4.66256e-16 -5.0849e-16 5.62203e-16 0 0 0 0 0 0 0 0
226 1 0.00516386 -0.00488348 0.000799782 0.0008 3.43146e-06 1.31857e-13 7.83296e-13 4.11502e-14 -9.77978e-10 1.63765e-10 -7.98232e-10 -1.86366e-16 -1.46607e-17 2.18769e-16 1 1.54375e-05 1.8555e-05 0.000211546 0.00516386 -0.00488348 0 0.0008
227 1 0.00589685 -0.00193866 0.00287261 0.0008 3.43146e-06 1.7591e-13 4.38757e-13 1.06464e-12 2.15463e-10 -3.90668e-10 -2.01728e-10 4.84379e-17 4.91207e-16 -2.30226e-16 0 0 0 0 0 0 0 0
228 1 0.00592003 0.00409934 0.00450713 0.0008 3.43146e-06 1.24024e-12 5.9546e-13 9.8517e-13 6.88092e-10 1.97459e-09 2.67819e-10 -4.09407e-17 2.19434e-16 2.40966e-16 1 -0.00125368 -0.000775068 0.000264771 0.00657709 0.00455432 0.00450713 0.0008
229 1 0.00011287 0.00264459 0.00212981 0.0008 3.43146e-06 -3.27267e-14 7.39579e-13 -2.50457e-13 -7.57837e-10 2.52307e-10 -4.45036e-10 5.40394e-17 -4.06339e-16 1.90206e-16 0 0 0 0 0 0 0 0
230 1 0.00427978 -0.005791 0.00422203 0.0008 3.43146e-06 -1.18426e-12 1.25184e-12 -1.45185e-13 1.791e-10 -5.5431e-10 2.60758e-10 -8.49206e-16 3.36633e-16 1.91848e-16 1 -0.00108813 0.00125984 -0.000103365 0.00475475 -0.00643369 0.00422203 0.0008
231 1 -0.00481549 0.00191563 0.003125 0.0008 3.43146e-06 -9.68312e-13 -5.41236e-13 3.15163e-13 -8.94242e-10 -2.66648e-09 7.80697e-10 5.48463e-16 -7.2739e-16 6.22969e-16 0 0 0 0 0 0 0 0
232 1 -0.00381104 0.00417091 0.00836204 0.0008 3.43146e-06 -1.08405e-12 2.16836e-12 2.50597e-12 1.61288e-09 1.42144e-09 -9.90347e-10 -5.66626e-16 -6.95844e-16 -7.22832e-15 0 0 0 0 0 0 0 0
233 1 0.00293164 0.00336574 0.00667246 0.0008 3.43146e-06 3.78308e-13 8.10014e-13 -8.20142e-13 -2.15154e-09 1.4596e-09 -1.38107e-09 -2.45142e-16 -7.04949e-16 -2.13894e-16 0 0 0 0 0 0 0 0
234 1 -0.00506864 -0.00208013 0.00924958 0.0008 3.43146e-06 1.38417e-12 1.6076e-13 8.32275e-13 1.72033e-10 -3.08816e-10 2.58074e-09 -2.41884e-15 1.77843e-15 1.18364e-15 0 0 0 0 0 0 0 0
235 1 0.000945775 0.00236165 0.00585729 0.0008 3.43146e-06 -2.28877e-13 1.08349e-12 -6.39602e-13 7.61338e-10 1.78644e-10 4.55385e-10 6.66785e-16 1.5567e-16 8.65026e-16 0 0 0 0 0 0 0 0
236 1 -0.00151583 0.00548008 0.00590687 0.0008 3.43146e-06 -5.41931e-13 -2.16689e-12 5.9954e-13 2.16053e-09 -1.16079e-09 4.22294e-10 -4.61467e-16 -4.57585e-16 -6.81646e-16 0 0 0 0 0 0 0 0
237 1 0.00134391 0.00435011 0.00632409 0.0008 3.43146e-06 -4.65347e-13 -2.51023e-13 2.12262e-12 4.82562e-10 -1.17092e-09 -1.59521e-09 8.86352e-16 1.08571e-17 8.10542e-16 0 0 0 0 0 0 0 0
238 1 -0.0055817 -0.00162885 0.00323495 0.0008 3.43146e-06 1.85516e-13 -1.87778e-13 6.46583e-13 -9.79569e-10 6.80179e-10 2.24847e-09 5.39508e-16 2.47534e-16 8.22222e-16 0 0 0 0 0 0 0 0
239 1 0.00544942 -0.00470583 0.00642492 0.0008 3.43146e-06 2.73946e-13 -7.51243e-13 1.89023e-12 1.96297e-09 1.42771e-09 4.83833e-10 2.8903e-16 4.35063e-16 9.704e-17 1 -2.93981e-05 3.27929e-05 -7.14727e-06 0.00605485 -0.00522865 0.00642492 0.0008
240 1 5.71264e-05 0.00719988 0.00710709 0.0008 3.43146e-06 3.42844e-13 -2.16534e-12 -2.16769e-12 2.71806e-09 2.07866e-09 4.53387e-10 4.16995e-16 4.18854e-16 -3.56247e-16 1 -1.20543e-05 -7.87841e-05 4.08999e-06 6.34728e-05 0.00799975 0.00710709 0.0008
241 1 0.00504493 -0.00513798 0.00956901 0.0008 3.43146e-06 2.16806e-12 -3.51696e-13 1.95546e-12 1.48708e-09 1.99417e-09 -1.62967e-09 1.20212e-15 -9.22774e-16 -3.56259e-16 1 -0.000903768 0.000882004 -7.49319e-05 0.00560493 -0.00570831 0.00956901 0.0008
242 1 -0.0014064 -0.00416308 0.00553337 0.0008 3.43146e-06 5.41761e-13 1.41868e-12 1.25258e-13 6.89853e-10 -1.24766e-09 -1.19894e-09 -3.83997e-16 1.45262e-15 1.3866e-15 0 0 0 0 0 0 0 0
243 1 0.00658045 0.00292193 0.0073651 0.0008 3.43146e-06 5.82258e-14 -3.69408e-13 -8.78802e-13 1.95374e-10 -1.13495e-09 4.63295e-10 2.59762e-16 8.08364e-16 6.99184e-17 1 -8.86288e-07 -2.85584e-07 7.27398e-08 0.00731161 0.00324659 0.0073651 0.0008
244 1 -0.00652363 0.000208734 0.00813377 0.0008 3.43146e-06 -1.72207e-12 -4.02173e-14 -1.0842e-12 -6.84432e-10 -3.00924e-10 -1.70003e-09 1.31426e-15 6.8219e-16 1.27682e-15 0 0 0 0 0 0 0 0
245 1 0.000499849 -0.00116296 0.00691517 0.0008 3.43146e-06 -2.71056e-13 5.41803e-13 -1.88462e-14 9.74345e-10 2.55011e-10 7.95375e-10 7.20347e-16 -1.4554e-16 -2.3669e-15 0 0 0 0 0 0 0 0
246 1 0.00500642 -0.00253757 0.00411667 0.0008 3.43146e-06 -7.70676e-13 1.5121e-13 7.60014e-13 -2.86435e-10 -8.09606e-10 -7.2726e-10 9.48395e-17 3.1548e-16 -4.13092e-17 0 0 0 0 0 0 0 0
247 1 -0.00701702 0.00158517 0.00503118 0.0008 3.43146e-06 -1.59844e-12 -4.46959e-13 -1.64732e-12 1.44285e-09 -1.39239e-09 -8.44878e-10 -4.30182e-16 1.45372e-15 5.02772e-16 0 0 0 0 0 0 0 0
248 1 -0.00554492 0.00407277 0.00507311 0.0008 3.43146e-06 7.44204e-14 8.19408e-13 2.24395e-14 -2.04689e-11 3.78066e-10 -1.23399e-09 -2.83798e-15 4.82093e-16 -2.286e-15 0 0 0 0 0 0 0 0
249 1 -0.000764402 -0.001533 0.00848053 0.0008 3.43146e-06 -2.66893e-13 -5.41855e-13 6.92253e-15 1.36456e-09 1.5446e-09 3.71964e-10 4.80069e-16 -2.65021e-16 1.11325e-15 0 0 0 0 0 0 0 0
250 1 -0.00201081 -0.00052167 0.00715451 0.0008 3.43146e-06 1.54323e-13 2.44673e-13 -2.01571e-12 -1.68946e-09 3.33587e-10 -6.49814e-10 9.80938e-16 7.40363e-16 -4.16321e-16 0 0 0 0 0 0 0 0
251 1 -0.00220573 -0.00330144 0.00851708 0.0008 3.43146e-06 8.99155e-13 1.78239e-13 -2.20135e-12 7.10333e-10 -1.0047e-09 1.7193e-09 -5.63798e-16 -6.65156e-16 6.77977e-16 0 0 0 0 0 0 0 0
252 1 0.00563134 -0.000363317 0.00278197 0.0008 3.43146e-06 -4.79415e-14 -1.35545e-13 4.72022e-13 -3.51362e-10 1.96192e-10 -2.65838e-10 -1.60696e-16 -1.14726e-16 -3.50471e-17 0 0 0 0 0 0 0 0
253 1 0.000228691 -0.00193182 0.0055393 0.0008 3.43146e-06 -6.81664e-14 5.41174e-13 -4.22345e-13 -5.13149e-10 6.0729e-12 3.71977e-10 -1.99007e-16 3.09725e-16 -4.77736e-16 0 0 0 0 0 0 0 0
254 1 -0.00139764 -0.00706314 0.00794433 0.0008 3.43146e-06 5.13152e-13 6.70914e-13 1.11809e-12 1.40025e-09 -1.17923e-10 -4.5439e-10 -3.27694e-16 4.37783e-16 -2.12729e-16 1 4.15282e-06 6.112e-05 1.06629e-05 -0.00155291 -0.00784783 0.00794433 0.0008
255 1 -0.00133058 0.00422326 0.00766629 0.0008 3.43146e-06 -5.41993e-13 1.14572e-12 -2.10531e-12 1.12816e-09 -2.08991e-09 -1.44321e-09 -1.11638e-15 -2.9145e-15 -6.86311e-15 0 0 0 0 0 0 0 0
256 1 0.00429171 -0.00099095 0.00669215 0.0008 3.43146e-06 -8.43204e-13 5.41806e-13 -7.15359e-13 -1.94595e-09 2.38161e-09 -9.09548e-10 -1.2284e-15 6.54571e-17 7.13779e-16 0 0 0 0 0 0 0 0
257 1 -0.00403799 -0.000855141 0.0092486 0.0008 3.43146e-06 -2.22513e-13 2.0292e-13 -4.91258e-14 -3.44296e-09 9.28348e-10 -4.3814e-10 -2.63579e-15 -1.05675e-15 1.09395e-15 0 0 0 0 0 0 0 0
258 1 0.00684145 -0.00224494 0.00942338 0.0008 3.43146e-06 -9.54769e-13 3.50696e-13 7.57306e-13 -2.51337e-09 1.77724e-09 -1.10705e-11 -6.25032e-16 7.76012e-16 -1.4931e-16 1 -0.000439732 0.000153421 6.86746e-05 0.00760123 -0.00249425 0.00942338 0.0008
259 1 -0.00325436 -0.0022961 0.00918689 0.0008 3.43146e-06 2.53699e-13 1.06458e-12 -1.18833e-12 -2.25499e-10 1.41337e-09 -2.03294e-09 -2.28349e-15 -3.98148e-16 5.48989e-16 0 0 0 0 0 0 0 0
260 1 0.00413702 -0.00531621 0.00574311 0.0008 3.43146e-06 -1.1795e-12 9.38719e-13 1.84998e-12 1.08405e-09 2.92495e-10 -1.79988e-09 -8.72577e-17 4.32215e-16 2.14668e-16 0 0 0 0 0 0 0 0
261 1 0.00560207 0.00185279 0.00604528 0.0008 3.43146e-06 -5.37914e-14 -5.27684e-13 7.70713e-13 6.70681e-10 6.18992e-10 8.95941e-11 -2.55371e-15 -1.63578e-16 -3.14307e-16 0 0 0 0 0 0 0 0
262 1 -0.00284261 -0.00366512 0.0050367 0.0008 3.43146e-06 6.42003e-13 8.82693e-13 -1.93108e-12 -9.79513e-10 -1.34361e-09 1.9941e-09 9.5549e-17 -5.03562e-17 8.62869e-17 0 0 0 0 0 0 0 0
263 1 0.000869748 -0.000148231 0.00566855 0.0008 3.43146e-06 -2.70849e-13 -6.7512e-14 -4.67198e-13 5.6206e-10 -1.12395e-09 -2.84261e-10 1.43122e-16 1.43152e-16 -6.58882e-16 0 0 0 0 0 0 0 0
264 1 -0.000461312 -0.00671536 0.00669454 0.0008 3.43146e-06 -1.66993e-15 1.41964e-12 1.46675e-12 1.61192e-10 6.53858e-10 1.226e-10 -7.80089e-16 2.04161e-16 -2.78087e-16 0 0 0 0 0 0 0 0
265 1 0.00249799 0.00512232 0.00431308 0.0008 3.43146e-06 -5.27692e-13 -8.23035e-13 1.90929e-12 5.50914e-11 -1.86261e-10 -1.42559e-09 -7.78492e-16 5.55547e-16 8.75529e-18 0 0 0 0 0 0 0 0
266 1 1.54907e-05 0.00580737 0.00789366 0.0008 3.43146e-06 3.41565e-14 -1.34239e-12 -3.1469e-12 -2.11565e-09 -1.59975e-09 -1.22424e-09 -5.63381e-16 -9.27707e-16 -3.2715e-15 0 0 0 0 0 0 0 0
267 1 -0.00562088 0.0019736 0.00691862 0.0008 3.43146e-06 2.12471e-13 2.96645e-13 3.95504e-13 3.45122e-09 9.92122e-10 -1.3023e-09 1.49515e-16 1.57974e-15 1.79052e-15 0 0 0 0 0 0 0 0
268 1 0.0058603 0.000106002 0.00884487 0.0008 3.43146e-06 -5.46064e-13 4.80784e-14 1.5849e-12 1.23251e-10 -2.96571e-09 -6.68407e-10 -7.27253e-16 7.77837e-16 -7.02863e-16 0 0 0 0 0 0 0 0
269 1 0.0025709 0.00528644 0.00590265 0.0008 3.43146e-06 7.51511e-13 -7.9311e-13 1.69005e-12 -1.88034e-10 1.67158e-09 -8.04251e-11 -1.04339e-16 -1.7692e-16 6.15757e-16 0 0 0 0 0 0 0 0
270 1 0.00283744 -0.000323233 0.00330314 0.0008 3.43146e-06 4.18242e-13 -4.7106e-14 4.94534e-13 -7.66856e-11 4.65899e-10 -5.2895e-10 -2.19932e-16 -1.60246e-16 -2.47829e-16 0 0 0 0 0 0 0 0
271 1 0.00717299 0.000632714 0.00809942 0.0008 3.43146e-06 2.92913e-13 -1.57893e-13 1.74111e-12 -5.27572e-10 2.16706e-09 2.56214e-10 7.5972e-16 -2.20185e-16 -3.96997e-16 1 -0.00162805 -9.92181e-05 0.000399847 0.00796906 0.000702934 0.00809942 0.0008
272 1 0.00184007 -0.00116348 0.00490389 0.0008 3.43146e-06 -5.40573e-13 3.71122e-13 2.67442e-13 -1.24677e-10 -6.80884e-11 -1.9322e-10 3.79892e-17 1.04031e-15 -1.32815e-15 0 0 0 0 0 0 0 0
273 1 0.0040692 0.00593949 0.00619286 0.0008 3.43146e-06 1.8308e-13 2.16612e-12 1.56893e-12 2.36129e-10 3.35337e-10 3.62514e-09 -2.65962e-17 -5.47e-18 4.53834e-16 0 0 0 0 0 0 0 0
274 1 -0.00489278 0.005283 0.00589066 0.0008 3.43146e-06 1.1858e-12 -9.19667e-13 -1.64216e-12 3.42669e-10 2.60776e-09 3.096e-10 -2.95299e-15 2.29831e-15 -3.83659e-15 1 0.00069303 -0.000891248 -0.000151742 -0.00543593 0.00586947 0.00589066 0.0008
275 1 0.000845769 0.00649449 0.00590685 0.0008 3.43146e-06 2.67981e-13 -5.7546e-13 5.75765e-13 2.14663e-09 -1.76787e-09 -4.06573e-10 -2.23573e-16 1.2263e-15 -9.90412e-16 0 0 0 0 0 0 0 0
276 1 -0.00242909 -0.00519894 0.00485077 0.0008 3.43146e-06 9.89649e-13 2.16147e-12 -7.39046e-13 -3.79583e-10 1.35357e-09 -1.10149e-09 6.66383e-16 1.90657e-16 5.29992e-16 0 0 0 0 0 0 0 0
277 1 0.00230997 -0.00316695 0.00618997 0.0008 3.43146e-06 -1.08387e-12 2.67362e-13 -7.44568e-13 5.17399e-10 2.47818e-10 -1.09096e-09 -9.18718e-16 1.28924e-15 2.88225e-16 0 0 0 0 0 0 0 0
278 1 0.00389414 -0.00028332 0.00531433 0.0008 3.43146e-06 -1.08266e-12 -1.35266e-13 3.79594e-13 1.0078e-09 -3.21248e-10 -1.51541e-09 -4.06706e-17 -5.89475e-17 -4.64988e-16 0 0 0 0 0 0 0 0
279 1 0.00216203 -0.00401992 0.00753537 0.0008 3.43146e-06 -1.0835e-12 1.39615e-12 -6.75269e-13 -1.86922e-09 -8.65963e-10 1.90931e-09 -1.27117e-16 4.28861e-16 -3.61466e-16 0 0 0 0 0 0 0 0
280 1 -0.00266745 -0.00668852 0.00886297 0.0008 3.43146e-06 4.8675e-13 4.97839e-13 1.00624e-13 -8.96119e-11 -5.69594e-10 -3.32538e-10 9.70643e-17 -3.15489e-16 3.11168e-16 1 0.000453346 0.00147946 0.000229024 -0.0029635 -0.00743086 0.00886297 0.0008
281 1 -0.000992043 -0.00157251 0.00650884 0.0008 3.43146e-06 -5.41148e-13 1.58946e-13 -9.38665e-13 7.65544e-10 -8.4351e-10 4.4219e-12 2.2829e-16 1.49023e-16 -1.25451e-15 0 0 0 0 0 0 0 0
282 1 0.000162044 -0.00460202 0.00709479 0.0008 3.43146e-06 -6.78796e-14 1.60733e-12 1.35471e-12 -2.42503e-10 1.47191e-10 2.33308e-11 -2.23477e-16 1.76427e-15 6.9376e-16 0 0 0 0 0 0 0 0
283 1 -0.00461492 0.00324927 0.00608052 0.0008 3.43146e-06 -1.1714e-12 4.12468e-13 -1.21176e-12 1.12432e-10 4.37792e-10 -9.37754e-10 -3.31156e-15 -9.22173e-16 -1.72073e-15 0 0 0 0 0 0 0 0
284 1 0.00337674 -0.0026884 0.00728205 0.0008 3.43146e-06 -1.01537e-12 3.89774e-13 -1.11324e-12 -3.05969e-11 4.57253e-10 1.9183e-09 -4.47103e-16 9.85531e-16 1.54602e-15 0 0 0 0 0 0 0 0
285 1 0.00138238 0.00171346 0.0092767 0.0008 3.43146e-06 5.42101e-13 -5.41984e-13 1.69846e-12 1.94093e-10 7.46181e-10 -1.76343e-10 -7.90077e-17 7.74624e-16 -3.26056e-16 0 0 0 0 0 0 0 0
286 1 0.0038138 -0.000881318 0.00892576 0.0008 3.43146e-06 -1.08416e-12 2.64697e-13 -3.12759e-13 -2.71755e-10 1.14115e-09 1.35147e-10 -5.15164e-16 -6.15387e-16 -1.35372e-16 0 0 0 0 0 0 0 0
287 1 0.00122166 -0.00562564 0.00859737 0.0008 3.43146e-06 5.1289e-13 2.10472e-12 1.02808e-12 -2.69432e-10 1.49488e-09 -2.97032e-10 3.82638e-16 1.05384e-15 -6.33025e-16 0 0 0 0 0 0 0 0
288 1 0.0069307 0.00195251 0.00516059 0.0008 3.43146e-06 -3.99514e-13 -1.74545e-13 2.10715e-13 -1.14065e-10 2.31473e-10 7.20897e-11 -5.07902e-16 -2.49589e-16 2.11616e-16 1 -0.000689209 -0.000145764 0.000134475 0.00770026 0.00216932 0.00516059 0.0008
289 1 -0.000328434 0.00077014 0.00619686 0.0008 3.43146e-06 -1.35733e-13 -1.11752e-13 -1.46778e-12 -4.07057e-10 -4.00285e-10 -1.30291e-10 -7.62242e-17 5.23479e-16 -1.118e-15 0 0 0 0 0 0 0 0
290 1 -0.00178585 0.00226857 0.00800413 0.0008 3.43146e-06 -3.05981e-13 1.35241e-13 2.17991e-12 2.4384e-09 2.88255e-10 -3.23306e-10 -1.16426e-15 1.95724e-15 1.64812e-15 0 0 0 0 0 0 0 0
291 1 0.00186935 0.00695328 0.00476634 0.0008 3.43146e-06 -4.45074e-13 -5.24714e-13 1.18636e-12 -9.16421e-10 2.32782e-09 -3.73755e-10 2.36998e-16 -7.14858e-18 9.34459e-16 1 -6.42501e-05 -0.000146024 2.78045e-05 0.00207701 0.00772567 0.00476634 0.0008
292 1 -0.0022685 0.000516716 0.00596491 0.0008 3.43146e-06 5.03566e-14 2.67152e-13 -1.64962e-12 1.87906e-09 4.30707e-10 6.67763e-11 1.64203e-15 -1.96243e-16 8.26929e-16 0 0 0 0 0 0 0 0
293 1 0.00340873 0.00480677 0.0071782 0.0008 3.43146e-06 1.06521e-12 -8.34619e-13 -2.1646e-12 1.9014e-09 1.03095e-09 5.68117e-10 5.57252e-16 -4.92119e-16 8.8217e-17 0 0 0 0 0 0 0 0
294 1 -0.00250894 0.00525221 0.00714654 0.0008 3.43146e-06 8.61459e-13 3.46406e-13 -1.71741e-12 -1.96876e-09 -1.64985e-09 -3.00567e-09 4.53058e-16 1.21604e-15 4.50105e-16 0 0 0 0 0 0 0 0
295 1 0.000418314 0.00286489 0.00842171 0.0008 3.43146e-06 1.3566e-13 1.08373e-12 6.40228e-13 -6.57222e-10 6.64171e-10 -1.07491e-10 -5.30138e-18 -6.53627e-16 8.06006e-17 0 0 0 0 0 0 0 0
296 1 -0.000619572 -0.000597449 0.00529646 0.0008 3.43146e-06 -2.70941e-13 2.70861e-13 -8.88596e-13 -5.99749e-10 5.69104e-10 -1.75154e-10 2.15972e-16 1.07593e-16 -1.29125e-15 0 0 0 0 0 0 0 0
297 1 0.00121522 -0.00422781 0.00443917 0.0008 3.43146e-06 -4.1288e-14 4.50135e-13 1.54003e-13 -7.92368e-10 -8.38431e-10 5.11868e-10 -6.06919e-16 9.78777e-16 3.89903e-16 0 0 0 0 0 0 0 0
298 1 0.00703383 0.00153802 0.00670244 0.0008 3.43146e-06 -1.97781e-13 5.41926e-13 3.37894e-13 -8.46287e-10 2.22295e-10 -7.20205e-10 3.64904e-16 -3.49582e-17 6.39536e-16 1 -3.66027e-06 -1.09249e-06 9.47876e-07 0.00781535 0.00170891 0.00670244 0.0008
299 1 9.78749e-05 0.00374683 0.0071259 0.0008 3.43146e-06 -6.79526e-14 9.38982e-13 -2.6612e-13 1.49787e-11 -8.91832e-10 5.8961e-10 3.53099e-16 1.83569e-16 -1.43075e-15 0 0 0 0 0 0 0 0
300 1 0.0050485 0.00153381 0.00751169 0.0008 3.43146e-06 1.17147e-12 -5.41795e-13 5.54927e-13 -5.4479e-10 7.07151e-10 1.49523e-10 -3.88855e-15 -3.64804e-16 -1.69416e-15 0 0 0 0 0 0 0 0
301 1 0.000125804 -0.00553895 0.0057829 0.0008 3.43146e-06 6.56163e-14 1.6655e-12 7.54425e-13 -5.92293e-10 -2.85132e-10 -1.40989e-10 6.80091e-17 3.50668e-16 5.3618e-16 0 0 0 0 0 0 0 0
302 1 0.00350771 0.00376077 0.00838428 0.0008 3.43146e-06 1.08336e-12 9.88291e-13 -3.60258e-12 -2.3898e-09 -1.72574e-09 5.74757e-10 8.00821e-17 4.22839e-16 -8.49279e-16 0 0 0 0 0 0 0 0
303 1 0.00719541 0.000259871 0.00492831 0.0008 3.43146e-06 2.71578e-13 1.86945e-13 -3.38408e-13 -7.15406e-10 -4.45253e-10 -2.42901e-10 9.71954e-16 1.76538e-16 -1.65787e-16 1 -6.83846e-05 -8.31334e-07 -7.00658e-06 0.00799479 0.000288742 0.00492831 0.0008
304 1 0.00701577 -0.00162077 0.00639873 0.0008 3.43146e-06 -1.1387e-12 5.42138e-13 -1.67799e-13 -2.22843e-09 2.94583e-10 -3.98021e-10 1.19114e-15 -4.39828e-17 -6.06527e-16 1 -0.000842257 0.000179212 -8.62294e-05 0.00779471 -0.00180071 0.00639873 0.0008
305 1 0.003926 0.00244095 0.00326573 0.0008 3.43146e-06 -2.86035e-13 1.22689e-13 -4.01455e-13 1.35748e-09 -1.40908e-09 -4.53442e-10 1.43804e-16 -3.02877e-16 1.68615e-16 0 0 0 0 0 0 0 0
306 1 0.00188252 -0.00694985 0.00234398 0.0008 3.43146e-06 1.36155e-13 8.09435e-14 2.86114e-14 4.56353e-11 -1.36885e-11 -2.04298e-10 -1.49569e-16 -8.92066e-17 1.49538e-16 1 -8.43395e-05 0.000331324 8.1789e-05 0.00209161 -0.00772173 0.00234398 0.0008
307 1 -0.000530709 -0.00275807 0.00747884 0.0008 3.43146e-06 1.06466e-14 1.00378e-13 -1.32543e-12 8.06555e-11 2.08486e-10 1.41049e-09 2.92832e-16 -1.59676e-15 -9.81094e-16 0 0 0 0 0 0 0 0
308 1 -0.00696728 0.00181747 0.00344933 0.0008 3.43146e-06 -1.17977e-12 2.0347e-13 -6.58746e-13 -4.25973e-10 9.54321e-10 -1.11408e-10 -5.52213e-16 5.73479e-16 -6.85225e-17 1 0.00058562 -8.77013e-05 0.000184391 -0.00774096 0.00201929 0.00344933 0.0008
309 1 -0.000575703 0.00717711 0.00563788 0.0008 3.43146e-06 1.63381e-13 1.99329e-13 -5.19788e-13 7.48878e-10 -1.03149e-09 2.23977e-10 1.41692e-15 4.91361e-16 -5.971e-16 1 6.04936e-05 -0.000138476 1.39458e-05 -0.000639655 0.00797439 0.00563788 0.0008
310 1 -0.00690315 -0.00204745 0.005458 0.0008 3.43146e-06 -1.25377e-13 -1.08412e-12 -2.06295e-13 2.20474e-09 9.04207e-10 -1.26658e-09 -4.95459e-16 1.85031e-16 -2.65447e-16 1 0.000471279 0.00016696 5.56654e-05 -0.00766976 -0.00227483 0.005458 0.0008
311 1 -0.00327787 -0.00180006 0.00637299 0.0008 3.43146e-06 -1.02028e-12 -5.40371e-13 -2.16402e-12 1.58762e-09 -1.15586e-09 1.9988e-09 -4.83993e-16 -5.15854e-17 8.92798e-16 0 0 0 0 0 0 0 0
312 1 -0.00128227 -0.00370431 0.00313421 0.0008 3.43146e-06 9.44681e-14 -8.12642e-13 -1.66224e-13 6.17087e-10 -3.36257e-10 -6.09896e-11 4.14304e-16 -4.65374e-16 -3.86842e-16 0 0 0 0 0 0 0 0
313 1 0.00397221 0.00527815 0.00860091 0.0008 3.43146e-06 2.16743e-12 2.54151e-14 -1.46388e-13 -1.19324e-10 9.13715e-10 1.73439e-09 2.26028e-16 1.03616e-15 -3.41236e-16 0 0 0 0 0 0 0 0
314 1 0.00239122 0.00382072 0.00523695 0.0008 3.43146e-06 -7.46776e-13 -6.57996e-13 1.43886e-12 4.32646e-10 1.47362e-09 1.34956e-10 7.02186e-16 -3.26782e-16 -2.73587e-16 0 0 0 0 0 0 0 0
315 1 -0.00413348 0.00251024 0.00452124 0.0008 3.43146e-06 -9.71069e-14 1.99363e-13 6.57426e-14 -8.28377e-10 6.80417e-10 1.3748e-09 -4.57227e-16 2.24481e-16 -4.5882e-16 0 0 0 0 0 0 0 0
316 1 0.00135667 0.00561113 0.00874351 0.0008 3.43146e-06 4.56748e-13 -2.16729e-12 -4.32599e-13 1.29497e-09 -7.82385e-10 -1.3427e-10 1.3615e-15 5.30053e-16 -1.67798e-15 0 0 0 0 0 0 0 0
317 1 0.00300307 -0.00654405 0.00482275 0.0008 3.43146e-06 -1.08132e-12 9.45333e-13 -9.50937e-13 -8.58996e-10 -9.72865e-10 7.214e-10 -1.37928e-16 -3.75359e-16 -3.21484e-17 1 -6.5193e-05 0.000196181 6.5433e-05 0.00333665 -0.00727095 0.00482275 0.0008
318 1 -0.00700858 0.00165285 0.00764609 0.0008 3.43146e-06 3.36097e-13 -3.97769e-13 -4.9375e-14 1.81325e-09 -3.52479e-10 -3.86653e-10 -6.94104e-16 1.54362e-15 8.29091e-16 1 0.00160848 -0.000281937 0.000117032 -0.0077864 0.00183629 0.00764609 0.0008
319 1 -0.00323071 -9.65411e-05 0.00280511 0.0008 3.43146e-06 -5.38153e-14 -3.40337e-14 -6.14988e-13 -6.94181e-10 7.98456e-10 -5.46851e-10 6.77008e-17 -4.01573e-16 3.44059e-16 0 0 0 0 0 0 0 0
320 1 0.00199615 -0.00540614 0.0035369 0.0008 3.43146e-06 -6.42674e-13 -5.26995e-13 -5.43214e-14 -3.03018e-10 -1.14604e-09 2.78058e-10 -1.46605e-16 5.95887e-16 1.44072e-16 0 0 0 0 0 0 0 0
321 1 -0.000109547 -0.00340011 0.00607571 0.0008 3.43146e-06 6.8617e-14 5.22757e-13 8.17142e-13 -1.09518e-09 -3.54882e-10 5.81759e-11 2.28502e-16 3.10213e-16 1.19603e-15 0 0 0 0 0 0 0 0
322 1 0.00272699 -0.00541893 0.00806758 0.0008 3.43146e-06 3.96656e-13 1.0659e-13 -3.4911e-14 1.28543e-09 2.2685e-09 -1.26573e-09 6.9131e-17 -1.72774e-15 -3.94635e-15 0 0 0 0 0 0 0 0
323 1 -0.00232142 0.00221615 0.00951012 0.0008 3.43146e-06 -4.41575e-13 -5.37496e-13 3.57719e-12 -1.39813e-09 1.16278e-10 -2.39716e-10 -2.08623e-15 3.35106e-15 4.60937e-15 0 0 0 0 0 0 0 0
324 1 -0.00407421 -0.00458608 0.0054768 0.0008 3.43146e-06 7.7012e-13 -4.85826e-13 -1.3083e-12 2.94705e-10 1.48916e-09 -3.20887e-10 6.57109e-16 3.0455e-16 -8.58493e-16 0 0 0 0 0 0 0 0
325 1 -0.00239415 -0.00679105 0.00229811 0.0008 3.43146e-06 6.64333e-13 8.94851e-13 -3.04681e-13 -5.92926e-10 -5.35218e-10 -4.14715e-10 1.35313e-17 -1.3528e-17 1.8734e-16 1 0.000410484 0.00120829 -0.000125371 -0.0026599 -0.00754486 0.00229811 0.0008
326 1 0.00638889 -0.00332012 0.00635108 0.0008 3.43146e-06 -6.76923e-13 5.75854e-13 1.00909e-12 4.93024e-10 1.16202e-09 -2.48018e-10 6.78711e-16 2.79968e-16 2.78681e-16 1 -3.92595e-05 2.18294e-05 -4.93112e-06 0.00709869 -0.00368899 0.00635108 0.0008
327 1 0.00326932 -0.00192556 0.00587651 0.0008 3.43146e-06 -7.65975e-13 5.42059e-13 3.80509e-13 1.46567e-09 -2.74518e-11 7.93366e-10 -1.37484e-16 5.38924e-16 -3.24445e-16 0 0 0 0 0 0 0 0
328 1 0.00204061 -0.00110555 0.00648987 0.0008 3.43146e-06 -1.08394e-12 4.91602e-13 5.83187e-13 -2.00752e-10 -6.75166e-10 -1.05465e-09 -5.25433e-16 3.1077e-17 -1.44607e-15 0 0 0 0 0 0 0 0
329 1 0.00458777 4.57523e-05 0.00787759 0.0008 3.43146e-06 -3.87929e-13 -1.97087e-13 -2.26119e-12 -1.90993e-09 -1.02354e-09 -3.88343e-10 1.36761e-15 -1.76921e-15 -8.27063e-16 0 0 0 0 0 0 0 0
330 1 -0.00274369 -0.00474209 0.00635126 0.0008 3.43146e-06 1.04729e-12 2.6854e-14 -1.75269e-12 2.26448e-09 -1.18577e-09 2.73904e-09 3.73255e-16 -3.29892e-16 1.12125e-17 0 0 0 0 0 0 0 0
331 1 0.00357428 -0.00246162 0.00885345 0.0008 3.43146e-06 1.01534e-12 -3.71683e-13 -9.2215e-13 1.66982e-09 2.74138e-09 2.84684e-09 -1.1081e-16 1.26402e-15 1.56651e-15 0 0 0 0 0 0 0 0
332 1 -0.000595098 0.0044032 0.00516448 0.0008 3.43146e-06 2.70482e-13 -5.63058e-13 -3.08161e-13 7.28103e-10 -4.06929e-11 5.29037e-10 -6.11056e-16 1.16084e-15 2.24479e-16 0 0 0 0 0 0 0 0
333 1 -0.0019096 0.00200373 0.00643177 0.0008 3.43146e-06 -5.41303e-13 1.08187e-12 -4.96631e-13 -6.29321e-10 -4.6044e-11 1.17113e-09 7.93849e-17 -4.11932e-16 2.84398e-15 0 0 0 0 0 0 0 0
334 1 -0.00367179 0.00619355 0.0083378 0.0008 3.43146e-06 -8.23068e-13 1.46114e-12 -4.3357e-12 3.08387e-09 5.38703e-09 3.36837e-11 -7.93204e-16 -1.08026e-15 5.87991e-17 1 8.29098e-05 -8.39188e-05 2.49085e-05 -0.00407969 0.00688158 0.0083378 0.0008
335 1 -0.00626455 -0.00354988 0.00587492 0.0008 3.43146e-06 -9.15622e-13 -3.11683e-13 2.65699e-13 -9.57547e-11 -4.38313e-10 2.22511e-10 2.12131e-16 -2.01838e-18 -1.4733e-16 1 0.000519102 0.000315493 8.98229e-05 -0.00696019 -0.00394408 0.00587492 0.0008
336 1 0.00253508 0.000304425 0.00591895 0.0008 3.43146e-06 -1.06825e-12 -2.54485e-15 8.94436e-14 -8.94169e-10 -1.38096e-10 1.2302e-09 7.08792e-16 1.4869e-15 5.27093e-16 0 0 0 0 0 0 0 0
337 1 0.00049939 0.00132348 0.00800089 0.0008 3.43146e-06 2.22253e-13 -2.06946e-13 4.02267e-13 5.57828e-10 -1.271e-09 -7.2233e-11 -1.90165e-16 -6.31941e-16 1.1882e-15 0 0 0 0 0 0 0 0
338 1 -0.00476365 0.00539883 0.00919532 0.0008 3.43146e-06 5.57991e-13 -2.16885e-12 -4.33521e-12 4.24073e-09 -9.0735e-10 8.17771e-11 1.97493e-15 8.22414e-16 8.09674e-16 0 0 0 0 0 0 0 0
339 1 -0.00594429 -0.000767478 0.00548373 0.0008 3.43146e-06 1.06271e-12 -2.70656e-13 -2.29144e-13 -2.08899e-09 -7.02617e-10 6.95105e-10 -1.32692e-16 -4.46079e-16 7.95051e-16 0 0 0 0 0 0 0 0
340 1 -0.000603756 0.00218407 0.00550132 0.0008 3.43146e-06 -2.10507e-13 7.75429e-13 -1.23266e-12 1.32282e-09 -6.10576e-10 4.8315e-10 1.53627e-15 3.84069e-16 -1.26865e-15 0 0 0 0 0 0 0 0
341 1 -0.00700225 -0.00113685 0.00239563 0.0008 3.43146e-06 3.9466e-14 -3.83265e-13 7.2634e-14 1.42941e-09 8.91007e-10 1.58435e-09 5.91062e-16 -8.24671e-17 2.43441e-16 0 0 0 0 0 0 0 0
342 1 0.00218381 0.00164777 0.00784805 0.0008 3.43146e-06 1.08402e-12 -2.45038e-13 -1.07412e-12 4.03127e-10 2.11838e-10 1.73744e-09 -4.64495e-16 -2.16439e-15 -6.69948e-16 0 0 0 0 0 0 0 0
343 1 0.000533225 -0.00488687 0.00315133 0.0008 3.43146e-06 -7.45342e-14 -7.55179e-13 -7.70137e-13 -1.1511e-10 1.794e-10 -2.60246e-10 -4.82445e-16 6.91141e-16 -3.49718e-17 0 0 0 0 0 0 0 0
344 1 -0.00349587 -0.00629458 0.00637263 0.0008 3.43146e-06 1.04779e-12 -1.14119e-12 9.51606e-13 9.90556e-10 -6.60779e-10 -1.85673e-09 1.23443e-16 1.95246e-16 2.97585e-16 1 0.000117528 0.000139989 4.08927e-05 -0.00388419 -0.00699379 0.00637263 0.0008
345 1 0.00510918 0.00334828 0.00677298 0.0008 3.43146e-06 1.93366e-12 -1.08399e-12 1.07463e-12 3.52541e-09 1.99766e-10 -2.17883e-09 1.58323e-15 -3.74388e-16 -9.45265e-16 0 0 0 0 0 0 0 0
346 1 -0.0046067 -0.00480854 0.00815208 0.0008 3.43146e-06 1.05699e-12 2.22197e-13 9.91228e-13 4.18942e-09 2.52675e-09 3.10891e-09 -3.64536e-16 -1.43149e-15 -1.40341e-16 0 0 0 0 0 0 0 0
347 1 -0.000707828 -0.0030849 0.00903481 0.0008 3.43146e-06 2.70689e-13 4.157e-14 -1.59404e-12 1.14886e-10 1.16276e-10 -1.50811e-09 -7.09613e-16 -2.30041e-15 1.69543e-15 0 0 0 0 0 0 0 0
348 1 0.00132134 -0.00707844 0.00925959 0.0008 3.43146e-06 4.14052e-13 4.65329e-13 8.90204e-13 1.12155e-09 -7.05168e-11 -5.58037e-10 -2.01076e-16 1.09483e-15 -2.97996e-16 1 -6.20617e-05 0.00129788 0.000186455 0.001468 -0.00786416 0.00925959 0.0008
349 1 0.00109292 -0.00711705 0.0063043 0.0008 3.43146e-06 -3.90294e-13 1.1552e-12 3.07746e-13 4.39642e-10 -3.2545e-10 2.60739e-10 -1.1514e-15 7.58897e-16 -5.97712e-16 1 -6.59582e-05 0.000704006 0.000112628 0.00121428 -0.00790731 0.0063043 0.0008
350 1 0.00131447 0.00102718 0.00665745 0.0008 3.43146e-06 4.83239e-13 -5.40987e-13 -4.04882e-13 -2.85405e-10 1.3208e-09 -8.55529e-10 -1.68165e-16 -3.01098e-16 2.62653e-15 0 0 0 0 0 0 0 0
351 1 -0.00238374 0.00679404 0.00907205 0.0008 3.43146e-06 -1.26122e-13 -1.6548e-12 -2.22835e-12 4.59995e-09 -4.83846e-09 -6.80215e-10 4.13235e-16 9.51691e-16 -1.85725e-15 1 2.39344e-05 -4.10931e-05 7.89297e-06 -0.00264857 0.00754885 0.00907205 0.0008
352 1 -0.00377594 0.000341997 0.00648482 0.0008 3.43146e-06 -7.45458e-13 -3.53805e-14 1.33058e-13 -3.07939e-10 8.64647e-10 4.04133e-10 1.80337e-16 1.79497e-15 2.97729e-15 0 0 0 0 0 0 0 0
353 1 0.00272117 -0.00510371 0.00649913 0.0008 3.43146e-06 -1.0841e-12 1.22586e-12 2.04443e-12 5.94754e-10 6.2014e-11 -9.0322e-10 1.10536e-16 9.30213e-16 -4.30964e-16 0 0 0 0 0 0 0 0
354 1 -0.00125175 0.000847457 0.00750043 0.0008 3.43146e-06 -5.4173e-13 2.70818e-13 -6.62901e-14 -9.10109e-11 1.05405e-09 2.46717e-10 2.69781e-16 1.18945e-16 3.78009e-16 0 0 0 0 0 0 0 0
355 1 0.00377514 -0.00377895 0.0059991 0.0008 3.43146e-06 -7.99931e-13 2.67285e-13 7.88052e-13 -1.92257e-09 -1.78503e-09 1.32056e-09 2.72951e-16 6.66119e-16 7.918e-16 0 0 0 0 0 0 0 0
356 1 -0.00131076 -0.00707974 0.00345999 0.0008 3.43146e-06 -5.42023e-13 1.57263e-12 -8.27808e-13 -1.42809e-09 -2.23128e-09 1.05501e-09 -8.37854e-17 1.9617e-16 -6.05646e-16 1 -1.49433e-06 3.17408e-05 5.61354e-06 -0.00145638 -0.00786632 0.00345999 0.0008
357 1 -0.00719801 -0.000184024 0.00468003 0.0008 3.43146e-06 -8.39695e-13 -4.84605e-14 -9.22304e-13 1.94016e-09 1.20583e-09 -3.0896e-11 3.42544e-16 4.79785e-16 4.49368e-16 1 0.000471055 -5.96444e-05 6.60968e-05 -0.00799739 -0.000204461 0.00468003 0.0008
358 1 -0.00281478 0.000779827 0.0090065 0.0008 3.43146e-06 -1.08213e-12 2.1097e-13 -3.57462e-13 -1.34964e-10 6.66055e-10 1.1115e-09 -7.27161e-16 -8.63153e-16 6.46056e-16 0 0 0 0 0 0 0 0
359 1 0.00494419 0.00523482 0.00733104 0.0008 3.43146e-06 1.03035e-12 2.16609e-12 -1.2383e-12 3.01231e-09 9.85595e-10 -9.5591e-10 -2.25041e-16 1.84171e-16 1.1215e-15 1 -0.000510968 -0.000808422 0.000286129 0.00549311 0.00581599 0.00733104 0.0008
360 1 0.00319528 0.00127983 0.00408832 0.0008 3.43146e-06 -3.49402e-13 -3.46651e-13 -2.13395e-13 -7.9426e-10 2.16824e-09 1.77754e-10 -1.31368e-17 2.96233e-16 -1.59332e-16 0 0 0 0 0 0 0 0
361 1 -0.00523008 -0.00264826 0.00669666 0.0008 3.43146e-06 -1.5073e-12 -9.18162e-13 1.35858e-12 1.49219e-09 -6.30126e-10 -1.09049e-10 -6.98964e-16 3.92077e-16 1.27632e-15 0 0 0 0 0 0 0 0
362 1 -0.00547424 0.000670433 0.00600277 0.0008 3.43146e-06 -1.60249e-13 -2.64767e-13 -2.15674e-12 -1.06687e-09 -2.20992e-09 -4.28523e-10 -5.30485e-16 -5.27982e-17 3.96467e-16 0 0 0 0 0 0 0 0
363 1 0.00639604 0.00330699 0.0058232 0.0008 3.43146e-06 -1.3515e-13 -3.91121e-13 8.61418e-13 3.95558e-10 1.43271e-09 3.58242e-10 -3.11957e-17 5.66202e-17 5.89112e-16 1 -0.000449711 -0.000199761 -7.08212e-05 0.00710633 0.00367424 0.0058232 0.0008
364 1 -0.00390849 -0.00604733 0.00484752 0.0008 3.43146e-06 -3.51426e-13 -1.06485e-13 -1.18944e-12 -5.68667e-10 1.86975e-09 3.10868e-10 -2.35633e-16 2.60217e-16 -2.49325e-16 1 0.00040523 0.000508641 0.000242528 -0.00434249 -0.00671884 0.00484752 0.0008
365 1 -0.00718508 0.000472591 0.00616766 0.0008 3.43146e-06 -1.4531e-12 -6.19468e-14 -1.97067e-12 -1.34216e-09 2.56161e-09 -1.90899e-10 2.01252e-16 1.49513e-15 2.27999e-16 1 0.000974401 -0.000273151 5.14871e-05 -0.00798275 0.000525057 0.00616766 0.0008
366 1 -0.00555656 -0.00457941 0.00487584 0.0008 3.43146e-06 -5.51955e-13 -2.21432e-13 -1.17641e-13 3.75902e-10 5.00033e-10 2.39452e-10 -4.06961e-16 4.88994e-16 -4.33726e-16 1 0.000499665 0.000369403 5.78605e-05 -0.00617358 -0.00508792 0.00487584 0.0008
367 1 0.00248189 0.00194455 0.00606233 0.0008 3.43146e-06 6.34249e-13 -3.9548e-13 -7.83916e-13 3.32202e-09 1.48543e-09 -7.68787e-10 8.06149e-17 -1.75277e-15 3.51514e-15 0 0 0 0 0 0 0 0
368 1 -0.000950392 -0.00466472 0.0089748 0.0008 3.43146e-06 -2.7062e-13 -9.09657e-13 2.60912e-13 -2.43948e-09 3.49293e-10 9.42605e-10 -2.75373e-17 9.47381e-16 2.1695e-15 0 0 0 0 0 0 0 0
369 1 0.00708304 0.00129413 0.00371073 0.0008 3.43146e-06 3.0057e-13 -3.99539e-13 -6.48608e-13 2.75549e-10 -7.73734e-10 5.60954e-10 -2.87382e-16 -1.8094e-17 -5.5369e-16 1 -0.000335041 -4.7921e-05 0.000117845 0.00786972 0.00143786 0.00371073 0.0008
370 1 -0.00200778 -0.00269889 0.00600029 0.0008 3.43146e-06 -9.92891e-13 9.05142e-13 -2.16712e-12 5.38634e-10 -2.46204e-11 -1.02783e-09 -2.31064e-16 2.46627e-17 -5.12071e-17 0 0 0 0 0 0 0 0
371 1 0.00462679 0.00538713 0.00479914 0.0008 3.43146e-06 1.24068e-12 1.63728e-12 -8.66589e-13 -6.83504e-10 4.90454e-10 -1.08954e-09 -6.14785e-16 -3.36605e-16 -1.78083e-17 0 0 0 0 0 0 0 0
372 1 -0.00419812 -0.00240891 0.00303813 0.0008 3.43146e-06 -1.28573e-14 -1.08289e-12 -6.77052e-13 9.71478e-10 5.58651e-11 -5.38208e-11 3.82078e-16 -3.51937e-16 6.70868e-16 0 0 0 0 0 0 0 0
373 1 -0.00170876 0.00699525 0.00452338 0.0008 3.43146e-06 4.7632e-13 6.93539e-13 -1.01493e-12 1.17288e-09 5.5674e-10 7.85627e-10 -2.23849e-16 1.20088e-16 1.87496e-16 1 0.000730186 -0.00177709 -0.000227428 -0.00189837 0.0077715 0.00452338 0.0008
374 1 0.00520527 -0.00358658 0.0053081 0.0008 3.43146e-06 -1.22664e-12 3.28764e-13 2.05473e-12 -9.47978e-10 2.37143e-10 3.00987e-10 4.64218e-16 6.74302e-16 5.1486e-16 0 0 0 0 0 0 0 0
375 1 -0.00580947 -0.00297584 0.0081508 0.0008 3.43146e-06 -6.20444e-13 -4.94227e-13 3.89058e-13 -3.10004e-10 1.99059e-09 -3.40088e-09 -4.54777e-17 -1.14502e-16 -1.14887e-16 0 0 0 0 0 0 0 0
376 1 0.00578452 0.000508685 0.00421624 0.0008 3.43146e-06 4.39513e-13 2.70495e-13 -6.72369e-13 -1.3139e-09 3.30154e-10 -8.59018e-10 -2.27563e-16 1.26235e-16 -8.68493e-16 0 0 0 0 0 0 0 0
377 1 0.00399637 -0.00423892 0.00448371 0.0008 3.43146e-06 -1.59349e-13 -3.83191e-13 7.03659e-13 1.16699e-09 1.0716e-09 -1.1334e-09 -4.24371e-16 1.18234e-15 4.20048e-16 0 0 0 0 0 0 0 0
378 1 0.00529707 -0.00487797 0.00801085 0.0008 3.43146e-06 8.57654e-13 5.32317e-14 -2.66937e-13 -9.7087e-10 4.44947e-10 -7.57169e-10 -9.67242e-16 5.57986e-16 7.83861e-16 1 -0.00137329 0.00135671 -0.000117297 0.00588487 -0.00541926 0.00801085 0.0008
379 1 0.000828064 -0.00400006 0.00841854 0.0008 3.43146e-06 -1.55354e-13 1.70856e-12 -1.24878e-12 -1.29803e-09 9.72157e-10 -2.81442e-10 -2.55698e-16 1.05572e-15 1.19129e-16 0 0 0 0 0 0 0 0
380 1 -0.00659442 0.00289169 0.0060424 0.0008 3.43146e-06 6.35736e-13 2.54954e-14 1.14627e-12 -4.02598e-09 1.99514e-10 3.47881e-10 -2.28638e-16 8.17318e-16 -1.85318e-17 1 0.000800869 -0.000484126 6.83135e-06 -0.00732655 0.00321273 0.0060424 0.0008
381 1 -0.00403713 -0.00379146 0.00686462 0.0008 3.43146e-06 1.77911e-12 -2.15878e-13 -1.48807e-12 -6.58765e-10 -1.38323e-10 1.50984e-10 -2.35855e-16 -1.21987e-15 -5.05583e-16 0 0 0 0 0 0 0 0
382 1 0.00235035 0.00680567 0.00635308 0.0008 3.43146e-06 7.1806e-13 -2.94811e-13 1.17307e-12 -1.0576e-09 1.42966e-09 9.64574e-10 -1.41739e-16 5.5844e-16 1.28425e-15 1 -1.91771e-05 -5.78935e-05 4.29119e-06 0.00261147 0.00756176 0.00635308 0.0008
383 1 -0.000813812 0.00715433 0.00319831 0.0008 3.43146e-06 -2.70835e-13 -1.17617e-12 -5.42042e-13 6.55328e-10 1.70293e-10 -5.14358e-10 -7.63544e-17 3.58777e-16 2.52149e-16 1 6.37053e-05 -0.000685551 0.000100238 -0.000904177 0.00794874 0.00319831 0.0008
384 1 -0.00122247 0.00343961 0.00627606 0.0008 3.43146e-06 4.63665e-14 1.08418e-12 -1.5833e-12 -1.17647e-09 -6.58814e-10 -1.69011e-09 9.52809e-16 7.39587e-16 -4.43357e-16 0 0 0 0 0 0 0 0
385 1 0.00248659 0.00305791 0.00359029 0.0008 3.43146e-06 -1.90162e-13 -1.83044e-13 -4.24001e-13 1.68814e-09 1.28034e-10 8.06063e-11 1.90006e-15 1.149e-15 9.5905e-16 0 0 0 0 0 0 0 0
386 1 0.00191312 0.000393655 0.00444823 0.0008 3.43146e-06 -5.41684e-13 -1.0054e-13 1.17338e-12 9.82677e-10 3.69005e-11 -8.93785e-10 -1.72868e-16 1.04047e-15 -7.02515e-17 0 0 0 0 0 0 0 0
387 1 0.00264637 -0.00669648 0.00637424 0.0008 3.43146e-06 -1.08353e-12 5.41035e-13 9.57952e-13 7.46579e-10 1.35667e-09 1.02767e-09 -2.07258e-16 1.80185e-16 4.95996e-17 1 -0.000184586 0.000553949 -5.56432e-05 0.00294024 -0.00744009 0.00637424 0.0008
388 1 -0.00266382 0.00333445 0.00719742 0.0008 3.43146e-06 -9.85396e-13 -1.3606e-13 1.3766e-12 -1.83777e-09 -2.10601e-09 2.34217e-09 1.51248e-15 1.23027e-15 -2.95316e-15 0 0 0 0 0 0 0 0
389 1 0.000704103 -0.00163299 0.00247854 0.0008 3.43146e-06 1.00581e-15 2.38846e-13 3.4503e-13 -1.27008e-09 -9.0311e-10 2.91294e-10 5.20131e-16 -4.0469e-16 -7.0534e-16 0 0 0 0 0 0 0 0
390 1 -0.0013328 0.00017954 0.00897155 0.0008 3.43146e-06 -2.91274e-13 1.59529e-13 -7.34228e-13 1.86842e-09 -8.27777e-10 -7.56485e-10 -5.82296e-16 -1.82956e-15 1.03784e-15 0 0 0 0 0 0 0 0
391 1 0.00395474 0.00422603 0.00579132 0.0008 3.43146e-06 4.38981e-13 2.80604e-13 -2.13376e-12 3.57103e-10 -1.50763e-09 -3.06247e-09 1.01226e-15 -1.14667e-15 3.1979e-16 0 0 0 0 0 0 0 0
392 1 -0.00228771 0.00391349 0.00372098 0.0008 3.43146e-06 -7.99362e-13 1.55503e-12 4.91176e-13 -2.31025e-09 8.33225e-10 -1.54659e-09 1.46493e-16 1.51523e-15 -3.0654e-16 0 0 0 0 0 0 0 0
393 1 0.00132403 -0.00569697 0.00700264 0.0008 3.43146e-06 -5.3955e-13 2.06318e-12 1.39938e-12 2.40755e-10 -1.96307e-10 -4.84723e-11 2.18167e-16 1.57575e-15 -3.79493e-16 0 0 0 0 0 0 0 0
394 1 -0.00562321 0.0040863 0.00865942 0.0008 3.43146e-06 1.01346e-12 3.27696e-13 7.93185e-13 -7.5436e-10 2.19388e-09 -2.01392e-09 3.94948e-15 8.47136e-15 -5.89095e-15 0 0 0 0 0 0 0 0
395 1 0.00440682 0.00122092 0.0051308 0.0008 3.43146e-06 1.36411e-12 3.28962e-13 1.27757e-13 -1.62396e-09 -1.01358e-09 -1.06055e-09 -9.90903e-16 -7.36344e-16 2.35179e-16 0 0 0 0 0 0 0 0
396 1 -0.0021482 -0.00102309 0.00554952 0.0008 3.43146e-06 -6.30912e-13 5.40349e-13 -1.95532e-12 -1.46026e-09 2.2356e-10 -7.57193e-10 1.75793e-15 1.34883e-16 -5.14222e-16 0 0 0 0 0 0 0 0
397 1 -0.000906305 0.00714336 0.008384 0.0008 3.43146e-06 1.10001e-13 -1.07258e-12 -2.81293e-12 3.60962e-09 1.85874e-10 -4.13924e-11 6.75535e-16 -7.57165e-16 -3.08954e-16 1 0.00015917 -0.00104251 4.64336e-05 -0.00100692 0.00793638 0.008384 0.0008
398 1 0.00550434 -0.00137037 0.00934512 0.0008 3.43146e-06 -1.36878e-12 5.4129e-13 1.81793e-12 -7.27571e-10 2.0076e-09 -1.76687e-10 1.29875e-16 8.06076e-16 5.49537e-16 0 0 0 0 0 0 0 0
399 1 -0.00312569 0.002774 0.00573463 0.0008 3.43146e-06 -8.29513e-13 5.19248e-13 -6.08981e-13 1.3591e-09 -6.06419e-10 1.71255e-10 7.68098e-16 2.01108e-16 -1.05561e-15 0 0 0 0 0 0 0 0
400 1 -0.00584067 0.00421042 0.00663922 0.0008 3.43146e-06 5.65313e-13 1.55424e-12 1.36192e-13 -1.05797e-09 3.86027e-10 2.0995e-09 -5.51694e-15 -1.76836e-15 -2.94408e-15 1 3.58101e-05 -2.3844e-05 6.95793e-06 -0.00648957 0.0046782 0.00663922 0.0008
401 1 -0.000583499 -0.00227126 0.0032679 0.0008 3.43146e-06 2.25416e-13 -1.08417e-12 -3.11627e-13 -1.14135e-09 -3.86333e-10 -3.0761e-10 2.42943e-15 -4.8119e-16 -8.20422e-16 0 0 0 0 0 0 0 0
402 1 -0.00115233 0.000836016 0.00482738 0.0008 3.43146e-06 8.71852e-14 2.71044e-13 -5.52713e-13 5.18739e-10 7.61941e-10 -6.55774e-10 6.93e-17 -2.11091e-16 -3.16912e-15 0 0 0 0 0 0 0 0
403 1 -0.00165124 -0.00382737 0.00707862 0.0008 3.43146e-06 1.51389e-13 2.9007e-13 -5.37745e-13 -1.2356e-09 -1.03844e-10 -1.64129e-09 1.42341e-15 -6.28933e-17 -1.30039e-16 0 0 0 0 0 0 0 0
404 1 0.00197223 0.00692506 0.0080697 0.0008 3.43146e-06 2.97866e-13 -1.05846e-12 1.75517e-13 -8.42824e-12 8.10437e-10 6.70342e-10 -2.54047e-16 2.78345e-16 -6.12987e-16 1 -0.000175358 -0.000559643 2.77275e-05 0.00219124 0.00769405 0.0080697 0.0008
405 1 -0.00179873 -0.00697177 0.00585491 0.0008 3.43146e-06 5.41919e-13 1.28432e-12 5.39101e-14 -5.8976e-10 -2.61082e-09 -2.6572e-10 1.14278e-17 -2.33784e-16 -2.53729e-16 1 2.06067e-05 3.60459e-05 5.81412e-06 -0.00199857 -0.00774634 0.00585491 0.0008
406 1 -0.00364223 0.00403023 0.00460955 0.0008 3.43146e-06 2.98164e-13 5.7799e-13 -9.81967e-13 7.73707e-10 3.62863e-09 -1.43594e-09 -5.18511e-17 -8.70547e-16 -1.82285e-15 0 0 0 0 0 0 0 0
407 1 -0.00703738 -0.0015216 0.00830853 0.0008 3.43146e-06 -1.06278e-12 -2.63834e-14 -4.3339e-12 -3.57653e-10 -2.24723e-10 1.30623e-09 8.15961e-16 -1.56938e-15 -2.99455e-16 0 0 0 0 0 0 0 0
408 1 0.00720047 -5.25067e-05 0.00665491 0.0008 3.43146e-06 -7.79159e-13 4.96828e-14 -4.73807e-13 1.9052e-09 -5.92127e-10 -7.86358e-11 8.99805e-16 -1.92839e-16 3.61349e-16 1 -0.00113672 0.00013501 0.000303295 0.00799979 -5.83354e-05 0.00665491 0.0008
409 1 -0.00364787 -0.00620802 0.0100315 0.0008 3.43146e-06 2.85815e-13 1.48354e-13 7.4981e-13 1.39309e-09 5.20738e-10 -2.11972e-10 2.79118e-16 -5.5502e-16 7.38939e-17 1 0.00022927 0.000605871 -1.86126e-05 -0.00405293 -0.00689737 0.0100315 0.0008
410 1 -0.00247116 0.006763 0.00591112 0.0008 3.43146e-06 -2.85212e-13 -1.7236e-12 3.97255e-13 5.53848e-10 -2.91782e-09 -1.06214e-09 7.41004e-16 4.69644e-16 -7.86055e-16 1 0.000158431 -0.000370942 0.000104666 -0.0027456 0.0075141 0.00591112 0.0008
411 1 0.00693168 0.00194826 0.00897573 0.0008 3.43146e-06 1.53055e-13 -1.30775e-13 -1.15217e-12 -2.52137e-09 -2.20202e-09 2.74915e-10 2.3182e-16 1.07337e-15 -4.94926e-16 1 -0.000290081 -6.57952e-05 7.43254e-05 0.00770158 0.00216465 0.00897573 0.0008
412 1 -0.00519102 0.00336716 0.00368172 0.0008 3.43146e-06 -1.41173e-12 5.99062e-13 -1.88868e-13 3.09437e-10 4.82285e-10 -1.32056e-09 -7.36557e-16 -8.47703e-16 -8.37838e-16 0 0 0 0 0 0 0 0
413 1 -0.00281657 0.00117488 0.00745654 0.0008 3.43146e-06 -1.08258e-12 1.50054e-13 1.77811e-14 1.65554e-10 -9.24444e-10 4.67867e-11 -8.29116e-16 1.35858e-15 2.80458e-15 0 0 0 0 0 0 0 0
414 1 -0.00215676 -0.00208662 0.00747748 0.0008 3.43146e-06 -2.29577e-13 -1.05153e-13 -1.43908e-12 -3.07631e-10 6.92324e-10 3.4576e-10 -4.22224e-16 3.35485e-16 4.88532e-16 0 0 0 0 0 0 0 0
415 1 0.00153336 -0.00603709 0.00520806 0.0008 3.43146e-06 -1.13363e-13 2.10778e-12 1.39482e-12 3.57129e-10 -2.75106e-10 6.35179e-10 5.1518e-16 1.40663e-16 4.74594e-16 0 0 0 0 0 0 0 0
416 1 0.00246117 -0.00387307 0.00350058 0.0008 3.43146e-06 4.27368e-13 1.16205e-13 9.46425e-14 -1.26807e-10 3.60968e-10 -4.74338e-10 2.32926e-16 6.51399e-16 5.26134e-16 0 0 0 0 0 0 0 0
417 1 0.00495585 -0.00334708 0.00769875 0.0008 3.43146e-06 -8.66196e-13 1.08377e-12 1.35579e-13 9.88044e-10 3.13575e-09 1.89642e-09 -6.82709e-16 -7.2637e-18 2.42062e-15 0 0 0 0 0 0 0 0
418 1 0.00403247 0.00227518 0.00627412 0.0008 3.43146e-06 9.65437e-13 -1.84576e-13 -1.34381e-12 9.03285e-10 1.88219e-10 1.53342e-09 4.54303e-16 -2.64334e-15 8.63086e-16 0 0 0 0 0 0 0 0
419 1 -7.975e-05 -0.00720048 0.00521956 0.0008 3.43146e-06 -3.38667e-14 1.29441e-12 1.09384e-13 1.36761e-10 -1.30385e-10 6.33876e-11 -2.01533e-16 1.03497e-16 3.81842e-16 1 -9.18207e-05 0.00189061 0.000573632 -8.85997e-05 -0.00799951 0.00521956 0.0008
420 1 0.00202827 -0.00311138 0.0128404 0.0008 3.43146e-06 2.36337e-13 6.34508e-13 1.01922e-12 -1.03144e-09 -4.08051e-10 -4.66645e-10 -8.52492e-17 -5.34122e-16 -2.23098e-15 0 0 0 0 0 0 0 0
421 1 0.00198196 -0.00692198 0.00781145 0.0008 3.43146e-06 8.54431e-13 5.77481e-13 -1.62766e-13 -3.0383e-10 3.15017e-10 -1.28322e-09 3.30601e-16 9.88219e-16 -8.16126e-16 1 -4.35507e-05 9.72252e-05 2.60071e-05 0.00220213 -0.00769094 0.00781145 0.0008
422 1 -0.00210469 0.00593811 0.0103945 0.0008 3.43146e-06 6.6668e-13 -1.80459e-12 -1.20136e-12 -4.79099e-09 3.82172e-09 3.60536e-09 2.56014e-15 6.84488e-16 -5.79888e-15 0 0 0 0 0 0 0 0
423 1 -0.00343105 0.00251287 0.00833568 0.0008 3.43146e-06 -1.02001e-12 1.08406e-12 6.51329e-13 -1.22004e-09 -8.94473e-10 4.90145e-10 -1.09743e-15 -1.46092e-16 2.23389e-15 0 0 0 0 0 0 0 0
424 1 0.00282811 0.00147318 0.00991851 0.0008 3.43146e-06 1.08246e-12 5.41241e-13 5.01626e-13 -7.67824e-10 9.41922e-10 1.52983e-09 -7.36691e-16 -2.9566e-16 -1.16737e-15 0 0 0 0 0 0 0 0
425 1 0.00414782 -0.00398155 0.00892467 0.0008 3.43146e-06 1.65037e-12 1.08467e-12 1.80828e-12 -2.30517e-09 -1.37667e-11 1.24607e-10 -3.51265e-17 2.93152e-16 3.26737e-16 0 0 0 0 0 0 0 0
426 1 0.00150275 0.00634436 0.0113864 0.0008 3.43146e-06 5.41956e-13 -3.49368e-13 8.38288e-13 1.98085e-09 -6.20513e-10 -6.37676e-11 1.62378e-16 2.09199e-15 -1.48445e-15 0 0 0 0 0 0 0 0
427 1 0.00691452 -0.00200871 0.0133184 0.0008 3.43146e-06 -7.09024e-13 -2.02452e-13 1.76577e-12 -7.1123e-10 2.50227e-09 4.9368e-10 1.73613e-16 1.05861e-16 -4.98062e-16 1 -0.000478276 0.000182629 1.1623e-05 0.00768239 -0.00223178 0.0133184 0.0008
428 1 -0.00486985 0.00324888 0.0108589 0.0008 3.43146e-06 2.16836e-12 -3.12782e-13 6.3327e-13 1.13334e-09 1.54632e-09 2.44339e-09 2.58551e-16 -2.64659e-16 2.35878e-15 0 0 0 0 0 0 0 0
429 1 0.00378515 0.000285105 0.0115946 0.0008 3.43146e-06 7.8476e-13 -1.34929e-13 -1.38603e-12 -5.88145e-10 -1.76264e-09 7.25932e-10 -5.1728e-16 2.43105e-16 -7.11103e-16 0 0 0 0 0 0 0 0
430 1 -0.00502292 0.00515869 0.007635 0.0008 3.43146e-06 -3.9193e-13 2.16192e-12 -2.16826e-12 1.08125e-09 2.95517e-09 1.57863e-09 1.15336e-15 -1.04483e-15 3.43024e-16 1 5.93816e-05 -7.61143e-05 1.81884e-05 -0.00558093 0.00573177 0.007635 0.0008
431 1 -0.00455485 -0.00557634 0.0111876 0.0008 3.43146e-06 -6.58473e-13 -1.90821e-13 3.31465e-13 -9.83737e-10 -1.89399e-09 4.99354e-10 -8.12672e-16 -3.512e-16 2.36168e-16 1 7.22222e-05 0.000107711 3.28901e-05 -0.00506083 -0.0061958 0.0111876 0.0008
432 1 -0.00385478 0.00446447 0.00679064 0.0008 3.43146e-06 -3.67954e-13 1.61965e-12 -2.16828e-12 -3.37955e-09 -2.05273e-09 -6.76654e-10 2.97894e-15 3.73661e-16 4.51686e-15 0 0 0 0 0 0 0 0
433 1 0.00361853 -0.00186864 0.0118431 0.0008 3.43146e-06 4.35535e-13 8.23332e-14 6.46164e-13 3.28116e-10 2.06998e-10 -6.06251e-10 1.3675e-15 -4.3087e-16 3.4379e-16 0 0 0 0 0 0 0 0
434 1 -0.00482751 0.00114051 0.0112396 0.0008 3.43146e-06 -1.5355e-12 -2.65421e-13 -3.41147e-12 -3.05299e-09 1.06073e-09 -2.80231e-09 1.88268e-15 3.21179e-15 1.78908e-15 0 0 0 0 0 0 0 0
435 1 -0.00465007 -0.00162271 0.0119618 0.0008 3.43146e-06 5.47603e-13 5.41749e-13 1.27973e-12 -3.79285e-09 1.73601e-10 2.0271e-09 -2.29269e-15 3.26575e-16 6.2275e-15 0 0 0 0 0 0 0 0
436 1 0.00359249 0.000899406 0.00696135 0.0008 3.43146e-06 1.08417e-12 -2.6805e-13 -1.31028e-12 3.52582e-11 2.82853e-09 -2.83313e-09 -7.31257e-16 1.27458e-15 -1.83939e-15 0 0 0 0 0 0 0 0
437 1 -0.00119548 -0.00624736 0.0093057 0.0008 3.43146e-06 5.41646e-13 2.0671e-13 4.05893e-13 -1.49069e-09 -3.02088e-10 -5.4031e-10 -2.26676e-16 1.23352e-16 -2.45615e-17 0 0 0 0 0 0 0 0
438 1 0.00208585 -0.00605604 0.0117225 0.0008 3.43146e-06 1.08404e-12 -6.15237e-13 1.007e-12 -2.14749e-09 -2.60607e-10 8.01149e-14 1.47084e-16 8.16708e-17 2.02677e-16 0 0 0 0 0 0 0 0
439 1 0.000986495 -0.00210637 0.010045 0.0008 3.43146e-06 -4.42811e-13 1.08368e-12 1.60093e-12 8.73778e-10 7.65622e-10 -2.13823e-10 1.39739e-15 -3.0215e-16 -3.42114e-16 0 0 0 0 0 0 0 0
440 1 -0.0019325 0.000263821 0.0128396 0.0008 3.43146e-06 -5.41523e-13 -1.17576e-13 4.49234e-13 -9.21038e-10 -6.6941e-10 1.55405e-10 -5.16559e-16 -1.8492e-16 5.87384e-15 0 0 0 0 0 0 0 0
441 1 -0.000518739 -0.0056398 0.0119082 0.0008 3.43146e-06 -5.9e-14 1.60639e-13 2.6169e-12 -3.09737e-10 -1.66268e-09 9.38565e-10 9.51722e-16 1.01243e-15 6.2466e-16 0 0 0 0 0 0 0 0
442 1 -0.000483478 -7.31215e-06 0.0122195 0.0008 3.43146e-06 -1.33876e-13 2.35114e-13 2.02354e-12 2.50122e-09 -1.68924e-09 -4.85747e-10 -8.93963e-16 -2.56108e-15 3.60303e-15 0 0 0 0 0 0 0 0
443 1 -0.000694482 -0.00716658 0.0114642 0.0008 3.43146e-06 2.70512e-13 -1.55384e-12 1.09601e-12 1.43033e-09 4.88885e-10 -5.70333e-10 2.44161e-16 1.39689e-15 8.40959e-16 1 1.90836e-05 0.000123767 4.42939e-05 -0.000771631 -0.0079627 0.0114642 0.0008
444 1 -0.00464998 0.000589007 0.00970972 0.0008 3.43146e-06 -1.37298e-12 -1.02286e-13 1.38954e-13 1.24937e-09 9.74127e-11 -7.24561e-10 3.2992e-15 -1.72868e-15 -3.10375e-15 0 0 0 0 0 0 0 0
445 1 0.00312939 -0.000176737 0.0102112 0.0008 3.43146e-06 4.46383e-13 -1.27727e-13 3.05568e-13 9.17605e-10 3.65539e-09 1.08043e-09 6.45797e-16 1.81039e-16 -6.5601e-16 0 0 0 0 0 0 0 0
446 1 -0.000692065 0.00366084 0.0123569 0.0008 3.43146e-06 2.51088e-14 -1.08408e-12 -4.33235e-12 4.76482e-09 -1.1329e-09 -2.70697e-09 -2.87744e-15 2.70416e-16 -4.20283e-15 0 0 0 0 0 0 0 0
447 1 -0.00245164 -0.00514904 0.00923989 0.0008 3.43146e-06 8.79498e-13 -8.81186e-13 9.309e-13 1.48574e-09 4.50103e-10 -4.24395e-10 -2.39659e-16 6.65511e-16 1.11709e-15 0 0 0 0 0 0 0 0
448 1 -0.000880718 0.00327272 0.00941939 0.0008 3.43146e-06 2.70976e-13 6.46298e-14 8.68658e-13 2.3086e-09 1.32293e-09 -1.9204e-10 -2.51172e-16 1.53029e-16 5.01534e-15 0 0 0 0 0 0 0 0
449 1 -0.00534269 -0.00281696 0.0127696 0.0008 3.43146e-06 2.16786e-12 1.08392e-12 2.96368e-12 3.52134e-09 4.45421e-09 -2.60515e-09 9.79743e-16 -8.31091e-16 -8.96661e-16 0 0 0 0 0 0 0 0
450 1 0.00148759 -0.000176526 0.00769626 0.0008 3.43146e-06 5.41551e-13 -6.80612e-14 -5.64592e-13 -3.50384e-10 1.43421e-09 -1.3306e-09 -4.94897e-17 1.34373e-16 -1.97487e-15 0 0 0 0 0 0 0 0
451 1 0.000357695 0.00719136 0.0106242 0.0008 3.43146e-06 1.19115e-13 -6.19601e-14 1.63904e-12 -2.02278e-09 1.98568e-10 1.55207e-10 4.16024e-16 -1.91932e-16 1.76702e-15 1 -5.38427e-06 -0.000269539 -1.87286e-05 0.000397424 0.00799012 0.0106242 0.0008
452 1 0.00308908 0.00650399 0.00914082 0.0008 3.43146e-06 1.08327e-12 -4.3262e-13 6.74672e-13 -1.67958e-10 1.57538e-09 1.50871e-09 5.02561e-16 4.2941e-16 -3.45556e-16 1 -0.000188451 -0.000291819 0.000107855 0.00343217 0.00722635 0.00914082 0.0008
453 1 0.00435813 0.00404627 0.00970864 0.0008 3.43146e-06 8.80566e-13 2.16384e-12 1.75819e-13 2.81935e-09 -7.37116e-10 1.49838e-09 1.57763e-16 1.11676e-16 -2.34855e-15 0 0 0 0 0 0 0 0
454 1 0.00626421 -0.00355047 0.0101457 0.0008 3.43146e-06 -2.967e-13 9.00199e-15 1.21173e-12 2.93689e-09 1.03215e-10 1.33829e-10 -3.48974e-16 1.01389e-15 1.27783e-15 1 -0.000542658 0.000247504 0.000153882 0.00695982 -0.00394473 0.0101457 0.0008
455 1 -0.00700364 0.00167285 0.0108015 0.0008 3.43146e-06 -1.44206e-12 -1.18417e-13 -7.26981e-13 -1.25173e-09 1.19989e-09 -5.56552e-10 -1.14401e-15 1.36223e-15 2.31634e-15 1 0.00110183 -0.000218773 0.000264932 -0.00778112 0.00185856 0.0108015 0.0008
456 1 -0.00508976 7.53108e-05 0.007437 0.0008 3.43146e-06 -1.76387e-12 1.64866e-13 6.48221e-13 -7.67253e-11 -1.45678e-09 2.20734e-09 4.932e-15 1.17242e-15 -2.17825e-16 0 0 0 0 0 0 0 0
457 1 1.0435e-06 0.00444502 0.0105938 0.0008 3.43146e-06 6.71665e-14 -1.50807e-12 3.23391e-12 3.64533e-10 9.82404e-10 -1.13928e-09 -4.39661e-16 1.7822e-15 5.00777e-15 0 0 0 0 0 0 0 0
458 1 -0.00561208 -0.000577371 0.00918713 0.0008 3.43146e-06 -1.42173e-12 -8.34292e-14 2.06969e-13 -9.42238e-10 2.41067e-10 8.79518e-10 -1.63719e-15 5.34159e-16 1.91235e-16 0 0 0 0 0 0 0 0
459 1 -0.00477868 -0.00538576 0.00666997 0.0008 3.43146e-06 8.70991e-13 9.26418e-13 -6.73183e-13 -2.23824e-09 -1.2701e-09 -6.02147e-11 -5.07432e-16 2.28119e-16 1.82899e-16 1 7.43968e-05 9.54409e-05 3.88483e-05 -0.00530953 -0.00598405 0.00666997 0.0008
460 1 0.00338322 0.00635596 0.00757595 0.0008 3.43146e-06 3.59935e-13 -1.61054e-13 -2.52623e-13 2.24503e-10 -2.45635e-10 4.98598e-10 8.83499e-16 6.68544e-16 -4.89332e-16 1 -0.00016048 -0.000324425 8.47065e-05 0.00375897 0.00706188 0.00757595 0.0008
461 1 -0.00151706 0.00566637 0.00833087 0.0008 3.43146e-06 5.41612e-13 8.54255e-13 -3.32332e-12 -2.2184e-09 1.26965e-09 -2.99243e-10 -3.14323e-16 -3.36087e-15 -2.77405e-15 0 0 0 0 0 0 0 0
462 1 0.00262053 0.00482038 0.00932388 0.0008 3.43146e-06 1.0841e-12 -2.05039e-12 1.0387e-12 -1.21002e-09 -9.73985e-10 1.21095e-09 3.73798e-16 2.61239e-15 -2.74387e-15 0 0 0 0 0 0 0 0
463 1 -0.00473691 -0.00114451 0.00646413 0.0008 3.43146e-06 -4.68971e-13 4.58253e-13 1.72746e-12 -8.2517e-10 3.9878e-10 -6.40607e-10 3.55212e-16 2.35311e-15 1.85538e-15 0 0 0 0 0 0 0 0
464 1 -0.00360964 -0.0062299 0.0123003 0.0008 3.43146e-06 -4.25605e-13 3.34849e-13 1.3559e-13 1.29032e-09 1.79662e-09 7.85275e-10 -7.83437e-16 1.94577e-16 2.76697e-16 1 3.14072e-05 3.4048e-05 9.25424e-06 -0.00401067 -0.00692203 0.0123003 0.0008
465 1 0.00343491 0.00467564 0.0108522 0.0008 3.43146e-06 5.01428e-13 -1.32841e-12 1.76339e-12 1.91283e-09 1.00632e-09 1.85246e-10 2.6233e-16 3.48054e-16 -3.94442e-15 0 0 0 0 0 0 0 0
466 1 -0.0061198 0.00043008 0.0103203 0.0008 3.43146e-06 -2.16282e-12 -1.34288e-13 -2.80252e-13 4.82483e-10 -8.12478e-10 1.05915e-12 4.57508e-16 1.17261e-16 6.88333e-16 0 0 0 0 0 0 0 0
467 1 0.000410535 0.000527984 0.0110059 0.0008 3.43146e-06 1.36505e-13 2.70509e-13 4.33216e-12 -1.30572e-09 -1.52454e-10 1.60561e-10 1.82151e-15 -3.67412e-17 -3.49411e-16 0 0 0 0 0 0 0 0
468 1 -0.00464461 0.00550269 0.0109832 0.0008 3.43146e-06 -2.67546e-13 -5.54649e-13 9.8747e-13 3.65047e-10 -2.32784e-09 -7.04272e-10 2.97612e-15 -1.99842e-15 2.54591e-15 1 0.00116362 -0.00115449 0.000436024 -0.00516008 0.00611339 0.0109832 0.0008
469 1 0.00338939 0.000864724 0.00854977 0.0008 3.43146e-06 1.0841e-12 4.31109e-14 -2.97751e-12 1.5661e-09 9.53707e-10 -9.17748e-10 -2.26438e-16 -4.9008e-16 -5.57664e-17 0 0 0 0 0 0 0 0
470 1 0.00425699 0.00262344 0.0124734 0.0008 3.43146e-06 -1.50054e-12 -1.08399e-12 1.62511e-12 -2.63873e-09 9.4341e-10 -4.40478e-10 -1.36976e-15 -6.76781e-16 9.45281e-16 0 0 0 0 0 0 0 0
471 1 0.00512973 -0.0050527 0.012666 0.0008 3.43146e-06 6.58703e-13 3.18671e-13 -4.49622e-14 -1.81783e-09 1.73704e-09 -8.71915e-10 -4.66286e-16 -8.05682e-17 5.58219e-16 1 -0.000239723 0.000184824 8.87508e-05 0.00569949 -0.0056139 0.012666 0.0008
472 1 -0.00450561 -0.00326133 0.011481 0.0008 3.43146e-06 2.16646e-12 5.23876e-13 -3.66568e-13 -1.85308e-09 -2.77935e-09 5.04699e-10 -3.01908e-16 -7.2493e-16 3.82906e-16 0 0 0 0 0 0 0 0
473 1 0.000169115 0.00237305 0.0102241 0.0008 3.43146e-06 4.02619e-13 -4.32415e-13 -4.3353e-12 1.82217e-09 2.7666e-09 1.57257e-10 -4.187e-15 -5.66651e-15 -3.96922e-15 0 0 0 0 0 0 0 0
474 1 -0.00219769 0.00685647 0.00748441 0.0008 3.43146e-06 4.50991e-13 -2.38733e-13 9.67407e-13 -2.51879e-09 3.67611e-09 3.26967e-10 -2.71385e-15 -4.48478e-16 1.08636e-15 1 1.12242e-05 -3.79381e-05 1.02948e-05 -0.00244185 0.00761822 0.00748441 0.0008
475 1 0.0037826 0.00449927 0.0124752 0.0008 3.43146e-06 -1.04602e-12 -1.19875e-12 2.05029e-13 9.91311e-10 2.60733e-09 -1.06767e-09 -6.29791e-17 -2.07874e-15 -8.47978e-16 0 0 0 0 0 0 0 0
476 1 -0.000444367 0.00224192 0.00709222 0.0008 3.43146e-06 1.34344e-13 1.39173e-13 -2.46518e-15 -4.11113e-10 9.16195e-10 2.46337e-11 -8.76787e-16 -1.846e-15 -1.59396e-15 0 0 0 0 0 0 0 0
477 1 -0.00704084 0.0015077 0.0123919 0.0008 3.43146e-06 -2.0033e-12 -5.41632e-13 9.79249e-13 1.61875e-09 -1.6135e-09 -1.20694e-09 -3.14572e-16 1.76111e-16 1.07564e-15 1 0.000646192 -8.5942e-05 0.000228543 -0.00782266 0.00167512 0.0123919 0.0008
478 1 -0.000993478 0.000920308 0.0103478 0.0008 3.43146e-06 3.10944e-13 2.70739e-13 3.77859e-12 3.22983e-10 -2.83811e-10 -5.7625e-10 -1.77444e-15 -4.4045e-16 2.83154e-16 0 0 0 0 0 0 0 0
479 1 0.00630881 -0.00347026 0.00854331 0.0008 3.43146e-06 -7.07515e-13 4.00012e-13 -5.03499e-13 3.65885e-09 -2.73423e-09 -4.83166e-12 -1.11658e-15 6.58086e-16 9.38571e-16 1 -0.000255332 0.000113967 -4.52065e-05 0.00700953 -0.0038557 0.00854331 0.0008
480 1 -5.28304e-05 0.00438148 0.00861611 0.0008 3.43146e-06 -2.80214e-13 1.28881e-12 -9.02288e-13 -1.95098e-09 1.07359e-09 8.79738e-10 -1.7521e-15 9.30255e-16 -3.12309e-15 0 0 0 0 0 0 0 0
481 1 0.00385945 -0.00448104 0.00743345 0.0008 3.43146e-06 1.85441e-13 2.26215e-13 1.66499e-12 1.56936e-09 2.09337e-09 7.32995e-10 -8.4185e-16 5.31342e-16 2.37539e-16 0 0 0 0 0 0 0 0
482 1 0.0018523 0.00386965 0.0127045 0.0008 3.43146e-06 4.85864e-14 -1.08402e-12 2.12588e-12 4.71586e-10 -1.1119e-09 4.421e-10 9.5091e-17 -8.35362e-16 -4.72089e-15 0 0 0 0 0 0 0 0
483 1 -0.0042433 -0.00323468 0.00834994 0.0008 3.43146e-06 2.77232e-13 -1.78319e-13 -9.45824e-13 3.67105e-10 -2.121e-10 3.95149e-09 -9.66858e-16 -1.09569e-15 -3.94091e-16 0 0 0 0 0 0 0 0
484 1 0.00649469 0.00310792 0.0121666 0.0008 3.43146e-06 -3.5429e-13 1.52445e-13 5.47533e-13 1.99904e-09 1.75888e-09 -3.75206e-10 -1.83044e-15 -8.1929e-16 -1.12336e-17 1 -1.93916e-06 -1.09874e-06 1.38694e-07 0.00721631 0.00345324 0.0121666 0.0008
485 1 -0.00242546 0.00678038 0.0128564 0.0008 3.43146e-06 4.67348e-13 -1.33473e-12 3.00614e-13 -5.15652e-10 2.98365e-10 -2.71157e-11 1.97838e-16 -3.11453e-16 -9.38678e-16 1 0.00130996 -0.0022737 0.000212529 -0.00269453 0.00753256 0.0128564 0.0008
486 1 0.00217539 -0.00183601 0.00790655 0.0008 3.43146e-06 -8.34869e-13 5.41642e-13 7.21785e-13 -1.9029e-10 2.3159e-09 -1.47189e-09 4.01744e-16 4.28571e-16 3.56124e-16 0 0 0 0 0 0 0 0
487 1 0.00420459 0.00584518 0.0100786 0.0008 3.43146e-06 1.67283e-12 1.62879e-12 4.12606e-13 -1.2795e-09 -8.99523e-10 5.0384e-10 -6.95292e-17 -2.06752e-16 -1.14646e-15 1 -0.000182999 -0.000360391 6.02354e-05 0.00467156 0.00649435 0.0100786 0.0008
488 1 0.00265807 0.006692 0.0124376 0.0008 3.43146e-06 1.13874e-14 -1.39526e-12 1.71521e-13 -4.06988e-10 -3.96841e-10 6.49623e-10 9.83099e-16 -6.13602e-16 2.68132e-15 1 -0.000260572 -0.000885709 -9.59455e-05 0.00295317 0.00743497 0.0124376 0.0008
489 1 -0.00419429 0.00110871 0.0082671 0.0008 3.43146e-06 -2.06779e-12 5.41339e-13 1.08468e-12 6.96193e-10 1.41705e-09 -1.28678e-09 4.17071e-15 4.13571e-16 1.89219e-15 0 0 0 0 0 0 0 0
490 1 0.00591447 -0.00208268 0.010717 0.0008 3.43146e-06 -1.1663e-12 1.08323e-12 9.19355e-13 7.90947e-10 -1.70152e-09 8.53287e-10 -1.62928e-17 -7.11101e-16 -2.10711e-16 0 0 0 0 0 0 0 0
491 1 0.00128183 -0.00339444 0.0114346 0.0008 3.43146e-06 4.66377e-13 -6.89067e-15 1.92667e-13 5.96213e-10 9.70836e-10 1.34635e-09 4.33055e-16 -1.09617e-15 -9.91675e-16 0 0 0 0 0 0 0 0
492 1 -0.00321207 -0.00416079 0.0117592 0.0008 3.43146e-06 5.70975e-14 1.80578e-12 1.977e-12 -1.50619e-09 1.25878e-09 -1.20734e-09 -6.37635e-16 1.74812e-15 -1.22932e-15 0 0 0 0 0 0 0 0
493 1 0.00349985 -0.00489947 0.0119396 0.0008 3.43146e-06 5.21846e-14 5.38611e-13 -1.5423e-12 1.87209e-10 2.34499e-09 -1.54083e-09 1.98446e-16 -1.98609e-15 -5.24762e-16 0 0 0 0 0 0 0 0
494 1 -0.00276167 -0.004571 0.0132385 0.0008 3.43146e-06 -1.0825e-12 1.16488e-12 -2.82127e-13 2.45296e-09 -1.22268e-09 -1.62236e-09 3.11271e-16 3.21403e-15 1.73395e-15 0 0 0 0 0 0 0 0
495 1 0.00100257 -0.00268049 0.0069722 0.0008 3.43146e-06 7.66963e-14 1.08419e-12 -4.10627e-13 -8.45991e-10 8.24154e-10 -2.27333e-10 1.43983e-17 -3.9142e-16 -1.70241e-15 0 0 0 0 0 0 0 0
496 1 0.000512121 0.00282188 0.0117203 0.0008 3.43146e-06 2.70252e-13 -4.89443e-13 -3.40952e-12 -1.08965e-09 -2.7094e-09 1.38545e-09 7.37548e-16 -7.47676e-16 -3.84058e-15 0 0 0 0 0 0 0 0
497 1 0.00159049 0.0038433 0.0111267 0.0008 3.43146e-06 2.63575e-13 -1.08403e-12 -2.30791e-12 -4.01856e-10 -1.27396e-10 -7.79299e-10 -7.24273e-17 -1.02035e-15 -5.19646e-15 0 0 0 0 0 0 0 0
498 1 0.00588112 -0.0041543 0.0115765 0.0008 3.43146e-06 -1.87811e-13 -1.22495e-12 -1.08237e-12 -8.19053e-10 -1.08591e-09 1.4147e-09 4.32719e-16 1.40167e-15 7.2221e-18 1 -0.000438489 0.000325231 0.000186612 0.00653421 -0.00461563 0.0115765 0.0008
499 1 0.000644587 -0.00241331 0.00850789 0.0008 3.43146e-06 2.68767e-13 -4.98442e-13 1.04198e-14 2.9949e-09 -5.79389e-10 -2.21592e-11 1.41654e-16 -3.92853e-17 -8.37807e-17 0 0 0 0 0 0 0 0
500 1 0.00716821 -0.000677784 0.00933221 0.0008 3.43146e-06 -1.78555e-12 2.70859e-13 -9.77097e-14 -1.87501e-09 1.77966e-11 -1.78592e-10 -4.4193e-16 -6.2063e-17 -5.39072e-17 1 -0.000165916 4.55732e-05 2.08487e-05 0.00796448 -0.000753074 0.00933221 0.0008
501 1 -0.00423312 0.000293344 0.0124634 0.0008 3.43146e-06 -1.49663e-12 -2.3346e-13 -3.98151e-12 2.67247e-09 2.46506e-09 -1.09789e-09 -8.40984e-15 5.70064e-16 2.73605e-15 0 0 0 0 0 0 0 0
502 1 0.00236841 -0.00134578 0.00942865 0.0008 3.43146e-06 -1.08409e-12 5.04515e-13 1.56287e-12 4.48311e-10 1.31929e-09 -7.04084e-10 9.94454e-16 -8.20325e-16 -8.49731e-16 0 0 0 0 0 0 0 0
503 1 0.00467592 -0.00250912 0.00636574 0.0008 3.43146e-06 -2.16475e-12 1.06547e-12 1.09091e-12 -2.34736e-10 -2.00547e-09 -3.20166e-10 1.12211e-15 1.21142e-15 8.38887e-16 0 0 0 0 0 0 0 0
504 1 0.00534906 0.00482 0.0125213 0.0008 3.43146e-06 -7.00821e-13 -1.41444e-12 -6.72711e-13 -3.00247e-10 -1.37582e-09 7.36323e-10 -1.35103e-15 5.80963e-16 4.86992e-16 1 -0.00028182 -0.000311057 4.29453e-05 0.00594312 0.00535531 0.0125213 0.0008
505 1 -0.00392706 0.00417408 0.00995687 0.0008 3.43146e-06 -4.12625e-13 -1.05576e-12 4.1541e-12 2.73906e-09 -4.73933e-10 -2.91561e-09 3.25032e-16 -1.53904e-15 9.98766e-15 0 0 0 0 0 0 0 0
506 1 -0.00162811 0.00701354 0.011479 0.0008 3.43146e-06 -5.31804e-13 -2.04985e-12 -2.69336e-12 4.2231e-09 -3.36521e-09 -1.42156e-09 3.76928e-15 -1.37779e-15 -3.97386e-15 1 2.68314e-06 -1.2452e-05 -1.24424e-06 -0.001809 0.00779279 0.011479 0.0008
507 1 -0.00241337 -0.00591486 0.00748672 0.0008 3.43146e-06 9.74449e-14 -8.93244e-13 1.27275e-12 -1.08346e-09 -4.19346e-10 2.38211e-09 8.26286e-17 -2.3957e-16 3.37708e-16 0 0 0 0 0 0 0 0
508 1 -0.00120378 -0.00529958 0.0066404 0.0008 3.43146e-06 -4.27962e-13 4.04257e-13 1.20067e-12 -6.5471e-10 -4.81597e-10 9.03315e-10 3.11668e-16 5.84054e-17 7.36467e-16 0 0 0 0 0 0 0 0
509 1 0.000894154 -0.000908673 0.0089888 0.0008 3.43146e-06 -2.70764e-13 2.70251e-13 1.91385e-12 -1.20351e-09 -1.07393e-09 4.36843e-10 -1.02057e-15 3.43834e-16 -1.44576e-15 0 0 0 0 0 0 0 0
510 1 -0.00355966 -0.00462902 0.0102697 0.0008 3.43146e-06 -2.35104e-13 -8.16786e-13 6.17244e-13 -1.42825e-09 -1.7461e-09 6.24812e-10 -1.11508e-15 -8.66087e-16 -3.3282e-16 0 0 0 0 0 0 0 0
511 1 -0.00664166 -0.000828558 0.00692181 0.0008 3.43146e-06 -7.07107e-13 -7.21172e-14 -1.69343e-12 1.03586e-09 -2.15895e-09 8.91199e-10 1.46454e-15 7.21274e-16 -2.21734e-16 0 0 0 0 0 0 0 0
512 1 0.00223348 0.000652736 0.0126568 0.0008 3.43146e-06 -6.93467e-13 -2.71089e-13 -1.44174e-13 2.07657e-09 -2.05661e-09 -5.2425e-10 2.14597e-15 3.77538e-16 3.31354e-16 0 0 0 0 0 0 0 0
513 1 0.00580423 -0.000868125 0.00722749 0.0008 3.43146e-06 -9.33145e-13 2.7137e-13 1.89791e-12 -2.21302e-10 1.56839e-09 7.37587e-10 9.17851e-16 -3.17628e-16 -1.2841e-16 0 0 0 0 0 0 0 0
514 1 -0.00208599 0.00112122 0.0114984 0.0008 3.43146e-06 9.85761e-13 -5.41528e-13 1.26084e-12 1.21014e-09 -1.47819e-09 -1.38823e-10 -1.66041e-15 -2.19126e-16 1.26399e-15 0 0 0 0 0 0 0 0
515 1 -0.00293525 -0.000222061 0.0116827 0.0008 3.43146e-06 7.06839e-13 5.69736e-14 -3.6742e-12 1.40888e-09 -5.71243e-09 -8.84504e-11 -5.17223e-15 -1.11055e-15 7.01083e-15 0 0 0 0 0 0 0 0
516 1 -0.000101693 -0.00719988 0.0099793 0.0008 3.43146e-06 3.27115e-14 7.88166e-14 8.06051e-13 1.02772e-09 -8.56618e-11 -6.21739e-11 -3.64059e-16 7.44036e-16 -3.81958e-16 1 0.000161951 0.000972963 0.000233629 -0.000112982 -0.0079992 0.0099793 0.0008
517 1 0.00579657 0.000353764 0.0122787 0.0008 3.43146e-06 -1.63663e-12 -1.35494e-13 -9.28172e-13 -1.42195e-09 1.12182e-09 1.08203e-09 -1.70581e-15 4.97118e-16 2.89726e-16 0 0 0 0 0 0 0 0
518 1 0.00405343 -0.00225372 0.0133336 0.0008 3.43146e-06 1.83186e-12 -1.08364e-12 -9.74341e-13 1.32429e-09 2.10078e-09 1.65011e-10 5.443e-16 -7.08902e-16 -1.25051e-15 0 0 0 0 0 0 0 0
519 1 -0.00223208 0.00357344 0.0119328 0.0008 3.43146e-06 7.47394e-13 1.08202e-12 -2.53785e-12 4.76824e-09 3.60902e-09 2.45221e-09 -1.43873e-15 -2.96649e-16 -7.34809e-16 0 0 0 0 0 0 0 0
520 1 -0.00493054 0.00174937 0.0127314 0.0008 3.43146e-06 -1.86518e-12 -5.36308e-13 -4.2861e-13 1.7072e-09 4.23319e-09 -2.12448e-10 -1.53137e-16 7.067e-17 -3.3771e-16 0 0 0 0 0 0 0 0
521 1 0.000614552 0.00717407 0.00887797 0.0008 3.43146e-06 4.2222e-14 -1.99216e-12 -9.37758e-13 8.49948e-10 -2.25913e-09 2.27668e-10 3.70828e-16 -7.29413e-17 -4.85835e-16 1 -8.41549e-06 -0.000421059 0.000155035 0.000682803 0.00797081 0.00887797 0.0008
522 1 -0.00177707 -0.00216128 0.00978533 0.0008 3.43146e-06 -5.41879e-13 1.0685e-13 -1.37365e-12 1.34142e-09 -1.54595e-09 1.25194e-09 -1.14237e-16 3.84425e-16 2.04601e-15 0 0 0 0 0 0 0 0
523 1 -0.00341975 0.0026265 0.0105979 0.0008 3.43146e-06 1.06108e-12 7.08883e-13 5.79008e-13 1.09986e-10 -1.68137e-09 -2.02243e-09 -1.40193e-15 -1.16027e-15 1.88295e-15 0 0 0 0 0 0 0 0
524 1 -0.00130293 -0.00333817 0.0129279 0.0008 3.43146e-06 5.41899e-13 -7.01971e-14 1.74486e-12 -2.20828e-09 -1.87001e-09 3.08242e-10 4.67528e-16 6.10593e-16 -6.74747e-16 0 0 0 0 0 0 0 0
525 1 -0.00402339 -0.00104659 0.0133156 0.0008 3.43146e-06 -1.44095e-12 -5.36478e-13 4.98569e-13 6.21537e-09 -3.61315e-10 1.9046e-09 -3.15346e-16 4.71701e-17 4.47848e-17 0 0 0 0 0 0 0 0
526 1 0.00201956 0.000252085 0.00914237 0.0008 3.43146e-06 4.93977e-13 -1.43403e-13 1.8097e-12 7.40354e-10 -2.86147e-09 7.07485e-11 -1.90983e-15 -1.06216e-15 5.96801e-16 0 0 0 0 0 0 0 0
527 1 -0.00585605 -0.000780249 0.0113333 0.0008 3.43146e-06 -1.49585e-12 -2.70691e-13 -2.58789e-12 -5.88951e-10 -1.89556e-09 -6.79982e-10 -1.72285e-15 7.97685e-16 1.49711e-15 0 0 0 0 0 0 0 0
528 1 -0.000109454 -0.000155524 0.00799733 0.0008 3.43146e-06 -2.08631e-13 2.39006e-14 -9.27692e-14 -5.58726e-10 -2.6426e-10 -5.84128e-10 1.54479e-15 -1.50121e-15 -2.43606e-16 0 0 0 0 0 0 0 0
529 1 0.00201163 0.00435946 0.00781673 0.0008 3.43146e-06 1.08393e-12 -2.07299e-12 5.74528e-14 8.92857e-10 2.32046e-09 -5.99553e-10 -1.00504e-16 1.97698e-15 -1.34989e-15 0 0 0 0 0 0 0 0
530 1 -0.000794457 0.00523534 0.0126463 0.0008 3.43146e-06 9.93861e-14 -1.53714e-12 2.47434e-12 1.3379e-09 8.42578e-10 -2.49941e-09 -2.18121e-15 8.29069e-16 -1.64167e-16 0 0 0 0 0 0 0 0
531 1 0.00633488 0.00342247 0.00914238 0.0008 3.43146e-06 2.93696e-13 1.08348e-12 5.01692e-13 4.2104e-09 3.01779e-09 -1.01071e-09 5.93554e-16 2.32532e-16 -1.05539e-15 1 -0.000296889 -0.000114907 3.17531e-06 0.00703849 0.00380259 0.00914238 0.0008
532 1 -0.00228167 -0.00108302 0.00871694 0.0008 3.43146e-06 -3.98117e-13 5.4206e-13 -2.0296e-12 -7.82906e-10 -5.12588e-10 2.03448e-10 -6.40776e-17 3.80955e-16 2.58053e-15 0 0 0 0 0 0 0 0
533 1 -0.00665598 0.00274638 0.00920226 0.0008 3.43146e-06 1.83417e-13 9.55589e-13 -8.04449e-13 3.12347e-10 9.49038e-10 1.18072e-09 -3.44815e-16 -1.092e-15 1.88485e-15 1 0.00036543 -0.000130938 0.000117313 -0.0073952 0.0030514 0.00920226 0.0008
534 1 0.00478127 -0.000926002 0.0112792 0.0008 3.43146e-06 1.27458e-12 -2.71026e-13 1.73964e-13 -6.11413e-10 6.81984e-11 -4.63431e-10 3.16606e-16 -3.68719e-16 -3.07651e-16 0 0 0 0 0 0 0 0
535 1 0.00385988 -0.00175276 0.0102661 0.0008 3.43146e-06 -2.83942e-13 -3.36512e-14 6.85281e-13 -1.85544e-10 8.65424e-10 -1.46748e-09 2.69365e-16 -2.56502e-16 4.29074e-16 0 0 0 0 0 0 0 0
536 1 0.00146393 -0.00189678 0.0119664 0.0008 3.43146e-06 -5.41125e-13 4.17224e-13 1.40485e-12 1.05191e-09 1.53717e-09 9.79963e-10 2.01065e-16 -7.69632e-16 -3.57932e-15 0 0 0 0 0 0 0 0
537 1 0.00260404 -0.00163511 0.0130576 0.0008 3.43146e-06 4.38438e-13 -3.74291e-13 1.14245e-12 1.23338e-09 -4.95534e-11 -2.49151e-10 2.38287e-16 9.85457e-16 -1.18577e-15 0 0 0 0 0 0 0 0
538 1 -0.00583352 0.00422078 0.0117662 0.0008 3.43146e-06 5.90706e-13 -2.15923e-12 1.05806e-12 -2.12397e-09 -9.21229e-11 -1.74115e-09 -2.57027e-16 1.34497e-15 -1.97379e-15 1 0.000343357 -0.000252483 0.000117563 -0.00648138 0.00468953 0.0117662 0.0008
539 1 0.00469988 -2.58577e-05 0.00994673 0.0008 3.43146e-06 -1.60393e-12 6.54743e-16 -8.87025e-13 -5.01639e-10 -1.75497e-09 -7.27263e-10 -2.92284e-15 7.98323e-16 -2.74474e-15 0 0 0 0 0 0 0 0
540 1 -0.00124134 0.00481284 0.00965516 0.0008 3.43146e-06 5.41751e-13 -3.85326e-13 2.23032e-12 -2.47959e-10 -2.29265e-09 -2.65133e-10 -1.72322e-16 -5.59313e-16 -1.21116e-15 0 0 0 0 0 0 0 0
541 1 -0.00333159 0.00103251 0.0104991 0.0008 3.43146e-06 1.09306e-13 -2.9756e-13 2.41557e-13 2.30792e-10 1.23184e-09 7.37935e-10 -1.74311e-15 -1.91335e-15 -3.74243e-15 0 0 0 0 0 0 0 0
542 1 0.00205041 -0.00288087 0.00911129 0.0008 3.43146e-06 2.9207e-13 6.51284e-14 4.96865e-13 8.14973e-10 -1.37651e-09 2.55908e-09 5.14244e-16 1.20866e-15 -6.19114e-16 0 0 0 0 0 0 0 0
543 1 -1.25416e-05 0.00523726 0.0063991 0.0008 3.43146e-06 5.17382e-14 -1.85193e-12 -1.24153e-12 6.92468e-10 1.37576e-09 6.8962e-10 -8.45404e-16 2.75523e-15 -4.65517e-16 0 0 0 0 0 0 0 0
544 1 -0.000664693 0.00174063 0.00901474 0.0008 3.43146e-06 2.61006e-15 4.7174e-13 4.76948e-13 -2.18589e-09 1.56119e-09 6.0663e-10 -1.48799e-15 2.36697e-15 3.57595e-15 0 0 0 0 0 0 0 0
545 1 0.00581467 0.00105591 0.0108415 0.0008 3.43146e-06 -1.94327e-12 -5.42193e-13 -1.02191e-12 8.61697e-10 -1.6655e-09 5.8611e-10 -1.368e-16 -4.53828e-16 -2.2353e-15 0 0 0 0 0 0 0 0
546 1 0.00365828 0.00226813 0.00782891 0.0008 3.43146e-06 8.83623e-13 -2.42822e-13 -1.15988e-12 -7.97119e-10 -2.49806e-10 -1.64116e-09 2.46971e-15 -6.42372e-16 -9.3043e-16 0 0 0 0 0 0 0 0
547 1 -0.00467413 0.0029404 0.00924771 0.0008 3.43146e-06 -5.16194e-13 1.08421e-12 -5.46385e-13 -3.38563e-10 5.03934e-10 1.46598e-10 -8.28965e-16 -9.5783e-17 3.73096e-15 0 0 0 0 0 0 0 0
548 1 0.00618066 0.00369393 0.0107114 0.0008 3.43146e-06 4.22502e-13 -1.22455e-13 -9.81495e-13 -2.93089e-09 -3.14862e-09 3.88107e-10 -1.05693e-15 2.7552e-16 -4.11289e-16 1 -0.000514747 -0.000155815 3.95191e-05 0.00686702 0.00410414 0.0107114 0.0008
549 1 -0.00592541 -0.00409135 0.00929077 0.0008 3.43146e-06 -1.4568e-12 -1.80062e-13 6.38705e-13 -7.56564e-12 -9.67598e-10 8.47924e-10 -1.84392e-16 1.43538e-17 4.74324e-16 1 0.000849769 0.000793291 -3.91732e-05 -0.00658318 -0.00454552 0.00929077 0.0008
550 1 -0.00440328 0.00466738 0.0123256 0.0008 3.43146e-06 -9.28998e-13 -2.16678e-12 3.45996e-13 2.17649e-09 2.98202e-10 2.34976e-09 7.53114e-16 6.1398e-17 2.56259e-15 0 0 0 0 0 0 0 0
551 1 0.000642349 -0.00717153 0.0123426 0.0008 3.43146e-06 -7.18812e-14 -4.62552e-14 -4.10681e-12 -5.5834e-09 4.69999e-09 9.07235e-11 8.55896e-16 -1.61295e-16 -1.60303e-16 1 5.40186e-05 0.000252488 3.90727e-05 0.000713697 -0.0079681 0.0123426 0.0008
552 1 -0.000998522 -0.000878327 0.0134585 0.0008 3.43146e-06 -2.54735e-13 2.70728e-13 8.80593e-13 -1.1802e-09 2.03734e-09 -7.45324e-10 3.04637e-15 -4.25226e-16 2.66665e-15 0 0 0 0 0 0 0 0
553 1 -0.000308986 -0.0040873 0.0111638 0.0008 3.43146e-06 1.35573e-13 -1.61698e-12 5.77313e-13 1.47692e-09 2.31509e-09 -8.39704e-10 -1.25683e-16 -1.72163e-16 5.50333e-16 0 0 0 0 0 0 0 0
554 1 -0.00233363 0.00383205 0.0103253 0.0008 3.43146e-06 1.08356e-12 -6.06203e-14 3.89404e-12 2.6851e-09 -1.19927e-10 1.53215e-09 3.51167e-16 8.50042e-15 1.09307e-14 0 0 0 0 0 0 0 0
555 1 0.00715962 0.000763493 0.0100262 0.0008 3.43146e-06 -1.19156e-12 2.70866e-13 -2.54013e-13 1.56592e-09 -7.74044e-11 -6.21645e-10 1.89286e-16 -1.56249e-16 9.10024e-16 1 -0.000211658 -6.37295e-05 -9.43005e-06 0.0079549 0.0008483 0.0100262 0.0008
556 1 -0.00361198 0.0062285 0.00993623 0.0008 3.43146e-06 -9.08146e-13 -2.12208e-12 1.22797e-12 1.51972e-09 -5.74406e-09 -2.31561e-09 5.2637e-15 1.00047e-15 -3.49108e-15 1 8.53629e-06 -1.3865e-05 -7.44112e-07 -0.00401329 0.00692051 0.00993623 0.0008
557 1 -0.00321926 -0.00261777 0.0121816 0.0008 3.43146e-06 9.66263e-13 1.08316e-12 1.18662e-12 6.13022e-10 -5.03695e-10 -1.10721e-11 -1.95168e-15 -4.75972e-16 -3.10595e-15 0 0 0 0 0 0 0 0
558 1 -0.00254573 0.00425572 0.00589578 0.0008 3.43146e-06 -6.56986e-13 -1.38575e-12 -4.52095e-13 -8.34096e-10 8.08568e-10 -1.16548e-09 2.99856e-15 2.23629e-15 -2.60835e-15 0 0 0 0 0 0 0 0
559 1 0.00418007 0.00586255 0.0117384 0.0008 3.43146e-06 1.7131e-13 7.89901e-13 -4.98214e-13 -1.69051e-10 -1.44009e-09 -3.93048e-10 -9.6535e-16 2.3487e-15 -1.1669e-15 1 -7.71321e-05 -0.000133002 3.66153e-05 0.00464442 0.00651379 0.0117384 0.0008
560 1 -0.00391924 -0.00175231 0.00783753 0.0008 3.43146e-06 -8.87192e-13 3.73024e-13 -5.76153e-13 -2.73353e-09 2.16416e-09 -2.15479e-09 -1.58838e-16 7.5528e-16 2.64014e-16 0 0 0 0 0 0 0 0
561 1 0.00423133 -0.000714694 0.0127666 0.0008 3.43146e-06 9.22465e-13 2.28746e-13 1.92325e-13 -1.72198e-10 -3.51096e-10 6.6024e-10 -6.66079e-16 3.52814e-15 2.80043e-15 0 0 0 0 0 0 0 0
562 1 0.00018239 -0.00123751 0.0112729 0.0008 3.43146e-06 2.77798e-15 5.42128e-13 2.92952e-12 3.53559e-10 -6.42394e-10 -1.10606e-09 -1.01078e-15 -7.77509e-17 -9.60838e-15 0 0 0 0 0 0 0 0
563 1 -0.0067061 -0.00262128 0.0094273 0.0008 3.43146e-06 3.78162e-13 7.87728e-14 1.39509e-12 1.99547e-09 -1.0813e-09 -9.27321e-11 3.62344e-16 1.45662e-17 2.31661e-16 1 0.000161859 9.41293e-05 1.0799e-05 -0.00745102 -0.00291245 0.0094273 0.0008
564 1 -0.00351242 0.00164405 0.0119986 0.0008 3.43146e-06 -3.70692e-13 -4.93993e-13 -2.0221e-12 -3.57721e-10 -3.44997e-09 -2.2647e-10 -2.69753e-15 1.23298e-15 3.62139e-15 0 0 0 0 0 0 0 0
565 1 0.00545631 0.00469903 0.00874783 0.0008 3.43146e-06 1.13094e-12 1.69878e-12 1.32471e-12 -4.12196e-09 -1.36176e-09 -6.6861e-10 7.72464e-17 2.61483e-16 -4.04607e-16 1 -0.00110675 -0.00123284 0.000420107 0.00606185 0.00522053 0.00874783 0.0008
566 1 -0.00709778 0.00120917 0.00924247 0.0008 3.43146e-06 4.96025e-13 -4.72061e-13 -1.36301e-12 1.16422e-09 1.53748e-09 -4.40248e-10 -2.14989e-15 4.84671e-16 5.45323e-16 1 1.40703e-05 -3.94193e-06 2.94789e-06 -0.00788638 0.00134351 0.00924247 0.0008
567 1 -0.00381853 0.0061023 0.0067475 0.0008 3.43146e-06 -1.88789e-12 2.16834e-12 -2.16486e-12 -1.88378e-09 -3.51536e-09 4.9828e-09 1.39481e-15 3.99032e-17 1.28e-15 0 0 0 0 0 0 0 0
568 1 -0.00217409 -0.00686457 0.0119913 0.0008 3.43146e-06 8.62738e-13 -4.95426e-13 -1.52796e-13 -8.16529e-10 -1.97341e-09 -1.2202e-09 -1.4411e-16 1.33018e-15 7.74075e-16 1 0.000328225 0.000989832 -7.94135e-05 -0.00241544 -0.00762664 0.0119913 0.0008
569 1 0.00389543 -0.00605525 0.00714139 0.0008 3.43146e-06 -1.08216e-12 1.05254e-12 1.16583e-13 3.2898e-11 2.35696e-10 4.15404e-10 5.24502e-17 2.11879e-16 1.7961e-16 1 -7.26968e-06 1.07325e-05 -1.31113e-06 0.00432824 -0.00672803 0.00714139 0.0008
570 1 -0.000444701 -0.00261945 0.0105423 0.0008 3.43146e-06 -1.3497e-13 6.21244e-13 9.01728e-13 -9.85444e-11 -1.42e-09 7.18886e-10 9.25302e-17 -6.52031e-16 6.60911e-16 0 0 0 0 0 0 0 0
571 1 0.00184837 -0.00582588 0.0101022 0.0008 3.43146e-06 4.74277e-13 -2.41084e-13 9.45088e-13 -3.34972e-10 7.38604e-10 5.96297e-10 8.84415e-16 1.27392e-15 -1.62968e-15 0 0 0 0 0 0 0 0
572 1 -0.00479197 0.00325139 0.0132822 0.0008 3.43146e-06 -8.39684e-13 -1.08358e-12 3.19602e-13 -2.15846e-11 1.82039e-09 -3.53369e-10 -4.45159e-15 4.16835e-16 8.46791e-15 0 0 0 0 0 0 0 0
573 1 0.00611993 -0.000482725 0.0105246 0.0008 3.43146e-06 -4.69202e-13 1.34435e-13 -2.57285e-13 7.55163e-10 1.39718e-09 1.48119e-09 -9.51841e-16 -1.67344e-16 -9.99327e-16 0 0 0 0 0 0 0 0
574 1 0.000683194 -0.00367581 0.00997815 0.0008 3.43146e-06 1.1895e-13 1.08394e-12 -8.57315e-13 2.14544e-09 -4.901e-10 9.85489e-10 3.55517e-16 1.12609e-16 -1.53901e-15 0 0 0 0 0 0 0 0
575 1 0.00284626 -0.00661373 0.00912475 0.0008 3.43146e-06 1.08355e-12 -5.76686e-13 -1.94224e-13 -9.105e-10 1.53269e-09 -1.00012e-09 6.89e-16 1.69786e-16 -3.47868e-15 1 -5.49858e-05 0.000149909 1.68222e-06 0.00316243 -0.0073484 0.00912475 0.0008
576 1 0.000312456 0.000528587 0.00938203 0.0008 3.43146e-06 -6.64272e-14 2.70835e-13 1.01281e-12 8.46038e-10 -9.20828e-10 -1.12911e-09 -1.3247e-15 9.19399e-17 3.96497e-16 0 0 0 0 0 0 0 0
577 1 -0.00338776 -0.000245591 0.00792059 0.0008 3.43146e-06 -2.9858e-13 -1.35022e-13 -1.85079e-12 1.76656e-09 -3.96954e-10 1.26466e-09 1.02074e-15 7.18071e-17 1.18076e-15 0 0 0 0 0 0 0 0
578 1 -0.00407939 -0.00186551 0.0104879 0.0008 3.43146e-06 8.15172e-13 3.90191e-13 1.0694e-12 2.38386e-09 1.93583e-10 1.14286e-09 -4.74076e-15 5.41972e-16 2.83257e-16 0 0 0 0 0 0 0 0
579 1 -0.0054878 -0.001439 0.00784548 0.0008 3.43146e-06 2.48415e-13 1.27631e-13 3.86451e-13 8.42528e-10 -6.22504e-10 2.21772e-09 3.71002e-16 1.48579e-15 6.87989e-17 0 0 0 0 0 0 0 0
580 1 -0.00560943 -0.00225541 0.010745 0.0008 3.43146e-06 1.0734e-12 -6.41137e-13 4.61895e-13 1.36199e-10 -3.71253e-10 -2.40792e-10 -3.85679e-15 1.30284e-15 1.88851e-15 0 0 0 0 0 0 0 0
581 1 -0.00559571 0.00193256 0.0100813 0.0008 3.43146e-06 -6.71675e-14 5.41524e-13 -2.76336e-12 3.14712e-09 -9.1348e-10 -1.31405e-10 1.38543e-15 4.41348e-16 2.81925e-15 0 0 0 0 0 0 0 0
582 1 -0.00579259 -0.00427651 0.00721959 0.0008 3.43146e-06 -1.86384e-12 7.00686e-14 1.22738e-12 -1.2502e-10 -2.01979e-09 1.45833e-09 -2.31267e-16 -2.37753e-16 5.3331e-16 1 0.000132016 0.000110359 6.29321e-05 -0.00643605 -0.00475156 0.00721959 0.0008
583 1 -0.00146845 -0.000444973 0.0110375 0.0008 3.43146e-06 -5.28771e-13 -1.03902e-13 -1.91183e-12 -8.2235e-10 -6.27246e-10 1.47624e-09 -5.33984e-16 -4.20029e-15 5.16544e-15 0 0 0 0 0 0 0 0
584 1 -0.00718844 -0.000410992 0.00945023 0.0008 3.43146e-06 -6.17042e-13 -1.34967e-13 -1.82694e-12 2.45002e-09 2.31609e-09 -2.29124e-10 -4.22584e-16 1.82382e-16 6.16495e-16 1 0.0001694 -3.54165e-05 1.33698e-05 -0.00798696 -0.000456646 0.00945023 0.0008
585 1 -0.00480435 0.00312938 0.00766433 0.0008 3.43146e-06 -1.07064e-12 4.50735e-14 1.79677e-12 -2.60949e-10 -9.88891e-11 3.95133e-09 3.59155e-15 4.01563e-15 1.40288e-15 0 0 0 0 0 0 0 0
586 1 0.00483821 0.00131276 0.0090818 0.0008 3.43146e-06 7.13473e-13 -3.57112e-13 -4.53063e-13 5.23066e-10 -1.36034e-09 -7.5005e-10 -2.52253e-15 6.36598e-16 -3.57573e-15 0 0 0 0 0 0 0 0
587 1 0.00106849 -0.000384599 0.0123034 0.0008 3.43146e-06 -5.41547e-13 1.22314e-13 9.66973e-13 -2.71884e-09 3.10328e-09 2.02534e-10 4.36394e-16 -1.08646e-15 -4.48067e-16 0 0 0 0 0 0 0 0
588 1 -0.00565584 0.00171606 0.00849711 0.0008 3.43146e-06 6.9178e-13 5.39299e-13 6.36882e-13 -3.79977e-09 -1.93336e-10 4.32061e-10 -1.78316e-15 9.27847e-16 2.42807e-15 0 0 0 0 0 0 0 0
589 1 0.00491551 -0.00281381 0.00970212 0.0008 3.43146e-06 -7.39836e-13 5.61156e-13 1.17915e-12 1.31289e-09 -2.29098e-09 9.13839e-10 -2.72167e-17 5.98055e-16 7.04047e-16 0 0 0 0 0 0 0 0
590 1 0.00275418 0.00343313 0.0101093 0.0008 3.43146e-06 1.08351e-12 1.53111e-13 -1.79995e-12 3.20196e-09 -1.68549e-09 5.42297e-10 -2.08082e-16 2.10679e-15 -1.29259e-15 0 0 0 0 0 0 0 0
591 1 0.00148849 0.00296332 0.00723644 0.0008 3.43146e-06 8.63034e-14 4.18243e-13 3.78655e-13 4.43071e-10 -3.07465e-10 -9.40859e-10 1.59594e-16 1.29709e-15 -1.23049e-16 0 0 0 0 0 0 0 0
592 1 -0.00305498 -0.00450996 0.00790318 0.0008 3.43146e-06 4.25465e-13 4.27875e-13 -1.12362e-12 -2.55876e-09 5.56737e-10 -3.04343e-09 -7.32506e-16 -4.22375e-16 -6.53846e-16 0 0 0 0 0 0 0 0
593 1 -0.00110084 0.00711556 0.00997185 0.0008 3.43146e-06 2.97926e-13 -1.92883e-12 2.50191e-12 -3.1714e-09 4.5837e-10 1.28669e-10 -1.03584e-15 -4.62228e-17 -1.74929e-17 1 9.25463e-05 -0.000189399 2.15313e-05 -0.00122312 0.00790595 0.00997185 0.0008
594 1 0.0030531 -0.000479996 0.0075665 0.0008 3.43146e-06 1.08255e-12 1.31476e-13 -1.09546e-12 3.50803e-10 -7.56407e-10 1.74183e-09 -1.72547e-16 -5.14387e-16 -1.19861e-15 0 0 0 0 0 0 0 0
595 1 -0.00564713 -0.00446677 0.0108205 0.0008 3.43146e-06 -1.21915e-12 -4.96507e-13 -2.1549e-13 8.91193e-10 1.11123e-09 4.31945e-10 -1.45181e-16 -7.04747e-16 5.51705e-16 1 9.94871e-05 6.03093e-05 3.45173e-05 -0.00627446 -0.00496298 0.0108205 0.0008
596 1 -0.0063898 -0.00331859 0.0116506 0.0008 3.43146e-06 -5.44681e-13 -1.08206e-12 4.66485e-13 2.35004e-10 -5.92454e-10 -8.82277e-10 -2.35677e-15 2.03719e-16 7.68418e-16 1 0.000140755 8.13164e-05 6.96653e-06 -0.0070996 -0.00368722 0.0116506 0.0008
597 1 0.00213528 0.00300149 0.00869894 0.0008 3.43146e-06 9.86268e-13 1.07093e-12 -1.51558e-12 -1.84583e-09 2.27437e-09 -3.11835e-11 1.15697e-15 -2.11756e-17 4.4525e-16 0 0 0 0 0 0 0 0
598 1 0.0019912 0.000760185 0.0110797 0.0008 3.43146e-06 1.08241e-12 2.14498e-13 3.71001e-12 -1.29776e-09 6.46852e-10 -5.09769e-10 1.00021e-17 -2.47677e-15 -1.51139e-15 0 0 0 0 0 0 0 0
599 1 0.00703197 -0.00154723 0.00799648 0.0008 3.43146e-06 -1.5033e-12 5.41726e-13 -1.48553e-13 2.22177e-09 -7.14307e-10 -2.20208e-10 5.96042e-17 2.07711e-16 -5.09085e-16 1 -0.000152978 3.98716e-05 5.20145e-05 0.00781311 -0.0017191 0.00799648 0.0008
600 1 0.00104364 0.00373181 0.0096122 0.0008 3.43146e-06 -7.08203e-14 4.78645e-13 1.39776e-12 2.80516e-09 2.20306e-10 2.08718e-09 1.02599e-15 -1.02797e-15 2.5282e-15 0 0 0 0 0 0 0 0
601 1 -0.00275254 -0.0004 0.0100848 0.0008 3.43146e-06 -1.72834e-13 -1.30796e-13 -1.83884e-12 1.82592e-09 4.98453e-10 -6.79003e-10 -5.9474e-16 9.35872e-17 2.15078e-15 0 0 0 0 0 0 0 0
602 1 -0.00562023 0.00450091 0.0102048 0.0008 3.43146e-06 -2.65763e-14 -2.13067e-12 4.43207e-15 -5.97428e-09 4.75689e-09 -2.10882e-09 -8.6079e-17 4.65502e-16 3.09123e-15 1 0.000366728 -0.000279905 3.32469e-05 -0.00624439 0.00500076 0.0102048 0.0008
603 1 -0.000871064 0.00714736 0.0129296 0.0008 3.43146e-06 2.70983e-13 -1.1218e-12 5.56891e-13 -6.35011e-10 -9.34851e-10 2.32032e-10 1.90731e-16 -6.64196e-16 -3.24368e-15 1 2.88429e-05 -0.000255197 9.26356e-05 -0.000967816 0.00794124 0.0129296 0.0008
604 1 0.00387879 0.00255516 0.00938671 0.0008 3.43146e-06 1.08401e-12 1.05791e-12 -1.43599e-12 -1.23693e-09 4.83163e-11 -8.4845e-10 -1.6386e-16 5.48557e-16 -1.31803e-15 0 0 0 0 0 0 0 0
605 1 0.0034495 -0.00522676 0.00964616 0.0008 3.43146e-06 1.08207e-12 -2.1729e-13 1.38438e-12 2.38931e-09 -2.51756e-09 1.15387e-09 -1.11513e-15 -1.21511e-15 -3.73345e-15 0 0 0 0 0 0 0 0
606 1 -0.00309405 -0.00312395 0.0105464 0.0008 3.43146e-06 3.7367e-13 1.0834e-12 -4.19816e-13 -7.26048e-10 6.288e-10 -1.05809e-09 -4.42734e-15 1.53303e-16 -1.55977e-16 0 0 0 0 0 0 0 0
607 1 -0.000381555 -0.0058005 0.00800356 0.0008 3.43146e-06 5.69177e-14 -7.29847e-14 1.4303e-12 1.42183e-09 8.80402e-11 7.52785e-10 -3.75349e-16 3.55248e-16 7.02819e-16 0 0 0 0 0 0 0 0
608 1 0.00720016 7.76793e-05 0.0115622 0.0008 3.43146e-06 -1.21639e-12 3.38454e-14 -7.67031e-13 3.2381e-10 -9.96481e-10 -1.13675e-10 -4.70586e-16 -1.1808e-16 -4.68335e-16 1 -0.000944913 1.06816e-05 -0.00011923 0.00799953 8.63033e-05 0.0115622 0.0008
609 1 0.00138796 0.00518901 0.010286 0.0008 3.43146e-06 4.09817e-13 -2.16773e-12 -2.41644e-12 -5.83032e-10 7.09759e-10 3.62025e-10 2.7455e-15 3.85367e-16 -4.99311e-16 0 0 0 0 0 0 0 0
610 1 0.00718616 -0.000451973 0.0130717 0.0008 3.43146e-06 -1.63424e-12 -8.50234e-14 3.41448e-13 -6.05668e-10 4.50982e-10 2.51383e-10 -1.02272e-15 -6.52052e-16 -5.13894e-16 1 -0.000467882 -2.78607e-05 0.000124656 0.00798422 -0.000502167 0.0130717 0.0008
611 1 -0.00489639 -0.00527897 0.00965332 0.0008 3.43146e-06 2.16626e-12 -1.61138e-12 -1.91961e-13 -1.40122e-09 -1.15125e-09 -3.35325e-09 3.59049e-16 -1.05289e-15 -4.22058e-16 1 9.09765e-05 7.54748e-05 3.13095e-05 -0.00544032 -0.0058654 0.00965332 0.0008
612 1 -0.00317564 0.00489848 0.0111684 0.0008 3.43146e-06 1.08338e-12 -7.91872e-13 2.95903e-12 -4.65629e-09 1.64082e-09 6.22269e-10 4.10999e-16 3.27283e-17 2.78696e-15 0 0 0 0 0 0 0 0
613 1 0.000410583 -0.0071889 0.00794924 0.0008 3.43146e-06 -8.53528e-14 1.50942e-12 2.19649e-13 2.56724e-10 1.02592e-10 1.01173e-11 -7.66057e-16 6.25911e-16 -9.43274e-17 1 -0.000177699 0.00103006 6.61115e-05 0.000456164 -0.00798698 0.00794924 0.0008
614 1 -0.00403552 0.0019026 0.00672005 0.0008 3.43146e-06 -1.06454e-12 -2.2413e-13 -6.36968e-13 -8.32816e-10 3.57406e-10 2.56208e-10 -3.12323e-15 1.24224e-15 1.71183e-15 0 0 0 0 0 0 0 0
615 1 -0.00694636 -0.00189587 0.0121252 0.0008 3.43146e-06 -7.95789e-13 -5.06136e-13 2.31984e-12 3.02858e-09 -2.16486e-09 -3.2292e-10 -4.13732e-15 8.52333e-17 -1.26492e-15 1 0.000587295 0.000161144 0.000161127 -0.00771771 -0.0021064 0.0121252 0.0008
616 1 0.000145336 -0.00551206 0.00977538 0.0008 3.43146e-06 -2.56118e-14 1.17004e-12 1.49767e-12 8.41009e-10 -1.61276e-09 1.47988e-09 -7.49077e-16 -1.90748e-16 -2.32234e-16 0 0 0 0 0 0 0 0
617 1 -0.00678198 -0.00241938 0.00700913 0.0008 3.43146e-06 -4.30884e-13 -4.71692e-13 -2.2284e-13 -3.09643e-09 -8.35931e-10 -3.69181e-10 -1.51127e-16 -1.47744e-16 5.82919e-16 1 0.000856088 0.000562512 5.32438e-05 -0.00753491 -0.00268797 0.00700913 0.0008
618 1 -0.00123786 -0.00523017 0.0105391 0.0008 3.43146e-06 2.92254e-13 7.54977e-13 6.51953e-13 1.19609e-09 -3.05198e-10 3.13108e-10 5.97283e-16 1.83846e-15 2.95344e-15 0 0 0 0 0 0 0 0
619 1 0.00242072 0.00517765 0.0119815 0.0008 3.43146e-06 6.92192e-13 -1.44847e-12 1.81809e-12 -1.7585e-09 -8.24861e-10 -2.21331e-10 2.60752e-16 -1.97952e-15 -2.15929e-15 0 0 0 0 0 0 0 0
620 1 -0.00220734 -0.00685344 0.0103866 0.0008 3.43146e-06 8.55625e-13 2.16372e-12 -3.81926e-13 -6.17404e-10 -4.65231e-10 -1.6838e-10 -2.09278e-16 -1.03383e-15 -3.96322e-16 1 1.78811e-05 0.000112386 2.68931e-05 -0.00245255 -0.00761479 0.0103866 0.0008
621 1 0.00300962 0.00654041 0.0108839 0.0008 3.43146e-06 1.08335e-12 6.37482e-13 6.47814e-13 1.81444e-09 1.10899e-09 9.27551e-10 7.87651e-16 2.28708e-15 -2.03411e-16 0 0 0 0 0 0 0 0
622 1 0.00322753 -0.00643653 0.0106689 0.0008 3.43146e-06 1.08086e-12 -2.03064e-12 3.22141e-13 -1.60367e-10 1.31563e-09 -3.61627e-11 8.66725e-17 -1.60162e-15 -3.19272e-15 1 -0.000317143 0.000464924 9.78345e-05 0.00358594 -0.0071513 0.0106689 0.0008
623 1 -0.00703229 -0.00154636 0.0105663 0.0008 3.43146e-06 5.27465e-13 -1.76118e-13 -8.42855e-13 -3.52656e-09 2.88557e-10 -3.27844e-10 -6.88794e-16 -1.62148e-16 2.77173e-15 1 0.000343978 7.45091e-05 2.84892e-05 -0.00781333 -0.00171811 0.0105663 0.0008
624 1 0.000658706 0.00717064 0.0124644 0.0008 3.43146e-06 2.70566e-13 -1.00313e-12 1.01473e-12 -1.22413e-09 3.60756e-10 5.22354e-10 2.96338e-16 4.00083e-16 -3.70139e-15 1 -0.000499266 -0.00156837 0.000278895 0.000731811 0.00796646 0.0124644 0.0008
625 1 0.00123138 -0.0070944 0.0108569 0.0008 3.43146e-06 5.41873e-13 -1.25912e-12 1.06517e-12 1.26456e-09 2.28043e-10 -4.30286e-10 -2.67643e-16 7.1955e-16 -2.02655e-16 1 7.72902e-05 0.000709224 0.0001654 0.00136811 -0.00788215 0.0108569 0.0008
626 1 0.00428592 0.00144573 0.0105771 0.0008 3.43146e-06 8.83639e-13 2.78017e-13 -1.14147e-12 -2.98363e-10 9.06084e-10 -2.37205e-09 -3.91466e-17 1.00785e-15 -3.59728e-15 0 0 0 0 0 0 0 0
627 1 0.00253648 -0.00071516 0.0116018 0.0008 3.43146e-06 1.084e-12 2.69876e-13 9.39304e-13 -2.72031e-09 2.82534e-09 -8.1903e-10 4.08641e-16 1.53998e-16 -1.54956e-16 0 0 0 0 0 0 0 0
628 1 0.00178933 0.00697446 0.0099448 0.0008 3.43146e-06 5.04402e-13 -8.00309e-13 1.68064e-12 -2.19938e-09 1.51246e-10 8.94935e-10 -8.97789e-16 1.11865e-16 -8.13414e-16 1 -0.000173558 -0.000375396 8.22328e-05 0.00198805 0.00774904 0.0099448 0.0008
629 1 -5.5187e-05 -0.00280215 0.0120827 0.0008 3.43146e-06 1.76413e-14 -8.3006e-13 2.73077e-12 1.72394e-09 1.04203e-09 -5.89017e-10 -6.53379e-16 -3.12144e-16 -1.79719e-15 0 0 0 0 0 0 0 0
630 1 0.00663575 -0.00279521 0.011954 0.0008 3.43146e-06 -1.84758e-12 -4.50321e-14 4.46201e-13 2.16145e-09 -3.14545e-10 9.69919e-10 3.31816e-16 8.90933e-18 -4.60036e-20 1 -0.000513351 0.000386429 0.000172002 0.0073726 -0.0031056 0.011954 0.0008
631 1 0.00474902 -0.00179016 0.00799961 0.0008 3.43146e-06 -1.45386e-12 5.41928e-13 1.12208e-12 2.87274e-10 -2.72976e-09 -1.02067e-09 1.25835e-16 -9.48343e-16 3.35587e-16 0 0 0 0 0 0 0 0
632 1 0.00208651 -0.00447019 0.00928721 0.0008 3.43146e-06 1.08396e-12 7.00514e-13 -9.83157e-14 -1.16721e-10 -6.31492e-10 -1.32188e-09 4.18757e-16 -4.81744e-16 -1.92567e-15 0 0 0 0 0 0 0 0
633 1 0.000529375 0.00317888 0.0132792 0.0008 3.43146e-06 -2.70021e-13 -3.96436e-13 1.44289e-12 2.36842e-09 1.73342e-09 -2.57692e-09 -2.59935e-17 1.28903e-15 -1.38505e-15 0 0 0 0 0 0 0 0
634 1 -0.00171721 -0.00377917 0.0100635 0.0008 3.43146e-06 -5.42143e-13 4.30936e-13 -5.90793e-13 -5.41262e-10 3.52116e-10 2.72552e-10 1.32436e-16 7.376e-16 6.62867e-16 0 0 0 0 0 0 0 0
635 1 -0.003862 0.00607682 0.0128544 0.0008 3.43146e-06 -1.02859e-12 -7.18794e-13 1.15551e-12 -1.61951e-09 -1.36039e-10 -1.48926e-09 1.01983e-15 -9.6829e-16 9.86496e-16 1 9.99336e-05 -0.000149407 6.08689e-05 -0.00429099 0.00675184 0.0128544 0.0008
636 1 -0.00646999 0.00315918 0.00766786 0.0008 3.43146e-06 4.00781e-13 3.12667e-13 1.66258e-12 -5.36681e-10 -2.06365e-09 5.97868e-10 -2.16338e-15 2.37421e-15 -4.35928e-15 1 4.10538e-05 -2.44905e-05 1.38638e-05 -0.0071888 0.00351016 0.00766786 0.0008
637 1 -0.00458585 -0.00346093 0.00989601 0.0008 3.43146e-06 1.98532e-12 -7.33645e-13 5.03907e-13 -2.53368e-11 2.64451e-09 -3.20923e-09 -1.41279e-15 -1.71466e-15 1.44136e-15 0 0 0 0 0 0 0 0
638 1 0.00579808 -0.00358131 0.0130676 0.0008 3.43146e-06 -4.33875e-13 -2.64398e-13 -1.29916e-12 -4.30138e-10 1.00878e-09 -6.68001e-10 -1.67006e-15 -1.48184e-15 1.36432e-15 0 0 0 0 0 0 0 0
639 1 -0.00177878 -0.00297557 0.0114448 0.0008 3.43146e-06 5.30087e-13 -3.43266e-13 -1.8343e-12 6.20851e-10 7.63806e-10 -1.04328e-09 -9.84195e-16 1.00744e-15 2.91094e-15 0 0 0 0 0 0 0 0
640 1 0.00049285 -0.00424078 0.0125396 0.0008 3.43146e-06 2.71098e-13 -2.1683e-12 2.49895e-13 -6.10992e-11 -2.20024e-09 1.69578e-09 4.08178e-16 2.86868e-16 -1.58932e-15 0 0 0 0 0 0 0 0
641 1 0.000723517 0.00116182 0.0125202 0.0008 3.43146e-06 2.58786e-13 5.32948e-13 1.16431e-13 4.75075e-10 1.47102e-09 -5.72976e-10 -4.87627e-16 -1.00312e-15 -3.14981e-15 0 0 0 0 0 0 0 0
642 1 -0.00235516 0.00362581 0.00873957 0.0008 3.43146e-06 -1.08421e-12 1.17447e-12 -1.46406e-12 -1.62842e-10 3.01946e-09 -2.29126e-10 -1.31284e-15 -8.72298e-16 -9.76898e-15 0 0 0 0 0 0 0 0
643 1 0.00141087 -0.000600176 0.0104708 0.0008 3.43146e-06 -2.54268e-14 2.70754e-13 3.74696e-12 1.66751e-09 7.36885e-10 -3.30299e-10 -6.98537e-16 -9.26387e-18 -2.01984e-15 0 0 0 0 0 0 0 0
644 1 0.00503763 0.00291887 0.00831254 0.0008 3.43146e-06 2.11484e-12 -1.0838e-12 -2.34106e-12 -2.25092e-09 6.60544e-10 -7.49591e-10 4.41716e-15 1.46086e-16 -1.38461e-15 0 0 0 0 0 0 0 0
645 1 0.00479901 -0.00536791 0.0111328 0.0008 3.43146e-06 1.34733e-12 -1.00404e-12 -1.71843e-12 2.4908e-10 -3.43674e-09 -4.04747e-10 -5.06698e-16 -5.93243e-16 4.11879e-16 1 -0.000351328 0.000264746 0.000126292 0.00533198 -0.00596406 0.0111328 0.0008
646 1 -3.33614e-05 0.0058497 0.00949864 0.0008 3.43146e-06 1.11602e-13 -1.27978e-12 6.48343e-13 -3.29829e-09 2.03266e-09 4.62937e-11 -6.33735e-16 -2.20047e-15 -2.16445e-15 0 0 0 0 0 0 0 0
647 1 -0.00043965 -0.000801198 0.00986542 0.0008 3.43146e-06 -1.67864e-13 1.49737e-13 4.71725e-14 -1.71529e-09 -5.25951e-10 1.51574e-09 4.01574e-15 -1.0207e-15 1.00866e-15 0 0 0 0 0 0 0 0
648 1 -0.00278161 0.00511555 0.00914146 0.0008 3.43146e-06 -1.01544e-12 -7.16817e-13 1.13292e-12 1.95777e-09 2.43001e-09 7.39514e-10 3.22362e-15 -1.6672e-16 -3.21915e-15 0 0 0 0 0 0 0 0
649 1 0.00147634 0.00571253 0.00715167 0.0008 3.43146e-06 1.1304e-13 -1.83656e-12 9.62292e-13 -7.72169e-10 9.96771e-10 4.12143e-10 -4.9672e-16 5.2311e-16 -6.23061e-16 0 0 0 0 0 0 0 0
650 1 0.00314277 -0.00352982 0.0100832 0.0008 3.43146e-06 5.83889e-13 1.084e-12 1.29586e-12 1.21558e-09 -9.64843e-10 1.22352e-09 4.69057e-16 1.00716e-16 2.28466e-16 0 0 0 0 0 0 0 0
651 1 -0.00260043 -0.00165779 0.0110613 0.0008 3.43146e-06 6.47881e-13 5.4168e-13 -1.80051e-12 -2.75351e-09 3.05078e-09 -7.98494e-10 -2.45499e-15 3.71929e-16 3.77861e-15 0 0 0 0 0 0 0 0
652 1 0.00200038 0.00026996 0.0148245 0.0008 3.43146e-06 8.95146e-13 -6.88407e-14 4.56811e-13 1.97994e-10 1.46165e-09 -1.01816e-09 3.83614e-15 -4.50489e-16 -3.68573e-15 0 0 0 0 0 0 0 0
653 1 -0.000384307 -0.00502616 0.0136229 0.0008 3.43146e-06 1.3598e-13 -2.16834e-12 -6.50651e-13 1.42454e-09 2.30591e-09 -2.91539e-09 3.73511e-16 4.66041e-16 -1.25289e-16 0 0 0 0 0 0 0 0
654 1 0.0018482 0.0022949 0.0124243 0.0008 3.43146e-06 5.40992e-13 -4.28301e-13 1.44982e-12 4.69919e-10 -2.79125e-09 -4.7989e-10 2.69112e-16 8.28568e-16 -5.9034e-15 0 0 0 0 0 0 0 0
655 1 -0.00264422 -0.00669698 0.0167812 0.0008 3.43146e-06 -9.01431e-13 -3.69833e-13 -2.01809e-12 -3.24058e-09 -1.33168e-09 8.68318e-10 4.84468e-16 -4.01718e-16 -2.50477e-15 1 4.28109e-05 5.7239e-05 7.1771e-06 -0.00293798 -0.00744099 0.0167812 0.0008
656 1 -0.0015062 0.000298052 0.0159709 0.0008 3.43146e-06 5.42063e-13 -1.35659e-13 3.33061e-12 -1.98625e-10 3.21975e-10 2.6717e-10 1.10815e-17 -2.77789e-16 -1.3548e-15 0 0 0 0 0 0 0 0
657 1 0.00539319 0.00248254 0.0145891 0.0008 3.43146e-06 -1.72212e-12 5.38094e-14 1.74114e-12 -2.21632e-09 1.19562e-09 -4.0042e-10 1.46916e-16 5.64345e-16 -1.28974e-15 0 0 0 0 0 0 0 0
658 1 0.00345311 -0.0063183 0.0126769 0.0008 3.43146e-06 5.21056e-13 3.9011e-13 1.08829e-13 -1.76772e-09 3.49896e-09 -7.74917e-10 9.02928e-17 -5.65744e-16 -6.91187e-16 1 -0.000143808 0.000404403 0.000134698 0.00383661 -0.00702 0.0126769 0.0008
659 1 0.00713873 0.000939691 0.0163653 0.0008 3.43146e-06 8.24357e-13 -2.69854e-13 1.67121e-12 -8.00482e-10 2.00135e-09 4.06132e-10 -9.6317e-16 -4.41841e-16 -3.66113e-16 1 -0.000349083 -0.000126558 6.84391e-05 0.00793158 0.00104406 0.0163653 0.0008
660 1 -0.00578237 -0.00129557 0.0130433 0.0008 3.43146e-06 -2.16751e-12 -4.43e-13 4.1281e-12 1.08489e-09 1.23138e-09 3.65909e-09 -5.92256e-16 4.19038e-15 2.19879e-15 0 0 0 0 0 0 0 0
661 1 0.00135581 0.00145218 0.0139608 0.0008 3.43146e-06 5.41748e-13 -8.50978e-14 1.72366e-12 1.43778e-09 -1.5273e-09 1.97052e-09 5.62568e-17 4.27098e-15 -7.92546e-15 0 0 0 0 0 0 0 0
662 1 -0.0071996 -8.38467e-05 0.0130536 0.0008 3.43146e-06 2.13715e-12 -6.4714e-14 -5.43962e-14 -5.65235e-10 2.18665e-10 -1.83483e-10 8.95559e-16 3.05771e-16 -1.13251e-15 1 5.8408e-05 -1.11275e-06 2.11831e-06 -0.00799946 -9.31618e-05 0.0130536 0.0008
663 1 0.00566457 -0.000631736 0.0135319 0.0008 3.43146e-06 -7.45582e-13 -2.70278e-13 1.93787e-15 6.82647e-10 -6.02748e-10 1.56409e-10 -3.66845e-16 1.06516e-16 -1.69677e-17 0 0 0 0 0 0 0 0
664 1 -0.0022621 -0.00265683 0.015335 0.0008 3.43146e-06 -6.9264e-15 -7.79828e-13 -2.17719e-13 -3.33908e-09 -3.13547e-09 1.1524e-09 -2.84803e-15 2.11173e-15 -1.11504e-15 0 0 0 0 0 0 0 0
665 1 -0.00441671 1.43382e-05 0.0161478 0.0008 3.43146e-06 -8.50384e-13 -2.0754e-14 2.14507e-12 4.30749e-10 6.23222e-10 1.22355e-09 7.37171e-16 -5.62299e-16 2.48726e-15 0 0 0 0 0 0 0 0
666 1 0.000824535 -0.00328994 0.0157497 0.0008 3.43146e-06 -2.63364e-13 -4.99243e-13 2.1813e-12 -1.88432e-09 -1.22029e-09 -6.47004e-10 6.17296e-16 -2.32812e-15 -2.30861e-15 0 0 0 0 0 0 0 0
667 1 0.00255587 0.00536033 0.0155065 0.0008 3.43146e-06 -1.08331e-12 3.38282e-13 -8.1984e-13 -1.47923e-09 2.39632e-09 3.75455e-10 -2.32213e-16 -2.7853e-16 -3.48706e-15 0 0 0 0 0 0 0 0
668 1 0.0026889 -0.000777695 0.0158183 0.0008 3.43146e-06 5.16277e-13 -2.71112e-13 8.56407e-13 -1.45374e-09 -3.04394e-10 -9.55359e-10 2.14481e-15 2.4113e-16 -3.8279e-15 0 0 0 0 0 0 0 0
669 1 0.00321762 -0.00275853 0.0155768 0.0008 3.43146e-06 -1.08419e-12 -4.77784e-13 1.28251e-12 8.05479e-10 -4.40714e-10 -1.79519e-09 2.20397e-16 -2.04234e-15 -1.4164e-15 0 0 0 0 0 0 0 0
670 1 0.000341672 -0.00719207 0.0155274 0.0008 3.43146e-06 -1.34764e-13 1.11153e-12 -1.38528e-12 -1.75559e-09 1.44836e-09 1.12778e-10 8.9897e-16 -5.0402e-16 1.4617e-16 1 -1.28191e-05 0.000169262 4.43192e-05 0.000379626 -0.00799099 0.0155274 0.0008
671 1 0.00632014 -0.00344925 0.0145738 0.0008 3.43146e-06 7.79234e-13 -1.07972e-12 4.97276e-13 1.76402e-09 -2.58992e-10 7.21496e-10 -2.30653e-15 9.33061e-16 4.35915e-15 1 -5.64042e-05 3.97555e-05 2.99122e-06 0.00702227 -0.00383245 0.0145738 0.0008
672 1 -0.00315981 0.00646911 0.0142428 0.0008 3.43146e-06 5.03691e-13 3.32801e-13 -1.06745e-12 3.70204e-10 -4.81903e-10 -3.42086e-09 1.34841e-15 -1.05236e-15 -3.1402e-15 0 0 0 0 0 0 0 0
673 1 0.0052233 0.00495593 0.0109326 0.0008 3.43146e-06 -1.36871e-13 1.34444e-12 -1.59659e-12 3.6078e-09 6.00083e-10 -1.30185e-09 -8.02084e-17 -3.6415e-17 -1.30909e-15 1 -0.00024508 -0.000205923 0.000106532 0.00580344 0.00550637 0.0109326 0.0008
674 1 -0.00253449 -0.00130742 0.0127927 0.0008 3.43146e-06 1.08381e-12 5.41364e-13 -2.50501e-12 -4.0566e-09 2.56796e-09 -4.55166e-10 -5.02114e-16 3.296e-16 3.383e-15 0 0 0 0 0 0 0 0
675 1 -0.00317605 0.00307234 0.0135072 0.0008 3.43146e-06 -1.02905e-12 -1.0842e-12 3.93044e-13 -3.74191e-09 -7.37407e-10 -5.54251e-09 2.55529e-15 2.73761e-16 3.14345e-15 0 0 0 0 0 0 0 0
676 1 -0.00620971 0.00115351 0.0137115 0.0008 3.43146e-06 -1.6556e-12 4.57534e-13 1.37138e-12 -3.01784e-09 1.72343e-09 1.59776e-09 -1.5099e-16 4.00992e-15 -1.15204e-16 0 0 0 0 0 0 0 0
677 1 -0.000447773 0.00383423 0.0147513 0.0008 3.43146e-06 3.66005e-13 9.96303e-13 4.33244e-12 -3.25571e-10 -6.60331e-10 1.37155e-10 -1.85346e-15 -2.13168e-15 8.88714e-16 0 0 0 0 0 0 0 0
678 1 -0.00213564 0.00309408 0.014722 0.0008 3.43146e-06 -6.86051e-13 -2.68386e-13 6.43303e-13 -2.68203e-09 7.24693e-10 5.51903e-11 2.60897e-16 -2.9862e-16 -4.18333e-15 0 0 0 0 0 0 0 0
679 1 0.000332091 -0.0046167 0.0150034 0.0008 3.43146e-06 1.35451e-13 -1.9367e-12 4.11814e-12 -6.72373e-10 9.4577e-10 9.70285e-10 -6.78883e-17 9.93191e-16 -8.84818e-16 0 0 0 0 0 0 0 0
680 1 -0.00109555 0.00711635 0.0145152 0.0008 3.43146e-06 -4.49747e-14 -9.15188e-13 1.13366e-12 -1.44089e-09 1.14879e-10 -2.28354e-10 -1.0476e-15 4.41494e-16 -1.93303e-15 1 -1.54562e-05 -0.000178257 4.32541e-05 -0.00121725 0.00790685 0.0145152 0.0008
681 1 0.0071717 -0.00063989 0.0161142 0.0008 3.43146e-06 8.81517e-13 -2.70916e-13 1.54445e-12 8.74114e-10 1.86037e-09 2.76917e-10 -2.70105e-16 -9.17774e-17 -9.93504e-16 1 -0.00017868 3.02007e-05 -1.30713e-06 0.00796834 -0.00071097 0.0161142 0.0008
682 1 -0.00103336 -0.00712591 0.0163622 0.0008 3.43146e-06 -3.856e-13 2.12702e-12 -1.22111e-12 -1.09905e-09 2.98804e-09 8.58726e-10 3.74146e-16 1.57761e-15 -3.8298e-16 1 6.40744e-05 0.000625073 -2.205e-05 -0.00114811 -0.00791719 0.0163622 0.0008
683 1 -0.00324332 -0.00382714 0.0158118 0.0008 3.43146e-06 -1.08414e-12 -1.1472e-14 3.06366e-14 4.18643e-09 4.50688e-09 -3.3722e-09 2.88417e-16 3.53521e-16 1.56263e-16 0 0 0 0 0 0 0 0
684 1 0.00384356 0.00351538 0.0137351 0.0008 3.43146e-06 -4.85718e-13 -3.03585e-13 -1.61775e-12 -5.38669e-10 -6.74839e-10 -4.19078e-11 -1.89195e-16 -4.17061e-16 -4.55923e-16 0 0 0 0 0 0 0 0
685 1 0.00627505 0.00353069 0.0167056 0.0008 3.43146e-06 1.39737e-12 -5.49109e-13 -6.59195e-13 1.48105e-09 -6.51377e-11 1.42991e-09 -3.16904e-15 1.57432e-15 1.50502e-15 1 -9.19924e-05 -6.75027e-05 3.52902e-05 0.00697214 0.00392291 0.0167056 0.0008
686 1 0.00228194 -0.00455041 0.0109636 0.0008 3.43146e-06 5.93094e-13 9.06717e-13 3.63548e-13 -1.03694e-09 -4.81907e-10 -2.98991e-10 2.56301e-16 -1.05532e-15 -1.28069e-15 0 0 0 0 0 0 0 0
687 1 -0.00316174 0.0064693 0.0114708 0.0008 3.43146e-06 7.26456e-13 -1.3143e-12 -2.54654e-13 7.68993e-10 -8.90206e-10 7.76443e-11 3.16133e-16 -3.15052e-16 -2.63331e-16 1 0.000536298 -0.000787763 0.000176301 -0.00351276 0.00718753 0.0114708 0.0008
688 1 0.00209812 -0.00291474 0.0167089 0.0008 3.43146e-06 1.08112e-12 -6.58902e-13 -1.54692e-14 1.69987e-09 1.63104e-09 -2.59821e-11 -8.79605e-16 1.81877e-15 -1.01978e-15 0 0 0 0 0 0 0 0
689 1 -0.00332853 -0.00515943 0.0146144 0.0008 3.43146e-06 7.74543e-13 1.51527e-12 3.37624e-12 3.32508e-09 5.10201e-10 -2.82568e-10 -8.1976e-16 2.82945e-15 5.56539e-16 0 0 0 0 0 0 0 0
690 1 -0.00719748 0.000201621 0.0114799 0.0008 3.43146e-06 3.60296e-13 -8.17327e-14 -1.65846e-12 1.86564e-10 2.06589e-09 -9.09869e-11 2.75349e-15 -4.32395e-16 -3.54547e-16 1 0.000360091 -2.41159e-05 0.000104271 -0.00799686 0.000224014 0.0114799 0.0008
691 1 -0.00662769 -0.00281445 0.0137218 0.0008 3.43146e-06 1.58777e-12 1.0828e-12 3.24108e-12 -5.99372e-10 -4.63585e-09 4.35451e-10 -1.97393e-15 -2.09577e-15 -4.91457e-16 1 0.000722388 0.000308452 -6.78174e-05 -0.00736357 -0.00312695 0.0137218 0.0008
692 1 0.00137204 -0.000282376 0.0165802 0.0008 3.43146e-06 5.39486e-13 1.78006e-13 7.34027e-13 5.82133e-10 -4.1156e-10 -1.07744e-10 2.08743e-16 1.43681e-15 -2.07251e-15 0 0 0 0 0 0 0 0
693 1 0.000824227 0.000946199 0.0174485 0.0008 3.43146e-06 2.70514e-13 -5.51895e-14 6.33301e-13 9.66159e-10 1.08255e-09 -4.78961e-10 -3.88825e-16 -1.65372e-15 -8.01803e-15 0 0 0 0 0 0 0 0
694 1 -0.00333766 0.00148228 0.0135807 0.0008 3.43146e-06 -3.45978e-12 -5.42576e-13 3.54597e-12 7.13836e-11 -1.35387e-09 2.45449e-09 4.15382e-15 -1.92757e-16 4.66871e-15 0 0 0 0 0 0 0 0
695 1 0.00625937 -0.00115157 0.0119713 0.0008 3.43146e-06 -2.16798e-12 5.40833e-13 3.10289e-13 -1.83757e-09 -2.31412e-09 -4.58747e-09 1.65333e-16 8.45783e-17 1.68646e-15 0 0 0 0 0 0 0 0
696 1 0.0056205 0.000888029 0.0140293 0.0008 3.43146e-06 -4.01414e-13 -2.71067e-13 1.20277e-12 7.08291e-10 1.48902e-09 -3.74931e-10 -2.76697e-15 -3.81956e-16 -4.78078e-16 0 0 0 0 0 0 0 0
697 1 0.00209723 0.00286945 0.0139284 0.0008 3.43146e-06 -6.53565e-13 -6.28516e-13 2.45161e-12 -1.14699e-09 3.05381e-10 -9.39436e-10 -1.56175e-16 4.38685e-15 -5.18051e-15 0 0 0 0 0 0 0 0
698 1 0.00434302 -0.00574328 0.0138753 0.0008 3.43146e-06 -1.04767e-12 -2.02681e-13 -7.49245e-13 2.07901e-09 -4.30526e-09 1.18576e-09 1.182e-15 -2.60675e-16 4.54643e-16 1 -0.00043487 0.000593022 0.000184152 0.00482525 -0.00638098 0.0138753 0.0008
699 1 0.00203239 -0.00468167 0.0125382 0.0008 3.43146e-06 5.86219e-13 6.341e-13 8.91745e-13 1.21948e-09 5.44953e-10 8.98165e-10 -3.18209e-16 -1.26838e-15 -4.98694e-16 0 0 0 0 0 0 0 0
700 1 0.000759824 -0.00227163 0.0133524 0.0008 3.43146e-06 2.7101e-13 -8.30588e-13 2.78683e-12 -9.80699e-10 -3.20245e-10 1.57583e-09 5.7172e-16 4.42801e-17 -2.17455e-15 0 0 0 0 0 0 0 0
701 1 0.00127015 0.00466807 0.0161596 0.0008 3.43146e-06 -4.86143e-13 1.59131e-13 8.366e-13 1.53119e-09 -2.59724e-11 -3.09746e-10 -3.53357e-15 2.80366e-15 -3.50621e-15 0 0 0 0 0 0 0 0
702 1 0.00447692 -0.00372162 0.0109445 0.0008 3.43146e-06 -1.39576e-12 -2.58137e-13 -9.67971e-13 1.3587e-09 1.78883e-09 -2.06942e-09 1.72549e-15 1.40268e-15 1.14321e-15 0 0 0 0 0 0 0 0
703 1 0.00417724 0.00145793 0.0144152 0.0008 3.43146e-06 -1.67859e-12 -5.30816e-13 2.58927e-12 1.04354e-09 -7.27284e-10 9.2256e-10 -1.6883e-15 6.46939e-16 2.79769e-16 0 0 0 0 0 0 0 0
704 1 -0.00237726 0.00468627 0.0147978 0.0008 3.43146e-06 -1.08396e-12 3.29049e-13 1.28808e-12 -2.64653e-09 -3.16185e-09 -2.55653e-10 -9.95952e-16 -1.9532e-15 -3.12393e-15 0 0 0 0 0 0 0 0
705 1 0.00312938 0.00174369 0.0116412 0.0008 3.43146e-06 1.0836e-12 3.44546e-13 1.34846e-12 4.82434e-09 4.9472e-10 -1.41998e-09 4.44622e-16 2.7904e-15 -3.60387e-15 0 0 0 0 0 0 0 0
706 1 0.00309393 -0.00337041 0.0116753 0.0008 3.43146e-06 8.52892e-13 7.85817e-13 -1.88909e-13 2.08143e-09 3.11953e-09 1.23509e-09 2.38387e-16 -2.29959e-15 3.90611e-16 0 0 0 0 0 0 0 0
707 1 0.0056388 0.00187119 0.0127608 0.0008 3.43146e-06 -2.1637e-12 -5.416e-13 1.92502e-14 2.71153e-09 1.05618e-09 4.83037e-10 -1.45984e-16 -4.0539e-16 2.3842e-16 0 0 0 0 0 0 0 0
708 1 -0.00229111 0.00682608 0.0155377 0.0008 3.43146e-06 1.08339e-12 -3.9764e-13 2.83415e-13 -2.7536e-10 -3.36358e-10 1.20172e-09 -1.15455e-17 1.11383e-15 1.79616e-16 1 0.000121324 -0.000356892 9.12745e-05 -0.00254556 0.0075842 0.0155377 0.0008
709 1 -0.00279246 0.000984744 0.0166294 0.0008 3.43146e-06 -1.08418e-12 -9.96015e-13 1.85122e-12 -1.48206e-09 -1.92601e-09 2.16086e-09 -2.81326e-16 -2.17808e-15 4.7119e-16 0 0 0 0 0 0 0 0
710 1 0.000278935 0.00719504 0.0153537 0.0008 3.43146e-06 -2.0395e-13 8.95986e-13 2.27767e-12 -2.79498e-09 4.5001e-10 -3.76901e-10 -1.18316e-15 -4.8529e-16 -4.00242e-15 1 5.14605e-06 -0.000621629 0.000136711 0.000309909 0.007994 0.0153537 0.0008
711 1 0.00252407 0.00177016 0.0150094 0.0008 3.43146e-06 1.06551e-12 -4.90591e-13 8.5848e-13 1.92263e-09 2.93594e-09 1.20503e-09 5.34289e-16 9.50623e-16 -4.52725e-15 0 0 0 0 0 0 0 0
712 1 -0.00206147 0.00217903 0.0126985 0.0008 3.43146e-06 -1.08431e-12 1.0646e-12 -1.66553e-12 -5.39934e-09 -5.74745e-09 -4.02964e-09 2.87561e-16 -3.6729e-16 -1.06032e-15 0 0 0 0 0 0 0 0
713 1 -0.000436827 0.00285873 0.0160185 0.0008 3.43146e-06 1.35404e-13 6.91868e-13 2.9789e-12 1.68871e-09 5.85295e-10 -4.16592e-10 2.75665e-16 2.77383e-15 -2.48005e-15 0 0 0 0 0 0 0 0
714 1 0.00303066 -0.00420647 0.0165683 0.0008 3.43146e-06 1.01274e-12 -2.16804e-12 3.1961e-13 -1.79879e-09 -2.44157e-09 -1.18749e-09 -1.60201e-15 -2.91764e-16 -7.01113e-16 0 0 0 0 0 0 0 0
715 1 -0.00491074 -0.00297275 0.0157523 0.0008 3.43146e-06 -1.13556e-12 4.83527e-13 1.39276e-12 -2.85854e-11 2.46408e-09 -5.83879e-10 -9.39532e-16 -9.03072e-17 7.28078e-16 0 0 0 0 0 0 0 0
716 1 -0.000584479 0.00162385 0.011725 0.0008 3.43146e-06 -1.4669e-13 -2.27237e-13 1.87988e-12 -5.72793e-10 6.74612e-10 1.21221e-09 -9.74902e-16 -5.2463e-15 -2.12668e-15 0 0 0 0 0 0 0 0
717 1 0.00711876 0.00108541 0.0135077 0.0008 3.43146e-06 -1.73024e-12 -3.22886e-13 2.20198e-13 4.84254e-10 3.73281e-10 8.67087e-11 -8.45752e-16 5.99623e-16 7.97244e-17 1 -0.00220701 -0.000208723 0.000182675 0.0079086 0.00120584 0.0135077 0.0008
718 1 -0.00299837 -2.49808e-05 0.0139964 0.0008 3.43146e-06 -1.04539e-12 -8.09862e-14 3.23151e-12 -3.8376e-10 2.27946e-09 6.16041e-10 1.07476e-15 2.08831e-15 -3.12403e-16 0 0 0 0 0 0 0 0
719 1 -0.00141408 0.00260158 0.0107698 0.0008 3.43146e-06 2.39683e-13 -6.87323e-13 2.17317e-12 -8.09816e-10 8.05845e-10 -2.73292e-09 8.02805e-15 -1.42576e-15 8.19736e-15 0 0 0 0 0 0 0 0
720 1 0.0021925 -0.00393708 0.0152318 0.0008 3.43146e-06 4.85478e-13 6.63424e-13 1.67908e-12 8.39868e-10 2.2527e-09 2.92078e-09 -1.41563e-15 -2.58393e-15 -3.61609e-15 0 0 0 0 0 0 0 0
721 1 -0.00295221 0.00351064 0.0160327 0.0008 3.43146e-06 -6.35365e-13 -8.17384e-13 6.62895e-12 5.58006e-09 2.99595e-09 -4.65903e-10 6.80999e-16 -4.83552e-16 -3.53909e-15 0 0 0 0 0 0 0 0
722 1 -0.00265453 -0.00555547 0.011208 0.0008 3.43146e-06 4.14715e-13 4.41974e-13 1.72734e-13 2.0056e-09 1.3833e-09 1.9186e-09 -8.8539e-16 1.86789e-15 -4.40298e-16 0 0 0 0 0 0 0 0
723 1 0.00432948 0.00575288 0.0133276 0.0008 3.43146e-06 -2.1579e-12 3.21681e-13 -9.99136e-13 5.71631e-10 -1.23567e-09 -2.35398e-09 4.15426e-16 1.61967e-16 4.86693e-16 1 -2.69624e-07 -3.43606e-07 -4.1518e-08 0.00481053 0.00639209 0.0133276 0.0008
724 1 -0.000993189 -0.00713127 0.0146483 0.0008 3.43146e-06 -4.16495e-14 9.53351e-13 1.31029e-12 1.89471e-09 1.27896e-09 1.69798e-10 -1.73582e-15 -1.59012e-15 -5.68335e-16 1 2.77405e-05 5.93053e-05 1.21445e-05 -0.00110353 -0.00792352 0.0146483 0.0008
725 1 0.00719979 -5.92543e-05 0.0146226 0.0008 3.43146e-06 -2.16836e-12 1.70708e-13 -8.12125e-13 -2.80837e-11 -1.06881e-09 -2.60341e-10 3.33926e-16 1.90087e-16 2.54457e-16 1 -1.21389e-05 3.17139e-07 1.66026e-06 0.00799973 -6.58378e-05 0.0146226 0.0008
726 1 -0.00168302 0.00578033 0.0138598 0.0008 3.43146e-06 5.41746e-13 -1.53721e-12 1.87578e-12 -2.41615e-10 -1.57195e-09 4.88736e-10 -2.23385e-16 8.40391e-16 -2.01054e-15 0 0 0 0 0 0 0 0
727 1 -0.00501389 0.00203945 0.0143024 0.0008 3.43146e-06 -9.98241e-13 -1.08301e-12 9.72242e-13 -7.58296e-10 -2.94559e-09 1.1514e-09 -2.10932e-15 -3.65897e-16 8.95333e-15 0 0 0 0 0 0 0 0
728 1 0.00466685 0.00341082 0.0111433 0.0008 3.43146e-06 -1.24714e-13 4.28968e-13 -3.43706e-12 1.30636e-09 -3.49798e-10 -5.68144e-10 -1.92882e-15 7.38475e-16 -2.54259e-16 0 0 0 0 0 0 0 0
729 1 0.000324486 0.00471945 0.0136662 0.0008 3.43146e-06 1.35574e-13 -9.27101e-13 2.92175e-12 -3.95246e-09 -2.66556e-10 1.22259e-09 6.00515e-16 -2.79182e-17 -2.27681e-15 0 0 0 0 0 0 0 0
730 1 0.000308068 2.5036e-05 0.0136502 0.0008 3.43146e-06 2.07072e-13 4.11815e-13 1.17198e-12 1.94546e-09 -1.81924e-09 4.85189e-10 3.14461e-15 1.87102e-16 3.40906e-15 0 0 0 0 0 0 0 0
731 1 -0.000562996 0.00717829 0.0167142 0.0008 3.43146e-06 -2.23749e-14 -2.16811e-12 2.2284e-12 -2.56347e-09 -3.04112e-09 -2.56982e-10 -1.56027e-15 -1.21469e-16 -4.71589e-15 1 6.05235e-05 -0.000411425 -3.07351e-05 -0.000625522 0.00797551 0.0167142 0.0008
732 1 -0.00427603 -0.00387068 0.0145906 0.0008 3.43146e-06 -1.81698e-12 1.07223e-12 3.67511e-12 -2.59601e-09 -8.5145e-10 3.21549e-09 2.29791e-16 5.97634e-16 -1.02873e-15 0 0 0 0 0 0 0 0
733 1 -0.0051623 -4.89179e-05 0.0138304 0.0008 3.43146e-06 -2.16506e-12 -5.92101e-14 3.22047e-12 -1.70968e-09 2.17776e-10 -2.91518e-09 -4.68353e-16 1.62598e-15 8.94091e-16 0 0 0 0 0 0 0 0
734 1 -0.00364255 0.0025534 0.0149464 0.0008 3.43146e-06 -1.07763e-12 -6.94254e-13 2.2673e-12 4.04906e-09 2.95053e-09 8.34519e-10 -1.10244e-16 -4.66088e-15 1.34432e-14 0 0 0 0 0 0 0 0
735 1 -0.000880215 -0.00714603 0.0130528 0.0008 3.43146e-06 1.46439e-13 -1.21244e-13 -2.50678e-12 -3.21718e-09 -1.17191e-09 -1.96399e-10 -9.75581e-16 -5.2628e-16 1.37297e-15 1 2.00278e-06 1.73219e-05 5.64449e-06 -0.000978011 -0.00793999 0.0130528 0.0008
736 1 0.00701931 0.00160578 0.0119987 0.0008 3.43146e-06 -1.13917e-12 1.59956e-13 -8.58494e-13 -3.4088e-10 -1.11815e-09 -5.28157e-10 -1.12329e-15 -7.01714e-16 5.04254e-16 1 -0.00107148 -0.00018445 0.000356566 0.00779854 0.00178404 0.0119987 0.0008
737 1 0.00256 -0.0055571 0.0137683 0.0008 3.43146e-06 -9.81869e-13 -2.16747e-12 -4.02452e-13 2.08849e-09 -9.66765e-10 -3.76082e-09 -5.41117e-16 5.03615e-16 8.12456e-17 0 0 0 0 0 0 0 0
738 1 -0.00606572 0.00387947 0.0166458 0.0008 3.43146e-06 -1.45934e-14 -1.08355e-12 4.39063e-13 -1.18952e-09 7.88257e-11 -1.33116e-09 -1.03478e-15 -6.95406e-16 -2.26829e-15 1 0.000174294 -0.000150597 3.08048e-05 -0.00673948 0.00431039 0.0166458 0.0008
739 1 -0.00513261 -0.00151898 0.0163817 0.0008 3.43146e-06 -5.00069e-13 -5.36891e-13 4.01421e-13 -9.27826e-10 -6.38689e-11 1.03039e-09 -7.71053e-16 -2.61513e-16 3.105e-15 0 0 0 0 0 0 0 0
740 1 -0.00238902 0.00521702 0.0125236 0.0008 3.43146e-06 -2.93999e-13 1.56559e-12 1.0993e-12 3.2744e-10 -2.51444e-09 -1.28356e-09 6.87529e-16 3.66921e-15 9.54337e-16 0 0 0 0 0 0 0 0
741 1 -0.0011741 0.0018506 0.0150187 0.0008 3.43146e-06 -4.93119e-13 4.6065e-13 3.50767e-12 -2.41305e-09 -1.41727e-11 -1.36393e-10 5.27259e-16 -2.05368e-15 -1.71907e-15 0 0 0 0 0 0 0 0
742 1 -0.00381985 0.00392083 0.0173123 0.0008 3.43146e-06 -8.95296e-13 -2.05246e-12 8.07017e-12 -3.23102e-10 -4.02907e-09 -3.98048e-09 4.08834e-16 -8.52799e-16 -1.26958e-15 0 0 0 0 0 0 0 0
743 1 0.00358342 0.00624536 0.0146583 0.0008 3.43146e-06 -1.04918e-12 -1.73557e-14 -1.49552e-12 1.33981e-09 -1.42685e-09 -1.1399e-09 -1.04845e-16 -9.27097e-16 -2.14514e-15 1 -0.000284864 -0.000413476 9.14689e-05 0.00398137 0.00693893 0.0146583 0.0008
744 1 0.000208293 0.00586172 0.0162343 0.0008 3.43146e-06 6.29439e-14 -8.82695e-13 3.56565e-12 2.73152e-09 3.97521e-10 4.73831e-10 -2.70389e-16 8.56408e-16 -7.65675e-15 0 0 0 0 0 0 0 0
745 1 -0.000312661 -0.00457134 0.0164668 0.0008 3.43146e-06 -1.32312e-13 2.16238e-12 1.78311e-13 -5.09529e-09 -3.27027e-09 -1.15885e-09 9.43574e-16 -4.07811e-15 -8.20486e-15 0 0 0 0 0 0 0 0
746 1 -9.69529e-05 -0.00347306 0.01397 0.0008 3.43146e-06 -1.38521e-14 -3.38132e-13 3.16028e-12 4.57831e-10 3.76185e-10 -2.24264e-09 8.61603e-16 -9.97142e-16 -1.56341e-15 0 0 0 0 0 0 0 0
747 1 -0.00419866 -0.0039123 0.0129935 0.0008 3.43146e-06 1.34367e-12 6.38492e-13 -1.28075e-12 1.99408e-09 -2.61408e-09 1.86335e-09 3.63484e-16 1.29189e-15 -1.00872e-15 0 0 0 0 0 0 0 0
748 1 0.000457309 -0.00718547 0.0139317 0.0008 3.43146e-06 6.61403e-13 2.03698e-12 2.61921e-12 3.08124e-09 -2.80274e-09 -1.01953e-09 9.05708e-16 -6.97612e-17 -2.08761e-17 1 -1.16516e-07 2.63252e-06 1.0075e-07 0.00050812 -0.00798385 0.0139317 0.0008
749 1 0.00202594 -0.00247601 0.0143086 0.0008 3.43146e-06 2.06695e-13 1.0841e-12 1.96872e-12 7.66763e-10 7.3707e-10 1.18697e-09 2.26234e-17 3.49637e-16 -2.74594e-15 0 0 0 0 0 0 0 0
750 1 -0.00125488 -0.00230073 0.0141441 0.0008 3.43146e-06 2.48669e-13 -9.40334e-13 9.30033e-13 2.3562e-09 1.58535e-09 -1.4991e-11 1.30559e-15 -1.03701e-16 -3.25507e-15 0 0 0 0 0 0 0 0
751 1 0.00699317 0.0017141 0.0149732 0.0008 3.43146e-06 -1.20743e-12 -4.86633e-13 4.60241e-13 -2.41338e-10 4.92771e-10 2.04323e-10 3.17717e-17 9.25314e-16 -2.34586e-16 1 -0.000151202 -5.9534e-05 1.57463e-05 0.00777 0.00190451 0.0149732 0.0008
752 1 0.00436566 -0.000970731 0.0157951 0.0008 3.43146e-06 -1.05522e-12 -1.10459e-13 -2.67603e-13 -1.55596e-09 2.37133e-09 1.60795e-09 1.14921e-15 -1.86218e-15 -5.24384e-16 0 0 0 0 0 0 0 0
753 1 0.00113896 0.00390059 0.0175567 0.0008 3.43146e-06 5.2743e-13 -3.57447e-13 8.53559e-13 -9.78092e-10 6.71764e-10 1.99487e-09 -4.51661e-16 1.36779e-15 -3.65333e-15 0 0 0 0 0 0 0 0
754 1 0.00535067 0.0025091 0.0100123 0.0008 3.43146e-06 -7.31637e-14 1.08295e-12 2.89346e-14 -2.4439e-09 -2.41764e-09 -4.14397e-10 -1.29853e-15 1.51683e-17 -2.14368e-15 0 0 0 0 0 0 0 0
755 1 -0.00707835 -0.00131813 0.014064 0.0008 3.43146e-06 1.14453e-12 -1.24628e-13 9.56011e-13 -3.19222e-10 -1.26609e-09 -5.74875e-10 2.372e-16 7.33572e-16 6.24965e-17 1 1.55917e-05 2.3279e-06 2.88375e-06 -0.0078648 -0.00146458 0.014064 0.0008
756 1 -0.00356664 -0.00219539 0.0161382 0.0008 3.43146e-06 1.10218e-13 -7.90844e-13 -1.20776e-12 2.0424e-09 2.54883e-09 -5.78711e-10 -1.61915e-15 4.06112e-16 1.75237e-15 0 0 0 0 0 0 0 0
757 1 0.00202735 -0.00690868 0.0130985 0.0008 3.43146e-06 -4.1863e-14 2.16173e-12 -2.31736e-12 -6.79e-10 -7.61907e-09 -6.20069e-10 4.64215e-16 -6.77789e-16 -7.07034e-16 1 -3.05632e-08 3.87331e-07 -1.7628e-08 0.00225261 -0.00767631 0.0130985 0.0008
758 1 0.00148159 -0.00100246 0.0140058 0.0008 3.43146e-06 -3.80703e-13 5.40795e-13 1.80125e-12 -1.16518e-09 -1.56595e-10 -4.77888e-10 2.4828e-15 -1.12429e-16 -5.17664e-16 0 0 0 0 0 0 0 0
759 1 0.00502185 -0.00240619 0.0155373 0.0008 3.43146e-06 -1.75803e-12 1.67239e-13 -1.64965e-12 7.8381e-10 3.6488e-09 -1.28733e-09 -8.89262e-16 -8.45177e-16 -1.14291e-15 0 0 0 0 0 0 0 0
760 1 0.00251117 0.00205834 0.0167023 0.0008 3.43146e-06 -5.38688e-13 7.10134e-13 -1.35497e-12 1.38373e-10 1.15392e-09 1.56377e-09 1.53375e-16 -1.35955e-15 -3.11041e-15 0 0 0 0 0 0 0 0
761 1 -0.00534899 -0.00481994 0.0123518 0.0008 3.43146e-06 1.21986e-12 -8.74405e-14 -2.12655e-12 -1.06472e-09 2.55848e-09 -9.70283e-10 9.63683e-16 -6.84674e-16 -8.19773e-16 1 0.000178467 0.000181704 3.95343e-05 -0.00594312 -0.0053553 0.0123518 0.0008
762 1 -0.00301159 0.00548516 0.0160304 0.0008 3.43146e-06 -1.08404e-12 -1.562e-12 -2.91999e-12 4.21315e-09 -1.86981e-09 -3.15718e-09 -2.79282e-16 2.51753e-15 1.6393e-15 0 0 0 0 0 0 0 0
763 1 0.0009008 -0.0058509 0.016236 0.0008 3.43146e-06 2.71092e-13 -9.99122e-13 7.58398e-12 9.03133e-10 -4.48641e-09 2.11217e-09 -1.85527e-15 -3.17446e-16 4.43757e-16 0 0 0 0 0 0 0 0
764 1 -0.00583066 -0.00420152 0.0137459 0.0008 3.43146e-06 2.39567e-12 2.16868e-12 4.2451e-12 1.03655e-09 1.7872e-09 1.15751e-09 6.19506e-16 7.04486e-16 -2.012e-16 0 0 0 0 0 0 0 0
765 1 -0.00187818 0.00400446 0.0134323 0.0008 3.43146e-06 -5.41655e-13 -1.97069e-12 3.66701e-12 2.39319e-09 -4.93947e-09 4.34521e-09 -4.99932e-16 1.38748e-15 5.41092e-16 0 0 0 0 0 0 0 0
766 1 -0.00593943 0.00407069 0.0140376 0.0008 3.43146e-06 9.30783e-13 -8.48176e-13 4.54173e-13 -1.29034e-09 1.88635e-10 -2.19525e-10 -1.18292e-15 2.43352e-16 3.49025e-16 1 0.000586749 -0.000501997 -2.87678e-05 -0.0065989 0.00452267 0.0140376 0.0008
767 1 0.00589369 0.00211533 0.0160635 0.0008 3.43146e-06 3.07623e-13 -7.57929e-14 2.05255e-12 1.31456e-09 1.77791e-09 -1.96893e-09 -1.45773e-15 2.20585e-15 2.91605e-16 0 0 0 0 0 0 0 0
768 1 -0.00284424 -0.00661454 0.0136513 0.0008 3.43146e-06 3.3174e-13 1.16512e-12 -1.05152e-12 -1.7018e-09 -4.29795e-10 1.47374e-10 -7.32007e-16 4.43326e-16 1.17144e-15 1 4.01053e-05 8.37899e-05 2.72136e-05 -0.00316021 -0.00734936 0.0136513 0.0008
769 1 0.00192081 -0.00693951 0.0154972 0.0008 3.43146e-06 -5.40441e-13 1.37378e-12 2.04106e-12 4.14665e-09 -5.45105e-09 2.06674e-10 -3.90926e-16 -1.43672e-15 3.79852e-16 1 -0.000250855 0.000561853 4.94929e-05 0.00213411 -0.0077101 0.0154972 0.0008
770 1 -0.00165933 -0.00451631 0.0119069 0.0008 3.43146e-06 5.421e-13 -8.39514e-13 1.26424e-12 1.42827e-09 -2.32615e-10 -1.81984e-09 4.03134e-16 1.33558e-15 -5.07809e-16 0 0 0 0 0 0 0 0
771 1 -0.00564615 -0.00267613 0.0173597 0.0008 3.43146e-06 -1.01344e-13 -1.21311e-13 -3.76528e-13 8.02764e-10 -9.08293e-10 1.90181e-11 2.11458e-15 2.2433e-15 2.60386e-15 0 0 0 0 0 0 0 0
772 1 -0.00290358 -0.00159722 0.0143219 0.0008 3.43146e-06 1.08388e-12 5.41995e-13 3.10534e-12 2.99614e-09 -7.24206e-10 -6.97378e-10 2.63513e-16 -3.3052e-16 1.00803e-15 0 0 0 0 0 0 0 0
773 1 0.0027444 0.00550849 0.0135128 0.0008 3.43146e-06 4.65275e-13 6.71061e-13 -1.99347e-13 -1.00204e-09 1.35015e-09 2.21275e-09 -1.14684e-15 -3.70545e-15 -1.41347e-15 0 0 0 0 0 0 0 0
774 1 -0.00627328 -0.00353445 0.0151305 0.0008 3.43146e-06 1.26661e-12 1.08371e-12 1.99789e-12 -1.20029e-09 -3.50097e-09 3.95252e-10 -2.43533e-16 -1.04541e-15 -5.14878e-16 1 0.000533348 0.000316664 1.39974e-05 -0.00696988 -0.00392692 0.0151305 0.0008
775 1 -0.00435687 -0.000362999 0.0109618 0.0008 3.43146e-06 -2.16793e-12 -1.11194e-13 9.77443e-13 -1.87637e-09 -2.98137e-09 2.00839e-09 -9.17432e-16 2.36273e-18 6.23358e-16 0 0 0 0 0 0 0 0
776 1 -0.007184 0.000480381 0.0161988 0.0008 3.43146e-06 -7.50463e-13 7.75193e-13 -1.40257e-12 -2.74061e-09 1.92174e-09 8.99692e-10 3.20818e-16 -5.19825e-16 8.89361e-16 1 2.06195e-05 -4.57578e-06 2.92011e-06 -0.00798217 0.000533753 0.0161988 0.0008
777 1 0.000838847 -0.00520393 0.0111836 0.0008 3.43146e-06 2.70522e-13 1.00737e-12 1.88734e-12 2.33633e-10 2.13033e-09 2.00773e-11 -9.38444e-17 -1.10509e-15 -1.43608e-15 0 0 0 0 0 0 0 0
778 1 0.00109861 0.005664 0.0149202 0.0008 3.43146e-06 -3.96136e-13 -5.80111e-13 1.81489e-12 -1.70259e-09 1.12156e-09 -8.62846e-10 -2.14121e-15 4.03517e-16 -3.86902e-15 0 0 0 0 0 0 0 0
779 1 0.00548885 -0.00214135 0.0140308 0.0008 3.43146e-06 -1.27133e-12 -5.24037e-13 7.56646e-14 -1.25499e-09 -4.89213e-09 9.67197e-10 1.51344e-15 -1.09855e-15 -7.67805e-16 0 0 0 0 0 0 0 0
780 1 -0.000256499 0.00586757 0.011279 0.0008 3.43146e-06 1.31011e-13 -1.32693e-12 3.58274e-12 -2.87737e-11 -7.13342e-10 1.16813e-09 -4.96564e-16 -1.62177e-16 3.37544e-15 0 0 0 0 0 0 0 0
781 1 -0.00378148 -0.00612746 0.0158103 0.0008 3.43146e-06 -1.08401e-12 -1.39698e-12 2.29455e-12 1.90164e-09 -2.40247e-09 2.53662e-10 -2.40032e-16 -6.89994e-16 1.74603e-15 1 0.000362508 0.000342167 3.76471e-05 -0.00420143 -0.00680794 0.0158103 0.0008
782 1 0.00684086 0.00224672 0.0105443 0.0008 3.43146e-06 -5.73201e-13 8.19485e-13 5.82432e-13 1.77389e-09 1.27518e-09 -1.1541e-09 -8.43193e-16 -1.07901e-16 -1.48191e-15 1 -0.000426374 -0.000118775 0.00012498 0.00760058 0.00249623 0.0105443 0.0008
783 1 0.00385028 0.002126 0.0158302 0.0008 3.43146e-06 -3.6927e-14 -1.08166e-12 -3.59951e-12 -3.61679e-09 7.64431e-10 -1.99717e-09 1.04108e-15 3.01872e-16 2.42764e-16 0 0 0 0 0 0 0 0
784 1 -0.00343156 0.00464928 0.0135956 0.0008 3.43146e-06 -2.25476e-13 -2.00131e-12 -5.35088e-13 2.82929e-09 9.50205e-10 4.73005e-09 -1.88881e-15 -6.07752e-19 2.32073e-15 0 0 0 0 0 0 0 0
785 1 0.000521535 -0.000647 0.0152754 0.0008 3.43146e-06 2.69429e-13 2.68168e-13 4.69057e-13 -6.41668e-10 2.41927e-10 -8.24616e-10 7.61088e-17 6.06209e-16 4.14102e-16 0 0 0 0 0 0 0 0
786 1 -0.00208315 0.00689227 0.0171224 0.0008 3.43146e-06 -1.40713e-13 -1.07047e-12 -8.07953e-13 1.21404e-09 -9.10141e-10 -6.17045e-10 1.5011e-15 6.63901e-16 -9.62328e-16 1 5.38385e-05 -0.000179619 3.38073e-05 -0.00231454 0.00765786 0.0171224 0.0008
787 1 -0.0011531 -0.00163672 0.0120571 0.0008 3.43146e-06 -3.01883e-13 3.53566e-13 -3.69687e-13 -4.69058e-11 -3.21298e-09 1.72841e-09 -1.01978e-15 -2.98297e-15 -2.22698e-15 0 0 0 0 0 0 0 0
788 1 0.00665783 -0.00274164 0.0159681 0.0008 3.43146e-06 1.09312e-12 -1.08322e-12 6.9086e-13 -1.26182e-09 1.34228e-09 7.03123e-10 -5.08452e-16 1.40248e-17 -1.71233e-15 1 -0.00022823 7.51113e-05 4.9632e-05 0.00739735 -0.00304617 0.0159681 0.0008
789 1 -0.00712553 -0.00103718 0.0156381 0.0008 3.43146e-06 -1.47312e-14 -1.75865e-13 3.47184e-13 3.11517e-10 -3.82597e-10 -1.97454e-10 -1.75214e-16 -2.41475e-16 1.58687e-15 1 0.00101528 0.000208657 9.32614e-06 -0.00791657 -0.00115232 0.0156381 0.0008
790 1 0.00440806 0.000866951 0.0129474 0.0008 3.43146e-06 -5.895e-13 -2.70102e-13 -1.16851e-12 9.37846e-10 3.08856e-10 6.72348e-11 -3.17697e-15 -1.11659e-16 5.7296e-16 0 0 0 0 0 0 0 0
791 1 0.00343799 -0.00150589 0.0146067 0.0008 3.43146e-06 7.39044e-13 -5.41916e-13 2.73932e-12 4.5555e-10 -1.48227e-09 1.7344e-10 2.41256e-16 2.24988e-16 -1.9735e-15 0 0 0 0 0 0 0 0
792 1 0.00537777 0.00341891 0.0132922 0.0008 3.43146e-06 -1.52206e-12 -1.05187e-12 -2.55899e-13 -3.49589e-10 -5.90228e-10 -8.17659e-10 -1.5384e-15 -1.35484e-16 -3.67578e-16 0 0 0 0 0 0 0 0
793 1 -0.00646229 0.00317609 0.0107309 0.0008 3.43146e-06 -1.8617e-13 -1.07942e-12 2.86923e-13 2.45261e-09 -1.57846e-09 -1.32773e-09 -1.03405e-15 1.6463e-16 -1.62049e-16 1 0.000885723 -0.00045543 0.000207418 -0.00717972 0.00352869 0.0107309 0.0008
794 1 0.000567994 0.0046096 0.0120888 0.0008 3.43146e-06 5.04038e-14 -1.91261e-12 -4.64488e-13 2.70218e-09 1.04196e-09 9.64257e-10 -2.24168e-15 -1.97272e-15 -4.22847e-15 0 0 0 0 0 0 0 0
795 1 0.00315748 -0.00352801 0.0138942 0.0008 3.43146e-06 6.7277e-13 1.0836e-12 -4.64639e-14 -2.96064e-10 2.11188e-09 -2.81861e-10 -7.69903e-16 -2.32419e-16 -1.96905e-15 0 0 0 0 0 0 0 0
796 1 -0.00417522 0.00161102 0.016124 0.0008 3.43146e-06 3.8827e-13 -5.41676e-13 7.98122e-13 -1.1162e-09 1.1901e-09 -4.21194e-09 -6.88206e-16 2.72952e-16 2.24718e-15 0 0 0 0 0 0 0 0
797 1 -0.00398974 0.00418977 0.0150223 0.0008 3.43146e-06 -2.14317e-12 -1.07729e-12 4.31516e-12 -8.03526e-09 -2.99297e-09 4.49812e-10 -1.7548e-15 -3.39462e-15 -7.93184e-16 0 0 0 0 0 0 0 0
798 1 -0.00446528 -0.00469955 0.0164168 0.0008 3.43146e-06 -9.01469e-13 -8.68675e-13 1.53597e-12 -2.23715e-09 3.28145e-11 -1.36375e-10 -4.17576e-16 -6.57996e-16 4.2576e-15 0 0 0 0 0 0 0 0
799 1 0.00504824 -0.00257565 0.0119681 0.0008 3.43146e-06 7.3559e-13 3.38185e-13 -1.11206e-12 2.85157e-10 1.94482e-09 1.00326e-09 -4.76842e-17 -1.55945e-15 -3.51954e-16 0 0 0 0 0 0 0 0
800 1 -0.00304258 -0.00306733 0.0137068 0.0008 3.43146e-06 3.05541e-13 1.08362e-12 1.073e-12 -5.30116e-10 -7.68604e-11 -6.66947e-10 1.04194e-15 1.44244e-16 1.22928e-15 0 0 0 0 0 0 0 0
801 1 0.00312175 0.0018307 0.0132733 0.0008 3.43146e-06 -1.0842e-12 -5.39503e-13 2.81331e-12 7.33617e-10 -2.1054e-10 7.63947e-10 -6.44666e-16 7.2047e-17 -2.02885e-15 0 0 0 0 0 0 0 0
802 1 -0.00514672 0.00244439 0.0174128 0.0008 3.43146e-06 -1.41317e-12 -2.41846e-13 -5.32147e-13 -2.3419e-09 -5.65475e-09 -4.62705e-09 -3.64215e-16 2.41019e-15 2.53275e-15 0 0 0 0 0 0 0 0
803 1 0.000901049 -0.00572506 0.0129753 0.0008 3.43146e-06 2.71168e-13 -2.16816e-12 -4.19185e-12 6.866e-09 -2.31663e-09 4.57826e-11 2.9554e-16 -2.03848e-16 -9.43218e-16 0 0 0 0 0 0 0 0
804 1 0.00135976 -0.00412755 0.0138794 0.0008 3.43146e-06 -3.71828e-13 -5.98895e-13 2.7506e-12 8.32031e-11 -2.89973e-11 1.66597e-09 5.10416e-16 -1.05597e-15 -3.35046e-15 0 0 0 0 0 0 0 0
805 1 0.00424026 -0.00372473 0.0127332 0.0008 3.43146e-06 1.61131e-12 4.09959e-13 -1.41473e-12 -1.62883e-10 -1.76902e-09 -1.38696e-10 -4.25207e-16 -1.14271e-15 -3.1522e-16 0 0 0 0 0 0 0 0
806 1 -0.00378849 0.00321918 0.012037 0.0008 3.43146e-06 3.10898e-13 -7.96728e-13 -1.80039e-12 1.38807e-09 -1.29235e-09 -6.6998e-10 -1.41074e-15 -3.52227e-15 4.68973e-15 0 0 0 0 0 0 0 0
807 1 0.00150322 -0.00184281 0.0156815 0.0008 3.43146e-06 2.57197e-13 -9.75688e-14 1.28562e-12 -2.10747e-10 -4.05017e-10 3.86236e-10 4.04931e-16 1.00509e-15 -1.07922e-15 0 0 0 0 0 0 0 0
808 1 0.00330822 -0.00639547 0.0149064 0.0008 3.43146e-06 -1.0836e-12 -1.77311e-12 -1.18603e-12 -2.98494e-09 2.51859e-09 2.27955e-09 -3.21118e-16 -2.95769e-16 4.51287e-16 1 -0.000300111 0.000545089 0.000155693 0.00367557 -0.00710564 0.0149064 0.0008
809 1 -0.00583803 -0.00201857 0.0148628 0.0008 3.43146e-06 -7.63859e-13 1.0832e-12 3.60583e-13 -6.15684e-10 4.90194e-09 1.92156e-09 -3.79966e-16 1.04014e-15 2.93964e-15 0 0 0 0 0 0 0 0
810 1 -0.00162177 -0.00113931 0.0166636 0.0008 3.43146e-06 5.42e-13 1.89205e-13 1.59603e-12 1.99164e-09 -1.27125e-09 -1.7522e-10 3.1615e-16 1.08421e-15 -5.64728e-16 0 0 0 0 0 0 0 0
811 1 -0.00181988 -0.00388162 0.0143404 0.0008 3.43146e-06 -4.84576e-13 4.34059e-13 4.37252e-13 1.90236e-09 -8.7645e-11 -1.43382e-10 5.84218e-16 5.50496e-15 -2.33322e-15 0 0 0 0 0 0 0 0
812 1 -0.00451407 -0.00560933 0.0134649 0.0008 3.43146e-06 1.97251e-12 2.42988e-13 -1.14063e-12 -2.11989e-09 -2.83681e-10 -1.60838e-09 3.9643e-16 -3.23935e-16 -1.38334e-15 1 4.17601e-05 4.28185e-05 6.57651e-06 -0.00501556 -0.0062325 0.0134649 0.0008
813 1 -0.00175843 -0.00546256 0.0145781 0.0008 3.43146e-06 4.21212e-13 2.16866e-12 5.4614e-13 -2.38614e-09 2.92338e-09 9.81297e-10 3.64604e-15 -1.53188e-15 2.46227e-15 0 0 0 0 0 0 0 0
814 1 -0.00160189 -0.00104178 0.0150676 0.0008 3.43146e-06 5.42135e-13 1.08343e-13 2.52057e-12 -2.12734e-09 1.20143e-09 9.37985e-10 1.63779e-16 2.267e-15 -9.49245e-16 0 0 0 0 0 0 0 0
815 1 -0.000536051 -0.00585136 0.0155334 0.0008 3.43146e-06 2.70006e-13 8.46996e-13 8.11834e-13 2.69353e-09 -3.07755e-09 -2.77543e-09 -7.56969e-16 9.72903e-15 4.42551e-15 0 0 0 0 0 0 0 0
816 1 0.00471797 -0.0035261 0.0142466 0.0008 3.43146e-06 -5.6679e-13 8.03418e-13 -1.19795e-12 -5.13369e-10 -1.01746e-09 -2.02043e-10 -1.21264e-15 -1.37561e-15 -5.98601e-16 0 0 0 0 0 0 0 0
817 1 -0.00174338 0.00285128 0.0169409 0.0008 3.43146e-06 5.41664e-13 7.36624e-13 3.24718e-12 6.69119e-10 -9.63339e-11 -1.25127e-09 -1.5981e-16 7.0971e-16 5.85318e-16 0 0 0 0 0 0 0 0
818 1 0.00589561 -0.00413418 0.0161676 0.0008 3.43146e-06 1.40266e-12 8.57858e-13 -1.04809e-12 2.64058e-09 -3.4182e-09 -1.88241e-09 -7.44263e-16 5.89354e-16 5.2e-16 1 -0.00106611 0.000499178 5.92867e-05 0.00655007 -0.0045931 0.0161676 0.0008
819 1 0.00241955 -0.00226305 0.0107381 0.0008 3.43146e-06 -1.06999e-12 1.08291e-12 1.23239e-12 -8.52852e-10 -7.01834e-10 2.8441e-11 2.65246e-16 9.81541e-17 -1.06651e-15 0 0 0 0 0 0 0 0
820 1 0.00445164 -0.000122397 0.0144421 0.0008 3.43146e-06 -1.95857e-12 -7.83847e-14 3.41777e-13 2.00143e-09 -9.72711e-10 -1.75783e-09 1.64559e-16 -1.01926e-15 2.79631e-16 0 0 0 0 0 0 0 0
821 1 0.00528108 -0.00489433 0.0148544 0.0008 3.43146e-06 -4.41924e-13 1.35234e-12 4.92776e-13 -2.8579e-09 3.50181e-09 -8.5353e-10 -1.73581e-15 -1.08692e-15 7.74207e-18 1 -0.000272038 0.000207154 9.48864e-05 0.00586763 -0.00543792 0.0148544 0.0008
822 1 8.66321e-05 0.000866342 0.0149965 0.0008 3.43146e-06 7.97923e-14 2.69849e-13 1.85411e-12 1.27737e-09 3.47253e-09 4.81086e-10 -4.63192e-16 -3.81053e-16 -2.33307e-15 0 0 0 0 0 0 0 0
823 1 -0.006772 0.00244608 0.0165716 0.0008 3.43146e-06 -1.72996e-12 -2.35212e-13 -2.91736e-13 2.07435e-09 -3.5066e-10 -1.01838e-09 -5.97419e-16 2.10286e-15 -1.39834e-15 1 0.000211897 -0.000104532 1.77648e-05 -0.00752421 0.00271778 0.0165716 0.0008
824 1 0.00611494 0.00380115 0.0151369 0.0008 3.43146e-06 4.20394e-13 1.08271e-12 4.62244e-13 8.71196e-10 1.21385e-09 -8.87757e-10 -9.98595e-16 2.42644e-16 -2.07574e-15 1 -4.80254e-05 -2.5667e-05 1.03518e-05 0.0067943 0.00422345 0.0151369 0.0008
825 1 0.000264959 0.00655586 0.0138874 0.0008 3.43146e-06 -2.6344e-14 -1.12745e-12 1.84309e-12 6.89725e-10 -7.33442e-10 1.42985e-10 -1.54857e-15 -4.90226e-16 -5.58933e-15 0 0 0 0 0 0 0 0
826 1 -0.00491437 0.00526228 0.0137417 0.0008 3.43146e-06 1.04698e-12 1.11196e-12 -3.09599e-13 6.4348e-10 -8.14886e-11 1.831e-09 -9.20133e-16 -1.72334e-15 4.82032e-16 1 0.00011134 -0.000124681 4.54267e-05 -0.00546027 0.00584683 0.0137417 0.0008
827 1 0.00301509 0.00333895 0.011685 0.0008 3.43146e-06 2.57496e-13 -3.57964e-13 3.17478e-12 -2.44255e-09 -5.26764e-10 2.50748e-09 2.51667e-15 1.59657e-15 -6.02827e-16 0 0 0 0 0 0 0 0
828 1 -0.00168183 -0.0057272 0.0130026 0.0008 3.43146e-06 -5.41673e-13 -1.6783e-13 -2.25865e-13 -4.64313e-10 -1.42021e-09 4.99584e-10 -1.78538e-16 1.64723e-15 3.83774e-15 0 0 0 0 0 0 0 0
829 1 -0.00423807 -0.00118062 0.0150993 0.0008 3.43146e-06 9.78381e-13 -4.57438e-13 1.18075e-12 2.56989e-10 -2.27953e-09 -6.74208e-11 1.59949e-16 -1.5798e-15 3.84506e-15 0 0 0 0 0 0 0 0
830 1 -0.000482701 0.0054301 0.0148575 0.0008 3.43146e-06 -5.11965e-14 -2.75866e-13 3.09609e-12 -1.17259e-09 -1.50397e-11 4.42512e-10 -2.01205e-15 1.12375e-15 -1.79717e-15 0 0 0 0 0 0 0 0
831 1 -0.00142134 0.00477127 0.0112493 0.0008 3.43146e-06 5.36391e-13 1.24107e-12 1.00423e-12 1.87402e-11 -3.71865e-09 -3.21155e-09 -1.65745e-16 6.50428e-16 -3.51056e-15 0 0 0 0 0 0 0 0
832 1 0.00537442 0.0047903 0.0141205 0.0008 3.43146e-06 -1.45892e-12 -5.24273e-13 1.64704e-12 -7.73114e-10 3.09168e-10 3.944e-09 1.00612e-15 -4.62836e-16 -2.28331e-15 0 0 0 0 0 0 0 0
833 1 0.0012779 0.00577114 0.0129297 0.0008 3.43146e-06 5.36419e-13 -7.99474e-13 1.05852e-12 1.06213e-09 -1.35411e-11 -3.7348e-10 -4.60764e-16 -3.97545e-15 -3.31286e-15 0 0 0 0 0 0 0 0
834 1 0.00583752 0.000110026 0.0167861 0.0008 3.43146e-06 4.98352e-13 -1.62833e-13 1.22998e-12 6.49566e-10 -2.85416e-09 -5.63347e-10 -4.85715e-17 -9.045e-16 -1.28255e-15 0 0 0 0 0 0 0 0
835 1 -0.00566681 -0.000485029 0.0152841 0.0008 3.43146e-06 -1.59388e-12 9.93878e-14 1.53701e-12 3.00879e-09 5.49759e-10 5.32375e-10 -1.30234e-15 -2.29455e-16 1.9331e-15 0 0 0 0 0 0 0 0
836 1 -0.00294951 -0.000267551 0.0155765 0.0008 3.43146e-06 -3.75186e-13 1.58361e-13 2.50238e-12 1.30172e-10 -1.27954e-09 -1.14715e-09 -7.1342e-16 -2.2362e-15 1.77236e-15 0 0 0 0 0 0 0 0
837 1 -0.000689343 0.00121601 0.013268 0.0008 3.43146e-06 -6.37565e-14 5.42086e-13 6.18984e-13 -2.45007e-10 -1.12395e-09 5.40296e-10 9.11383e-16 -7.15783e-16 2.86961e-16 0 0 0 0 0 0 0 0
838 1 -0.00450241 -0.0023792 0.0140592 0.0008 3.43146e-06 -2.07709e-12 -1.04265e-12 -1.4341e-12 -4.06299e-09 -1.13288e-09 -2.13928e-09 3.14855e-15 1.03092e-15 2.6443e-15 0 0 0 0 0 0 0 0
839 1 0.00180127 0.00441662 0.0142069 0.0008 3.43146e-06 -4.50779e-13 -1.77e-12 1.57e-12 4.74302e-11 1.15258e-09 1.344e-09 4.38564e-16 1.8668e-15 -4.33162e-15 0 0 0 0 0 0 0 0
840 1 -0.0058146 0.000483216 0.0123135 0.0008 3.43146e-06 -2.16777e-12 -1.26677e-13 -6.79699e-13 2.39269e-09 1.12293e-09 1.3668e-09 1.90971e-16 1.24957e-15 -3.30208e-15 0 0 0 0 0 0 0 0
841 1 -0.00669031 0.00266222 0.0139355 0.0008 3.43146e-06 -9.02419e-13 -1.08215e-12 9.54164e-14 1.38394e-09 -6.27366e-10 -1.6724e-09 -5.32704e-16 -1.15301e-16 -7.00472e-16 1 0.000768666 -0.000284018 0.000221812 -0.00743313 0.00295781 0.0139355 0.0008
842 1 -0.00610278 0.00280196 0.012454 0.0008 3.43146e-06 -1.00133e-12 -1.08263e-12 2.77191e-12 -3.47822e-10 -3.91023e-10 -2.54468e-10 2.80802e-16 -9.77575e-16 -2.13425e-15 0 0 0 0 0 0 0 0
843 1 0.00303263 -0.00024138 0.0137146 0.0008 3.43146e-06 -6.48052e-13 -6.77209e-14 6.20503e-13 -1.76363e-09 5.09956e-10 1.98209e-09 7.73102e-16 -6.76211e-16 2.27474e-15 0 0 0 0 0 0 0 0
844 1 -0.000946946 0.00273309 0.0137038 0.0008 3.43146e-06 -2.70832e-13 1.08375e-12 2.25794e-12 2.24306e-09 6.74837e-10 -6.58567e-10 9.14172e-16 1.0168e-16 -2.16988e-15 0 0 0 0 0 0 0 0
845 1 -0.00150233 0.000396227 0.0143745 0.0008 3.43146e-06 -4.20666e-13 1.36491e-13 8.4612e-13 3.9465e-10 8.37206e-10 -4.28332e-10 1.64733e-15 -4.72663e-17 3.4266e-15 0 0 0 0 0 0 0 0
846 1 0.00348709 -0.00478482 0.0148273 0.0008 3.43146e-06 -1.08271e-12 1.14676e-14 -8.72927e-13 8.00723e-10 7.13565e-10 -4.66868e-09 -5.98737e-16 -1.55051e-15 6.24119e-16 0 0 0 0 0 0 0 0
847 1 0.00172166 0.00229995 0.010726 0.0008 3.43146e-06 3.77563e-13 8.67131e-14 -1.90687e-13 -1.72095e-09 -2.17115e-10 1.01044e-09 -2.85176e-15 1.38907e-15 -6.51679e-15 0 0 0 0 0 0 0 0
848 1 0.00509333 0.0008226 0.0155624 0.0008 3.43146e-06 4.76959e-13 -2.7097e-13 1.65487e-12 -4.98397e-10 3.11233e-09 6.68311e-10 -2.69208e-15 -2.07078e-17 -2.51423e-15 0 0 0 0 0 0 0 0
849 1 0.00304833 0.00390302 0.0150676 0.0008 3.43146e-06 -1.08224e-12 -1.4671e-13 -9.25454e-13 4.45662e-10 5.48697e-10 3.34284e-10 9.07941e-17 2.12499e-16 2.31067e-16 0 0 0 0 0 0 0 0
850 1 -0.00448428 0.00519183 0.0166036 0.0008 3.43146e-06 1.88055e-12 -4.21366e-13 4.40931e-12 -1.64707e-09 -7.77455e-10 1.06137e-09 3.01443e-15 1.80577e-15 1.68509e-15 0 0 0 0 0 0 0 0
851 1 -0.00429904 0.00577597 0.0151261 0.0008 3.43146e-06 9.7691e-13 1.12161e-12 -1.14852e-12 5.9501e-10 1.69157e-09 1.82476e-09 5.9244e-16 -1.30318e-15 3.60341e-16 1 0.000138415 -0.000217568 5.769e-05 -0.00477654 0.00641753 0.0151261 0.0008
852 1 0.00560096 6.3552e-05 0.0198401 0.0008 3.43146e-06 2.16781e-12 2.44482e-13 -2.50849e-12 1.05326e-09 -1.32084e-09 -7.22886e-10 -1.20783e-16 1.1244e-15 4.75603e-16 0 0 0 0 0 0 0 0
853 1 -0.000741512 -0.0033145 0.0154252 0.0008 3.43146e-06 -2.70149e-13 9.46628e-13 -1.87511e-12 -1.09457e-09 -3.67092e-09 -1.65508e-09 -1.84487e-17 8.04608e-16 1.36536e-15 0 0 0 0 0 0 0 0
854 1 0.00659565 0.00288801 0.0187457 0.0008 3.43146e-06 1.12175e-13 7.18206e-13 -5.40164e-13 -1.80355e-09 -1.38851e-09 -7.59425e-10 5.72018e-16 1.22819e-15 1.20921e-15 1 -0.00021501 -5.62941e-05 4.95922e-05 0.00732827 0.0032088 0.0187457 0.0008
855 1 -0.00293907 -0.00511238 0.0167147 0.0008 3.43146e-06 -4.62854e-13 -3.83528e-13 -1.52999e-13 -5.51763e-09 3.37008e-09 -1.12714e-09 2.9982e-17 -6.24789e-16 1.21343e-15 0 0 0 0 0 0 0 0
856 1 -0.00269921 0.0046703 0.0192375 0.0008 3.43146e-06 1.08382e-12 -2.16719e-12 4.85205e-12 5.34286e-09 2.99282e-09 -1.10168e-09 -8.80746e-16 3.68373e-16 6.252e-16 0 0 0 0 0 0 0 0
857 1 -0.00147069 -0.00273094 0.0167238 0.0008 3.43146e-06 -5.4144e-13 9.59646e-13 -2.35926e-12 2.84169e-09 1.64131e-09 -1.69189e-09 5.57654e-16 -4.12196e-16 -8.78177e-16 0 0 0 0 0 0 0 0
858 1 0.00231113 -0.00541067 0.0197258 0.0008 3.43146e-06 -1.02268e-12 -1.94953e-12 -1.4268e-12 -1.64367e-09 3.73467e-09 -1.6327e-09 8.48168e-16 -3.80137e-16 2.705e-15 0 0 0 0 0 0 0 0
859 1 0.00095977 -0.0068082 0.0197439 0.0008 3.43146e-06 2.71072e-13 -5.12854e-13 -2.79138e-12 2.58681e-09 2.94679e-10 -1.25256e-09 -2.70058e-16 -2.44023e-15 -7.95976e-16 0 0 0 0 0 0 0 0
860 1 -0.00340716 -0.00386322 0.0200276 0.0008 3.43146e-06 1.0834e-12 1.04753e-12 -8.10281e-13 -1.42312e-09 3.7606e-09 6.96914e-10 -2.98296e-16 -3.77609e-15 1.70221e-15 0 0 0 0 0 0 0 0
861 1 0.00354449 -0.00626734 0.0180837 0.0008 3.43146e-06 2.74489e-13 -9.09108e-13 1.83334e-12 2.52911e-09 2.44747e-10 2.30631e-10 -1.26083e-15 1.59936e-15 3.55852e-16 1 -4.03838e-05 0.000195183 1.78183e-05 0.00393821 -0.00696351 0.0180837 0.0008
862 1 -0.00224347 -0.00111106 0.0200668 0.0008 3.43146e-06 1.08225e-12 5.41561e-13 1.05235e-12 -7.09202e-10 -7.4207e-10 -9.05107e-10 1.26403e-14 -3.56243e-16 9.46906e-15 0 0 0 0 0 0 0 0
863 1 -0.000683349 -0.00316814 0.0189975 0.0008 3.43146e-06 1.88247e-13 1.03356e-12 1.20619e-13 5.06925e-10 2.03781e-10 -2.55109e-10 -2.34596e-16 -1.68348e-15 5.34351e-15 0 0 0 0 0 0 0 0
864 1 -0.00137832 0.00567064 0.0161627 0.0008 3.43146e-06 5.41152e-13 2.7806e-13 3.28625e-12 -3.69246e-09 -9.10177e-10 -1.83658e-09 -3.90584e-17 -3.36246e-16 -6.73953e-15 0 0 0 0 0 0 0 0
865 1 -0.00233641 0.00451432 0.017232 0.0008 3.43146e-06 1.08304e-12 -2.1188e-12 8.55382e-12 2.71308e-10 3.23435e-09 3.00226e-09 3.05707e-16 1.53959e-15 -2.33252e-15 0 0 0 0 0 0 0 0
866 1 -4.93854e-06 -0.00577917 0.0175529 0.0008 3.43146e-06 1.34801e-13 2.16795e-12 -1.08565e-12 -5.95071e-09 -1.54023e-09 -2.51426e-09 5.94065e-16 4.39314e-16 -2.04703e-15 0 0 0 0 0 0 0 0
867 1 0.00192537 0.00693821 0.0154212 0.0008 3.43146e-06 3.06858e-14 1.27276e-13 4.67382e-13 -1.3371e-09 -2.22082e-09 2.45602e-11 5.88449e-16 1.05417e-15 -1.75493e-15 1 -6.35969e-05 -0.00055358 0.000140053 0.00213918 0.00770869 0.0154212 0.0008
868 1 -1.54505e-05 -0.00294087 0.0173545 0.0008 3.43146e-06 -4.25611e-13 -1.08409e-12 8.43761e-13 3.43178e-09 -5.89905e-09 2.02872e-09 -2.37607e-15 -5.28876e-16 -5.06983e-15 0 0 0 0 0 0 0 0
869 1 -0.0061784 -0.00369816 0.0184693 0.0008 3.43146e-06 -8.80882e-13 -6.06139e-13 -2.22523e-13 -6.24722e-10 -8.0258e-12 -6.49234e-11 2.10046e-15 2.06213e-15 2.24408e-15 1 0.000938382 0.000456527 0.000148225 -0.00686429 -0.00410871 0.0184693 0.0008
870 1 -0.0037388 -0.00450011 0.0181041 0.0008 3.43146e-06 -1.01964e-12 6.99868e-13 3.93766e-12 -5.16954e-10 2.19745e-09 -2.37537e-09 -7.53545e-16 2.0651e-15 3.35176e-15 0 0 0 0 0 0 0 0
871 1 -0.00320838 -0.00531109 0.0193771 0.0008 3.43146e-06 -1.00611e-12 2.1677e-12 8.53474e-13 -5.11297e-10 1.64634e-09 -9.49909e-10 -1.56491e-15 -5.49314e-17 -1.44505e-15 0 0 0 0 0 0 0 0
872 1 -0.0030708 0.000240922 0.018159 0.0008 3.43146e-06 1.77287e-13 -6.88306e-14 2.36436e-12 1.37134e-09 -1.42496e-09 3.33669e-10 5.38682e-15 3.33201e-16 -2.32638e-15 0 0 0 0 0 0 0 0
873 1 -0.00574342 -0.000412046 0.0173616 0.0008 3.43146e-06 -3.49331e-13 1.35082e-13 -2.12826e-12 -2.22998e-09 -3.04757e-10 -7.70035e-10 -4.28151e-15 -7.43839e-16 -2.25441e-16 0 0 0 0 0 0 0 0
874 1 -0.0039566 0.00512329 0.0183581 0.0008 3.43146e-06 -2.12189e-13 6.09845e-13 5.8317e-12 -3.40967e-09 -9.17697e-10 -1.39019e-09 5.63357e-15 1.33366e-16 1.39421e-15 0 0 0 0 0 0 0 0
875 1 0.00237438 -0.00543149 0.015777 0.0008 3.43146e-06 -2.08535e-13 1.00972e-12 5.03437e-12 5.48286e-10 8.0366e-09 -9.12549e-11 1.86931e-15 -1.06455e-15 -9.56341e-16 0 0 0 0 0 0 0 0
876 1 0.00311999 0.00563096 0.0184932 0.0008 3.43146e-06 -1.08393e-12 4.21644e-13 4.856e-13 -2.93367e-10 1.5514e-09 3.2732e-09 -1.05124e-16 7.06654e-16 -2.15212e-17 0 0 0 0 0 0 0 0
877 1 0.00471256 -0.00289942 0.0186095 0.0008 3.43146e-06 -2.16808e-12 1.2241e-12 -3.4792e-12 -5.80976e-10 1.78824e-09 8.38297e-10 -6.21608e-16 -3.67495e-15 -1.40131e-14 0 0 0 0 0 0 0 0
878 1 0.0023921 -0.000894262 0.0176498 0.0008 3.43146e-06 4.38824e-13 2.70993e-13 1.55908e-12 -1.32964e-09 -7.67403e-11 1.23707e-11 -5.74217e-16 -3.92738e-17 -2.30324e-15 0 0 0 0 0 0 0 0
879 1 0.00383066 0.00235526 0.0206649 0.0008 3.43146e-06 1.08357e-12 4.77532e-13 -1.24287e-13 1.92024e-09 -3.36528e-11 6.10333e-10 9.64352e-16 -2.51581e-15 4.79597e-15 0 0 0 0 0 0 0 0
880 1 -0.00479957 -0.00109266 0.0199188 0.0008 3.43146e-06 -1.48297e-12 -2.42507e-13 -1.19274e-12 8.91122e-11 1.59319e-09 1.66826e-10 6.32242e-15 1.91389e-15 5.26262e-15 0 0 0 0 0 0 0 0
881 1 0.00586438 -0.00146735 0.0165209 0.0008 3.43146e-06 2.72034e-13 -5.39677e-13 -1.83849e-15 9.40599e-10 -3.16353e-09 -6.668e-10 1.0127e-15 9.88231e-16 -4.72166e-16 0 0 0 0 0 0 0 0
882 1 0.0043721 -0.00384813 0.0157747 0.0008 3.43146e-06 1.48905e-12 -2.38069e-13 -8.80207e-13 9.16613e-10 2.88166e-09 4.19307e-09 -1.8923e-15 8.29959e-16 8.13614e-17 0 0 0 0 0 0 0 0
883 1 0.00475803 -0.00148799 0.0176761 0.0008 3.43146e-06 9.04436e-13 1.36761e-13 -4.69648e-13 -1.68512e-09 3.31777e-09 2.32858e-10 -4.80006e-15 1.99042e-15 1.29648e-15 0 0 0 0 0 0 0 0
884 1 0.000667057 0.00112458 0.0192473 0.0008 3.43146e-06 2.70581e-13 -2.96632e-13 2.57462e-12 -2.24104e-10 -8.61067e-10 -5.65908e-10 2.77573e-16 -5.27725e-15 1.40425e-15 0 0 0 0 0 0 0 0
885 1 0.00304284 0.00652561 0.0164886 0.0008 3.43146e-06 1.07859e-12 -8.94541e-14 -1.13363e-12 3.33817e-09 3.92436e-09 1.30694e-09 -6.06259e-16 -2.21201e-16 -2.1477e-15 1 -4.4237e-05 -0.000143161 1.38475e-05 0.00338085 0.00725051 0.0164886 0.0008
886 1 -0.00415453 0.000771221 0.014763 0.0008 3.43146e-06 -1.13698e-12 -2.70232e-13 3.43805e-12 -2.17861e-10 -1.4499e-09 1.86997e-10 7.29386e-16 3.66553e-16 2.18686e-15 0 0 0 0 0 0 0 0
887 1 0.00379443 0.00298748 0.0171758 0.0008 3.43146e-06 2.85447e-13 -5.26144e-13 -4.46014e-12 2.42186e-09 -1.86573e-10 2.17947e-09 -2.66097e-15 -3.56527e-17 -1.40838e-17 0 0 0 0 0 0 0 0
888 1 0.000638525 -0.00717188 0.0170991 0.0008 3.43146e-06 -2.71136e-13 2.66568e-13 2.12236e-12 2.88983e-09 -2.3424e-09 3.33047e-10 7.42538e-16 2.7687e-16 -4.95059e-16 1 2.85404e-05 0.000263816 6.26168e-05 0.000709448 -0.00796848 0.0170991 0.0008
889 1 -0.00545884 0.00130714 0.018621 0.0008 3.43146e-06 2.03085e-12 -3.86134e-14 3.9016e-13 -1.14326e-09 -1.40549e-09 7.81792e-10 3.61684e-15 -7.20516e-16 1.10529e-15 0 0 0 0 0 0 0 0
890 1 0.004564 0.00355286 0.0154415 0.0008 3.43146e-06 -2.15102e-12 7.9086e-13 2.91347e-15 -1.2542e-10 -2.17729e-09 6.5033e-10 -1.73179e-15 3.17406e-16 -1.97657e-15 0 0 0 0 0 0 0 0
891 1 0.00107856 -0.00408338 0.017115 0.0008 3.43146e-06 -6.61608e-14 2.16721e-12 2.13763e-12 -1.11626e-09 1.78606e-09 5.73248e-10 3.34613e-18 2.68286e-16 -2.32982e-15 0 0 0 0 0 0 0 0
892 1 0.00529666 -0.00262407 0.0200731 0.0008 3.43146e-06 1.26674e-13 7.74464e-14 1.01284e-12 3.17395e-09 -9.90463e-10 -1.03448e-09 5.18989e-15 -2.5129e-15 -2.54449e-15 0 0 0 0 0 0 0 0
893 1 -3.15468e-05 -0.00720022 0.0185512 0.0008 3.43146e-06 -5.13262e-14 5.25496e-14 -2.15318e-12 -2.69279e-09 3.34016e-10 1.32609e-10 -4.58718e-16 -1.90975e-15 2.41583e-15 1 -2.42809e-05 0.000323288 7.66802e-05 -3.50506e-05 -0.00799992 0.0185512 0.0008
894 1 0.00346408 0.000597388 0.0155591 0.0008 3.43146e-06 1.4542e-13 -2.7086e-13 -2.12087e-13 -3.37021e-10 -3.12058e-10 1.73629e-09 7.42447e-16 -9.2717e-16 -2.70461e-15 0 0 0 0 0 0 0 0
895 1 0.00395368 0.00438195 0.0179415 0.0008 3.43146e-06 -4.26283e-13 1.92667e-12 4.63237e-13 1.33513e-09 -2.34849e-09 -1.92557e-09 -2.39973e-15 -4.51245e-17 5.79941e-16 0 0 0 0 0 0 0 0
896 1 0.00492584 0.00525178 0.0188671 0.0008 3.43146e-06 -1.29911e-12 -1.12133e-12 4.45815e-13 3.7358e-10 1.24173e-09 -2.35272e-10 -7.67174e-16 -4.74207e-16 1.09945e-15 1 -0.000295502 -0.000325897 4.59962e-05 0.00547289 0.00583502 0.0188671 0.0008
897 1 0.00639604 -0.00330611 0.0174416 0.0008 3.43146e-06 -1.42219e-13 3.38859e-13 2.82414e-12 -1.29322e-09 -2.28444e-09 -1.34991e-09 -4.66201e-16 -2.8619e-17 2.15217e-15 0 0 0 0 0 0 0 0
898 1 -0.00593884 -0.00407071 0.0166001 0.0008 3.43146e-06 -2.15279e-12 -1.37878e-12 3.0172e-12 4.19213e-09 -1.64837e-09 1.33718e-10 -1.89111e-16 2.91562e-15 -5.99214e-16 1 1.10778e-05 4.94419e-06 1.31738e-06 -0.00659868 -0.00452299 0.0166001 0.0008
899 1 0.00707345 -0.00134558 0.0175613 0.0008 3.43146e-06 -1.15149e-12 -5.29426e-13 8.74175e-13 -6.74664e-10 1.22053e-09 9.40169e-10 -6.50975e-16 -1.96276e-16 -1.31842e-15 1 -0.000333596 0.000108591 5.21054e-05 0.00785906 -0.00149503 0.0175613 0.0008
900 1 0.00342376 -0.00175593 0.0185169 0.0008 3.43146e-06 -1.08418e-12 -6.13638e-14 2.03328e-12 1.88178e-09 -1.91586e-09 -8.03549e-10 7.38932e-16 1.99933e-16 -2.6357e-15 0 0 0 0 0 0 0 0
901 1 0.00428159 -6.83e-05 0.0171125 0.0008 3.43146e-06 -9.99423e-14 1.78672e-14 -1.05424e-12 8.07348e-10 4.85763e-11 -1.02608e-10 7.94926e-16 -3.66964e-16 -1.13119e-15 0 0 0 0 0 0 0 0
902 1 0.00133037 0.00118769 0.0159503 0.0008 3.43146e-06 5.42196e-13 5.42101e-13 1.01855e-12 -1.92097e-10 -1.61838e-09 7.54513e-10 -7.42612e-17 3.50902e-16 -6.06507e-15 0 0 0 0 0 0 0 0
903 1 -0.00711278 0.000200642 0.0146253 0.0008 3.43146e-06 1.02467e-13 -2.28369e-14 1.56877e-12 9.58895e-10 -2.6009e-09 2.40239e-09 -1.67291e-16 1.36793e-15 5.41231e-15 0 0 0 0 0 0 0 0
904 1 -0.000586539 0.00583313 0.0176219 0.0008 3.43146e-06 2.70845e-13 -1.98854e-12 3.08749e-12 -1.81601e-09 -4.64755e-10 7.50971e-10 6.74964e-16 1.1858e-15 -2.30786e-15 0 0 0 0 0 0 0 0
905 1 -0.00413712 -0.00589401 0.0174293 0.0008 3.43146e-06 -1.63716e-12 -1.2648e-13 2.41898e-12 1.47745e-09 -3.14469e-09 1.58561e-09 -4.20448e-16 5.17304e-16 1.29866e-15 1 0.00108616 0.00203293 0.000137643 -0.00459613 -0.00654795 0.0174293 0.0008
906 1 -0.00440138 0.000849155 0.0175119 0.0008 3.43146e-06 1.95302e-13 2.67301e-13 2.71688e-12 -2.85493e-10 1.37924e-09 -3.12563e-10 3.2386e-15 -2.96281e-16 2.76558e-15 0 0 0 0 0 0 0 0
907 1 0.00323782 -0.00315773 0.0192648 0.0008 3.43146e-06 -9.55328e-13 1.89323e-13 -4.46564e-13 -9.3508e-11 -3.82741e-09 3.78508e-09 -6.83456e-16 2.29944e-15 7.84553e-16 0 0 0 0 0 0 0 0
908 1 -0.00558351 0.00454647 0.0194045 0.0008 3.43146e-06 -7.86211e-13 -9.19194e-13 1.51177e-12 -2.99605e-09 1.00425e-11 -1.47307e-09 1.76327e-15 -5.00193e-16 -3.07572e-15 1 0.00037383 -0.000430245 9.85116e-05 -0.00620354 0.00505134 0.0194045 0.0008
909 1 -0.000816572 0.00577798 0.0192298 0.0008 3.43146e-06 2.73379e-13 -1.9237e-12 3.61537e-12 -1.79055e-09 7.03391e-10 3.98738e-10 -1.06275e-17 3.4731e-15 -4.46811e-15 0 0 0 0 0 0 0 0
910 1 -0.00162757 -0.00555405 0.0195664 0.0008 3.43146e-06 5.41535e-13 1.17962e-12 -1.81305e-12 -9.61104e-10 -2.48678e-09 -1.65508e-10 -2.75728e-16 -1.79314e-15 -6.25877e-15 0 0 0 0 0 0 0 0
911 1 0.00546 0.00176944 0.0188819 0.0008 3.43146e-06 1.01806e-12 1.82703e-13 -1.62915e-12 2.61121e-09 1.62018e-10 2.02445e-09 -2.41223e-15 -4.1832e-16 1.80459e-15 0 0 0 0 0 0 0 0
912 1 -0.00719643 0.000228592 0.0177786 0.0008 3.43146e-06 -4.35926e-13 -6.64253e-14 1.13371e-12 3.27591e-09 -1.57656e-09 -1.2258e-10 2.323e-15 -1.38515e-16 -2.89552e-15 1 2.97426e-05 2.51054e-06 1.66988e-06 -0.00799597 0.00025399 0.0177786 0.0008
913 1 0.00373641 0.00457493 0.0163526 0.0008 3.43146e-06 -1.08282e-12 -1.57637e-12 -7.64088e-13 1.34149e-09 2.30379e-09 -4.89031e-11 -9.48325e-16 -2.30311e-15 -5.84048e-16 0 0 0 0 0 0 0 0
914 1 -0.00250004 -0.00198732 0.0176965 0.0008 3.43146e-06 8.62284e-13 8.72923e-13 -9.50131e-13 -1.08915e-09 -2.79555e-10 2.68583e-10 2.06564e-15 4.66962e-15 4.46702e-15 0 0 0 0 0 0 0 0
915 1 0.000273473 -0.00273445 0.0202041 0.0008 3.43146e-06 1.35482e-13 2.54878e-13 1.37256e-14 4.25366e-10 -1.50855e-10 -2.05987e-10 -4.70197e-16 -1.35909e-15 -4.59192e-15 0 0 0 0 0 0 0 0
916 1 0.00187072 -0.00135881 0.0190885 0.0008 3.43146e-06 -2.74878e-13 5.37938e-13 6.16228e-13 1.43043e-09 -1.01589e-09 -4.58931e-10 8.73613e-16 -1.56632e-16 -4.48486e-15 0 0 0 0 0 0 0 0
917 1 0.00120376 0.00252918 0.0198357 0.0008 3.43146e-06 5.41892e-13 5.56927e-13 -1.49512e-12 -8.37893e-10 1.21546e-09 1.01726e-09 7.61611e-17 1.96621e-15 3.21182e-15 0 0 0 0 0 0 0 0
918 1 0.00411019 0.00146283 0.0175427 0.0008 3.43146e-06 -3.81714e-14 5.42101e-13 -3.28831e-12 -3.19445e-09 -4.55648e-09 -1.23312e-09 -3.12491e-15 5.76794e-17 -2.30002e-15 0 0 0 0 0 0 0 0
919 1 0.00119648 -0.00588181 0.0145399 0.0008 3.43146e-06 -5.41885e-13 -2.16822e-12 -5.85363e-13 -6.1154e-09 -1.17644e-10 5.82829e-09 3.84234e-17 3.33171e-16 2.42998e-15 0 0 0 0 0 0 0 0
920 1 0.000554472 -0.00430751 0.0201301 0.0008 3.43146e-06 -2.62116e-13 -1.0291e-12 -1.02396e-12 5.50067e-10 1.76062e-09 -5.76604e-10 1.64939e-16 -2.4358e-15 -3.99298e-15 0 0 0 0 0 0 0 0
921 1 -0.00327771 0.00641098 0.0190214 0.0008 3.43146e-06 -3.55314e-13 6.44976e-13 1.53783e-12 -2.2843e-09 2.80374e-10 3.77241e-11 3.32843e-15 4.56078e-16 5.62111e-16 1 0.000193256 -0.000260661 4.06532e-05 -0.00364176 0.00712303 0.0190214 0.0008
922 1 -0.00699725 0.00169858 0.0151751 0.0008 3.43146e-06 -2.11521e-12 2.1185e-14 3.62369e-13 -2.435e-09 1.58824e-10 -5.54648e-10 -1.02471e-15 8.52595e-16 1.11462e-17 1 0.000632596 -0.00019584 8.37032e-05 -0.00777422 0.00188719 0.0151751 0.0008
923 1 -0.00326841 0.00242275 0.0171617 0.0008 3.43146e-06 1.08228e-12 5.53282e-13 1.03827e-12 -2.04299e-09 -2.98565e-09 1.84589e-09 -5.90338e-16 1.59778e-15 1.42943e-15 0 0 0 0 0 0 0 0
924 1 -0.00146131 0.00408572 0.0159633 0.0008 3.43146e-06 -5.69547e-14 1.7272e-13 5.41828e-12 1.04831e-09 1.01872e-09 1.04119e-09 -2.01443e-15 1.52497e-15 -8.19016e-15 0 0 0 0 0 0 0 0
925 1 -0.00597608 0.0011335 0.0170214 0.0008 3.43146e-06 -1.60266e-12 5.41096e-13 -2.74355e-12 1.74004e-09 -6.40885e-10 2.47727e-09 -3.44591e-15 2.69137e-16 -2.52338e-15 0 0 0 0 0 0 0 0
926 1 -0.000553215 0.00121314 0.0182171 0.0008 3.43146e-06 2.71064e-13 -2.37666e-13 2.25768e-12 7.14541e-12 5.65431e-10 3.26253e-10 3.77187e-16 -4.07616e-15 5.84073e-16 0 0 0 0 0 0 0 0
927 1 0.000435006 0.00718715 0.0182241 0.0008 3.43146e-06 1.36168e-13 -1.45148e-12 2.02025e-12 -2.56839e-09 -1.25771e-09 4.79911e-10 3.34927e-16 9.40304e-16 -4.26493e-16 1 5.49247e-05 -0.000353931 7.76241e-05 0.00048332 0.00798539 0.0182241 0.0008
928 1 -0.00579934 0.00152113 0.0201692 0.0008 3.43146e-06 2.16772e-12 5.03174e-13 -1.92885e-13 4.96502e-10 1.15559e-09 -1.42537e-09 -2.56405e-16 -1.00692e-15 -1.25663e-15 0 0 0 0 0 0 0 0
929 1 -0.00655273 -0.0029842 0.0198511 0.0008 3.43146e-06 5.31993e-13 7.04917e-13 -2.0421e-12 -2.20178e-09 1.72745e-09 5.04169e-10 1.43544e-15 -1.32568e-15 1.0248e-15 1 0.000270483 9.6172e-05 6.93312e-06 -0.00728055 -0.00331566 0.0198511 0.0008
930 1 -0.00337101 -0.000833412 0.0170121 0.0008 3.43146e-06 2.97201e-13 2.71081e-13 -1.4518e-13 1.27815e-09 1.53778e-09 3.69477e-10 4.66751e-15 -3.53018e-16 7.19334e-15 0 0 0 0 0 0 0 0
931 1 0.00482848 -0.00534138 0.0188594 0.0008 3.43146e-06 -1.64585e-12 2.90448e-15 -2.63794e-14 1.48166e-09 -1.72752e-09 1.51142e-09 7.7175e-16 7.39817e-16 -4.19285e-16 1 -0.000296405 0.00023781 4.72342e-05 0.00536474 -0.00593461 0.0188594 0.0008
932 1 -0.00455727 0.00316437 0.0161113 0.0008 3.43146e-06 9.44116e-14 1.36593e-14 4.40199e-12 5.11381e-09 1.6094e-09 4.38632e-09 -1.67416e-15 -1.47817e-16 1.18684e-15 0 0 0 0 0 0 0 0
933 1 0.00369521 -0.00468096 0.0179438 0.0008 3.43146e-06 1.08386e-12 -1.55227e-12 2.6729e-12 -1.32071e-09 2.2766e-09 -1.63342e-09 6.54814e-16 1.94682e-15 -1.50001e-16 0 0 0 0 0 0 0 0
934 1 -0.00394399 0.000730408 0.0194069 0.0008 3.43146e-06 5.10423e-13 -1.59753e-13 3.32864e-12 -7.32896e-11 2.07613e-09 -1.63737e-09 1.35636e-14 8.439e-16 2.87042e-15 0 0 0 0 0 0 0 0
935 1 2.82808e-05 0.00327081 0.0190442 0.0008 3.43146e-06 1.44016e-13 -1.08353e-12 -2.91249e-14 -3.6552e-11 7.64405e-10 -7.95615e-11 -6.9369e-16 -1.23188e-15 4.86766e-16 0 0 0 0 0 0 0 0
936 1 0.00488557 -0.00298721 0.0170216 0.0008 3.43146e-06 -1.24766e-12 3.73402e-13 -1.85834e-12 -8.3931e-10 -2.9109e-09 1.24184e-09 -5.317e-15 7.8616e-16 -1.98017e-15 0 0 0 0 0 0 0 0
937 1 0.0035382 -0.00627092 0.0164843 0.0008 3.43146e-06 5.61172e-13 9.70619e-13 -3.06496e-13 -1.50779e-10 -6.0332e-10 -1.25157e-09 -9.09288e-16 1.0252e-15 -8.51963e-16 1 -9.04322e-05 0.00021401 5.2277e-05 0.0039312 -0.00696747 0.0164843 0.0008
938 1 0.00675289 -0.0024985 0.0187755 0.0008 3.43146e-06 -7.84474e-13 8.88466e-13 2.1749e-13 -1.55944e-09 8.00469e-10 -7.10784e-10 -5.64138e-16 -5.77075e-16 9.37565e-16 1 -0.000299096 7.89929e-05 5.70376e-05 0.00750292 -0.00277601 0.0187755 0.0008
939 1 -0.00212645 0.000358576 0.019445 0.0008 3.43146e-06 1.08417e-12 3.84729e-13 2.93102e-12 -1.60024e-09 1.92881e-09 2.44057e-10 4.82168e-16 -1.84699e-16 -6.60064e-15 0 0 0 0 0 0 0 0
940 1 -0.00354277 0.00626833 0.0173206 0.0008 3.43146e-06 3.82522e-13 -3.4105e-13 4.7369e-13 -2.02843e-09 2.49329e-09 1.37058e-10 2.75602e-15 -1.71615e-15 1.63863e-16 1 7.33104e-05 -0.000216099 5.56518e-05 -0.00393629 0.0069646 0.0173206 0.0008
941 1 0.00220563 -0.00685438 0.0171497 0.0008 3.43146e-06 -3.90343e-13 4.94783e-13 1.97057e-12 1.51418e-09 3.48275e-09 2.58711e-10 -1.79773e-15 1.0183e-16 -6.19955e-16 1 -0.000109665 0.000779228 1.43225e-05 0.00245053 -0.00761544 0.0171497 0.0008
942 1 0.00346061 0.000195068 0.0184595 0.0008 3.43146e-06 2.06023e-13 2.05913e-13 3.23321e-12 5.1644e-11 2.93795e-09 -5.7792e-10 4.32549e-15 6.03916e-16 -2.26867e-15 0 0 0 0 0 0 0 0
943 1 0.000178801 -0.00214631 0.0148369 0.0008 3.43146e-06 1.66965e-13 -1.08345e-12 2.98863e-13 1.39795e-10 -6.6314e-10 1.00908e-09 -5.06132e-16 -1.02197e-15 -1.68479e-16 0 0 0 0 0 0 0 0
944 1 -0.000211665 -0.000177881 0.0167808 0.0008 3.43146e-06 2.03082e-13 6.21891e-14 1.39524e-12 1.40559e-09 1.14795e-09 3.37169e-10 -2.04215e-16 7.76792e-16 -9.7536e-16 0 0 0 0 0 0 0 0
945 1 -0.00545016 0.00470533 0.0154222 0.0008 3.43146e-06 9.72717e-13 -1.11294e-12 -6.07056e-13 9.54625e-10 1.42191e-10 -2.45028e-10 -1.76447e-15 -6.84996e-16 -1.23831e-16 1 0.000241694 -0.000271994 0.000110805 -0.00605548 0.00522792 0.0154222 0.0008
946 1 -0.00648568 0.0031269 0.0179933 0.0008 3.43146e-06 6.02755e-13 -1.08375e-12 -2.37942e-12 3.7951e-09 1.31206e-09 -1.08555e-09 1.98189e-16 1.36566e-16 1.73515e-15 1 6.10076e-05 -3.80471e-05 -1.20741e-05 -0.0072062 0.00347428 0.0179933 0.0008
947 1 0.00603895 0.00392137 0.0198325 0.0008 3.43146e-06 6.3647e-13 1.37242e-12 -4.59712e-13 2.0492e-09 7.45616e-10 -1.07656e-09 1.51905e-15 2.28665e-15 9.8587e-16 1 -0.000572814 -0.000163967 4.74545e-05 0.00670955 0.00435682 0.0198325 0.0008
948 1 -0.00434716 -0.00184184 0.0177797 0.0008 3.43146e-06 3.46655e-13 -4.48605e-13 4.94024e-13 -3.5827e-10 3.66021e-11 -6.16056e-10 5.91389e-15 -3.71467e-16 6.73271e-15 0 0 0 0 0 0 0 0
949 1 -0.000294635 0.00266584 0.0175996 0.0008 3.43146e-06 1.3546e-13 -4.51882e-13 2.10838e-12 -2.4059e-10 -4.37455e-10 -2.7241e-10 9.9732e-17 3.81989e-15 4.16908e-15 0 0 0 0 0 0 0 0
950 1 0.00686174 0.00218136 0.0173354 0.0008 3.43146e-06 1.08765e-12 -8.79215e-13 3.46965e-13 -5.36733e-10 3.18376e-10 1.41384e-09 -4.6388e-16 5.44189e-16 1.84509e-15 1 -0.00010036 -1.21346e-05 1.17374e-05 0.00762402 0.00242369 0.0173354 0.0008
951 1 -0.000165124 -0.00171444 0.0163381 0.0008 3.43146e-06 1.64066e-13 1.48462e-13 1.40255e-12 -1.48505e-09 1.43547e-09 8.53346e-11 -1.78933e-15 8.64071e-17 -2.53544e-15 0 0 0 0 0 0 0 0
952 1 -0.00344105 -0.00298473 0.0185194 0.0008 3.43146e-06 1.08308e-12 2.08256e-13 1.81245e-12 -1.15607e-09 2.07885e-09 6.73768e-10 -2.49322e-16 5.07353e-15 6.30148e-15 0 0 0 0 0 0 0 0
953 1 0.000477988 0.00477698 0.0200959 0.0008 3.43146e-06 -1.2649e-13 -8.14387e-13 -3.52282e-12 -4.01778e-09 3.95457e-10 1.53952e-10 4.63299e-16 4.74044e-15 -1.87913e-15 0 0 0 0 0 0 0 0
954 1 -0.000530186 0.00138234 0.0166267 0.0008 3.43146e-06 -1.20097e-13 -5.41537e-13 2.38016e-12 -4.01958e-10 -6.53405e-11 -1.52779e-11 2.26908e-17 -2.71021e-16 1.14318e-15 0 0 0 0 0 0 0 0
955 1 -0.00461023 -0.000398776 0.0184903 0.0008 3.43146e-06 -7.33941e-13 1.35213e-13 1.23898e-12 1.63823e-09 -3.00952e-09 -2.85159e-12 2.54917e-15 1.46279e-16 7.16742e-15 0 0 0 0 0 0 0 0
956 1 0.00459558 -0.00130218 0.0195071 0.0008 3.43146e-06 -6.51722e-13 5.41436e-13 1.6634e-12 -2.69291e-09 2.5213e-09 1.14225e-09 1.37209e-15 2.20425e-16 -1.01258e-15 0 0 0 0 0 0 0 0
957 1 -0.00328566 -0.00121699 0.0188578 0.0008 3.43146e-06 7.5618e-14 5.41973e-13 9.63184e-13 1.51709e-09 1.61149e-09 1.70164e-09 -5.21597e-16 -6.78204e-17 7.36334e-15 0 0 0 0 0 0 0 0
958 1 -0.00266087 0.00126143 0.0150591 0.0008 3.43146e-06 -1.08238e-12 -7.1054e-14 4.33618e-12 2.95608e-09 1.26064e-09 4.94883e-10 -4.55083e-16 7.61665e-16 -4.06253e-16 0 0 0 0 0 0 0 0
959 1 -0.00210026 0.00165058 0.0179359 0.0008 3.43146e-06 -4.947e-13 5.4113e-13 2.68263e-12 -1.10838e-10 -1.73677e-09 1.12274e-09 2.32318e-15 -8.53012e-16 3.2812e-16 0 0 0 0 0 0 0 0
960 1 0.00701267 -0.00163332 0.0148704 0.0008 3.43146e-06 3.79796e-13 -5.41269e-13 -4.57919e-13 5.86981e-10 -7.23589e-10 5.09403e-10 -4.34385e-16 1.55574e-16 4.45075e-16 1 -0.000455326 0.000140164 0.000147774 0.00779146 -0.00181471 0.0148704 0.0008
961 1 0.00391339 0.00604367 0.0198198 0.0008 3.43146e-06 -1.47114e-12 1.71553e-12 2.85234e-13 -1.55921e-09 -2.00228e-09 -2.73362e-09 -1.00534e-15 1.4894e-15 -1.40136e-15 1 -1.25543e-05 -1.44844e-05 1.66345e-06 0.00434819 0.00671515 0.0198198 0.0008
962 1 0.000535603 -0.0021653 0.0187323 0.0008 3.43146e-06 2.45315e-13 8.00147e-13 -8.72342e-14 3.39534e-11 1.14266e-10 5.22327e-10 2.33224e-15 -1.55658e-15 -6.01129e-15 0 0 0 0 0 0 0 0
963 1 -0.000778953 0.00381187 0.0203145 0.0008 3.43146e-06 2.66075e-13 -1.06363e-12 -9.23742e-13 -1.39032e-09 -5.52568e-10 1.24227e-09 4.3503e-16 -2.27558e-16 -4.34534e-15 0 0 0 0 0 0 0 0
964 1 -0.002004 -0.00402643 0.0192771 0.0008 3.43146e-06 1.08296e-12 1.58636e-12 -2.18514e-12 1.6705e-09 -2.05287e-09 1.34771e-10 2.40892e-16 -1.57982e-15 4.92914e-15 0 0 0 0 0 0 0 0
965 1 -0.00591915 0.00306127 0.0152788 0.0008 3.43146e-06 -3.16603e-14 -1.08413e-12 4.1605e-12 -1.11907e-09 -1.43944e-09 -3.21589e-10 -2.68611e-15 -4.96451e-16 3.80646e-15 0 0 0 0 0 0 0 0
966 1 0.00244499 0.00364686 0.0165265 0.0008 3.43146e-06 -1.08412e-12 -1.00148e-12 -3.57926e-13 8.44531e-10 -8.19265e-11 -8.96562e-10 4.05207e-16 -7.6046e-16 -1.72827e-16 0 0 0 0 0 0 0 0
967 1 0.00579782 -0.000628822 0.0151421 0.0008 3.43146e-06 -2.16688e-12 -2.70852e-13 -1.54513e-13 -1.53016e-09 1.33052e-09 1.47819e-09 -1.54456e-15 3.54624e-16 3.29517e-16 0 0 0 0 0 0 0 0
968 1 0.00276404 0.00251941 0.0194851 0.0008 3.43146e-06 1.08383e-12 1.08392e-12 -1.45978e-12 -4.56973e-10 -1.3338e-09 4.02152e-11 -9.20666e-16 1.92886e-16 5.02139e-15 0 0 0 0 0 0 0 0
969 1 -0.00530071 -0.00487199 0.0178289 0.0008 3.43146e-06 -2.10294e-12 -1.23943e-12 1.09458e-12 -3.04574e-09 2.55401e-09 8.2309e-11 2.78165e-16 2.75082e-15 2.07461e-15 0 0 0 0 0 0 0 0
970 1 0.00264018 0.00155469 0.0182151 0.0008 3.43146e-06 1.68201e-12 5.4204e-13 -1.52805e-12 8.37948e-11 9.9581e-10 7.65487e-10 -1.35074e-15 -5.7358e-16 -7.77155e-15 0 0 0 0 0 0 0 0
971 1 -0.00143305 -0.00565355 0.0168431 0.0008 3.43146e-06 1.76454e-13 1.32247e-12 -3.59618e-12 -2.06666e-09 -6.13622e-10 -2.61226e-10 7.50403e-16 -8.62597e-16 -1.22003e-15 0 0 0 0 0 0 0 0
972 1 0.00591465 -0.00410676 0.0204565 0.0008 3.43146e-06 -7.50603e-13 5.70983e-13 1.86087e-13 -1.83004e-10 4.3457e-10 -4.75716e-11 -1.53247e-16 -9.30917e-16 1.04397e-15 1 -0.000786754 0.000575599 4.93023e-05 0.00657129 -0.00456269 0.0204565 0.0008
973 1 0.00719975 9.53778e-05 0.0198805 0.0008 3.43146e-06 1.76141e-12 -4.82204e-14 -6.93183e-13 1.10216e-09 -8.83023e-10 2.77851e-10 4.78778e-16 1.27483e-15 -1.02034e-15 1 -0.000492167 -4.20421e-05 0.000122161 0.0079993 0.00010597 0.0198805 0.0008
974 1 -0.000197883 0.0044524 0.0168733 0.0008 3.43146e-06 -7.04003e-14 -9.63379e-13 2.39074e-12 -7.28255e-10 2.05965e-09 -2.02305e-09 -2.12238e-15 1.57895e-15 -5.51372e-15 0 0 0 0 0 0 0 0
975 1 0.000631723 -0.000501827 0.0181008 0.0008 3.43146e-06 2.70919e-13 -2.13125e-13 2.56914e-13 -2.54555e-10 -6.38399e-10 3.19332e-10 3.04334e-16 7.55272e-17 -3.19373e-15 0 0 0 0 0 0 0 0
976 1 -0.00717987 -0.000541477 0.0210862 0.0008 3.43146e-06 -1.16569e-12 -2.70743e-13 3.40298e-13 1.36073e-09 -3.38131e-10 -2.35136e-10 1.62889e-15 8.79311e-17 7.94385e-16 1 0.000276866 4.555e-05 3.98873e-05 -0.00797735 -0.000601619 0.0210862 0.0008
977 1 -0.0017761 -0.00446503 0.0158288 0.0008 3.43146e-06 -5.421e-13 -2.08448e-13 -4.1685e-12 1.01091e-09 -1.11331e-09 3.27844e-09 -3.46877e-16 1.75302e-15 8.06336e-16 0 0 0 0 0 0 0 0
978 1 0.00189674 0.00694597 0.0138216 0.0008 3.43146e-06 5.17424e-13 -1.40187e-12 6.0341e-13 -4.25486e-10 1.52662e-09 1.07176e-09 1.01487e-15 1.37428e-15 -2.55311e-18 1 -0.000106487 -0.000314799 -5.65497e-05 0.0021074 0.00771744 0.0138216 0.0008
979 1 -0.00221162 -0.00513106 0.0181389 0.0008 3.43146e-06 1.08276e-12 2.16803e-12 -4.56944e-12 9.0867e-10 8.40011e-10 -1.03015e-09 -1.12455e-15 -3.30403e-16 -3.32042e-15 0 0 0 0 0 0 0 0
980 1 0.00279539 0.000514606 0.0170096 0.0008 3.43146e-06 7.6951e-13 2.70596e-13 -6.48376e-13 -1.11388e-09 6.62605e-10 -4.495e-10 2.20924e-15 9.01877e-16 -3.72801e-15 0 0 0 0 0 0 0 0
981 1 0.00245941 0.00314009 0.0180432 0.0008 3.43146e-06 5.42068e-13 -1.14817e-13 -1.22832e-12 -1.59706e-09 3.64008e-09 -3.12969e-09 -3.04833e-15 5.04661e-15 -3.98242e-15 0 0 0 0 0 0 0 0
982 1 -0.00404706 0.00204955 0.0185078 0.0008 3.43146e-06 -8.64154e-13 1.06501e-12 1.04197e-12 -1.4295e-09 -5.52858e-10 2.38391e-09 1.58732e-15 3.35779e-15 1.61452e-15 0 0 0 0 0 0 0 0
983 1 0.00245563 0.00515036 0.0171195 0.0008 3.43146e-06 -1.08413e-12 -1.07466e-12 1.01849e-12 -5.74078e-10 -6.11768e-10 -5.96394e-10 1.10851e-15 9.13283e-16 -9.34758e-16 0 0 0 0 0 0 0 0
984 1 -0.0026383 -0.00365614 0.0173068 0.0008 3.43146e-06 -1.08406e-12 -5.35919e-15 -9.49429e-14 -1.7579e-09 2.01253e-09 1.17351e-09 -1.17655e-15 2.19293e-16 1.16936e-15 0 0 0 0 0 0 0 0
985 1 -0.00554677 0.00109785 0.0154806 0.0008 3.43146e-06 -2.16759e-12 5.05534e-13 1.89305e-12 -2.64982e-09 -1.55763e-10 2.4269e-10 1.42147e-15 1.40287e-16 1.40029e-15 0 0 0 0 0 0 0 0
986 1 0.000999926 0.00258065 0.0166639 0.0008 3.43146e-06 5.38038e-13 -6.52315e-13 9.58744e-13 8.69929e-10 1.48773e-09 -4.142e-10 -2.12139e-16 1.94741e-15 -2.18519e-15 0 0 0 0 0 0 0 0
987 1 -0.00245238 -0.00676971 0.0151945 0.0008 3.43146e-06 2.65315e-13 -2.35857e-13 2.54247e-12 3.0701e-09 -7.49367e-10 -4.37754e-10 6.30391e-16 -2.01264e-15 1.57082e-15 1 3.56521e-05 0.000223057 4.65818e-05 -0.00272478 -0.00752167 0.0151945 0.0008
988 1 0.00538789 0.00246828 0.0203188 0.0008 3.43146e-06 1.65786e-12 -6.30263e-13 -7.81577e-13 -1.31348e-09 7.46151e-10 -2.11789e-09 -4.1097e-16 2.33966e-15 2.98039e-15 0 0 0 0 0 0 0 0
989 1 0.00105498 0.0071222 0.0167508 0.0008 3.43146e-06 5.36041e-13 -8.49153e-13 -4.27528e-13 3.98455e-09 1.92071e-09 -1.88765e-09 -9.24478e-16 -8.70515e-17 -2.11742e-15 0 0 0 0 0 0 0 0
990 1 0.00670661 0.00262063 0.0136867 0.0008 3.43146e-06 -1.89208e-12 -1.08079e-12 2.79741e-13 -4.5326e-10 1.92904e-10 4.11257e-10 5.51498e-16 1.82447e-16 -2.58692e-16 1 -0.000546696 -0.000270767 9.59191e-05 0.00745134 0.00291163 0.0136867 0.0008
991 1 0.00445637 0.00370006 0.0199017 0.0008 3.43146e-06 9.2368e-13 8.8187e-13 -9.24467e-13 1.80229e-09 -7.63862e-10 1.67226e-09 1.13421e-15 9.43862e-16 7.39986e-16 0 0 0 0 0 0 0 0
992 1 0.00221515 0.00685078 0.0178186 0.0008 3.43146e-06 6.2118e-13 -2.16824e-12 4.34266e-13 -1.62688e-09 -2.95513e-09 1.71646e-09 -1.42954e-15 -5.68163e-16 -8.90653e-16 1 -4.7917e-07 -1.35523e-06 1.57049e-07 0.00246127 0.00761197 0.0178186 0.0008
993 1 -0.00418944 -0.00330058 0.0171417 0.0008 3.43146e-06 -5.2896e-13 -4.29658e-13 5.91272e-13 6.41005e-10 -1.06016e-09 -9.22588e-10 -1.25001e-15 1.8396e-15 2.3111e-15 0 0 0 0 0 0 0 0
994 1 0.00472402 0.00543381 0.0154328 0.0008 3.43146e-06 -2.13967e-12 -1.8141e-12 -3.62661e-13 -1.14637e-10 -8.50884e-10 -5.27291e-10 2.48023e-16 -1.9988e-15 -1.68562e-15 1 -9.38905e-05 -0.000138588 2.35493e-05 0.00524878 0.00603741 0.0154328 0.0008
995 1 -0.00209245 -0.00243235 0.019178 0.0008 3.43146e-06 9.95062e-13 5.23368e-13 4.52279e-13 1.39343e-09 -2.96166e-10 2.01524e-10 5.77195e-15 2.79277e-15 7.61769e-15 0 0 0 0 0 0 0 0
996 1 0.00120498 0.00709861 0.0203429 0.0008 3.43146e-06 -5.42166e-13 2.16831e-12 3.20187e-12 -3.48592e-09 2.82816e-09 -1.05338e-09 -3.47471e-16 1.62898e-15 -3.04159e-15 1 -2.99447e-05 -0.00013182 -1.14697e-05 0.00133884 0.00788717 0.0203429 0.0008
997 1 0.00221234 -0.00685174 0.0187496 0.0008 3.43146e-06 6.75365e-13 -5.92049e-13 -9.32998e-13 -3.25473e-10 -2.3835e-09 -7.40393e-10 -1.58761e-15 6.08275e-16 -1.61104e-15 1 -6.52331e-06 2.72654e-05 3.10587e-06 0.00245814 -0.00761299 0.0187496 0.0008
998 1 -0.00676012 -0.00247826 0.0162287 0.0008 3.43146e-06 -8.93879e-15 2.63227e-13 -3.82284e-13 2.76815e-10 7.26403e-10 2.65642e-10 -9.4557e-16 -7.37072e-18 9.12943e-16 1 3.87597e-05 1.10761e-05 2.32508e-06 -0.00751117 -0.0027536 0.0162287 0.0008
999 1 0.000578347 -9.47982e-05 0.0211582 0.0008 3.43146e-06 4.6861e-13 3.36943e-14 1.12177e-12 1.10539e-09 -1.00607e-10 -7.49564e-10 -2.74949e-15 -5.48431e-16 -1.87523e-15 0 0 0 0 0 0 0 0
1000 1 0.00343212 -0.00312569 0.0176774 0.0008 3.43146e-06 9.00211e-13 6.05382e-13 1.70041e-12 1.22263e-10 1.09244e-09 9.79837e-10 -1.51632e-15 3.10669e-15 -2.58338e-15 0 0 0 0 0 0 0 0
1001 1 -0.00110847 0.00395293 0.0180903 0.0008 3.43146e-06 5.42012e-13 -4.97025e-13 3.56939e-12 2.16855e-09 5.56405e-10 -6.79076e-10 -4.55351e-16 8.61506e-15 -8.2487e-15 0 0 0 0 0 0 0 0
1002 1 0.000524655 0.001468 0.020821 0.0008 3.43146e-06 6.04304e-13 4.70556e-14 6.9301e-13 -1.84307e-09 -1.73547e-09 1.09046e-09 -8.62154e-15 5.56053e-16 2.8584e-15 0 0 0 0 0 0 0 0
1003 1 0.000291987 0.00241736 0.0146652 0.0008 3.43146e-06 -1.34604e-13 -3.09429e-13 1.14255e-12 -1.6758e-09 5.48773e-10 -1.20855e-09 -1.34793e-15 3.40709e-16 -5.64081e-15 0 0 0 0 0 0 0 0
1004 1 0.00534145 0.004828 0.0167786 0.0008 3.43146e-06 -2.44877e-13 -2.14508e-12 1.12966e-12 -5.8401e-12 1.9294e-09 1.72998e-09 -4.58379e-16 -2.02568e-15 -5.37292e-16 1 -1.71687e-05 -1.2913e-05 -1.70781e-06 0.0059349 0.00536441 0.0167786 0.0008
1005 1 0.00212568 -0.00526953 0.0173492 0.0008 3.43146e-06 7.98396e-13 1.56364e-12 1.79632e-12 -2.16622e-09 2.7694e-09 -1.11175e-09 5.07019e-16 1.90958e-15 5.42048e-16 0 0 0 0 0 0 0 0
1006 1 0.00111798 -0.00179219 0.0172899 0.0008 3.43146e-06 5.42025e-13 4.37435e-13 1.54573e-12 -1.58712e-10 -1.24251e-09 -6.47e-10 2.90977e-16 1.2076e-15 -6.79373e-16 0 0 0 0 0 0 0 0
1007 1 -0.00487684 -0.00529774 0.0149916 0.0008 3.43146e-06 3.01107e-13 4.39208e-13 2.51037e-12 3.19666e-09 -1.14106e-09 7.05664e-11 2.17641e-16 6.68466e-16 -7.39863e-18 1 0.000953665 0.000702573 0.000168122 -0.00541821 -0.00588583 0.0149916 0.0008
1008 1 0.00111697 0.00229631 0.0182553 0.0008 3.43146e-06 7.60225e-14 6.38149e-13 2.12022e-12 3.40248e-10 2.33013e-10 1.84744e-09 -8.2422e-16 4.50621e-15 -3.24935e-15 0 0 0 0 0 0 0 0
1009 1 -0.00708806 -0.00126677 0.0172205 0.0008 3.43146e-06 1.67431e-13 4.93881e-13 -5.41172e-13 -9.74821e-10 5.57853e-10 5.41934e-10 3.76691e-16 -1.59646e-17 -1.56668e-15 1 0.000477756 4.66741e-05 0.000105157 -0.00787522 -0.00140745 0.0172205 0.0008
1010 1 0.00212708 0.00520583 0.0198995 0.0008 3.43146e-06 -1.24346e-13 2.1387e-12 1.45095e-12 2.18603e-09 6.73983e-09 4.77281e-10 -9.02266e-16 1.51156e-15 -4.55755e-15 0 0 0 0 0 0 0 0
1011 1 -0.00716582 0.000705604 0.0200082 0.0008 3.43146e-06 2.08043e-12 5.94635e-13 4.5189e-13 -1.09225e-09 -5.05172e-10 1.10693e-09 -2.44794e-15 -1.83859e-15 -2.27534e-15 1 0.000700536 5.88135e-05 5.29496e-06 -0.0079615 0.000783953 0.0200082 0.0008
1012 1 0.00144123 0.00332017 0.0153157 0.0008 3.43146e-06 8.71675e-14 6.17332e-14 1.27589e-14 -6.46031e-10 -5.7679e-10 6.75256e-10 -5.10875e-16 3.21602e-15 -3.12302e-15 0 0 0 0 0 0 0 0
1013 1 0.00684001 -0.00145954 0.0199886 0.0008 3.43146e-06 2.6854e-13 4.35455e-13 -1.98395e-12 2.35169e-12 -1.25476e-09 -2.10299e-09 5.00232e-16 1.42659e-15 1.81223e-15 0 0 0 0 0 0 0 0
1014 1 -0.00494958 0.00270499 0.0208286 0.0008 3.43146e-06 2.16668e-12 9.02804e-13 2.51081e-13 -1.62233e-09 -3.33075e-09 6.0762e-10 -4.83318e-16 -5.12706e-15 1.28721e-15 0 0 0 0 0 0 0 0
1015 1 0.00529673 0.00253471 0.0174869 0.0008 3.43146e-06 1.94197e-12 3.4257e-13 -2.18046e-12 -2.48597e-09 -2.41855e-09 -3.80269e-10 -4.10967e-15 1.39398e-15 3.51583e-15 0 0 0 0 0 0 0 0
1016 1 -0.00113713 -0.00402116 0.0177225 0.0008 3.43146e-06 -5.41452e-13 2.1676e-12 -2.90272e-12 3.37171e-09 1.07316e-09 1.77799e-09 1.863e-15 -2.16924e-16 4.56298e-15 0 0 0 0 0 0 0 0
1017 1 0.00586445 0.00417716 0.0181432 0.0008 3.43146e-06 8.00652e-13 -1.13772e-12 -1.30548e-12 1.17279e-09 -1.13605e-09 1.8888e-09 7.46492e-16 -1.37115e-15 6.7735e-16 1 -1.18395e-05 -7.05078e-06 4.31949e-06 0.00651603 0.00464127 0.0181432 0.0008
1018 1 -0.00158689 0.000181731 0.0175644 0.0008 3.43146e-06 5.42012e-13 1.45399e-13 3.16481e-12 -3.15637e-10 1.90145e-10 -4.01322e-10 -3.73653e-16 1.29113e-15 -1.88737e-15 0 0 0 0 0 0 0 0
1019 1 0.00205939 0.00119132 0.0200315 0.0008 3.43146e-06 -1.82153e-13 5.42369e-13 2.0189e-12 -3.91114e-09 1.00872e-09 -4.33995e-10 -1.43884e-15 -2.13803e-16 7.55275e-15 0 0 0 0 0 0 0 0
1020 1 -0.00269876 -0.00667528 0.0200392 0.0008 3.43146e-06 -3.58438e-13 1.0142e-12 7.34027e-13 9.32777e-10 -3.52362e-10 8.4944e-10 1.03228e-15 -1.06549e-15 -4.21948e-15 1 9.66071e-05 0.00014435 -2.57895e-05 -0.00299854 -0.00741679 0.0200392 0.0008
1021 1 -0.000273785 0.00719481 0.0197397 0.0008 3.43146e-06 -4.0731e-13 1.38188e-12 3.69236e-12 -4.1982e-09 -1.9536e-09 -8.44884e-10 4.72479e-16 8.5432e-16 1.06816e-15 1 9.567e-07 -6.42238e-06 7.66512e-08 -0.000304204 0.00799421 0.0197397 0.0008
1022 1 -0.00471686 -0.00374156 0.0191174 0.0008 3.43146e-06 2.16823e-12 -3.04039e-13 2.32359e-12 7.77384e-10 -1.33164e-09 6.4832e-10 1.08131e-15 1.09839e-15 2.85293e-15 0 0 0 0 0 0 0 0
1023 1 0.00482915 -0.00534026 0.0163226 0.0008 3.43146e-06 1.05988e-12 6.80033e-13 2.15229e-12 3.42173e-09 -8.28964e-10 4.04686e-10 -9.91985e-16 -5.53866e-17 -1.7919e-15 0 0 0 0 0 0 0 0
1024 1 -0.00587255 -2.11747e-05 0.0194096 0.0008 3.43146e-06 2.38791e-13 7.42294e-14 1.0226e-12 5.42715e-10 8.03635e-10 -2.73839e-09 -1.38737e-15 2.95085e-16 -2.49743e-17 0 0 0 0 0 0 0 0
1025 1 -0.00613287 0.00377261 0.0206922 0.0008 3.43146e-06 3.22089e-13 9.48088e-13 -1.16177e-12 2.70197e-09 9.03442e-11 1.19155e-09 3.23863e-15 -3.4569e-15 2.35987e-15 1 0.000328812 -0.000221264 6.781e-06 -0.006814 0.0041916 0.0206922 0.0008
1026 1 0.00343764 -0.00177552 0.0168196 0.0008 3.43146e-06 -4.3116e-15 -4.19283e-13 2.37279e-12 -1.99208e-10 8.94406e-11 -4.39803e-10 -1.24205e-15 -2.67542e-15 -3.34143e-15 0 0 0 0 0 0 0 0
1027 1 -0.00235895 0.00215941 0.0221567 0.0008 3.43146e-06 -6.87806e-13 -3.87449e-13 -8.55674e-13 4.77187e-10 -1.69156e-09 1.2814e-09 -1.47238e-15 -2.274e-15 4.92601e-15 0 0 0 0 0 0 0 0
1028 1 -0.00273237 0.00183865 0.0193933 0.0008 3.43146e-06 -3.34496e-13 1.17351e-12 1.17092e-12 -1.20598e-10 9.65684e-10 -3.15799e-09 4.16362e-15 -4.90546e-15 2.45869e-15 0 0 0 0 0 0 0 0
1029 1 -0.00100111 -0.00442942 0.0205163 0.0008 3.43146e-06 -1.31061e-14 2.15244e-12 2.36665e-13 9.59723e-10 -7.82781e-10 -3.31311e-10 3.16172e-15 -7.48141e-16 -7.75217e-15 0 0 0 0 0 0 0 0
1030 1 0.00217729 -0.00575601 0.0217171 0.0008 3.43146e-06 -1.83617e-13 -1.1258e-12 -9.83216e-13 -4.41061e-10 -4.06811e-09 2.47382e-09 1.5697e-15 -4.95903e-16 1.62963e-15 0 0 0 0 0 0 0 0
1031 1 0.00146136 0.00301135 0.0228852 0.0008 3.43146e-06 -5.42128e-13 1.33094e-14 -2.80054e-12 -4.60451e-09 -2.60924e-09 9.42364e-10 -5.42928e-16 -4.6357e-15 3.99347e-15 0 0 0 0 0 0 0 0
1032 1 -0.00385091 0.004441 0.0222157 0.0008 3.43146e-06 4.83834e-13 -7.0614e-13 -4.90836e-13 -2.57217e-09 1.06414e-08 5.96353e-10 -4.00375e-15 2.89942e-16 -3.17071e-15 0 0 0 0 0 0 0 0
1033 1 -0.00541632 0.00474448 0.0178244 0.0008 3.43146e-06 -6.04379e-13 4.09258e-13 2.48317e-12 -2.88151e-10 -3.79755e-09 -1.26825e-10 1.24637e-15 1.86009e-16 -4.60994e-16 1 0.000466709 -0.000471849 9.03353e-05 -0.00601775 0.00527131 0.0178244 0.0008
1034 1 0.0014617 0.00397641 0.0191213 0.0008 3.43146e-06 -5.18537e-13 1.01181e-12 9.16842e-13 3.71904e-10 -1.77187e-09 2.97551e-09 -2.31498e-15 1.42007e-15 -3.68416e-15 0 0 0 0 0 0 0 0
1035 1 0.0055008 -0.00119483 0.0208227 0.0008 3.43146e-06 1.05865e-12 5.42095e-13 -4.68735e-12 6.73249e-10 -1.3613e-09 9.64709e-10 1.0199e-15 6.24023e-17 5.03781e-15 0 0 0 0 0 0 0 0
1036 1 -0.00389868 -1.84175e-05 0.0236833 0.0008 3.43146e-06 -4.33277e-13 -2.20274e-13 6.53792e-13 6.28043e-10 -3.19825e-11 6.51226e-10 5.21152e-15 -2.67687e-16 -1.13139e-15 0 0 0 0 0 0 0 0
1037 1 0.0034147 -0.00170143 0.0230246 0.0008 3.43146e-06 7.45239e-13 5.23903e-13 -2.34892e-12 -7.65957e-10 -6.47146e-10 1.4349e-09 1.47421e-15 2.09229e-16 5.14433e-16 0 0 0 0 0 0 0 0
1038 1 -0.00419893 0.0014851 0.0241388 0.0008 3.43146e-06 -9.63034e-13 -5.4113e-13 1.32924e-12 2.67592e-10 -1.19975e-09 -2.15677e-10 1.03947e-15 1.35851e-15 -3.37916e-15 0 0 0 0 0 0 0 0
1039 1 0.00306405 -0.00175947 0.0200758 0.0008 3.43146e-06 -1.08392e-12 -6.74173e-13 -3.69671e-13 -5.39073e-10 1.35179e-09 -1.14743e-09 6.44907e-16 1.36047e-15 -2.55732e-15 0 0 0 0 0 0 0 0
1040 1 0.00268989 -0.00306848 0.0224144 0.0008 3.43146e-06 1.08411e-12 -7.73081e-13 -4.96469e-13 -1.85133e-09 -3.44373e-09 1.62234e-09 1.98861e-16 -1.43121e-15 1.29191e-15 0 0 0 0 0 0 0 0
1041 1 0.00303993 0.00297404 0.0231424 0.0008 3.43146e-06 6.51049e-13 -7.34122e-13 7.34493e-13 3.8821e-09 -1.29399e-09 -2.14524e-09 -7.58826e-15 6.56452e-15 3.40568e-15 0 0 0 0 0 0 0 0
1042 1 -0.00302031 0.00438465 0.0207784 0.0008 3.43146e-06 1.08348e-12 2.72919e-13 -2.44715e-12 -6.68967e-09 -4.78804e-09 -3.28769e-10 -8.57297e-16 -3.90376e-15 2.85558e-15 0 0 0 0 0 0 0 0
1043 1 0.00275444 0.00628994 0.020895 0.0008 3.43146e-06 1.01607e-12 2.16819e-12 -2.58956e-12 -2.04642e-09 1.97739e-09 4.11748e-09 -8.44077e-16 1.85545e-16 -3.71626e-15 0 0 0 0 0 0 0 0
1044 1 0.0033723 -0.00405272 0.0234751 0.0008 3.43146e-06 3.39855e-13 9.97347e-13 -2.98265e-13 1.42842e-09 1.05026e-09 5.43608e-10 -3.11028e-15 -8.19062e-17 1.2289e-15 0 0 0 0 0 0 0 0
1045 1 0.00449718 -0.00403334 0.0197187 0.0008 3.43146e-06 -1.6604e-12 1.88606e-12 1.34613e-12 -1.21587e-09 1.46809e-09 -2.42694e-09 -1.62423e-15 -3.20984e-15 7.90144e-17 0 0 0 0 0 0 0 0
1046 1 -0.00375672 -0.00230497 0.019932 0.0008 3.43146e-06 3.03474e-13 -1.08409e-12 -9.6616e-13 9.94136e-10 -3.31304e-09 7.34121e-10 4.19503e-15 -1.17206e-15 -6.6917e-16 0 0 0 0 0 0 0 0
1047 1 -0.00492861 0.0046547 0.0233889 0.0008 3.43146e-06 -1.17059e-12 -1.55592e-12 4.17335e-13 1.45075e-09 7.73806e-09 1.37723e-08 8.40681e-15 3.21882e-15 -3.2027e-15 0 0 0 0 0 0 0 0
1048 1 -0.00684212 -0.00224294 0.0184633 0.0008 3.43146e-06 3.74163e-13 -9.28956e-13 4.33071e-13 1.5287e-09 -9.88845e-11 -1.25281e-09 1.41705e-15 1.05388e-15 5.57185e-16 1 0.000463635 0.000177324 0.000115121 -0.00760196 -0.00249203 0.0184633 0.0008
1049 1 0.00347785 -0.000131753 0.0233261 0.0008 3.43146e-06 -1.08311e-12 -7.3482e-14 -3.30402e-12 -2.07152e-10 -2.23211e-10 7.49286e-10 1.91264e-15 6.52134e-16 -1.10713e-14 0 0 0 0 0 0 0 0
1050 1 -0.000433991 -0.00472307 0.0224363 0.0008 3.43146e-06 1.3474e-13 -2.79089e-13 -1.04272e-13 -2.66468e-10 1.66048e-09 2.32791e-10 3.38959e-16 1.20848e-15 -2.89582e-15 0 0 0 0 0 0 0 0
1051 1 -0.00229004 0.000644675 0.0215194 0.0008 3.43146e-06 1.08415e-12 -2.9014e-13 -6.08414e-13 1.72956e-09 -8.98569e-10 1.26108e-09 4.9033e-16 4.87401e-15 8.85578e-15 0 0 0 0 0 0 0 0
1052 1 0.00401383 0.00597743 0.0238337 0.0008 3.43146e-06 8.04727e-13 -2.16817e-12 -8.61672e-13 -2.46485e-09 -4.92339e-09 2.37169e-09 1.83966e-15 5.10176e-16 2.21538e-16 1 -8.73304e-06 -1.25043e-05 1.6884e-06 0.00445979 0.00664156 0.0238337 0.0008
1053 1 0.00124984 -0.00119854 0.0245131 0.0008 3.43146e-06 6.88843e-13 5.4191e-13 -5.20528e-14 4.89271e-09 -1.16978e-09 1.48802e-09 -1.13196e-15 6.9742e-16 -8.10178e-16 0 0 0 0 0 0 0 0
1054 1 2.30861e-05 -0.00164285 0.0213489 0.0008 3.43146e-06 2.97521e-14 5.12589e-13 1.05433e-12 -6.72004e-10 -2.68255e-10 -9.39025e-10 -6.48314e-16 -1.90856e-15 -3.40531e-15 0 0 0 0 0 0 0 0
1055 1 0.00189336 0.000210538 0.0187786 0.0008 3.43146e-06 5.42136e-13 1.83397e-13 3.73645e-12 2.25015e-09 -2.33939e-09 1.05769e-10 1.61866e-16 -8.1497e-16 1.48899e-15 0 0 0 0 0 0 0 0
1056 1 0.000679563 -0.0055765 0.0232049 0.0008 3.43146e-06 2.70851e-13 5.28315e-13 -4.80091e-13 -1.00721e-09 -3.65004e-10 -8.5951e-11 4.64301e-16 3.83571e-15 -8.0623e-16 0 0 0 0 0 0 0 0
1057 1 -0.000155835 -0.00719853 0.0208224 0.0008 3.43146e-06 -2.59368e-13 2.16823e-12 -1.76156e-13 -3.2299e-10 -2.15209e-09 3.82127e-10 -5.41417e-16 -6.88515e-16 4.07457e-16 1 2.33143e-05 0.00022056 1.11439e-05 -0.000173144 -0.00799813 0.0208224 0.0008
1058 1 0.00511036 0.00507051 0.0204457 0.0008 3.43146e-06 1.35761e-12 -5.18876e-13 7.11757e-13 -1.01081e-09 1.7299e-09 2.44785e-09 2.98795e-16 2.58511e-15 1.8968e-15 0 0 0 0 0 0 0 0
1059 1 -0.00327273 -0.00384856 0.0216214 0.0008 3.43146e-06 1.08374e-12 -5.93237e-13 -2.65576e-12 3.44491e-09 -3.73702e-09 -3.22124e-10 -7.88078e-17 -4.27083e-15 -6.49135e-15 0 0 0 0 0 0 0 0
1060 1 -0.00447687 0.00563918 0.01978 0.0008 3.43146e-06 5.82906e-13 1.51456e-12 2.53909e-13 -2.71425e-10 -9.04051e-11 1.79494e-09 1.24123e-15 -2.09795e-15 1.25437e-15 1 0.000106011 -0.000139307 1.05011e-05 -0.00497417 0.00626559 0.01978 0.0008
1061 1 -0.0036344 -0.00524754 0.0223078 0.0008 3.43146e-06 -1.08418e-12 1.35733e-12 -3.491e-12 -5.4112e-09 -4.29053e-09 4.38351e-10 -2.12525e-16 1.37518e-15 -8.06679e-16 0 0 0 0 0 0 0 0
1062 1 0.00476739 -0.00090551 0.0227123 0.0008 3.43146e-06 1.65941e-12 5.28938e-14 -1.54906e-12 9.79626e-10 -1.3377e-09 1.54494e-09 -3.41645e-15 -5.77245e-15 2.77728e-15 0 0 0 0 0 0 0 0
1063 1 -0.00629058 -0.000196107 0.0224489 0.0008 3.43146e-06 5.80004e-14 -6.89519e-14 8.38972e-13 6.22646e-11 1.39786e-09 7.4697e-10 1.60636e-15 -5.10254e-16 1.16562e-15 0 0 0 0 0 0 0 0
1064 1 -0.00497469 0.000272341 0.0207346 0.0008 3.43146e-06 -1.71778e-13 -1.38721e-14 -7.26422e-13 -4.65392e-11 -1.18691e-09 -1.19917e-09 2.32824e-15 2.14723e-15 3.82743e-15 0 0 0 0 0 0 0 0
1065 1 -0.00370198 0.00169719 0.0206583 0.0008 3.43146e-06 -2.21411e-12 5.41738e-13 1.37498e-12 -4.05137e-09 -1.16992e-08 -5.65488e-09 8.45389e-15 -5.98975e-16 -4.34663e-15 0 0 0 0 0 0 0 0
1066 1 -0.00335603 0.00637008 0.0243085 0.0008 3.43146e-06 1.0839e-12 -5.76209e-13 -8.23963e-13 5.35787e-09 -7.10163e-09 1.08369e-09 1.18633e-15 -1.11549e-15 -1.12996e-15 1 1.4417e-05 -2.71334e-05 1.55753e-07 -0.00372889 0.00707781 0.0243085 0.0008
1067 1 0.0018914 3.44247e-05 0.0231297 0.0008 3.43146e-06 2.67057e-13 -1.4029e-13 4.23885e-14 -1.46853e-09 -5.97714e-09 -2.05438e-09 -6.26965e-15 3.41679e-15 -2.42343e-15 0 0 0 0 0 0 0 0
1068 1 -0.00341534 0.00451339 0.0238886 0.0008 3.43146e-06 1.08418e-12 2.16837e-12 -5.65816e-12 4.28659e-09 -5.7122e-10 -6.74799e-09 -9.27042e-16 1.13659e-15 -7.21291e-18 0 0 0 0 0 0 0 0
1069 1 0.00296609 -0.003161 0.0208413 0.0008 3.43146e-06 -8.92242e-14 -1.08414e-12 -2.33546e-13 1.27352e-09 4.92186e-09 -1.24598e-09 2.4782e-15 2.60509e-16 -2.48325e-16 0 0 0 0 0 0 0 0
1070 1 0.00360371 -0.000154044 0.0200141 0.0008 3.43146e-06 -2.35569e-13 -4.09508e-15 2.91532e-13 1.02125e-09 -2.69027e-09 -7.2267e-10 5.17675e-15 -2.01662e-15 1.08763e-15 0 0 0 0 0 0 0 0
1071 1 -0.00532546 -0.00226933 0.0189711 0.0008 3.43146e-06 -6.75213e-14 -2.24839e-13 9.88302e-13 -1.58697e-09 -7.00686e-10 2.09286e-09 4.20111e-15 3.13756e-17 3.4943e-15 0 0 0 0 0 0 0 0
1072 1 -0.00180513 -0.00150834 0.0233258 0.0008 3.43146e-06 5.41819e-13 5.41872e-13 2.39892e-13 -2.74977e-10 5.31247e-10 3.61272e-10 -2.3238e-16 -7.59133e-16 3.98908e-15 0 0 0 0 0 0 0 0
1073 1 0.00523909 -0.00445539 0.0175906 0.0008 3.43146e-06 -1.70964e-12 -8.17224e-13 7.1439e-13 -2.04746e-09 4.27615e-10 3.74643e-09 -1.21755e-15 4.93505e-16 -2.19944e-15 0 0 0 0 0 0 0 0
1074 1 0.00173833 -0.00324587 0.0198148 0.0008 3.43146e-06 -4.90813e-13 -1.08387e-12 -1.4942e-12 -2.06455e-09 2.64627e-09 -1.21461e-09 2.82255e-15 -6.30995e-16 -2.32727e-15 0 0 0 0 0 0 0 0
1075 1 -0.00119736 0.00226177 0.0192387 0.0008 3.43146e-06 5.42013e-13 -9.26355e-13 5.83534e-13 -1.22773e-09 -6.47502e-10 4.39573e-10 2.91152e-16 -8.07906e-15 6.23245e-15 0 0 0 0 0 0 0 0
1076 1 -0.00223214 0.0032813 0.0199089 0.0008 3.43146e-06 1.08376e-12 1.44352e-13 -6.43746e-12 -1.40569e-09 -7.82469e-09 -3.86915e-09 8.11181e-17 -2.70284e-15 -6.44289e-15 0 0 0 0 0 0 0 0
1077 1 -0.00188428 0.00544686 0.0203744 0.0008 3.43146e-06 5.42395e-13 -2.16687e-12 4.61864e-12 -2.99329e-09 -1.13452e-09 4.55338e-09 -3.14958e-16 -2.10376e-16 3.91475e-15 0 0 0 0 0 0 0 0
1078 1 0.00338116 0.00423695 0.0240629 0.0008 3.43146e-06 5.54454e-13 -1.6253e-12 -4.95753e-14 -4.55676e-09 -1.33511e-09 -1.83198e-11 -7.82485e-15 1.84912e-15 -1.99201e-15 0 0 0 0 0 0 0 0
1079 1 -0.00682433 0.00229541 0.0226843 0.0008 3.43146e-06 4.19217e-13 -1.07837e-12 8.01311e-13 3.72145e-10 -1.19645e-09 -1.01638e-09 -8.47373e-17 3.41474e-16 1.60559e-15 1 1.01465e-05 -3.37404e-06 -2.55073e-07 -0.00758256 0.00255045 0.0226843 0.0008
1080 1 0.000234586 0.00719624 0.0216109 0.0008 3.43146e-06 -7.20603e-13 2.16876e-12 -4.40103e-12 4.94911e-09 -8.86901e-09 -1.64106e-09 7.75302e-16 -8.79044e-16 1.64602e-15 1 -7.02972e-06 -3.43282e-05 4.05986e-06 0.000260648 0.00799575 0.0216109 0.0008
1081 1 -0.00052889 0.00291801 0.0233072 0.0008 3.43146e-06 -3.03485e-13 1.08414e-12 7.78551e-12 5.14531e-09 -2.24396e-09 -4.50367e-10 -1.63703e-15 3.28024e-15 -5.22043e-15 0 0 0 0 0 0 0 0
1082 1 0.00132988 -0.00303018 0.0214663 0.0008 3.43146e-06 -6.03336e-14 -9.68159e-13 -6.47417e-14 -4.71287e-10 9.5022e-10 -2.41396e-09 6.02442e-15 -9.30374e-16 -5.6987e-16 0 0 0 0 0 0 0 0
1083 1 0.00503691 0.00030939 0.0237175 0.0008 3.43146e-06 -7.98718e-13 6.3871e-14 -4.26068e-13 -1.86286e-10 -1.2014e-09 5.87369e-10 -2.214e-15 -2.58764e-15 -2.51061e-15 0 0 0 0 0 0 0 0
1084 1 -0.00567839 -0.00106693 0.0212548 0.0008 3.43146e-06 -2.70207e-13 -3.47371e-13 -2.32334e-13 -4.2103e-10 6.7385e-10 7.39794e-10 2.89976e-15 1.40621e-15 5.23179e-15 0 0 0 0 0 0 0 0
1085 1 0.0071495 -0.000852686 0.0214361 0.0008 3.43146e-06 -1.44551e-13 2.24319e-13 -4.72601e-13 4.88435e-10 -6.88678e-10 -3.11701e-10 4.89883e-16 1.14968e-15 -1.72083e-15 1 -0.000142622 1.41224e-05 1.57689e-05 0.0079437 -0.000947407 0.0214361 0.0008
1086 1 0.00346215 0.00471768 0.0206332 0.0008 3.43146e-06 4.69608e-13 1.32195e-12 -2.44832e-12 -2.38079e-09 -1.53964e-09 -2.29592e-09 -9.95372e-16 -1.9026e-15 -1.99664e-15 0 0 0 0 0 0 0 0
1087 1 -0.00201964 -0.00461448 0.0222551 0.0008 3.43146e-06 1.02649e-13 -1.40432e-12 -2.05742e-13 -1.55473e-10 -1.80207e-09 1.11426e-09 -9.48204e-16 -5.21514e-15 -4.95243e-15 0 0 0 0 0 0 0 0
1088 1 0.00444751 0.00373359 0.0229824 0.0008 3.43146e-06 -5.05426e-14 -1.08393e-12 1.37303e-12 5.14038e-09 2.66044e-10 -6.19743e-10 -2.09845e-15 8.12014e-16 -6.77162e-15 0 0 0 0 0 0 0 0
1089 1 -0.00076779 0.00239856 0.0218134 0.0008 3.43146e-06 -2.77115e-13 1.08427e-12 -1.43083e-12 -1.24178e-09 5.87906e-10 6.60186e-10 -4.30269e-16 5.32917e-16 1.72056e-14 0 0 0 0 0 0 0 0
1090 1 -0.00178945 0.00191271 0.0206828 0.0008 3.43146e-06 3.91903e-13 1.40105e-13 5.64662e-13 -5.34611e-10 1.45563e-10 1.18524e-10 -6.93817e-15 -1.54791e-14 5.7016e-15 0 0 0 0 0 0 0 0
1091 1 -0.000322239 0.00401923 0.0244493 0.0008 3.43146e-06 -8.87451e-13 -1.3583e-12 4.1092e-12 -6.22761e-09 6.46842e-10 -1.11863e-09 -1.07005e-15 -6.6392e-15 -2.64182e-16 0 0 0 0 0 0 0 0
1092 1 -0.00145562 -0.00627938 0.0209817 0.0008 3.43146e-06 -5.42954e-13 -5.86773e-13 -1.03779e-12 2.74196e-09 -5.70442e-10 2.29528e-09 -2.20608e-16 -3.38558e-15 -2.53565e-15 0 0 0 0 0 0 0 0
1093 1 0.00219251 0.00364642 0.0205056 0.0008 3.43146e-06 6.57849e-13 5.43106e-13 2.37938e-12 1.6682e-09 1.34584e-09 4.46543e-10 -7.65585e-15 4.14086e-15 2.31146e-15 0 0 0 0 0 0 0 0
1094 1 0.00125117 0.00571096 0.0211395 0.0008 3.43146e-06 -2.76033e-13 5.91082e-13 1.73553e-12 2.79815e-09 -8.46453e-09 -4.39487e-09 1.97229e-15 4.74825e-16 -6.70833e-15 0 0 0 0 0 0 0 0
1095 1 0.00465141 -0.00351229 0.0212366 0.0008 3.43146e-06 -7.21854e-13 -3.65553e-13 -1.78433e-12 -1.30191e-09 -1.84968e-09 1.5923e-09 3.47672e-15 -1.93754e-15 -2.27346e-15 0 0 0 0 0 0 0 0
1096 1 0.00415191 0.00268362 0.0187048 0.0008 3.43146e-06 1.84671e-12 -1.07377e-12 -3.37811e-12 -1.22197e-09 1.06463e-09 1.59178e-09 -3.15612e-15 6.56258e-16 7.9284e-15 0 0 0 0 0 0 0 0
1097 1 -0.00460921 0.00425921 0.0206405 0.0008 3.43146e-06 1.45697e-12 -9.86682e-13 -2.17388e-12 3.67989e-09 4.92817e-09 1.65728e-09 6.08281e-17 -2.42732e-15 3.91524e-15 0 0 0 0 0 0 0 0
1098 1 0.00599669 0.00178877 0.0216758 0.0008 3.43146e-06 2.1672e-12 -4.59817e-13 -1.15879e-12 -9.10511e-10 2.14671e-09 -9.51623e-10 8.10042e-16 3.9996e-15 -6.62307e-16 0 0 0 0 0 0 0 0
1099 1 -0.000285303 -0.00628797 0.0221319 0.0008 3.43146e-06 1.35489e-13 -9.46319e-13 -3.06035e-12 -2.79619e-09 -1.74968e-09 2.42763e-09 3.06143e-16 -1.77821e-15 -1.01347e-15 0 0 0 0 0 0 0 0
1100 1 0.00436564 0.000757401 0.0223365 0.0008 3.43146e-06 3.05597e-14 -2.87469e-13 -3.60547e-12 -1.17797e-09 -1.44803e-09 -5.39354e-10 4.76242e-17 -1.79666e-15 -2.07428e-15 0 0 0 0 0 0 0 0
1101 1 -0.00073495 0.000928095 0.0199918 0.0008 3.43146e-06 2.23004e-13 2.68493e-13 1.14622e-12 2.68012e-10 -6.58765e-10 -1.89961e-10 -7.32838e-16 -8.63155e-16 1.8647e-15 0 0 0 0 0 0 0 0
1102 1 0.00706855 0.00136999 0.0189226 0.0008 3.43146e-06 7.45622e-13 -5.34687e-13 9.42744e-13 -6.30278e-11 1.23133e-09 9.86744e-10 1.84283e-15 -3.21751e-16 6.34106e-17 1 -5.33408e-05 -1.03492e-05 1.22902e-05 0.00785385 0.00152219 0.0189226 0.0008
1103 1 -0.000934665 -0.00331474 0.0230069 0.0008 3.43146e-06 2.70773e-13 1.0833e-12 6.54957e-14 -4.03215e-10 -2.22272e-10 -4.47769e-10 -1.32805e-18 -4.53055e-16 -2.36386e-15 0 0 0 0 0 0 0 0
1104 1 -0.00533443 -0.000284639 0.0243371 0.0008 3.43146e-06 -2.16817e-12 -1.33175e-13 -5.48007e-12 -2.20022e-09 -8.11362e-09 -1.38771e-11 1.81563e-16 3.44767e-16 3.28417e-16 0 0 0 0 0 0 0 0
1105 1 -0.00345726 -0.000216452 0.0206008 0.0008 3.43146e-06 3.75606e-13 -2.44693e-14 5.61743e-13 2.01533e-09 -9.87968e-10 1.26069e-09 8.35013e-15 -3.19931e-15 1.56409e-14 0 0 0 0 0 0 0 0
1106 1 0.00486509 -0.00486502 0.0220639 0.0008 3.43146e-06 -2.03649e-12 9.84978e-13 1.19376e-12 -2.62508e-09 6.77986e-10 -2.94105e-09 -1.48919e-15 -2.14626e-15 -3.67052e-15 0 0 0 0 0 0 0 0
1107 1 -0.000155331 -0.00574076 0.0201635 0.0008 3.43146e-06 6.63587e-14 1.20823e-12 -4.05288e-13 -3.13166e-10 8.44616e-10 -3.37606e-10 -1.99015e-16 -1.48239e-15 -3.59687e-15 0 0 0 0 0 0 0 0
1108 1 0.00691649 0.00200222 0.0203843 0.0008 3.43146e-06 4.03893e-13 -1.03813e-12 -5.90668e-13 3.0418e-11 -7.73543e-10 1.27006e-09 1.66537e-15 -2.42731e-16 2.12921e-15 1 -0.000699726 -3.24151e-05 9.16293e-06 0.00768449 0.00222454 0.0203843 0.0008
1109 1 0.00177982 0.00697671 0.0219628 0.0008 3.43146e-06 -5.42133e-13 5.77189e-14 3.19635e-12 -4.21612e-09 -1.6852e-10 -6.39948e-10 9.85217e-16 1.39828e-15 -2.00734e-15 1 -2.04878e-05 -0.000124646 2.85724e-06 0.00197754 0.00775173 0.0219628 0.0008
1110 1 -0.00206368 0.00573615 0.018228 0.0008 3.43146e-06 -1.70382e-13 -1.39389e-12 3.5108e-12 -4.84206e-09 3.09082e-10 1.13029e-09 4.39452e-15 4.84823e-16 3.25877e-15 0 0 0 0 0 0 0 0
1111 1 -0.000144888 -0.000623199 0.0239805 0.0008 3.43146e-06 4.95807e-13 6.43586e-14 9.65239e-13 -9.53904e-10 7.54031e-10 2.26287e-10 -1.17716e-15 4.27997e-16 -5.65256e-16 0 0 0 0 0 0 0 0
1112 1 -0.00270349 -0.00243768 0.0211279 0.0008 3.43146e-06 1.31395e-13 -4.77707e-13 9.44643e-13 1.1021e-10 1.26437e-09 1.98467e-09 3.37826e-15 -6.35453e-15 -3.85343e-15 0 0 0 0 0 0 0 0
1113 1 0.00181054 0.00430054 0.0237655 0.0008 3.43146e-06 -5.41683e-13 6.18739e-13 -2.09831e-12 3.96475e-09 -7.60543e-10 -2.82792e-09 7.63639e-16 5.42496e-15 3.97432e-17 0 0 0 0 0 0 0 0
1114 1 -0.00618019 0.00369455 0.0231169 0.0008 3.43146e-06 5.90337e-13 -1.08254e-12 3.44158e-12 1.77493e-10 -5.12229e-09 -7.75925e-10 -7.089e-16 3.13046e-16 -1.62724e-15 1 0.000330452 -0.000164115 2.64516e-05 -0.00686658 0.00410488 0.0231169 0.0008
1115 1 0.00530814 0.000293338 0.0182845 0.0008 3.43146e-06 1.45683e-12 1.35493e-13 -2.46052e-12 -1.36805e-09 2.42401e-09 -3.10182e-10 -1.57299e-15 1.17706e-16 -3.08324e-16 0 0 0 0 0 0 0 0
1116 1 -0.0012123 -0.00709755 0.0196254 0.0008 3.43146e-06 1.98481e-13 1.61957e-12 -5.26769e-13 -3.74987e-10 1.52855e-09 2.01928e-11 -1.89202e-16 -1.97124e-15 -4.04445e-15 1 8.88333e-05 0.000415836 -3.24032e-05 -0.00134693 -0.0078858 0.0196254 0.0008
1117 1 0.00196131 -0.0027436 0.0182934 0.0008 3.43146e-06 7.51256e-13 7.22746e-13 2.39046e-12 -3.18093e-09 -1.82414e-09 4.41604e-10 1.40874e-15 -1.00216e-16 -3.56469e-15 0 0 0 0 0 0 0 0
1118 1 0.00716156 0.000744356 0.0213422 0.0008 3.43146e-06 2.17724e-13 -1.18853e-13 -6.12007e-13 -7.56657e-10 -9.76271e-10 2.93601e-11 2.05437e-15 1.3725e-15 1.96525e-15 1 -0.000110144 -1.02799e-05 6.80781e-06 0.00795713 0.000827046 0.0213422 0.0008
1119 1 0.0021934 -0.00685785 0.022877 0.0008 3.43146e-06 1.73034e-14 3.13581e-13 -4.62696e-13 -1.29099e-09 2.17323e-09 -1.36685e-10 -8.33469e-16 4.61848e-16 2.75793e-15 1 -1.52815e-05 4.09265e-05 -2.82952e-06 0.00243708 -0.00761975 0.022877 0.0008
1120 1 0.00186618 -0.00366848 0.0238521 0.0008 3.43146e-06 5.41816e-13 1.08416e-12 1.25703e-12 2.75738e-10 5.0316e-10 -9.33832e-10 -4.79942e-16 -3.23938e-16 -7.0295e-17 0 0 0 0 0 0 0 0
1121 1 -0.00443369 0.00567329 0.0213786 0.0008 3.43146e-06 -2.1384e-12 2.40774e-13 4.73552e-13 1.81441e-09 -3.29984e-09 -1.96884e-09 -2.56087e-15 2.10918e-16 3.36343e-15 1 0.000193335 -0.000212816 1.92308e-05 -0.00492614 0.00630343 0.0213786 0.0008
1122 1 0.00105278 0.00575954 0.0175893 0.0008 3.43146e-06 3.73349e-13 1.20847e-12 9.67571e-14 -5.82924e-09 2.34621e-09 -9.13132e-10 -1.52648e-15 -1.83298e-15 -3.13982e-15 0 0 0 0 0 0 0 0
1123 1 -0.00569203 -0.00440964 0.020195 0.0008 3.43146e-06 8.07701e-13 -2.05917e-12 1.20685e-12 3.75747e-09 1.03372e-09 -2.69987e-09 1.8338e-16 5.39498e-16 1.13433e-15 1 0.00023226 0.000231793 4.02848e-05 -0.00632423 -0.0048994 0.020195 0.0008
1124 1 0.00596903 0.00402665 0.0225839 0.0008 3.43146e-06 -3.52196e-13 -4.75215e-13 1.11556e-12 -8.28312e-10 1.24826e-09 3.29888e-10 3.12491e-16 -5.67304e-16 -8.55388e-16 1 -0.000199723 -0.000122275 -7.07964e-06 0.00663205 0.00447392 0.0225839 0.0008
1125 1 -0.00102953 -0.00493078 0.0239066 0.0008 3.43146e-06 5.41579e-13 1.15264e-12 1.01154e-12 -1.17507e-09 -5.90866e-10 -1.72181e-09 -8.12237e-16 -6.01336e-16 -2.79682e-15 0 0 0 0 0 0 0 0
1126 1 -0.000353956 -0.00487496 0.0188259 0.0008 3.43146e-06 -4.08212e-13 -9.55321e-13 -6.76073e-12 5.70181e-09 -2.49045e-09 1.42042e-09 -8.76327e-16 -6.40901e-16 -6.57672e-15 0 0 0 0 0 0 0 0
1127 1 0.00700865 -0.00165027 0.0241541 0.0008 3.43146e-06 -8.83516e-15 5.42009e-13 -1.78102e-12 1.30307e-09 -2.40327e-09 -8.20299e-10 1.99116e-15 -3.71212e-16 -1.39257e-16 1 -0.000358064 0.000100059 3.27521e-05 0.00778705 -0.00183355 0.0241541 0.0008
1128 1 0.00553875 -0.00230933 0.0219697 0.0008 3.43146e-06 -1.73929e-13 -6.46171e-13 -2.5875e-12 -1.20571e-09 -2.13638e-09 2.27529e-10 2.66279e-15 2.08689e-16 -5.42982e-16 0 0 0 0 0 0 0 0
1129 1 -0.00186395 0.00350597 0.0214493 0.0008 3.43146e-06 -5.41694e-13 -1.08399e-12 1.57614e-12 2.61839e-09 2.19665e-09 -2.97821e-09 5.43049e-17 -1.34056e-15 -1.07922e-14 0 0 0 0 0 0 0 0
1130 1 0.00372329 -0.000494286 0.0215726 0.0008 3.43146e-06 -1.08417e-12 -1.79645e-13 -3.27824e-12 1.60433e-10 1.65478e-09 1.54355e-09 4.24825e-17 -2.73282e-15 4.98244e-15 0 0 0 0 0 0 0 0
1131 1 -0.000697013 0.000774813 0.0215864 0.0008 3.43146e-06 2.17084e-13 2.7323e-13 3.47543e-13 -3.46194e-10 -1.16819e-10 -3.19753e-10 -9.45278e-16 9.39679e-16 -2.88529e-15 0 0 0 0 0 0 0 0
1132 1 -0.00502438 -0.00515714 0.0230949 0.0008 3.43146e-06 -8.67926e-13 2.16822e-12 -3.54008e-12 -1.53013e-09 4.58373e-09 2.37916e-09 -1.73169e-15 3.95906e-16 6.16501e-16 1 1.23055e-05 1.07851e-05 -2.82314e-06 -0.00558262 -0.00573013 0.0230949 0.0008
1133 1 -0.00688366 -0.00211305 0.0211516 0.0008 3.43146e-06 1.7142e-12 6.90987e-13 -2.66367e-13 2.94206e-09 1.25648e-09 1.79646e-10 9.18825e-16 -7.2697e-16 2.85068e-15 1 0.00112615 0.000372401 -4.80857e-05 -0.00764779 -0.00234761 0.0211516 0.0008
1134 1 0.00119389 -0.00562336 0.0186007 0.0008 3.43146e-06 5.42094e-13 1.35129e-12 2.42314e-12 3.8765e-09 -1.82475e-09 -1.05458e-09 4.74471e-16 6.83099e-16 -8.82774e-17 0 0 0 0 0 0 0 0
1135 1 0.00142877 -0.0016969 0.0205878 0.0008 3.43146e-06 5.41056e-13 -4.56232e-13 -6.45523e-13 4.15267e-10 1.86774e-09 -2.94765e-10 2.29289e-16 1.16806e-15 -5.62367e-15 0 0 0 0 0 0 0 0
1136 1 0.00595139 -0.00111739 0.0186784 0.0008 3.43146e-06 1.24287e-12 -2.83311e-13 -1.33528e-12 -7.54161e-10 -9.01735e-10 -7.74255e-10 -3.08256e-15 6.92484e-16 3.72853e-16 0 0 0 0 0 0 0 0
1137 1 0.00544912 -0.00404319 0.0234739 0.0008 3.43146e-06 5.86653e-13 -1.73977e-13 -5.83728e-13 -1.93666e-09 1.15302e-09 5.29002e-10 2.68352e-15 1.52807e-15 -2.26092e-15 0 0 0 0 0 0 0 0
1138 1 0.00416706 -0.00198809 0.0212117 0.0008 3.43146e-06 -1.09893e-12 -6.60658e-13 -3.58917e-12 -9.92351e-10 1.894e-09 -9.97609e-10 2.61615e-15 -1.40246e-15 -1.23494e-15 0 0 0 0 0 0 0 0
1139 1 -0.00512592 -0.00401599 0.0242788 0.0008 3.43146e-06 -1.33696e-12 -2.16823e-12 -2.93575e-13 8.64426e-10 -9.20599e-10 1.85655e-09 -3.11502e-15 6.04795e-16 -1.09652e-15 0 0 0 0 0 0 0 0
1140 1 -0.00513698 -0.00279871 0.0205722 0.0008 3.43146e-06 -1.92252e-12 -1.95495e-13 -4.18041e-12 -2.89889e-10 -1.19756e-09 -2.52661e-09 3.52049e-16 1.74572e-15 5.68285e-15 0 0 0 0 0 0 0 0
1141 1 0.0063413 -0.0011846 0.0227763 0.0008 3.43146e-06 9.96133e-13 5.40794e-13 -1.8558e-12 3.58917e-10 1.43662e-09 -9.83563e-10 1.5486e-15 5.42091e-16 -1.14883e-15 0 0 0 0 0 0 0 0
1142 1 0.00493964 0.00523882 0.022758 0.0008 3.43146e-06 -5.17065e-13 -1.03739e-12 3.21828e-12 -9.92836e-10 4.68331e-09 4.03094e-10 -4.43759e-16 -1.91782e-16 -1.85765e-15 1 -0.000271346 -0.000408402 -1.26076e-05 0.00548821 0.00582062 0.022758 0.0008
1143 1 -0.00226092 0.00232016 0.023745 0.0008 3.43146e-06 -1.08322e-12 -2.43405e-13 1.33929e-12 -3.8051e-10 1.85781e-09 3.31879e-09 -2.84875e-16 4.99837e-15 -1.39999e-15 0 0 0 0 0 0 0 0
1144 1 -0.00196322 0.00692735 0.0197729 0.0008 3.43146e-06 -1.08386e-12 3.15653e-13 5.18773e-13 -5.51125e-10 -5.46782e-10 -1.43902e-09 1.80565e-16 -6.42627e-16 -1.77794e-15 1 7.11567e-05 -0.000135318 1.41987e-05 -0.00218131 0.00769688 0.0197729 0.0008
1145 1 -0.00117857 0.00572667 0.0221172 0.0008 3.43146e-06 -3.40395e-13 1.27899e-12 -4.21824e-12 -3.82856e-09 -5.27991e-09 1.1372e-09 3.9871e-15 -2.04322e-16 2.31348e-15 0 0 0 0 0 0 0 0
1146 1 0.00217247 0.0068648 0.0237472 0.0008 3.43146e-06 -7.24909e-13 -1.27674e-12 9.24707e-13 -2.32128e-09 -3.77556e-09 -4.12593e-10 1.20301e-15 1.54764e-15 1.83267e-15 1 -0.000106796 -0.000443083 8.81336e-05 0.00241374 0.00762718 0.0237472 0.0008
1147 1 -0.00247903 -0.000939105 0.0216401 0.0008 3.43146e-06 8.38377e-13 -2.59549e-13 -5.92089e-13 -1.48682e-09 2.54132e-09 -1.68072e-09 -4.98869e-15 2.97841e-15 1.30602e-14 0 0 0 0 0 0 0 0
1148 1 0.00265098 -0.00168058 0.0216194 0.0008 3.43146e-06 9.05416e-13 -5.41783e-13 -2.53096e-12 2.30445e-10 2.24789e-10 6.29826e-10 -7.27689e-16 3.87843e-17 -2.41882e-15 0 0 0 0 0 0 0 0
1149 1 -0.00392374 0.000598398 0.0218959 0.0008 3.43146e-06 -2.16799e-12 -1.19321e-13 1.04144e-12 -1.26049e-09 -2.39419e-09 -7.75732e-10 6.21459e-16 2.5092e-15 6.6338e-15 0 0 0 0 0 0 0 0
1150 1 0.000946445 0.00601952 0.0191904 0.0008 3.43146e-06 -1.44562e-13 -1.60716e-13 5.73715e-12 -7.18875e-10 -2.81429e-09 1.69226e-09 2.14774e-15 2.81981e-15 -5.60892e-15 0 0 0 0 0 0 0 0
1151 1 0.00142141 0.00422926 0.0217804 0.0008 3.43146e-06 -5.42185e-13 -8.30418e-14 1.86093e-12 1.86432e-10 -3.87959e-09 -1.53226e-09 7.07857e-16 1.24577e-15 8.81955e-15 0 0 0 0 0 0 0 0
1152 1 -0.00603695 -0.00392496 0.0229673 0.0008 3.43146e-06 -1.45295e-12 -6.24507e-13 5.37459e-13 3.39956e-09 1.28688e-09 4.26272e-10 -1.08826e-15 -1.53696e-15 2.31982e-16 1 0.00104743 0.000669096 4.11081e-05 -0.00670707 -0.00436065 0.0229673 0.0008
1153 1 0.00250121 -0.000190997 0.0245914 0.0008 3.43146e-06 -1.08411e-12 4.816e-13 1.75776e-12 -9.12272e-10 4.05849e-09 -9.32775e-10 8.24383e-17 -9.36299e-16 4.32081e-15 0 0 0 0 0 0 0 0
1154 1 -0.00708824 0.00126493 0.0254956 0.0008 3.43146e-06 2.02996e-12 -5.42102e-13 -9.11715e-13 1.42881e-09 8.04503e-10 -2.37288e-10 -3.24797e-15 -7.01119e-16 -1.05348e-15 1 0.000221714 -4.61928e-05 2.57897e-05 -0.00787558 0.00140544 0.0254956 0.0008
1155 1 -0.00480362 -0.00536357 0.0192677 0.0008 3.43146e-06 -1.00008e-12 1.32839e-12 1.07353e-12 4.02157e-10 -1.50091e-09 1.99761e-09 7.20375e-16 -9.09231e-17 1.37827e-16 1 9.62419e-05 0.000137302 2.67315e-05 -0.00533722 -0.00595937 0.0192677 0.0008
1156 1 0.00427466 0.00234872 0.0222013 0.0008 3.43146e-06 -1.52213e-13 -1.08418e-12 -3.99012e-12 6.94706e-10 -4.31494e-11 1.01905e-09 -2.29098e-15 -6.1703e-16 9.40056e-16 0 0 0 0 0 0 0 0
1157 1 0.00305459 0.00407252 0.0192274 0.0008 3.43146e-06 -9.15394e-13 2.02643e-12 3.03388e-13 9.15864e-10 2.56803e-09 -1.57902e-09 -2.43523e-15 3.50196e-16 -1.11362e-15 0 0 0 0 0 0 0 0
1158 1 -0.000126582 0.00456962 0.0215626 0.0008 3.43146e-06 -5.08754e-13 9.00112e-14 -3.89692e-13 1.4818e-09 5.22637e-10 1.45237e-09 -1.25744e-16 1.0975e-14 1.31268e-14 0 0 0 0 0 0 0 0
1159 1 0.00418787 0.00585746 0.0214889 0.0008 3.43146e-06 -1.45711e-12 2.20242e-13 -2.36018e-12 -1.07073e-09 -6.53587e-09 -1.65646e-09 9.21434e-16 1.134e-15 9.4349e-17 1 -0.000558372 -0.000711244 0.000246913 0.00465283 0.00650778 0.0214889 0.0008
1160 1 -0.00518529 0.000746616 0.0231186 0.0008 3.43146e-06 -7.52626e-14 -1.79174e-13 3.34723e-13 -1.83306e-10 -8.74677e-10 -6.42483e-10 2.83631e-15 -1.34327e-15 -1.92912e-15 0 0 0 0 0 0 0 0
1161 1 -0.000882326 -0.000517284 0.0206613 0.0008 3.43146e-06 2.70958e-13 2.59504e-13 8.69699e-13 -4.88511e-11 2.71564e-10 6.00078e-10 2.34308e-16 -1.38478e-15 -4.87533e-15 0 0 0 0 0 0 0 0
1162 1 0.00193253 0.00545809 0.0226682 0.0008 3.43146e-06 -5.35344e-13 -2.00041e-13 1.4215e-12 -1.1655e-09 2.74438e-09 3.12942e-10 -2.8744e-16 -4.25793e-15 4.13787e-15 0 0 0 0 0 0 0 0
1163 1 0.00341349 -0.00633976 0.0239427 0.0008 3.43146e-06 -2.52657e-13 2.16327e-12 -6.23213e-13 -5.68284e-10 -5.89635e-10 -9.9978e-10 -6.26623e-16 1.75499e-16 7.88391e-16 1 -0.000189363 0.00031544 6.3022e-05 0.00379261 -0.00704387 0.0239427 0.0008
1164 1 -0.00448247 -0.00371118 0.0226583 0.0008 3.43146e-06 -1.14597e-12 -1.08428e-12 -1.95348e-12 8.40317e-10 2.29541e-09 -2.11428e-09 2.75101e-16 7.43095e-16 -3.67597e-15 0 0 0 0 0 0 0 0
1165 1 -0.00408578 -0.00151857 0.0212859 0.0008 3.43146e-06 -2.16819e-12 -5.41912e-13 -1.08029e-12 -7.39903e-10 -1.69404e-09 -3.12335e-09 -2.75948e-17 4.28005e-16 5.71079e-15 0 0 0 0 0 0 0 0
1166 1 0.000692322 -0.00523831 0.0214239 0.0008 3.43146e-06 9.21761e-14 -1.36887e-12 -3.25443e-12 1.30078e-09 7.67565e-10 -1.88708e-09 1.18722e-15 -6.08774e-16 -1.34101e-15 0 0 0 0 0 0 0 0
1167 1 -0.00125349 -0.00709021 0.0239252 0.0008 3.43146e-06 4.02249e-14 -1.22183e-13 2.24249e-13 -3.51283e-10 -2.82822e-09 -1.30056e-10 2.1883e-15 -2.01274e-15 -1.38374e-15 1 5.13175e-05 0.000137437 1.25222e-05 -0.00139274 -0.00787783 0.0239252 0.0008
1168 1 0.00364339 -0.0062108 0.0212667 0.0008 3.43146e-06 -4.9072e-14 4.22817e-13 4.96908e-13 -9.17219e-10 2.76545e-09 -2.30005e-10 2.29832e-15 -1.55885e-15 2.02172e-15 1 -0.000543473 0.000750234 3.52567e-05 0.00404789 -0.00690033 0.0212667 0.0008
1169 1 0.000766242 -0.00374663 0.0186471 0.0008 3.43146e-06 9.59389e-14 8.28346e-13 5.2146e-13 2.4472e-09 -1.96514e-09 -6.23931e-10 -3.21085e-16 3.072e-16 -3.17023e-15 0 0 0 0 0 0 0 0
1170 1 0.00665316 -0.00275307 0.0209112 0.0008 3.43146e-06 -8.45765e-13 -6.07192e-13 2.57058e-13 -1.40977e-09 9.38546e-10 1.07364e-09 7.29007e-16 2.67068e-15 5.6469e-16 1 -0.00027303 0.0001314 7.42543e-06 0.00739212 -0.00305885 0.0209112 0.0008
1171 1 0.00321216 0.000950009 0.0211136 0.0008 3.43146e-06 -4.92657e-13 2.71106e-13 -1.34726e-12 9.19578e-10 2.64674e-09 -3.52858e-09 3.99058e-15 1.9746e-16 9.8819e-15 0 0 0 0 0 0 0 0
1172 1 -0.00700266 0.00167719 0.0184291 0.0008 3.43146e-06 4.01227e-14 -4.86308e-13 -6.18209e-13 -5.09914e-09 1.95874e-09 -5.25963e-10 2.77501e-15 2.06082e-15 -9.6257e-16 1 0.0012356 -0.000238379 -3.07552e-05 -0.00777997 0.00186336 0.0184291 0.0008
1173 1 -0.0067246 -0.00132621 0.0197684 0.0008 3.43146e-06 -1.32967e-13 5.40272e-13 2.01659e-12 -1.85051e-09 -3.72783e-10 2.17678e-09 2.04626e-15 -1.82207e-16 -1.75267e-16 0 0 0 0 0 0 0 0
1174 1 0.00716398 0.000233605 0.0178006 0.0008 3.43146e-06 1.36024e-13 6.83857e-14 1.01388e-12 6.88473e-10 -1.85875e-09 -2.62327e-09 6.64673e-16 1.00972e-15 -1.7095e-15 0 0 0 0 0 0 0 0
1175 1 -0.00720004 -6.18351e-05 0.0246088 0.0008 3.43146e-06 1.18498e-12 -1.01543e-13 -6.46305e-13 -1.54285e-09 8.69912e-10 -8.12164e-11 -3.00609e-15 4.47874e-16 -5.68807e-17 1 0.000354167 3.64377e-06 4.58886e-05 -0.0079997 -6.87028e-05 0.0246088 0.0008
1176 1 0.000452526 0.00315079 0.0211037 0.0008 3.43146e-06 2.47094e-14 1.07767e-12 -1.18424e-12 2.31723e-10 -1.52313e-09 -4.78108e-10 -5.02107e-15 -6.56361e-16 1.05027e-14 0 0 0 0 0 0 0 0
1177 1 -0.00115252 0.00710749 0.0184056 0.0008 3.43146e-06 -1.2912e-13 -1.48541e-12 7.84876e-13 -9.40331e-10 -4.90096e-10 -3.91565e-10 -1.86753e-15 8.18764e-16 -6.90316e-16 1 0.000101083 -0.000389486 -8.11859e-05 -0.00128052 0.00789685 0.0184056 0.0008
1178 1 0.00486398 0.00384308 0.0214418 0.0008 3.43146e-06 5.30046e-13 5.29599e-13 2.72582e-12 -1.60708e-09 -1.0887e-09 -4.21904e-09 2.02394e-15 1.19282e-15 8.31115e-16 0 0 0 0 0 0 0 0
1179 1 -0.000757101 -0.000234101 0.0188675 0.0008 3.43146e-06 2.47045e-13 -1.11247e-13 1.77461e-12 6.18419e-10 4.84238e-10 -7.3693e-10 -1.53644e-15 -1.42596e-16 -1.02551e-14 0 0 0 0 0 0 0 0
1180 1 -0.00375718 -0.00292215 0.0238455 0.0008 3.43146e-06 -1.08422e-12 -1.08346e-12 -2.61498e-12 -3.76238e-10 -1.28494e-09 3.00278e-09 3.46819e-16 -1.32835e-15 -1.45467e-16 0 0 0 0 0 0 0 0
1181 1 -0.00119956 0.00423971 0.022706 0.0008 3.43146e-06 -5.42608e-13 2.16817e-12 4.02945e-12 -6.10345e-09 -4.5073e-09 2.36974e-09 9.59617e-16 8.23339e-16 -4.00878e-15 0 0 0 0 0 0 0 0
1182 1 0.00172775 0.00084171 0.0217584 0.0008 3.43146e-06 5.42038e-13 -2.48857e-13 -2.01598e-12 -7.66807e-11 5.37116e-09 2.08557e-09 -6.58337e-17 1.31374e-15 -3.87419e-15 0 0 0 0 0 0 0 0
1183 1 -0.000614892 -0.00147549 0.0178605 0.0008 3.43146e-06 2.70477e-13 -4.31549e-13 1.08344e-12 -8.80062e-10 1.27861e-09 1.87037e-12 -2.61233e-16 6.84299e-16 -6.62222e-15 0 0 0 0 0 0 0 0
1184 1 -0.00625863 -0.00355969 0.0214259 0.0008 3.43146e-06 8.0674e-13 -7.73346e-13 1.08336e-12 -3.46706e-09 -3.67419e-09 -1.51567e-09 -1.22196e-15 -6.74198e-16 2.57559e-15 1 8.70951e-05 4.06751e-05 1.97391e-05 -0.00695391 -0.00395514 0.0214259 0.0008
1185 1 -0.00679809 0.0023722 0.0210865 0.0008 3.43146e-06 -1.47421e-13 -1.08391e-12 -1.42655e-12 -4.48919e-10 2.0633e-09 -1.3423e-09 2.77982e-15 -1.21886e-16 1.28364e-15 1 5.144e-05 -3.28497e-05 1.90632e-06 -0.00755334 0.00263574 0.0210865 0.0008
1186 1 0.000318286 0.000222172 0.0227042 0.0008 3.43146e-06 1.36429e-13 -1.28379e-14 -2.32503e-12 -2.04985e-09 -7.18878e-10 2.32047e-09 -6.5695e-16 -2.97483e-16 -1.46849e-15 0 0 0 0 0 0 0 0
1187 1 0.00349589 -0.00461807 0.0212518 0.0008 3.43146e-06 4.07655e-13 -7.51721e-13 -4.75912e-13 -8.27772e-10 2.075e-09 -2.26903e-10 3.28973e-16 -6.00914e-15 -5.9793e-16 0 0 0 0 0 0 0 0
1188 1 -0.000738889 -0.00167351 0.0195651 0.0008 3.43146e-06 2.70109e-13 2.71663e-13 7.07598e-13 3.04648e-10 5.78413e-10 2.68121e-10 -2.10623e-16 -6.09141e-15 -5.55741e-15 0 0 0 0 0 0 0 0
1189 1 -0.00713918 0.00093498 0.0217005 0.0008 3.43146e-06 -8.58136e-13 -2.70915e-13 2.72516e-13 -1.44697e-09 -1.798e-10 -4.41787e-10 1.15288e-15 6.14479e-16 6.18286e-16 1 0.000108477 -4.69894e-05 7.66563e-07 -0.00793226 0.00103885 0.0217005 0.0008
1190 1 -0.0012942 -0.00285685 0.0204977 0.0008 3.43146e-06 5.42023e-13 5.65714e-13 4.88648e-15 -1.11478e-09 1.37515e-10 -5.26005e-13 2.56849e-18 -4.3142e-16 -2.87308e-15 0 0 0 0 0 0 0 0
1191 1 -0.00407184 -0.00593811 0.020569 0.0008 3.43146e-06 -7.41113e-13 4.18821e-13 1.80524e-12 2.42121e-09 -2.40132e-10 1.43923e-09 1.30749e-15 9.52637e-16 -1.73711e-15 1 1.66326e-05 3.42879e-05 1.00533e-06 -0.00452422 -0.00659783 0.020569 0.0008
1192 1 -0.00322937 0.0064354 0.0206202 0.0008 3.43146e-06 -2.52244e-13 3.61005e-13 -1.8388e-12 2.60053e-09 -1.98178e-11 -7.98231e-11 7.91253e-16 -3.05315e-15 -3.25981e-15 1 0.000101798 -0.000200956 5.82361e-05 -0.00358808 0.00715022 0.0206202 0.0008
1193 1 -0.000859372 0.00714866 0.0227772 0.0008 3.43146e-06 -2.7059e-13 -2.16759e-12 -5.03221e-12 5.23446e-09 8.95626e-09 -7.12282e-10 5.39926e-16 1.48008e-15 5.99912e-15 1 2.04061e-05 -9.94289e-05 -1.43362e-05 -0.000954841 0.00794281 0.0227772 0.0008
1194 1 -0.00249997 -0.00495885 0.0207678 0.0008 3.43146e-06 9.33782e-13 1.61636e-12 -3.08125e-12 -2.65843e-10 2.22757e-09 1.24487e-11 -3.54307e-15 -5.28447e-15 -4.68185e-15 0 0 0 0 0 0 0 0
1195 1 0.00404727 0.00128464 0.019473 0.0008 3.43146e-06 2.13876e-12 -5.40352e-13 -1.59637e-13 -2.48185e-09 -1.9296e-10 -1.56721e-09 -2.67226e-15 2.50267e-16 6.90279e-15 0 0 0 0 0 0 0 0
1196 1 0.00420865 -0.00118425 0.0243134 0.0008 3.43146e-06 4.29039e-13 4.08783e-13 -8.9855e-13 2.55589e-09 1.42049e-10 4.06206e-10 -7.83624e-16 -1.66431e-16 -1.35845e-15 0 0 0 0 0 0 0 0
1197 1 -0.00473688 0.00349179 0.0185505 0.0008 3.43146e-06 -2.0003e-12 -8.26953e-13 2.05233e-12 3.2207e-09 -2.37324e-10 -2.80647e-11 -2.58959e-15 3.20406e-17 -6.8927e-16 0 0 0 0 0 0 0 0
1198 1 -0.00552217 0.00462031 0.0219037 0.0008 3.43146e-06 -1.87749e-12 -2.16764e-12 2.76962e-12 1.62674e-09 -5.72946e-09 -3.63325e-09 4.48054e-15 -4.06226e-16 -3.09179e-15 1 5.16205e-05 -5.96137e-05 1.16842e-06 -0.00613565 0.0051336 0.0219037 0.0008
1199 1 0.00421028 0.00584166 0.0173415 0.0008 3.43146e-06 2.15821e-12 1.15697e-12 -7.75457e-14 -3.41637e-09 -4.90225e-09 1.34788e-09 -7.75191e-17 -1.01997e-15 5.34124e-16 1 -0.000817308 -0.00126645 0.000175042 0.00467758 0.00649001 0.0173415 0.0008
1200 1 0.00194983 -0.00439496 0.0209076 0.0008 3.43146e-06 -2.00526e-13 -1.47581e-12 -6.32875e-13 1.66699e-09 -2.29636e-09 1.35282e-09 4.97613e-15 -4.80624e-15 -8.16221e-16 0 0 0 0 0 0 0 0
1201 1 -0.000350494 0.00596976 0.0207664 0.0008 3.43146e-06 2.50982e-13 -5.49146e-13 -6.86591e-12 -4.92121e-09 5.90293e-09 3.88234e-09 9.04148e-16 9.02511e-15 6.38465e-15 0 0 0 0 0 0 0 0
1202 1 0.000584198 0.00176819 0.0223912 0.0008 3.43146e-06 -2.86911e-13 -1.30531e-13 -2.23254e-12 1.88908e-09 4.66958e-10 -1.81676e-09 2.6416e-17 -1.52084e-15 5.74731e-15 0 0 0 0 0 0 0 0
1203 1 -0.00557218 -0.00159805 0.0234551 0.0008 3.43146e-06 2.05485e-12 -5.42008e-13 2.06323e-12 -6.82444e-09 7.59088e-10 6.73242e-10 2.41509e-15 1.67171e-16 3.40693e-15 0 0 0 0 0 0 0 0
1204 1 0.0037214 -0.00616395 0.0196699 0.0008 3.43146e-06 -1.08375e-12 -1.59714e-12 -1.79856e-12 -1.77177e-09 -1.33581e-09 2.10661e-09 -6.3417e-16 2.59588e-16 3.21321e-16 1 -0.000116469 0.000183318 7.4848e-06 0.00413477 -0.00684863 0.0196699 0.0008
1205 1 0.00236214 -0.00680192 0.0205134 0.0008 3.43146e-06 -9.2818e-13 -1.37732e-12 -6.14023e-13 3.83488e-10 -3.4466e-09 1.63529e-09 9.46831e-16 -9.98793e-16 1.42708e-16 1 -0.000240685 0.000504825 2.29838e-05 0.00262446 -0.00755726 0.0205134 0.0008
1206 1 0.000204258 0.00477142 0.0185196 0.0008 3.43146e-06 1.56305e-13 -1.9915e-12 2.37829e-12 2.74975e-09 3.84307e-10 -4.78675e-10 9.59164e-17 5.55021e-15 -5.0422e-15 0 0 0 0 0 0 0 0
1207 1 -0.00153144 -0.00703525 0.0178799 0.0008 3.43146e-06 -5.42081e-13 1.10472e-12 1.73762e-12 1.87655e-09 -1.8934e-09 1.19969e-09 1.59814e-16 7.0401e-16 9.16167e-16 1 2.2687e-07 1.02693e-06 -5.92274e-08 -0.0017016 -0.00781694 0.0178799 0.0008
1208 1 0.00127248 -0.00110216 0.0221892 0.0008 3.43146e-06 4.94452e-13 -5.41474e-13 -7.03159e-13 2.46727e-10 1.94184e-09 -4.83738e-10 -1.97822e-15 -8.87408e-16 -3.79284e-15 0 0 0 0 0 0 0 0
1209 1 0.00640707 -0.00328479 0.0245068 0.0008 3.43146e-06 -7.53606e-13 -7.9231e-13 4.04515e-13 4.53065e-09 -1.7781e-09 1.34695e-09 1.10387e-15 -2.24548e-16 -9.86339e-16 1 -6.51309e-06 3.29721e-06 -1.69019e-06 0.00711894 -0.00364975 0.0245068 0.0008
1210 1 0.00253333 0.00142418 0.0248915 0.0008 3.43146e-06 3.76334e-13 -1.00027e-12 -7.15614e-12 -1.16853e-08 -1.62804e-10 3.91982e-10 -2.82583e-14 -1.68062e-14 -1.32832e-14 0 0 0 0 0 0 0 0
1211 1 0.00245357 0.00676918 0.0193985 0.0008 3.43146e-06 -1.08397e-12 -9.0205e-13 4.35037e-13 -8.25993e-11 7.61074e-10 -7.87624e-10 5.13878e-16 1.05899e-15 -1.14932e-15 1 -3.5021e-05 -8.77942e-05 7.39737e-06 0.00272614 0.00752118 0.0193985 0.0008
1212 1 -0.0038023 0.00301637 0.0197586 0.0008 3.43146e-06 1.08234e-12 1.08416e-12 -5.39525e-12 -2.31714e-09 8.54242e-09 2.39983e-09 -6.13133e-16 -3.37719e-16 -1.56212e-15 0 0 0 0 0 0 0 0
1213 1 0.00394014 0.00182212 0.023792 0.0008 3.43146e-06 -2.14985e-12 -5.42204e-13 -2.58298e-12 -6.54732e-10 2.35529e-09 -8.50781e-11 1.98492e-16 -1.38172e-15 3.04858e-15 0 0 0 0 0 0 0 0
1214 1 0.00603604 -0.00392525 0.0188721 0.0008 3.43146e-06 -1.51862e-12 1.32855e-12 8.99272e-13 1.28059e-09 5.22627e-10 -3.85878e-10 -1.99279e-16 9.8163e-16 3.90682e-16 1 -5.43547e-05 3.22957e-05 1.05402e-05 0.00670662 -0.00436133 0.0188721 0.0008
1215 1 0.00217129 -0.000285706 0.0207139 0.0008 3.43146e-06 -1.86631e-13 -1.35475e-13 -2.15209e-12 -1.57638e-09 -1.45279e-10 1.40849e-09 -4.07129e-15 2.15506e-17 -5.54243e-15 0 0 0 0 0 0 0 0
1216 1 -0.0014069 0.00706177 0.0212667 0.0008 3.43146e-06 3.22525e-13 -2.15867e-12 -2.97634e-12 3.07278e-09 3.48146e-09 -7.37547e-11 4.25692e-15 8.3127e-16 2.6932e-15 1 0.000212536 -0.000853095 7.39849e-05 -0.0015631 0.00784581 0.0212667 0.0008
1217 1 0.00229022 -0.00427956 0.018595 0.0008 3.43146e-06 3.90704e-13 -1.48679e-12 2.22119e-12 5.26323e-09 -4.29636e-09 -2.27186e-10 3.80766e-16 2.8423e-15 -2.34841e-15 0 0 0 0 0 0 0 0
1218 1 0.00484519 0.00105688 0.0208405 0.0008 3.43146e-06 7.93491e-13 -2.44069e-13 -9.5241e-13 1.72387e-09 -4.74829e-10 6.35798e-10 -8.99994e-17 2.78158e-15 4.83608e-15 0 0 0 0 0 0 0 0
1219 1 -0.00408201 0.00305841 0.0238428 0.0008 3.43146e-06 2.16846e-12 -1.08367e-12 -1.14891e-13 1.00392e-09 2.06376e-09 4.03615e-12 6.08254e-18 -2.75543e-16 5.15074e-15 0 0 0 0 0 0 0 0
1220 1 0.000534031 -0.000712199 0.0196834 0.0008 3.43146e-06 8.85112e-14 2.7095e-13 1.54596e-13 -3.6078e-10 2.61936e-10 -2.874e-11 7.63963e-16 4.21716e-17 -7.2203e-15 0 0 0 0 0 0 0 0
1221 1 -0.00547526 0.0014964 0.0217356 0.0008 3.43146e-06 1.33001e-12 -1.93725e-13 3.43455e-14 5.91091e-10 -2.24211e-09 2.67541e-09 -2.67701e-16 -2.56823e-15 -3.29834e-15 0 0 0 0 0 0 0 0
1222 1 -0.00299261 -0.00654862 0.0183356 0.0008 3.43146e-06 -1.08356e-12 -3.27699e-13 1.34808e-12 3.00304e-09 2.29421e-09 1.33553e-09 2.42333e-16 1.08129e-15 1.03732e-15 1 3.72172e-07 8.65529e-07 -9.36771e-08 -0.00332511 -0.00727624 0.0183356 0.0008
1223 1 0.000639429 -0.00717182 0.0230925 0.0008 3.43146e-06 1.26305e-13 7.3807e-13 1.7125e-13 2.5823e-10 -1.51704e-09 -2.30185e-10 -5.15932e-16 1.16633e-16 -1.88889e-15 1 2.28481e-05 0.00030511 3.39496e-06 0.000710449 -0.00796839 0.0230925 0.0008
1224 1 -0.00289017 0.00329023 0.0184511 0.0008 3.43146e-06 1.08361e-12 4.89497e-13 -5.64751e-13 4.20015e-09 1.08069e-08 9.03457e-09 1.88406e-16 -4.26774e-15 -4.79458e-15 0 0 0 0 0 0 0 0
1225 1 -0.00464022 0.00550584 0.0247125 0.0008 3.43146e-06 1.5479e-12 -2.16702e-12 -3.526e-12 1.70888e-10 6.43815e-09 -2.59792e-10 1.96849e-17 -5.06744e-16 3.36193e-15 1 0.000291904 -0.000484813 4.00849e-05 -0.00515551 0.00611725 0.0247125 0.0008
1226 1 -0.000234952 -0.00339272 0.0215704 0.0008 3.43146e-06 1.09089e-13 3.10713e-13 -5.75705e-13 4.42292e-10 6.81008e-10 -1.58866e-09 -1.70784e-15 1.40706e-15 -7.03237e-15 0 0 0 0 0 0 0 0
1227 1 -0.00664416 0.00276736 0.019544 0.0008 3.43146e-06 6.74326e-13 -1.08208e-12 -8.67281e-12 -1.61246e-09 -1.26008e-09 -2.2558e-09 2.24877e-15 3.54748e-16 -1.43648e-15 0 0 0 0 0 0 0 0
1228 1 0.000307366 0.0019844 0.0255548 0.0008 3.43146e-06 -1.19744e-13 -1.0839e-12 4.78736e-12 -7.57259e-09 -3.96286e-09 -9.44078e-10 -3.0514e-15 -1.51991e-16 4.47858e-15 0 0 0 0 0 0 0 0
1229 1 -0.00710788 -0.00114974 0.0234396 0.0008 3.43146e-06 7.16033e-13 -2.96025e-13 5.76892e-13 4.87819e-10 -6.95177e-10 -5.17818e-10 -1.27845e-15 -1.11949e-15 6.91036e-16 1 0.000284044 8.39361e-05 -3.33712e-05 -0.00789735 -0.00127744 0.0234396 0.0008
1230 1 0.00664809 0.00276598 0.0232972 0.0008 3.43146e-06 -1.3147e-12 1.08226e-12 1.25472e-12 -1.82549e-09 8.77442e-10 -1.90353e-09 -4.96478e-15 8.93857e-17 4.60686e-16 1 -0.000760848 -0.00036919 1.46374e-05 0.00738622 0.00307308 0.0232972 0.0008
1231 1 0.00327494 -0.00498032 0.0247745 0.0008 3.43146e-06 5.29267e-13 8.6561e-13 -2.15145e-12 4.1821e-11 -7.72916e-10 -7.48251e-10 -2.65297e-15 -1.92127e-15 1.32632e-15 0 0 0 0 0 0 0 0
1232 1 0.00440743 -0.00324027 0.0243846 0.0008 3.43146e-06 1.04356e-12 1.08296e-12 -5.85063e-13 -7.26028e-10 5.97454e-10 -1.33995e-10 2.56034e-15 -4.74638e-16 2.54825e-15 0 0 0 0 0 0 0 0
1233 1 -0.00371648 0.00316578 0.0263193 0.0008 3.43146e-06 3.14618e-13 -1.0832e-12 5.89106e-13 -1.59368e-09 7.57353e-10 -4.77705e-10 -2.51556e-15 -3.73603e-16 5.03065e-15 0 0 0 0 0 0 0 0
1234 1 -0.00226341 0.00549936 0.0233778 0.0008 3.43146e-06 -1.08385e-12 3.95924e-13 1.51014e-12 -2.95572e-10 -4.85159e-09 6.84026e-09 3.98904e-16 -4.04256e-15 5.85945e-15 0 0 0 0 0 0 0 0
1235 1 -0.000516324 -0.00261873 0.0274504 0.0008 3.43146e-06 -2.63948e-13 -6.00388e-13 -3.5965e-13 -2.865e-10 2.21873e-10 2.07093e-10 9.38756e-16 3.0956e-15 -3.37691e-15 0 0 0 0 0 0 0 0
1236 1 -0.00386868 0.00200184 0.0226611 0.0008 3.43146e-06 -9.5447e-13 -4.56233e-13 -4.9755e-13 -3.46219e-10 2.06015e-09 -1.2269e-09 2.98462e-15 2.80426e-15 8.16084e-15 0 0 0 0 0 0 0 0
1237 1 0.00340575 0.00486597 0.0224712 0.0008 3.43146e-06 -1.08387e-12 2.1676e-12 -2.15862e-12 -2.99391e-09 4.04262e-09 3.34294e-09 -6.84172e-17 -1.04497e-15 -8.03579e-16 0 0 0 0 0 0 0 0
1238 1 0.00470381 -0.00545132 0.0236186 0.0008 3.43146e-06 6.14805e-13 6.74421e-13 3.42151e-13 8.84611e-10 -4.82307e-10 -1.05922e-09 -8.03859e-16 1.87191e-15 3.82803e-16 1 -0.000125567 0.000124804 4.28763e-06 0.00522632 -0.00605686 0.0236186 0.0008
1239 1 -0.00351724 0.00304566 0.0214992 0.0008 3.43146e-06 -1.08424e-12 7.90787e-13 9.37326e-13 2.15531e-09 2.96585e-09 -1.43761e-09 -1.58233e-16 -4.48817e-16 7.08076e-16 0 0 0 0 0 0 0 0
1240 1 0.00480305 0.00297434 0.0274187 0.0008 3.43146e-06 -6.43767e-13 1.08354e-12 -1.04551e-13 -1.97162e-10 1.45976e-09 -1.37953e-09 -2.81538e-15 3.5966e-16 -3.77613e-15 0 0 0 0 0 0 0 0
1241 1 0.00117673 0.00607384 0.0261425 0.0008 3.43146e-06 5.09757e-13 7.49362e-13 2.63077e-12 -2.4165e-09 -2.22733e-09 1.12429e-09 -8.75083e-16 7.17219e-16 8.18345e-15 0 0 0 0 0 0 0 0
1242 1 -0.00131189 -0.00707974 0.0255238 0.0008 3.43146e-06 -9.44322e-14 -1.71427e-12 1.40487e-12 2.36024e-09 2.79557e-09 -2.75349e-10 -8.21359e-16 3.13521e-17 -4.04278e-16 1 4.85805e-05 0.000285255 -4.61695e-05 -0.0014576 -0.00786609 0.0255238 0.0008
1243 1 -0.00486601 0.0032115 0.0223434 0.0008 3.43146e-06 1.23548e-12 -3.43435e-13 4.55463e-12 4.70102e-09 1.77939e-09 -1.0666e-09 -1.57357e-15 2.36553e-16 -1.23965e-15 0 0 0 0 0 0 0 0
1244 1 -0.000321954 -0.00337283 0.026053 0.0008 3.43146e-06 1.43538e-13 -1.08347e-12 -1.18542e-12 3.76048e-10 -6.21983e-10 -5.91668e-10 2.03546e-15 -1.04922e-15 -1.53107e-15 0 0 0 0 0 0 0 0
1245 1 0.000658565 -0.00321396 0.0229067 0.0008 3.43146e-06 2.65809e-15 1.08296e-12 4.84129e-13 -1.55119e-09 -4.90428e-10 5.45757e-10 3.86648e-15 -4.49742e-16 -3.13933e-15 0 0 0 0 0 0 0 0
1246 1 -0.00087304 0.00166046 0.0270081 0.0008 3.43146e-06 -8.13091e-13 -5.42653e-13 9.54404e-14 1.71981e-09 -2.05172e-09 2.24649e-09 -3.52721e-16 6.69816e-17 -1.01536e-15 0 0 0 0 0 0 0 0
1247 1 0.0051888 0.00430386 0.0282207 0.0008 3.43146e-06 -5.25831e-13 8.65728e-13 -1.17859e-12 -5.81151e-10 -1.11567e-09 8.7363e-10 -6.84397e-15 -3.955e-16 -7.94343e-17 0 0 0 0 0 0 0 0
1248 1 -0.0032178 -0.0047628 0.0262643 0.0008 3.43146e-06 4.97902e-13 -1.82409e-12 -1.56632e-12 2.03157e-09 3.15766e-09 -1.45707e-09 -1.4476e-15 2.53577e-15 -1.16762e-15 0 0 0 0 0 0 0 0
1249 1 0.000624316 0.00256944 0.0270129 0.0008 3.43146e-06 -8.12717e-13 2.59114e-13 -2.73843e-13 1.18344e-08 1.86687e-09 -5.57351e-09 -5.59455e-17 4.5659e-16 8.63587e-15 0 0 0 0 0 0 0 0
1250 1 0.00245355 -0.00145015 0.0255763 0.0008 3.43146e-06 1.06004e-13 5.42235e-13 1.19084e-12 1.48612e-09 6.33247e-10 -7.40655e-10 1.73101e-15 -1.58916e-16 -5.34194e-15 0 0 0 0 0 0 0 0
1251 1 -0.00100782 0.00238482 0.0247371 0.0008 3.43146e-06 -4.34592e-13 -4.45707e-13 -4.30551e-13 1.2445e-09 4.46511e-10 -2.79164e-09 -5.27218e-15 -2.49245e-15 1.58775e-15 0 0 0 0 0 0 0 0
1252 1 0.00176048 -0.0021284 0.0233155 0.0008 3.43146e-06 5.4207e-13 1.08368e-12 -2.76354e-12 -2.03491e-09 2.12793e-09 -1.80229e-09 -4.29034e-16 -9.36994e-17 -5.82314e-15 0 0 0 0 0 0 0 0
1253 1 -0.00228485 -0.00371527 0.0254952 0.0008 3.43146e-06 -7.95265e-14 -7.68116e-13 -1.06851e-12 2.03059e-09 2.75323e-10 4.1469e-10 1.06116e-15 2.05126e-15 1.36452e-15 0 0 0 0 0 0 0 0
1254 1 -0.00243417 -0.00511787 0.0247401 0.0008 3.43146e-06 1.0001e-12 1.9769e-12 -5.92247e-12 4.9397e-09 -2.82768e-09 -1.18907e-10 -1.26933e-16 3.84342e-15 5.13232e-17 0 0 0 0 0 0 0 0
1255 1 0.00609165 -0.00383845 0.0220233 0.0008 3.43146e-06 -7.44805e-13 -3.01914e-13 4.08416e-13 1.43353e-09 -3.13833e-10 7.85751e-10 7.93642e-16 -1.4974e-15 3.83482e-17 1 -9.11041e-05 5.00557e-05 -7.11769e-06 0.00676838 -0.00426487 0.0220233 0.0008
1256 1 0.00105573 0.00574709 0.0239981 0.0008 3.43146e-06 1.19447e-13 1.35169e-12 1.3505e-12 -6.204e-10 2.38768e-09 -6.6082e-10 -2.63318e-15 2.45874e-15 7.26112e-15 0 0 0 0 0 0 0 0
1257 1 -0.00407364 9.83841e-05 0.025269 0.0008 3.43146e-06 -8.41789e-13 -4.26296e-13 -1.0434e-13 -2.02275e-10 -5.61257e-10 -1.1736e-09 3.03979e-15 1.8139e-15 2.33762e-15 0 0 0 0 0 0 0 0
1258 1 -0.00190094 0.00694459 0.0239742 0.0008 3.43146e-06 -4.87843e-13 -1.63971e-12 5.22678e-12 -6.48329e-09 -6.5854e-10 -8.81721e-10 2.55465e-15 8.00521e-16 -5.40732e-15 1 4.40219e-06 -2.94265e-05 3.43239e-06 -0.00211214 0.00771614 0.0239742 0.0008
1259 1 0.000774726 0.00715835 0.0272476 0.0008 3.43146e-06 -3.83045e-13 -2.15797e-12 -1.56014e-12 1.76852e-09 -6.31137e-10 -2.13851e-10 -4.3789e-15 -3.95612e-16 5.61761e-16 1 1.09463e-06 -0.000130244 5.41112e-06 0.000860788 0.00795356 0.0272476 0.0008
1260 1 -0.00189054 0.00409606 0.0241417 0.0008 3.43146e-06 -2.88267e-12 2.67879e-12 2.53713e-12 2.07485e-09 2.43867e-10 4.72721e-09 4.80184e-15 8.11284e-15 -6.48989e-15 0 0 0 0 0 0 0 0
1261 1 0.0063732 0.0033504 0.0247608 0.0008 3.43146e-06 4.68882e-13 6.53704e-13 -4.86142e-13 1.86246e-09 2.87018e-10 -3.95735e-10 -8.53493e-16 -1.35694e-16 7.68848e-16 1 -0.000164148 -9.70176e-05 4.99819e-05 0.00708114 0.00372256 0.0247608 0.0008
1262 1 -0.00326907 0.00641514 0.0274841 0.0008 3.43146e-06 2.03237e-13 2.16721e-12 2.04596e-12 -1.84935e-09 -2.17669e-09 1.41422e-09 2.91423e-16 -1.0811e-15 2.52259e-15 1 1.46471e-05 -2.43977e-05 1.69833e-06 -0.00363227 0.00712788 0.0274841 0.0008
1263 1 0.00481717 0.00316309 0.0244303 0.0008 3.43146e-06 -7.84274e-13 -1.08397e-12 -5.287e-12 -7.956e-10 -1.2075e-09 5.48779e-09 -7.35298e-15 2.33802e-16 -1.12342e-14 0 0 0 0 0 0 0 0
1264 1 0.00716525 0.000707799 0.026296 0.0008 3.43146e-06 -2.16694e-12 2.70999e-13 -8.83096e-13 1.10786e-09 -1.09716e-09 -7.71122e-10 -6.24284e-16 -4.02552e-16 -4.81636e-16 1 -9.2485e-05 -1.38418e-05 -1.00324e-05 0.00796125 0.00078643 0.026296 0.0008
1265 1 -0.00387513 -0.0041034 0.0275654 0.0008 3.43146e-06 1.08407e-12 -1.31005e-12 1.44288e-13 -7.17173e-10 -2.31445e-09 -8.34566e-10 9.70456e-16 1.23783e-15 2.85981e-16 0 0 0 0 0 0 0 0
1266 1 -0.00512316 -0.000241157 0.026993 0.0008 3.43146e-06 -1.37238e-12 -1.44107e-13 4.44764e-13 -1.62492e-09 1.11537e-09 6.94731e-12 9.30526e-16 2.1905e-15 -1.81029e-15 0 0 0 0 0 0 0 0
1267 1 -0.000701873 0.0053845 0.0237067 0.0008 3.43146e-06 -2.70884e-13 2.13945e-12 2.26322e-12 4.49962e-09 3.86944e-09 -3.5988e-09 -1.15664e-15 2.29055e-16 1.96924e-16 0 0 0 0 0 0 0 0
1268 1 -0.00590419 0.00412111 0.0246338 0.0008 3.43146e-06 2.37469e-14 -1.60977e-12 -2.42618e-12 -1.93906e-09 5.04579e-09 -1.59789e-09 1.87575e-15 8.60802e-16 -9.02458e-16 1 0.0001563 -0.000137839 1.4979e-05 -0.00656002 0.00457888 0.0246338 0.0008
1269 1 -0.000986136 -0.000650858 0.0222521 0.0008 3.43146e-06 -5.05013e-14 2.7189e-13 7.77468e-13 -1.81709e-10 -8.78787e-10 5.50569e-10 1.4865e-15 2.01971e-15 -4.42233e-15 0 0 0 0 0 0 0 0
1270 1 0.00719926 -0.000111446 0.0235958 0.0008 3.43146e-06 2.11484e-12 -4.09187e-14 -7.20843e-13 1.39666e-09 -9.4798e-10 5.59405e-11 1.08095e-15 2.11413e-15 -2.00762e-16 1 -8.77524e-05 1.8039e-06 -6.88006e-06 0.00799904 -0.000123827 0.0235958 0.0008
1271 1 -0.000722043 0.000116132 0.0266183 0.0008 3.43146e-06 -3.9707e-13 -3.63742e-13 -5.77018e-13 -4.33763e-10 -2.40599e-09 -2.78735e-09 -1.38852e-15 -6.91369e-15 2.21655e-15 0 0 0 0 0 0 0 0
1272 1 0.00558406 0.00454529 0.0240475 0.0008 3.43146e-06 1.02853e-12 1.13922e-12 3.17947e-13 -1.00366e-09 -6.80399e-11 -6.70792e-10 -7.32663e-16 1.51948e-15 1.32429e-15 1 -5.02512e-05 -3.91973e-05 1.32762e-05 0.00620443 0.00505026 0.0240475 0.0008
1273 1 0.00529283 0.00158572 0.0267933 0.0008 3.43146e-06 -1.84476e-12 2.75952e-14 -9.12081e-13 3.83583e-10 -4.38092e-10 -8.60429e-11 3.42565e-15 5.91633e-16 4.17639e-16 0 0 0 0 0 0 0 0
1274 1 -0.00507577 -0.00510655 0.0214966 0.0008 3.43146e-06 -2.16731e-12 -1.54277e-12 -7.40716e-13 -3.17589e-09 -2.73919e-09 9.26344e-10 4.83323e-16 7.3116e-16 7.66397e-16 1 5.0185e-06 4.12206e-06 1.20836e-06 -0.00563972 -0.00567393 0.0214966 0.0008
1275 1 -0.00234552 -0.00249388 0.024464 0.0008 3.43146e-06 3.31358e-13 1.08405e-12 -3.45165e-13 2.86289e-10 -5.87676e-10 -8.70102e-10 1.45631e-15 6.65071e-16 2.84607e-15 0 0 0 0 0 0 0 0
1276 1 0.00538967 -0.00477428 0.0248957 0.0008 3.43146e-06 2.16722e-12 -9.78621e-13 1.62226e-12 1.50777e-09 1.33375e-09 -8.30243e-10 -2.71965e-16 -9.65052e-16 -6.5123e-16 1 -9.0622e-05 0.00010141 -4.07148e-06 0.00598839 -0.00530464 0.0248957 0.0008
1277 1 0.00137254 0.00477546 0.025229 0.0008 3.43146e-06 -2.04587e-13 -1.50512e-12 1.72951e-12 2.15994e-09 8.93957e-11 -4.02464e-09 4.14218e-16 4.84689e-15 5.73054e-15 0 0 0 0 0 0 0 0
1278 1 -0.00517806 -0.00237703 0.0221147 0.0008 3.43146e-06 -4.14353e-13 -1.08417e-12 4.30734e-12 4.21992e-09 2.85621e-09 4.73627e-10 -5.68421e-16 -7.89235e-16 4.68923e-15 0 0 0 0 0 0 0 0
1279 1 -0.00196263 -0.000152554 0.0256441 0.0008 3.43146e-06 -3.16087e-13 6.67382e-14 2.93251e-15 -7.41434e-10 -3.98105e-10 9.6964e-10 3.44351e-15 1.12866e-16 -9.1214e-15 0 0 0 0 0 0 0 0
1280 1 0.00611524 0.00380106 0.0270174 0.0008 3.43146e-06 -1.02465e-13 6.01061e-13 1.02705e-13 -4.56809e-10 -2.19505e-10 -7.56106e-10 1.90533e-15 -6.38286e-16 -2.81237e-15 1 -0.000288931 -0.000170465 -4.66994e-05 0.00679443 0.00422323 0.0270174 0.0008
1281 1 0.00344 -0.00541412 0.0226384 0.0008 3.43146e-06 1.08416e-12 1.07714e-12 -9.32735e-13 -8.00931e-10 -1.16283e-09 4.52079e-10 -1.5933e-16 -1.4892e-15 9.74323e-16 0 0 0 0 0 0 0 0
1282 1 -0.000118089 -0.00611184 0.0244844 0.0008 3.43146e-06 5.01075e-14 5.26914e-14 1.42592e-12 6.04212e-10 1.19611e-09 1.63972e-11 2.52556e-15 2.94543e-15 -4.01343e-15 0 0 0 0 0 0 0 0
1283 1 -0.00438528 0.00397903 0.0251152 0.0008 3.43146e-06 1.70041e-12 -2.16462e-12 -2.7257e-12 -1.62452e-09 -3.69368e-09 -1.02034e-10 -3.92647e-15 -4.76749e-17 3.35876e-15 0 0 0 0 0 0 0 0
1284 1 0.00424892 0.00506145 0.0251242 0.0008 3.43146e-06 -9.84368e-13 1.46261e-12 -1.25823e-12 -1.05648e-10 -2.74936e-10 1.54247e-09 -8.66186e-16 1.80077e-15 -1.15916e-15 0 0 0 0 0 0 0 0
1285 1 -0.000869803 0.00459243 0.025839 0.0008 3.43146e-06 2.70417e-13 2.12199e-12 3.85421e-12 1.44273e-09 2.19258e-09 2.1388e-09 -2.15731e-16 -5.10497e-15 5.23714e-15 0 0 0 0 0 0 0 0
1286 1 -0.00274471 0.00553788 0.0218525 0.0008 3.43146e-06 -1.0813e-12 9.35743e-14 -7.55125e-12 1.76781e-09 1.11709e-09 -2.44186e-10 -9.32446e-18 -3.11732e-16 -4.85825e-16 0 0 0 0 0 0 0 0
1287 1 -0.00543783 0.00227733 0.023509 0.0008 3.43146e-06 1.30919e-12 4.16091e-14 -2.70091e-13 -2.81049e-10 -1.84313e-09 -1.58503e-09 1.7532e-15 7.94305e-16 -8.77784e-17 0 0 0 0 0 0 0 0
1288 1 0.00666221 -0.00273166 0.0230274 0.0008 3.43146e-06 -8.59807e-14 8.69206e-13 -2.01397e-13 -2.97271e-09 9.83591e-10 -9.35283e-10 2.65852e-15 2.47794e-16 -5.24243e-16 1 -0.000652428 0.000310944 4.21282e-05 0.00740196 -0.00303497 0.0230274 0.0008
1289 1 0.00519634 -0.00498385 0.0267013 0.0008 3.43146e-06 7.67683e-14 -2.00063e-12 -6.13488e-13 -1.061e-09 -2.57545e-10 1.72547e-09 2.63495e-17 8.97724e-16 -1.67457e-15 1 -1.88974e-05 1.82711e-05 -7.77335e-07 0.00577367 -0.00553757 0.0267013 0.0008
1290 1 -0.00476521 -0.00334137 0.026476 0.0008 3.43146e-06 1.766e-12 -1.08417e-12 -8.70855e-13 2.10802e-09 -4.4861e-10 3.20098e-09 1.18696e-15 2.14342e-16 -4.30834e-15 0 0 0 0 0 0 0 0
1291 1 0.00495164 -0.00218277 0.0267316 0.0008 3.43146e-06 5.3732e-13 1.07798e-12 -2.77102e-12 -2.40307e-11 -1.76072e-09 5.97839e-10 2.19844e-15 1.36764e-16 -1.74623e-15 0 0 0 0 0 0 0 0
1292 1 0.00239424 0.00478637 0.0275375 0.0008 3.43146e-06 -1.08347e-12 -1.94787e-12 1.83002e-12 1.56982e-09 3.44882e-09 5.60571e-09 -1.63927e-15 5.60997e-15 -4.44898e-15 0 0 0 0 0 0 0 0
1293 1 -0.00674569 -0.00251739 0.0226929 0.0008 3.43146e-06 4.49885e-13 -1.08386e-12 1.82543e-12 -1.49822e-09 -2.78629e-09 -1.69397e-09 -2.61925e-15 1.32337e-15 -1.22989e-16 1 7.29399e-05 1.61104e-05 2.11893e-05 -0.0074951 -0.00279706 0.0226929 0.0008
1294 1 0.000394183 0.00419451 0.0230289 0.0008 3.43146e-06 2.96194e-13 2.15774e-12 2.65668e-12 -8.4314e-10 1.85977e-08 -2.15667e-09 -7.79146e-15 1.10771e-17 1.4665e-15 0 0 0 0 0 0 0 0
1295 1 -0.00223013 -0.00580112 0.023307 0.0008 3.43146e-06 -5.80886e-13 -7.49863e-13 -2.14495e-12 7.07883e-10 -3.07875e-09 1.77577e-09 5.38983e-15 -3.00255e-16 2.59493e-15 0 0 0 0 0 0 0 0
1296 1 0.00613858 -0.00376341 0.0271277 0.0008 3.43146e-06 -9.21674e-13 -5.28747e-14 -2.24096e-13 6.00749e-10 -5.54994e-10 6.62155e-10 2.26766e-15 7.41902e-16 3.18001e-15 1 -0.000386397 0.000300156 -2.94057e-06 0.00682028 -0.00418135 0.0271277 0.0008
1297 1 0.00585154 9.81091e-05 0.0269759 0.0008 3.43146e-06 -1.47884e-12 2.17043e-14 -2.27324e-12 1.26036e-09 9.59084e-10 4.98983e-10 1.48391e-16 7.94375e-16 -9.79192e-16 0 0 0 0 0 0 0 0
1298 1 0.00531438 0.000455339 0.0255118 0.0008 3.43146e-06 -6.23764e-13 4.09192e-14 -4.81394e-13 -5.31812e-10 -1.2859e-09 -2.9942e-10 2.38939e-15 -2.06964e-15 -9.09783e-15 0 0 0 0 0 0 0 0
1299 1 -0.00689259 0.00208197 0.0268569 0.0008 3.43146e-06 2.16824e-12 4.86322e-13 5.24418e-13 -1.41563e-09 -2.1522e-10 1.4207e-09 5.53214e-16 -3.07631e-16 -1.55841e-15 1 0.00014195 -4.36924e-05 1.04374e-05 -0.00765826 0.00231324 0.0268569 0.0008
1300 1 -0.00274452 0.000879305 0.023035 0.0008 3.43146e-06 -5.89184e-13 -2.69532e-13 1.962e-13 -2.22877e-09 -5.99042e-10 3.62694e-10 8.93887e-16 5.66631e-16 8.70338e-15 0 0 0 0 0 0 0 0
1301 1 0.0042981 -0.00299713 0.0227091 0.0008 3.43146e-06 -1.88606e-13 1.07535e-12 -1.93269e-12 -6.55426e-10 2.59261e-09 -1.66634e-09 3.03084e-15 -1.04945e-16 1.84965e-16 0 0 0 0 0 0 0 0
1302 1 0.0018268 0.00240803 0.0214496 0.0008 3.43146e-06 1.10087e-13 -1.08089e-12 -1.35989e-13 2.54578e-09 1.27982e-10 -2.51582e-09 -5.20496e-15 -1.15658e-16 2.15735e-15 0 0 0 0 0 0 0 0
1303 1 -0.00667438 -0.00270122 0.0257187 0.0008 3.43146e-06 2.15338e-12 -1.33302e-13 -2.3016e-12 -2.56502e-09 1.93423e-09 -1.15013e-09 -4.30886e-16 3.10027e-16 -1.97548e-15 1 0.00027635 0.000128503 5.8761e-05 -0.0074157 -0.00300124 0.0257187 0.0008
1304 1 0.000111981 -0.00114744 0.027431 0.0008 3.43146e-06 -3.11191e-13 8.56132e-14 2.17223e-13 1.00171e-09 -8.47891e-10 7.52152e-10 4.14557e-16 7.29516e-15 6.95787e-15 0 0 0 0 0 0 0 0
1305 1 0.000719998 0.00716466 0.0231484 0.0008 3.43146e-06 2.71012e-13 -2.16816e-12 -7.16075e-14 3.53971e-10 2.44149e-09 6.97889e-10 1.75443e-16 1.98353e-15 2.23247e-15 1 0.000146772 -0.00139336 1.01869e-05 0.000799915 0.00795991 0.0231484 0.0008
1306 1 -0.00500091 -0.00262747 0.0250637 0.0008 3.43146e-06 -2.16809e-12 -1.08322e-12 3.83544e-13 -1.13892e-09 3.79724e-09 1.22849e-09 -1.31705e-15 -5.99402e-16 3.23801e-17 0 0 0 0 0 0 0 0
1307 1 0.00718773 -0.000424145 0.0251659 0.0008 3.43146e-06 -1.3076e-12 1.35673e-13 -1.23077e-12 -8.14325e-10 -1.42071e-09 -1.22539e-10 -6.55659e-17 -6.21172e-17 -1.49135e-15 1 -0.000238245 -1.86351e-05 1.07713e-05 0.00798611 -0.000471257 0.0251659 0.0008
1308 1 0.00708258 0.00129501 0.0228421 0.0008 3.43146e-06 -4.46316e-13 1.74091e-13 1.12399e-12 9.64661e-10 1.43732e-09 3.37153e-09 6.20396e-17 -1.64528e-16 3.03304e-15 0 0 0 0 0 0 0 0
1309 1 0.000814875 0.00289872 0.0243442 0.0008 3.43146e-06 -4.75412e-13 -1.08389e-12 1.58382e-12 4.75609e-09 4.72094e-09 2.10952e-09 -4.15761e-15 2.05933e-16 -1.08808e-16 0 0 0 0 0 0 0 0
1310 1 0.00296571 -0.0011109 0.0270534 0.0008 3.43146e-06 9.00568e-13 -5.34866e-13 5.16505e-13 3.88537e-10 8.49341e-10 1.43215e-09 1.96247e-15 -6.68796e-16 -6.12335e-15 0 0 0 0 0 0 0 0
1311 1 -0.000360364 0.00719104 0.0243282 0.0008 3.43146e-06 4.39352e-14 -2.34877e-13 3.82871e-12 -4.60103e-09 7.12223e-10 5.04491e-11 6.24119e-16 1.32684e-15 -1.28604e-16 1 6.8661e-06 -3.60678e-05 4.69315e-06 -0.000400401 0.00798997 0.0243282 0.0008
1312 1 0.00159866 -0.0044319 0.022468 0.0008 3.43146e-06 -2.28869e-13 -6.69375e-13 1.86756e-12 -2.89773e-09 2.92062e-09 -8.43536e-10 3.76061e-15 8.23446e-16 4.46344e-15 0 0 0 0 0 0 0 0
1313 1 -0.00274812 -0.000839868 0.0244316 0.0008 3.43146e-06 7.6908e-13 -1.71381e-13 5.99355e-13 3.56116e-10 1.61287e-10 7.30374e-10 4.94171e-15 -1.06367e-15 1.53553e-15 0 0 0 0 0 0 0 0
1314 1 -0.00197758 -0.00278746 0.026763 0.0008 3.43146e-06 -4.24107e-13 -1.07898e-12 -1.59346e-12 6.38432e-10 -5.05415e-10 9.21239e-10 -9.98106e-16 2.51756e-16 2.37192e-15 0 0 0 0 0 0 0 0
1315 1 -0.00159121 2.23789e-05 0.0237387 0.0008 3.43146e-06 5.64263e-13 1.64305e-13 1.40971e-13 8.47778e-10 2.23355e-09 3.95779e-11 8.008e-17 6.37655e-15 1.01409e-14 0 0 0 0 0 0 0 0
1316 1 0.00329834 0.00349566 0.0216524 0.0008 3.43146e-06 9.13406e-14 9.68572e-13 1.79997e-12 -1.41619e-09 2.00943e-09 1.81096e-09 -5.25167e-15 1.14442e-15 2.02912e-15 0 0 0 0 0 0 0 0
1317 1 0.00693676 0.00192913 0.0273037 0.0008 3.43146e-06 -1.51056e-12 5.41936e-13 8.19152e-14 -9.19751e-11 2.28792e-10 -1.2384e-09 -1.23214e-15 1.4798e-16 2.45638e-16 1 -3.25244e-06 -9.3004e-07 -1.89572e-07 0.0077075 0.00214348 0.0273037 0.0008
1318 1 -0.00189399 0.00592106 0.0267191 0.0008 3.43146e-06 6.59929e-14 -1.88963e-12 2.7438e-12 -6.29182e-10 -3.1502e-09 8.0138e-10 -4.05032e-15 -3.88937e-15 8.34425e-15 0 0 0 0 0 0 0 0
1319 1 -0.00122553 0.00137747 0.0229709 0.0008 3.43146e-06 -4.11939e-13 5.42041e-13 4.56644e-13 -1.55374e-10 -4.64372e-10 6.41574e-10 3.0443e-15 -4.46722e-16 3.7468e-15 0 0 0 0 0 0 0 0
1320 1 -0.00495573 -0.00521537 0.0263119 0.0008 3.43146e-06 -4.12979e-12 -2.1685e-12 -7.37944e-12 1.13363e-09 4.61625e-09 -4.15223e-09 -5.78293e-16 -3.06852e-16 1.147e-16 0 0 0 0 0 0 0 0
1321 1 0.00255455 -0.00660985 0.0252648 0.0008 3.43146e-06 1.08347e-12 -1.13415e-12 6.26096e-13 4.68577e-09 3.10611e-09 1.98469e-09 -1.05939e-16 -3.55856e-15 2.26142e-15 0 0 0 0 0 0 0 0
1322 1 -0.00389569 0.0060552 0.0228359 0.0008 3.43146e-06 1.03593e-12 6.69807e-13 -1.24957e-12 -2.78804e-09 7.61274e-09 1.48667e-09 -3.13875e-15 -2.27893e-16 -3.35233e-15 1 5.3339e-05 -7.58259e-05 -1.13912e-05 -0.00432847 0.00672788 0.0228359 0.0008
1323 1 0.00383019 -0.00226491 0.0255834 0.0008 3.43146e-06 7.64768e-13 -5.39282e-14 -1.3266e-12 3.58463e-09 4.9481e-11 3.75078e-10 -5.48928e-15 -2.19041e-16 3.75556e-15 0 0 0 0 0 0 0 0
1324 1 0.0064143 0.00327182 0.0212455 0.0008 3.43146e-06 1.04936e-12 -1.03075e-12 -1.10886e-12 1.10673e-09 -1.00181e-09 1.84127e-09 1.27141e-15 3.54804e-16 -3.43038e-16 1 -0.000767374 -0.000443849 -0.000142483 0.00712644 0.00363508 0.0212455 0.0008
1325 1 -0.00301015 -0.0065408 0.0216028 0.0008 3.43146e-06 1.76844e-13 -6.24443e-13 3.46189e-13 8.80768e-10 1.11401e-09 -4.43392e-10 2.75471e-15 -2.55765e-16 2.09756e-15 1 9.83715e-05 0.000186606 1.21694e-05 -0.00334451 -0.00726734 0.0216028 0.0008
1326 1 -0.00219171 0.000580181 0.0270479 0.0008 3.43146e-06 9.35429e-13 6.87809e-13 -7.55834e-13 -6.88802e-10 2.98491e-09 1.15124e-09 -7.97019e-15 -4.21785e-15 1.05674e-15 0 0 0 0 0 0 0 0
1327 1 -0.00175086 0.00554558 0.0249036 0.0008 3.43146e-06 -5.42248e-13 8.50178e-13 7.89819e-12 1.4212e-09 -5.81503e-11 1.75841e-10 2.67939e-16 -1.12795e-15 3.80057e-15 0 0 0 0 0 0 0 0
1328 1 0.00084912 0.00054952 0.0260081 0.0008 3.43146e-06 1.84521e-13 -2.70991e-13 6.08589e-12 5.51448e-09 4.2491e-09 1.40577e-09 -2.08009e-15 3.25983e-16 6.54371e-15 0 0 0 0 0 0 0 0
1329 1 0.0061648 -0.00121085 0.0261115 0.0008 3.43146e-06 2.37063e-13 5.41601e-13 -3.0877e-12 -4.0079e-10 -4.92449e-10 2.4146e-09 2.13718e-15 -1.75308e-15 -2.64694e-15 0 0 0 0 0 0 0 0
1330 1 0.00413044 0.00205537 0.0253631 0.0008 3.43146e-06 -1.18133e-12 2.25444e-13 -2.43585e-12 -5.59679e-10 -1.31235e-09 -2.79632e-10 8.51516e-15 -3.05386e-15 3.33814e-15 0 0 0 0 0 0 0 0
1331 1 -0.00278559 0.00080203 0.0246324 0.0008 3.43146e-06 -1.08419e-12 4.77003e-13 3.44579e-13 1.11123e-09 9.20635e-11 2.18384e-09 -1.80268e-16 5.74318e-16 3.80891e-16 0 0 0 0 0 0 0 0
1332 1 -0.00530774 -0.00182858 0.0270648 0.0008 3.43146e-06 -1.82873e-12 -5.41149e-13 4.37961e-12 -2.81671e-09 1.54781e-09 -6.03164e-10 6.89001e-16 2.0807e-16 2.51039e-16 0 0 0 0 0 0 0 0
1333 1 -0.00334424 -0.00131762 0.0229324 0.0008 3.43146e-06 6.93484e-13 -5.41698e-13 -7.89408e-13 1.8713e-09 -3.00805e-09 -1.34993e-09 -2.64729e-16 7.67802e-16 -4.35686e-15 0 0 0 0 0 0 0 0
1334 1 0.00388815 0.000578871 0.0247973 0.0008 3.43146e-06 -8.22189e-13 -2.71297e-13 -1.79163e-12 -3.64983e-10 8.33545e-11 1.75984e-10 7.68612e-15 6.7241e-16 -4.86387e-15 0 0 0 0 0 0 0 0
1335 1 0.000186213 -0.00238867 0.0243917 0.0008 3.43146e-06 -1.45182e-14 -4.37942e-13 -1.55416e-13 -3.31392e-10 -5.76947e-10 5.29446e-10 -1.36577e-15 3.58308e-15 5.11904e-15 0 0 0 0 0 0 0 0
1336 1 0.00540986 0.00176262 0.0231636 0.0008 3.43146e-06 -9.64622e-13 5.31986e-13 -1.72202e-13 -1.00307e-09 -5.4417e-09 2.28459e-09 -5.39038e-15 -7.58329e-16 -3.10271e-15 0 0 0 0 0 0 0 0
1337 1 0.00029987 4.73101e-06 0.0285247 0.0008 3.43146e-06 -4.55124e-13 8.57763e-14 5.47078e-13 -1.65502e-11 4.313e-09 2.61231e-09 -4.56366e-15 8.01821e-16 4.68599e-15 0 0 0 0 0 0 0 0
1338 1 -0.00263212 -0.00670194 0.0246382 0.0008 3.43146e-06 9.93422e-13 2.13677e-12 -4.81233e-12 -6.79244e-09 -8.15279e-10 -1.92193e-10 -8.92404e-16 -3.5823e-16 -9.6478e-17 1 8.8557e-05 0.000306104 2.01426e-05 -0.00292446 -0.00744631 0.0246382 0.0008
1339 1 0.00535448 0.00292303 0.0259178 0.0008 3.43146e-06 -6.34777e-13 2.65694e-13 -9.36319e-13 -1.7041e-10 -1.1093e-09 -7.85997e-10 4.38373e-15 -1.91736e-15 9.9748e-16 0 0 0 0 0 0 0 0
1340 1 -0.000356716 0.0046803 0.0278326 0.0008 3.43146e-06 1.8767e-13 -2.16824e-12 1.57336e-12 1.75239e-10 -2.47112e-10 -2.57052e-09 3.41888e-15 -1.88429e-15 -3.51768e-15 0 0 0 0 0 0 0 0
1341 1 -0.00128627 -0.00135287 0.0248311 0.0008 3.43146e-06 5.42086e-13 3.58391e-13 7.97375e-13 5.21415e-10 -9.03951e-10 -1.71017e-10 1.00642e-16 4.38542e-16 -1.36983e-15 0 0 0 0 0 0 0 0
1342 1 0.00220459 -0.00685456 0.0279574 0.0008 3.43146e-06 1.0837e-12 -3.7552e-13 1.18446e-12 -5.76711e-10 6.39096e-09 -1.15543e-09 4.94511e-16 -4.72627e-16 6.27931e-16 1 -0.000132439 0.000437623 9.75401e-06 0.00244942 -0.0076158 0.0279574 0.0008
1343 1 -0.00672527 0.00257175 0.0283704 0.0008 3.43146e-06 1.28669e-12 -1.73131e-13 -3.51551e-13 1.93769e-09 -2.73157e-10 4.14115e-10 4.04033e-15 -1.20476e-15 1.57047e-15 1 0.000199115 -8.34935e-05 -6.54509e-07 -0.00747229 0.00285742 0.0283704 0.0008
1344 1 -0.00711987 -0.00107159 0.0262018 0.0008 3.43146e-06 -2.16571e-12 5.40097e-13 6.32754e-14 -4.54116e-09 -7.45972e-10 1.12893e-09 -7.11909e-16 -3.67284e-16 -1.49911e-15 1 2.96198e-05 9.99861e-06 2.64136e-06 -0.0079109 -0.00119065 0.0262018 0.0008
1345 1 0.00238898 0.00302074 0.0246029 0.0008 3.43146e-06 -1.08435e-12 -1.96013e-12 -3.74966e-13 -1.2176e-10 -1.65263e-09 -2.42946e-09 -3.65575e-16 7.20714e-15 7.75297e-15 0 0 0 0 0 0 0 0
1346 1 0.00538142 -0.00226229 0.025193 0.0008 3.43146e-06 1.04149e-12 1.07872e-12 -2.30705e-12 -2.36531e-10 1.03939e-09 2.84267e-10 -3.73293e-16 -5.97637e-16 2.50133e-15 0 0 0 0 0 0 0 0
1347 1 0.000389897 -0.00422417 0.0241178 0.0008 3.43146e-06 1.35743e-13 5.13958e-13 1.35683e-12 1.04862e-09 -1.03906e-10 1.13457e-09 1.80326e-16 1.23041e-15 -1.37365e-15 0 0 0 0 0 0 0 0
1348 1 0.00102415 -0.00411488 0.0256093 0.0008 3.43146e-06 5.41999e-13 -9.28981e-13 -6.04686e-13 2.37541e-09 -1.79526e-09 1.52643e-11 -6.45835e-16 1.96616e-15 1.32836e-15 0 0 0 0 0 0 0 0
1349 1 0.00709204 0.00124262 0.0244411 0.0008 3.43146e-06 9.65217e-13 -5.41331e-13 2.0053e-13 -1.37904e-10 1.77499e-10 1.07265e-09 -1.69782e-16 -1.93485e-17 -1.17134e-15 1 -4.91854e-05 -7.28852e-06 -4.7343e-06 0.00787996 0.00138067 0.0244411 0.0008
1350 1 -0.000126834 -0.00577908 0.0265239 0.0008 3.43146e-06 9.88031e-14 -1.52261e-12 -2.11065e-12 -3.3306e-09 -1.23268e-09 -1.98824e-09 1.09116e-15 1.31161e-15 2.21448e-15 0 0 0 0 0 0 0 0
1351 1 -0.00169516 -0.00699808 0.0223905 0.0008 3.43146e-06 5.41915e-13 -1.33637e-12 -1.53e-12 -1.61542e-09 1.65786e-09 -1.14339e-09 -6.97835e-16 -2.34481e-15 6.72783e-16 1 0.000102315 0.000664504 0.000116511 -0.00188339 -0.00777514 0.0223905 0.0008
1352 1 -0.00604022 -0.00391922 0.0272512 0.0008 3.43146e-06 4.10399e-14 9.92203e-14 7.98126e-13 -1.76214e-09 -2.02762e-09 7.34772e-11 2.75466e-15 3.23704e-15 -8.13316e-16 1 0.000341521 0.00016841 -5.57402e-07 -0.00671106 -0.0043545 0.0272512 0.0008
1353 1 0.00165816 0.00157226 0.0235605 0.0008 3.43146e-06 -7.04543e-13 -4.9627e-12 -6.49141e-12 7.95182e-09 1.54089e-09 2.94572e-09 -9.38832e-15 -4.33065e-14 -1.34811e-15 0 0 0 0 0 0 0 0
1354 1 0.00295484 -0.00257778 0.0242814 0.0008 3.43146e-06 1.08404e-12 1.08346e-12 -2.31621e-13 -1.88596e-09 7.2321e-10 1.01205e-10 3.26586e-16 5.20238e-16 6.12001e-15 0 0 0 0 0 0 0 0
1355 1 0.00130327 -0.00554697 0.0249531 0.0008 3.43146e-06 5.41953e-13 1.50683e-14 5.79477e-13 -2.77189e-09 -7.24724e-10 -8.42419e-10 7.5373e-16 -1.39859e-15 -7.86066e-15 0 0 0 0 0 0 0 0
1356 1 -0.00182031 0.001438 0.0257383 0.0008 3.43146e-06 -5.42058e-13 2.77739e-13 -4.26263e-13 4.38874e-10 1.99268e-09 -6.73292e-10 -5.91888e-16 1.09845e-15 -6.21079e-15 0 0 0 0 0 0 0 0
1357 1 0.00118834 -0.00710149 0.0245933 0.0008 3.43146e-06 1.52305e-14 -5.97258e-13 1.51302e-12 1.60257e-09 8.73324e-10 1.51742e-10 -3.41324e-15 2.60706e-15 1.51142e-15 1 -7.6736e-05 0.000228384 2.53378e-06 0.00132033 -0.00789029 0.0245933 0.0008
1358 1 -0.00335093 0.00122099 0.0261505 0.0008 3.43146e-06 -1.08386e-12 -5.38849e-13 1.10509e-12 9.46886e-10 -4.66361e-11 1.27088e-09 3.579e-16 1.69854e-16 -1.04517e-15 0 0 0 0 0 0 0 0
1359 1 -0.00173147 0.00411412 0.0271 0.0008 3.43146e-06 -3.47836e-13 -8.80579e-14 -3.56153e-12 -4.08592e-09 -5.62294e-09 -9.0368e-10 5.64867e-15 -3.86464e-15 3.03842e-16 0 0 0 0 0 0 0 0
1360 1 -0.00421983 -0.0014595 0.0242987 0.0008 3.43146e-06 -1.98227e-12 -5.41518e-13 -1.37527e-12 1.92584e-09 -2.02942e-10 -2.82091e-09 3.01394e-15 1.85794e-15 1.97346e-15 0 0 0 0 0 0 0 0
1361 1 -0.00569842 0.00123225 0.0246922 0.0008 3.43146e-06 -2.16809e-12 4.34012e-13 -4.5497e-12 5.32389e-09 -7.30888e-10 -2.32634e-09 4.44151e-16 -2.05709e-15 2.24019e-15 0 0 0 0 0 0 0 0
1362 1 -0.0063623 -0.00140619 0.0248328 0.0008 3.43146e-06 2.07336e-12 2.93621e-13 -1.391e-12 3.70131e-09 -2.49312e-09 1.64399e-09 -6.50161e-16 2.45319e-15 -5.04623e-16 0 0 0 0 0 0 0 0
1363 1 -0.00224161 -0.00390418 0.023716 0.0008 3.43146e-06 1.08422e-12 1.06873e-12 -1.43179e-13 -5.39555e-10 6.39244e-11 1.40002e-09 9.52587e-16 5.56653e-16 3.88139e-15 0 0 0 0 0 0 0 0
1364 1 -0.00265685 0.00357642 0.0228369 0.0008 3.43146e-06 -1.08394e-12 7.62099e-13 -2.82317e-12 -2.14129e-09 -5.37012e-09 -3.11723e-09 9.79423e-16 -1.05497e-15 -6.75421e-15 0 0 0 0 0 0 0 0
1365 1 -0.00014171 -0.00182892 0.0229293 0.0008 3.43146e-06 1.89071e-14 1.84863e-13 3.17932e-13 1.45088e-09 3.04976e-10 -2.33881e-11 2.88236e-15 -1.38868e-15 -1.11932e-15 0 0 0 0 0 0 0 0
1366 1 -0.000968163 0.00303627 0.0261975 0.0008 3.43146e-06 2.70498e-13 -1.08342e-12 2.33385e-12 8.03801e-10 -1.67318e-09 -1.92078e-09 7.80821e-16 2.67242e-15 5.0367e-15 0 0 0 0 0 0 0 0
1367 1 0.0006319 -0.00717226 0.0276682 0.0008 3.43146e-06 -2.72103e-13 2.16825e-12 -8.30339e-13 -8.06035e-10 -1.42035e-09 4.99289e-10 2.08746e-16 -3.34492e-16 1.48909e-15 1 -4.03806e-06 2.0777e-05 -3.23445e-06 0.000702107 -0.00796913 0.0276682 0.0008
1368 1 -0.00680805 -0.00234413 0.0272719 0.0008 3.43146e-06 1.06565e-12 6.80033e-13 2.91463e-12 3.09344e-09 -2.85442e-09 3.89478e-10 1.24716e-15 -1.90807e-15 2.32332e-16 1 0.000351697 0.000134349 2.54142e-06 -0.00756417 -0.00260448 0.0272719 0.0008
1369 1 0.00423458 -0.00582342 0.0257374 0.0008 3.43146e-06 1.851e-12 -2.03051e-12 3.05731e-13 6.63965e-10 -2.29392e-10 -3.61735e-10 1.43687e-16 4.94838e-16 -1.87836e-17 1 -0.000150067 0.000262092 6.31183e-06 0.00470491 -0.00647023 0.0257374 0.0008
1370 1 -0.00682086 0.00230699 0.0243119 0.0008 3.43146e-06 6.33443e-13 5.58981e-13 -7.11065e-13 2.90441e-11 9.89801e-10 8.93603e-10 -1.99669e-15 -2.27937e-16 -1.15092e-15 1 0.000556119 -0.000276999 8.33912e-05 -0.00757827 0.00256317 0.0243119 0.0008
1371 1 0.00652292 0.00304858 0.028369 0.0008 3.43146e-06 -1.29865e-13 1.1055e-14 1.96041e-13 8.41797e-10 5.74292e-10 -9.08311e-11 -3.75456e-15 6.41461e-17 -1.77794e-15 1 -0.000118996 -7.37227e-05 -1.71189e-05 0.00724752 0.00338724 0.028369 0.0008
1372 1 -0.00320438 0.00235938 0.0250362 0.0008 3.43146e-06 -1.0712e-12 -1.08341e-12 2.95996e-12 2.06519e-10 -6.89944e-10 -9.38359e-10 -2.38931e-15 -3.22026e-16 -5.60275e-15 0 0 0 0 0 0 0 0
1373 1 0.00369819 0.00359031 0.0254912 0.0008 3.43146e-06 6.55831e-13 1.00631e-13 -7.82791e-13 2.44073e-09 2.63205e-09 -1.72053e-09 1.9096e-16 1.52228e-15 5.43787e-16 0 0 0 0 0 0 0 0
1374 1 0.00259664 0.00554484 0.0245443 0.0008 3.43146e-06 5.04738e-14 -8.86122e-13 3.03072e-13 2.70635e-09 4.53987e-09 1.33713e-09 -2.94109e-15 1.48959e-15 4.33856e-15 0 0 0 0 0 0 0 0
1375 1 -0.00370392 -0.00454931 0.0237768 0.0008 3.43146e-06 1.08406e-12 -1.24617e-12 1.45661e-12 -4.95936e-09 -5.09192e-10 1.46648e-09 4.61984e-16 1.15472e-15 3.83004e-15 0 0 0 0 0 0 0 0
1376 1 -0.00457336 0.00556127 0.0271246 0.0008 3.43146e-06 1.37332e-12 -6.35681e-14 4.77182e-13 2.06363e-10 -1.15788e-09 1.14378e-09 2.92867e-15 -1.15393e-15 2.13507e-15 1 0.000155035 -0.00017369 -5.59531e-06 -0.00508135 0.00617899 0.0271246 0.0008
1377 1 0.00158562 -0.00270639 0.025099 0.0008 3.43146e-06 5.41578e-13 1.04757e-12 8.93513e-13 -5.12849e-10 -2.75293e-10 1.33188e-09 -8.32975e-16 1.03977e-14 1.09491e-14 0 0 0 0 0 0 0 0
1378 1 0.00285772 0.00123442 0.0274554 0.0008 3.43146e-06 -2.54682e-13 -5.42186e-13 -5.35101e-12 -2.29251e-09 1.02187e-09 3.58003e-09 4.66032e-15 -4.30865e-16 -8.95906e-15 0 0 0 0 0 0 0 0
1379 1 0.0056425 0.0044727 0.0256444 0.0008 3.43146e-06 7.03749e-13 1.26026e-12 -4.62525e-13 7.61247e-10 -2.74991e-10 -6.00417e-10 1.49035e-15 6.78772e-16 -4.5335e-16 1 -0.000161372 -9.80182e-05 1.38013e-06 0.00626927 0.00496953 0.0256444 0.0008
1380 1 0.00575452 9.31988e-05 0.0217373 0.0008 3.43146e-06 -7.6159e-13 -1.44267e-13 -2.62069e-12 1.52854e-09 -1.54969e-09 -1.36122e-10 1.41086e-15 4.06095e-15 4.09342e-15 0 0 0 0 0 0 0 0
1381 1 -0.000844588 -0.00715052 0.0270523 0.0008 3.43146e-06 -2.70706e-13 -1.13748e-13 -3.44497e-12 -4.54838e-09 -1.3656e-09 2.0527e-10 -7.84176e-17 -5.64997e-16 1.07286e-15 1 2.44424e-05 0.000227396 2.18039e-05 -0.000938401 -0.00794477 0.0270523 0.0008
1382 1 0.00389466 -0.00202085 0.0279849 0.0008 3.43146e-06 -8.51282e-13 -1.08397e-12 5.51181e-13 5.0615e-10 -2.62443e-09 -2.59638e-09 -5.70596e-17 -4.39526e-17 -7.28327e-15 0 0 0 0 0 0 0 0
1383 1 0.00695516 -0.00186226 0.0273405 0.0008 3.43146e-06 -3.64356e-13 5.42055e-13 -1.38442e-12 8.17093e-10 -2.10018e-09 -5.80861e-10 1.92823e-15 -4.45625e-16 -1.27543e-15 1 -0.000130884 2.6694e-05 -1.15601e-05 0.00772779 -0.00206913 0.0273405 0.0008
1384 1 0.00501415 -0.0031585 0.0280912 0.0008 3.43146e-06 -2.16753e-12 -1.08364e-12 1.03059e-12 8.10484e-12 1.13664e-09 1.51156e-09 -1.475e-16 1.19511e-16 2.57421e-16 0 0 0 0 0 0 0 0
1385 1 0.00219875 -0.00533501 0.0236445 0.0008 3.43146e-06 1.08409e-12 -9.90021e-14 -7.44073e-13 3.0256e-09 1.26263e-09 -2.81792e-10 -6.17911e-16 -8.07611e-15 -3.05149e-16 0 0 0 0 0 0 0 0
1386 1 -0.00381201 -0.00102394 0.0281082 0.0008 3.43146e-06 1.08364e-12 6.50414e-13 5.72796e-13 -1.03303e-09 2.48572e-09 4.0296e-10 5.27267e-16 -2.06642e-15 3.69359e-15 0 0 0 0 0 0 0 0
1387 1 -0.00714919 0.000854144 0.0232982 0.0008 3.43146e-06 -7.05615e-14 -1.02887e-13 -1.01102e-12 1.33027e-09 1.16937e-09 -9.97374e-11 -1.69e-15 -5.96559e-16 2.07794e-15 1 1.12848e-05 -1.45043e-06 1.13631e-06 -0.00794351 0.000949045 0.0232982 0.0008
1388 1 0.00317118 0.00646454 0.0225639 0.0008 3.43146e-06 -1.08364e-12 -6.35711e-13 -1.71292e-12 5.08563e-09 5.59993e-09 -8.69996e-10 8.74888e-16 1.83921e-15 7.33601e-16 1 -0.000389607 -0.000562957 0.000177766 0.00352331 0.00718236 0.0225639 0.0008
1389 1 -0.00138643 0.000991673 0.0283678 0.0008 3.43146e-06 -8.51478e-13 1.16119e-13 -1.49913e-12 -2.36235e-09 2.47105e-11 1.08695e-10 -1.35356e-15 -5.47064e-16 4.72588e-15 0 0 0 0 0 0 0 0
1390 1 0.00378907 0.00413585 0.0269923 0.0008 3.43146e-06 1.01965e-12 -1.62468e-13 -1.65607e-12 -2.48568e-09 -2.4282e-09 6.41554e-10 -1.77593e-15 1.49913e-15 -5.16778e-15 0 0 0 0 0 0 0 0
1391 1 0.00123248 -0.00708731 0.0216093 0.0008 3.43146e-06 -5.42039e-13 -1.72318e-13 -1.64377e-12 3.68179e-11 3.30726e-09 -3.8118e-09 -6.80463e-16 -1.47081e-15 -2.17845e-15 0 0 0 0 0 0 0 0
1392 1 0.00101709 0.000381954 0.0244261 0.0008 3.43146e-06 3.89711e-13 8.34398e-13 6.36955e-13 -3.38292e-09 -3.86175e-09 -7.34958e-10 -1.12273e-14 6.51373e-15 1.07844e-14 0 0 0 0 0 0 0 0
1393 1 0.00293309 0.00147336 0.0225991 0.0008 3.43146e-06 -4.73254e-13 -1.16214e-13 -2.94174e-12 -7.49625e-11 -4.93744e-09 -1.43314e-09 -2.93999e-15 3.45285e-16 1.04305e-14 0 0 0 0 0 0 0 0
1394 1 -0.00341882 -0.00633698 0.026465 0.0008 3.43146e-06 -8.75918e-13 -1.64985e-12 -5.8606e-13 -3.50578e-09 -4.95315e-09 -2.3997e-11 -2.05283e-15 8.735e-16 -3.52468e-15 1 0.000260068 0.000458276 -2.95032e-05 -0.00379848 -0.0070407 0.026465 0.0008
1395 1 -0.00135451 -0.00218947 0.0219504 0.0008 3.43146e-06 4.89718e-13 1.05105e-12 3.94378e-13 6.69001e-10 -1.15829e-10 5.73048e-10 -3.622e-16 -3.27139e-15 5.10219e-16 0 0 0 0 0 0 0 0
1396 1 -0.00105097 -0.00153413 0.0264029 0.0008 3.43146e-06 -5.41323e-13 -7.5941e-14 -9.67404e-13 1.3973e-10 -6.67024e-11 -1.12418e-10 -1.01878e-15 3.63095e-15 -1.03482e-16 0 0 0 0 0 0 0 0
1397 1 0.00573227 -0.000808916 0.0246248 0.0008 3.43146e-06 -4.45033e-13 2.60432e-13 -1.32468e-12 1.42167e-09 1.14823e-09 4.89234e-10 -4.53741e-16 -5.40587e-16 3.46218e-16 0 0 0 0 0 0 0 0
1398 1 0.00479772 -0.00536877 0.0205468 0.0008 3.43146e-06 -2.15871e-12 8.00214e-13 8.24542e-13 2.41011e-09 -1.10068e-09 1.28688e-09 2.72924e-16 -3.36207e-16 -1.76719e-15 1 -6.34545e-05 6.13256e-05 4.38666e-06 0.00533071 -0.0059652 0.0205468 0.0008
1399 1 -0.00472785 -0.000657727 0.0224742 0.0008 3.43146e-06 -3.79378e-13 -2.71146e-13 -9.81339e-13 2.86274e-09 1.00323e-09 3.15358e-09 -3.04296e-15 -2.60047e-16 1.81175e-15 0 0 0 0 0 0 0 0
1400 1 -0.000298138 0.00581148 0.0267033 0.0008 3.43146e-06 -7.9463e-14 -7.73989e-13 3.20032e-12 2.5285e-09 2.55682e-09 5.70953e-10 -9.5045e-16 -7.83768e-15 5.86852e-15 0 0 0 0 0 0 0 0
1401 1 -0.000984103 -0.00345958 0.0245993 0.0008 3.43146e-06 2.93458e-13 5.83754e-13 -9.41511e-13 1.13763e-09 3.04063e-10 -1.20724e-09 3.75047e-15 -2.43546e-15 1.57315e-15 0 0 0 0 0 0 0 0
1402 1 0.00204352 0.00349529 0.0260911 0.0008 3.43146e-06 5.77394e-13 1.01098e-12 -5.20614e-12 -5.05073e-09 2.15002e-09 6.68544e-10 3.26368e-15 -1.0714e-15 1.09034e-15 0 0 0 0 0 0 0 0
1403 1 0.00529834 -0.00212436 0.0236016 0.0008 3.43146e-06 1.35549e-12 1.084e-12 -2.13492e-12 2.62566e-10 -1.54588e-09 6.54774e-10 2.31575e-16 -2.03594e-16 -5.35063e-16 0 0 0 0 0 0 0 0
1404 1 -0.00630175 -0.0029133 0.0241777 0.0008 3.43146e-06 -1.31989e-12 -1.08409e-12 4.94466e-12 3.6971e-10 5.91877e-11 -4.50934e-10 -9.34593e-16 -7.17339e-16 4.16071e-16 0 0 0 0 0 0 0 0
1405 1 7.04417e-05 0.00155509 0.0238917 0.0008 3.43146e-06 -6.32272e-15 5.42596e-13 3.7536e-13 4.75579e-09 1.55363e-09 2.35181e-09 -2.27155e-16 -1.58989e-15 3.81336e-15 0 0 0 0 0 0 0 0
1406 1 0.000358948 0.00572293 0.0225583 0.0008 3.43146e-06 -1.35318e-13 1.27706e-12 1.78387e-12 -8.57768e-10 -1.98876e-09 -2.29417e-09 -4.63437e-16 -6.15256e-15 3.00792e-15 0 0 0 0 0 0 0 0
1407 1 -0.00460263 0.00398102 0.0273723 0.0008 3.43146e-06 2.16793e-12 -1.85024e-12 -5.10902e-13 1.30472e-09 1.9586e-10 2.07514e-10 4.09741e-16 -1.30248e-15 7.61699e-16 0 0 0 0 0 0 0 0
1408 1 -8.50162e-05 0.00581833 0.0251176 0.0008 3.43146e-06 -3.11519e-14 3.19838e-13 1.18865e-12 -1.88708e-09 -2.37656e-09 4.94394e-09 -2.21451e-15 2.52968e-15 2.16906e-15 0 0 0 0 0 0 0 0
1409 1 0.00563322 0.00182395 0.024747 0.0008 3.43146e-06 2.16722e-12 -4.92021e-13 -1.90344e-12 -1.73853e-09 -2.06411e-09 -1.58338e-09 1.14651e-16 -6.53931e-15 -1.14331e-14 0 0 0 0 0 0 0 0
1410 1 0.000894426 -0.00343649 0.0270954 0.0008 3.43146e-06 2.70761e-13 -2.82963e-14 -2.5498e-12 1.33627e-09 -1.73304e-09 1.23559e-09 -1.18186e-16 4.04553e-15 -2.11907e-15 0 0 0 0 0 0 0 0
1411 1 -0.000125777 0.00719898 0.0259257 0.0008 3.43146e-06 -1.48166e-13 2.05683e-12 1.821e-12 -2.21124e-09 -1.65014e-09 -2.46026e-10 -3.64596e-17 1.74445e-15 2.29629e-15 1 -3.30286e-06 -4.50684e-05 -6.38676e-06 -0.000139751 0.00799878 0.0259257 0.0008
1412 1 0.00252467 0.00674342 0.0256011 0.0008 3.43146e-06 1.08302e-12 9.51502e-13 2.10102e-12 -2.7965e-09 1.51145e-10 8.29566e-10 -1.70008e-16 5.00771e-15 4.67699e-15 1 -0.000283421 -0.000774852 0.000246895 0.00280498 0.00749214 0.0256011 0.0008
1413 1 7.61445e-05 -0.000776476 0.0255573 0.0008 3.43146e-06 -2.80673e-13 -2.7119e-13 1.59451e-12 1.59818e-09 -1.97597e-09 -3.52738e-10 -3.8537e-15 -4.02278e-16 8.46024e-15 0 0 0 0 0 0 0 0
1414 1 -0.0038603 -0.00373854 0.0252172 0.0008 3.43146e-06 -7.54852e-13 -8.67021e-13 -1.92802e-13 -1.73055e-09 7.7025e-10 -4.64898e-10 -2.76153e-15 4.32067e-15 1.4601e-16 0 0 0 0 0 0 0 0
1415 1 -0.000657751 0.000567381 0.0249183 0.0008 3.43146e-06 1.35633e-12 -2.34403e-13 -1.55537e-12 -1.79348e-09 -7.93601e-10 -1.30333e-09 4.70653e-16 2.34572e-15 2.9401e-15 0 0 0 0 0 0 0 0
1416 1 -0.00375966 -0.00614104 0.0236289 0.0008 3.43146e-06 4.50528e-13 -1.94024e-12 7.02881e-13 6.17954e-09 8.34543e-09 -1.64912e-09 2.46147e-16 -1.3311e-15 4.68727e-15 1 0.000394417 0.000685222 -1.59898e-05 -0.0041771 -0.00682289 0.0236289 0.0008
1417 1 0.00245151 0.000353041 0.0260951 0.0008 3.43146e-06 -1.08385e-12 1.79608e-12 -7.42338e-12 -4.26292e-09 -6.14346e-09 -3.04362e-09 2.2554e-16 -1.24325e-14 -7.42427e-15 0 0 0 0 0 0 0 0
1418 1 -0.00482193 0.00244651 0.0252552 0.0008 3.43146e-06 5.22831e-13 -1.08424e-12 -1.35221e-12 -1.19423e-09 3.15422e-10 -1.29464e-09 -4.20592e-15 8.66225e-16 5.50345e-16 0 0 0 0 0 0 0 0
1419 1 0.00396042 0.000802623 0.0263797 0.0008 3.43146e-06 -1.75196e-12 2.324e-13 -2.20485e-12 -6.31678e-10 -1.49106e-09 -4.04771e-10 9.06322e-15 -1.34359e-15 -6.42489e-15 0 0 0 0 0 0 0 0
1420 1 0.00112105 0.00711235 0.0249271 0.0008 3.43146e-06 -5.33375e-13 4.85853e-13 2.76327e-13 2.69071e-10 3.47369e-09 -7.6225e-10 -2.26679e-16 2.24261e-15 2.35236e-15 1 -3.249e-05 -0.000133094 1.16442e-05 0.00124559 0.00790244 0.0249271 0.0008
1421 1 0.000479096 0.00356099 0.025763 0.0008 3.43146e-06 -1.06996e-13 -8.80961e-13 7.45062e-13 2.74201e-09 5.1259e-09 1.13851e-09 -8.32844e-16 3.95621e-15 1.30711e-15 0 0 0 0 0 0 0 0
1422 1 -0.000211136 -0.00449807 0.0275523 0.0008 3.43146e-06 2.0221e-13 -1.30211e-12 -2.34433e-12 -2.13231e-09 8.8837e-10 1.46142e-10 -1.90748e-16 1.21451e-15 6.73411e-16 0 0 0 0 0 0 0 0
1423 1 0.00382798 0.00609829 0.0262675 0.0008 3.43146e-06 -1.94624e-13 1.93414e-12 3.47747e-13 8.11465e-10 2.15589e-09 -1.57973e-09 -4.92304e-16 2.75096e-15 -1.75103e-15 1 -8.72641e-05 -0.000129942 -1.53293e-05 0.00425321 0.00677571 0.0262675 0.0008
1424 1 0.00175748 0.00186661 0.0284299 0.0008 3.43146e-06 -5.41986e-13 -1.42642e-12 -8.67318e-12 -3.94336e-09 -1.57505e-09 8.43227e-10 -4.25715e-16 -2.82794e-15 1.19401e-15 0 0 0 0 0 0 0 0
1425 1 -0.00234145 0.00358722 0.0255899 0.0008 3.43146e-06 3.36898e-13 2.95186e-14 2.73562e-12 -1.59256e-10 2.32197e-09 7.44287e-10 1.00796e-15 -1.86701e-15 8.2415e-15 0 0 0 0 0 0 0 0
1426 1 -0.00265663 -0.00274281 0.0226974 0.0008 3.43146e-06 5.56176e-13 -1.01402e-13 -5.12775e-13 -1.53204e-10 -1.17926e-09 7.80193e-10 7.00934e-17 -2.32547e-15 -4.30407e-16 0 0 0 0 0 0 0 0
1427 1 -0.0016701 0.00700384 0.0255564 0.0008 3.43146e-06 -6.22041e-15 6.47118e-13 3.87074e-12 -5.74749e-09 3.12355e-09 2.43775e-10 2.98325e-16 -8.5021e-16 2.93721e-15 1 8.71847e-05 -0.000182912 2.75095e-07 -0.00185562 0.00778182 0.0255564 0.0008
1428 1 -0.00543333 0.00472464 0.0260663 0.0008 3.43146e-06 -5.17118e-13 -5.19406e-13 -2.04729e-12 1.8662e-09 1.82871e-09 -9.54486e-10 1.01956e-15 -1.99216e-15 -2.77379e-15 1 0.000197367 -0.000119546 4.49244e-06 -0.00603684 0.00524943 0.0260663 0.0008
1429 1 -0.00161723 -0.00434517 0.0268054 0.0008 3.43146e-06 3.97603e-13 -2.16567e-12 -1.75208e-12 -8.60338e-11 6.86197e-11 -2.4689e-10 -2.45543e-15 -5.7102e-16 2.69908e-15 0 0 0 0 0 0 0 0
1430 1 -0.00352578 -0.00238706 0.0268113 0.0008 3.43146e-06 -7.27217e-13 -1.08406e-12 -6.83526e-13 7.68554e-10 1.50243e-09 -7.37317e-10 2.17658e-16 5.57958e-17 -6.37278e-16 0 0 0 0 0 0 0 0
1431 1 0.00316498 -0.00646726 0.0267378 0.0008 3.43146e-06 5.50242e-13 -1.41335e-12 -2.039e-12 -1.12967e-09 -3.42192e-09 2.05494e-10 5.19708e-16 1.59613e-15 4.25716e-16 1 -4.87229e-05 0.00015612 -6.42837e-06 0.00351656 -0.00718567 0.0267378 0.0008
1432 1 -0.000824882 -0.00478174 0.0254861 0.0008 3.43146e-06 2.69837e-13 -6.30157e-13 -3.55865e-12 2.63744e-09 8.62578e-10 7.73733e-10 -7.32815e-17 -1.07831e-15 5.93535e-15 0 0 0 0 0 0 0 0
1433 1 -0.00253636 -0.00163764 0.0258018 0.0008 3.43146e-06 1.36649e-14 -4.69547e-13 -7.61038e-13 1.15427e-09 -1.01616e-09 -4.33497e-10 1.09897e-15 -8.38465e-17 -1.11613e-15 0 0 0 0 0 0 0 0
1434 1 -0.0046764 -0.00547469 0.024758 0.0008 3.43146e-06 -2.12136e-12 -2.13358e-12 3.77031e-12 -2.48442e-09 -1.01243e-08 3.52398e-10 -1.97645e-16 -3.8744e-15 4.11695e-16 1 2.72142e-05 2.03635e-05 -1.38601e-06 -0.00519595 -0.00608294 0.024758 0.0008
1435 1 -0.00607644 5.06918e-05 0.0257419 0.0008 3.43146e-06 -6.2815e-13 -2.5953e-13 -1.1313e-12 -1.74553e-10 -2.39682e-09 -1.76316e-09 -1.75699e-15 1.34232e-15 -4.53173e-15 0 0 0 0 0 0 0 0
1436 1 0.00658439 -0.00291345 0.0316245 0.0008 3.43146e-06 5.79921e-13 -1.08378e-12 -9.61812e-14 4.206e-10 -3.3566e-10 8.70505e-10 5.07687e-16 -2.39681e-17 -2.50397e-16 1 -0.000135877 4.91352e-05 -3.75461e-07 0.00731582 -0.0032371 0.0316245 0.0008
1437 1 -0.00678402 -0.00241227 0.0306209 0.0008 3.43146e-06 -2.16831e-12 1.08398e-12 4.33818e-12 -2.36666e-09 -6.78982e-09 2.31963e-09 -2.5196e-16 1.95404e-16 -4.56665e-15 1 0.000104572 3.39954e-05 2.28363e-05 -0.00753766 -0.00268025 0.0306209 0.0008
1438 1 -0.00598574 -0.001845 0.0285497 0.0008 3.43146e-06 -1.88022e-12 1.89829e-13 4.58908e-12 -3.1078e-09 -1.8854e-09 -1.53038e-09 -2.74769e-15 -6.64491e-15 -1.16891e-14 0 0 0 0 0 0 0 0
1439 1 0.00423478 0.000507212 0.0298751 0.0008 3.43146e-06 -1.60769e-13 -2.71027e-13 1.38464e-12 2.06355e-10 -2.18857e-10 1.70796e-09 -5.67992e-15 -2.77918e-16 -2.2575e-15 0 0 0 0 0 0 0 0
1440 1 0.00180273 -0.00210665 0.0299719 0.0008 3.43146e-06 4.85816e-13 -1.08406e-12 2.62185e-12 -9.9834e-10 -3.63059e-09 2.44149e-10 -3.47564e-15 -4.87555e-17 3.46848e-15 0 0 0 0 0 0 0 0
1441 1 0.00178627 0.000382852 0.0290456 0.0008 3.43146e-06 5.42058e-13 1.15445e-13 -2.24785e-13 -1.98353e-10 -1.74371e-10 -1.3764e-09 3.74011e-16 1.17605e-15 -1.81916e-15 0 0 0 0 0 0 0 0
1442 1 -0.000623611 0.0054233 0.0304586 0.0008 3.43146e-06 -4.85189e-13 -1.01908e-13 -5.66472e-12 4.55796e-09 -6.79825e-12 -5.93979e-09 -1.07363e-14 6.54013e-15 7.96611e-15 0 0 0 0 0 0 0 0
1443 1 0.00442622 0.000719205 0.027908 0.0008 3.43146e-06 -1.0672e-12 1.98635e-13 8.22624e-13 1.24535e-09 1.05272e-09 3.79376e-09 1.97811e-15 -1.15061e-15 -3.31209e-15 0 0 0 0 0 0 0 0
1444 1 0.00686479 0.00217135 0.0257239 0.0008 3.43146e-06 -4.26813e-13 -3.25487e-14 -8.25403e-13 -8.76119e-10 -1.53384e-09 -2.10099e-10 -5.53079e-17 3.65617e-16 -2.46995e-16 1 -1.48958e-06 -6.18341e-07 -2.15004e-07 0.00762754 0.00241261 0.0257239 0.0008
1445 1 -0.00460873 -0.0033941 0.0309725 0.0008 3.43146e-06 2.0859e-12 1.13642e-13 -4.51216e-12 -1.88687e-08 4.19661e-09 -1.57137e-08 -2.42737e-15 -2.91243e-15 3.89171e-16 0 0 0 0 0 0 0 0
1446 1 0.0020803 0.000171438 0.0315299 0.0008 3.43146e-06 4.19891e-13 -2.19998e-13 -1.55007e-12 6.31889e-10 -1.87658e-09 1.95311e-09 3.94928e-15 -3.70631e-15 -3.56033e-15 0 0 0 0 0 0 0 0
1447 1 0.00720007 3.63358e-05 0.0293946 0.0008 3.43146e-06 -2.16744e-12 1.34996e-14 1.12243e-12 -8.27015e-10 1.43238e-09 -1.64258e-11 3.60636e-16 2.20556e-15 -8.77537e-16 1 -0.000140424 -2.72861e-05 1.43296e-05 0.0079999 4.03722e-05 0.0293946 0.0008
1448 1 -0.0021333 -0.00687712 0.0279598 0.0008 3.43146e-06 1.89666e-13 1.3993e-12 -5.67193e-14 1.6316e-09 5.50995e-09 1.33457e-10 2.1573e-15 2.97926e-16 2.70982e-15 1 7.6522e-05 0.000532995 -1.35689e-05 -0.0023702 -0.00764082 0.0279598 0.0008
1449 1 -0.00478925 -0.00116734 0.0293668 0.0008 3.43146e-06 -2.16675e-12 5.41739e-13 5.9834e-12 1.02962e-10 -1.73748e-09 -1.94177e-10 -1.20311e-15 8.25611e-16 -1.09929e-14 0 0 0 0 0 0 0 0
1450 1 -0.00423321 0.00582418 0.029838 0.0008 3.43146e-06 -1.46592e-13 1.63026e-12 3.70901e-12 -8.67195e-09 4.43554e-09 1.13021e-09 1.95691e-15 1.20697e-15 8.35261e-15 1 2.28407e-05 -3.77817e-05 -2.25003e-06 -0.00470351 0.00647124 0.029838 0.0008
1451 1 -0.00268102 0.00416486 0.0291652 0.0008 3.43146e-06 -1.01012e-12 -1.65011e-12 -4.50554e-12 -1.29903e-09 2.92153e-09 7.95746e-12 2.33546e-15 -5.63837e-15 6.25004e-15 0 0 0 0 0 0 0 0
1452 1 -0.00425472 -0.00362697 0.0293595 0.0008 3.43146e-06 -1.27429e-12 -1.08389e-12 -8.66446e-12 3.18255e-10 -7.13434e-09 1.72554e-09 -2.27398e-15 1.58118e-15 4.35099e-16 0 0 0 0 0 0 0 0
1453 1 0.00141137 -0.00418185 0.0284134 0.0008 3.43146e-06 -3.97437e-13 -1.34539e-12 -4.00782e-14 -6.6694e-10 -5.08762e-10 -2.65644e-10 9.46168e-16 2.77209e-15 1.4333e-15 0 0 0 0 0 0 0 0
1454 1 -0.00519574 -0.00147232 0.0309084 0.0008 3.43146e-06 1.89561e-12 -2.1814e-13 2.16489e-12 1.51219e-09 -7.86941e-09 6.95985e-09 -9.97076e-15 2.3707e-15 -8.99932e-15 0 0 0 0 0 0 0 0
1455 1 0.00214105 -0.00249794 0.0267436 0.0008 3.43146e-06 1.01556e-12 1.08398e-12 -1.73419e-12 1.01185e-09 1.66808e-09 -1.09946e-09 -3.27245e-15 1.14823e-15 2.79815e-15 0 0 0 0 0 0 0 0
1456 1 -0.00455206 0.00179067 0.0294473 0.0008 3.43146e-06 1.20081e-12 5.42073e-13 2.25506e-12 -3.81816e-09 3.14542e-09 8.65775e-10 1.08077e-15 -5.44879e-16 7.49885e-15 0 0 0 0 0 0 0 0
1457 1 0.00152109 -0.00553646 0.029345 0.0008 3.43146e-06 5.41862e-13 1.35578e-12 5.70156e-12 5.0404e-09 -5.93776e-10 -2.34756e-10 5.38172e-16 -2.21002e-15 -3.4104e-15 0 0 0 0 0 0 0 0
1458 1 -0.00387749 -0.00225919 0.0300986 0.0008 3.43146e-06 -1.08411e-12 -1.08377e-12 -1.67088e-12 7.5882e-09 7.7224e-09 -2.13963e-10 -3.89655e-16 -1.64723e-15 -5.7233e-15 0 0 0 0 0 0 0 0
1459 1 0.00179831 0.0031245 0.0313252 0.0008 3.43146e-06 9.10505e-13 -1.06829e-12 -6.21782e-13 3.27575e-09 8.46028e-12 -6.04589e-09 -2.68372e-15 -1.32482e-16 -9.95623e-15 0 0 0 0 0 0 0 0
1460 1 -0.00615764 0.00373214 0.0270911 0.0008 3.43146e-06 -1.33052e-12 -1.01876e-12 -2.51791e-13 -1.01125e-09 9.71856e-10 -1.93906e-09 2.7633e-15 7.0142e-16 1.09599e-16 1 0.000431735 -0.000220818 -1.17214e-06 -0.00684147 0.00414661 0.0270911 0.0008
1461 1 0.00362355 -0.00391998 0.0283051 0.0008 3.43146e-06 -1.05727e-12 2.16359e-12 1.77011e-12 9.74949e-10 8.91411e-10 -4.70937e-09 1.86895e-15 2.53617e-16 -4.69794e-15 0 0 0 0 0 0 0 0
1462 1 1.36545e-07 0.0057009 0.0290118 0.0008 3.43146e-06 -4.66368e-13 -4.64506e-13 6.15679e-12 4.62428e-10 -4.99775e-09 -1.49592e-10 -2.20832e-15 9.43951e-15 4.42119e-15 0 0 0 0 0 0 0 0
1463 1 0.000335197 0.0027337 0.0305166 0.0008 3.43146e-06 2.37496e-13 6.0633e-13 5.5181e-13 -4.04518e-09 5.72419e-09 4.48397e-10 1.53456e-15 -5.29722e-15 -2.1723e-15 0 0 0 0 0 0 0 0
1464 1 0.00117593 -0.0010222 0.0309674 0.0008 3.43146e-06 5.39994e-13 -5.41719e-13 -1.2446e-12 -1.44227e-09 1.38487e-09 -1.84512e-09 7.58833e-16 2.68624e-16 1.91307e-15 0 0 0 0 0 0 0 0
1465 1 0.00556623 -0.00161574 0.0280953 0.0008 3.43146e-06 2.10208e-12 -3.27502e-13 -1.15384e-12 2.85146e-09 3.19065e-09 -7.32374e-10 4.12228e-16 1.14817e-15 -3.5888e-15 0 0 0 0 0 0 0 0
1466 1 0.00513413 0.0025448 0.0304489 0.0008 3.43146e-06 -1.89244e-12 -5.64625e-13 2.57686e-12 3.80646e-10 1.12215e-09 1.3038e-09 3.4305e-15 -1.39475e-16 -4.22631e-15 0 0 0 0 0 0 0 0
1467 1 0.00656531 -0.00295588 0.0284412 0.0008 3.43146e-06 -2.06594e-12 4.03323e-13 -9.00146e-13 -1.44413e-09 -3.88187e-10 4.4167e-10 3.06987e-15 -3.61307e-16 5.34417e-16 1 -1.42171e-05 8.38378e-06 -1.0957e-07 0.00729475 -0.0032843 0.0284412 0.0008
1468 1 -0.00338916 0.00109116 0.030352 0.0008 3.43146e-06 1.0794e-12 -1.39042e-13 8.66297e-12 3.18636e-10 4.0967e-09 -3.68917e-09 3.20661e-16 4.45736e-16 -2.64022e-15 0 0 0 0 0 0 0 0
1469 1 0.00337165 -0.00636203 0.0289424 0.0008 3.43146e-06 -9.55696e-13 2.16412e-12 1.3815e-12 1.51372e-09 7.51141e-10 -2.1509e-10 2.81468e-15 -5.61047e-16 -3.61927e-16 1 -0.000127187 0.000216158 -9.13098e-06 0.00374616 -0.00706869 0.0289424 0.0008
1470 1 0.00396651 -0.00249938 0.0309467 0.0008 3.43146e-06 2.16773e-12 -1.0522e-12 9.44485e-13 9.20121e-11 -2.61267e-09 -5.40332e-11 4.13433e-16 -9.73439e-15 -5.84064e-16 0 0 0 0 0 0 0 0
1471 1 0.000929344 0.00521576 0.0307829 0.0008 3.43146e-06 2.0518e-13 -2.16807e-12 -5.60301e-12 9.79446e-10 -1.84536e-10 3.86239e-09 1.03706e-16 -5.4974e-17 -4.14337e-15 0 0 0 0 0 0 0 0
1472 1 -0.00286806 0.00286471 0.0300785 0.0008 3.43146e-06 -2.23232e-13 -8.32293e-13 -4.84707e-13 -3.36796e-09 -3.09971e-10 -2.5452e-10 -3.28253e-15 1.48005e-15 1.30229e-14 0 0 0 0 0 0 0 0
1473 1 0.00425949 -0.0050622 0.0292286 0.0008 3.43146e-06 -4.10429e-13 9.03392e-13 1.11786e-12 -2.5042e-10 1.44937e-09 -7.64789e-10 3.31387e-15 1.80752e-15 -3.91653e-15 0 0 0 0 0 0 0 0
1474 1 -0.00312361 0.0048961 0.0270019 0.0008 3.43146e-06 1.08404e-12 1.30814e-13 -4.137e-12 -3.24599e-09 8.68042e-09 -6.68122e-10 -2.03845e-16 2.70225e-15 6.17009e-15 0 0 0 0 0 0 0 0
1475 1 -0.000592084 -0.00405578 0.030293 0.0008 3.43146e-06 -2.71054e-13 2.00132e-12 -2.14292e-12 3.52852e-10 -1.48328e-09 2.31492e-09 -2.71611e-16 2.05541e-16 -1.35464e-15 0 0 0 0 0 0 0 0
1476 1 -0.000441417 0.00718659 0.0299875 0.0008 3.43146e-06 -2.593e-13 2.11716e-12 2.04031e-12 -2.16186e-09 -2.96314e-09 -2.4082e-10 2.44732e-15 -8.46606e-16 -9.22734e-15 1 6.96748e-06 -0.000103855 -5.64855e-06 -0.000490454 0.00798495 0.0299875 0.0008
1477 1 0.00315609 0.00346578 0.0295412 0.0008 3.43146e-06 -1.08074e-12 -5.81759e-13 -4.68476e-12 8.51244e-10 -1.15994e-09 9.19917e-10 -3.20085e-17 -2.36273e-15 2.84738e-15 0 0 0 0 0 0 0 0
1478 1 -0.00189318 0.00407385 0.0305546 0.0008 3.43146e-06 -1.62872e-13 -1.19598e-12 -8.09039e-13 -6.31876e-10 -3.99874e-09 -1.5371e-09 7.28001e-15 -5.2072e-15 6.90848e-15 0 0 0 0 0 0 0 0
1479 1 0.00119501 0.00577927 0.0279509 0.0008 3.43146e-06 -6.07066e-13 1.47011e-12 6.3974e-12 -1.65504e-09 4.79543e-09 4.38126e-09 6.80693e-15 2.97952e-15 -2.3837e-15 0 0 0 0 0 0 0 0
1480 1 -0.000126661 -0.0056881 0.0317109 0.0008 3.43146e-06 6.8397e-14 -8.36089e-13 -6.39595e-12 -6.20113e-09 1.37551e-09 -2.00705e-09 -2.48823e-16 -1.93449e-15 2.05628e-15 0 0 0 0 0 0 0 0
1481 1 0.00450884 -0.000731178 0.0272377 0.0008 3.43146e-06 4.90877e-13 2.5767e-13 -1.62293e-12 1.57081e-09 2.21981e-09 -1.46978e-10 1.36919e-16 -1.51176e-15 -5.66715e-15 0 0 0 0 0 0 0 0
1482 1 -0.00511736 -0.00505614 0.0278956 0.0008 3.43146e-06 2.16813e-12 -1.29019e-13 2.66567e-12 -1.94066e-09 4.32233e-09 2.07703e-10 9.41055e-16 3.49187e-15 -5.61725e-16 0 0 0 0 0 0 0 0
1483 1 -0.00130986 -0.00271634 0.0308953 0.0008 3.43146e-06 -5.4383e-13 1.08399e-12 -3.00815e-12 7.28607e-10 -3.22231e-09 -4.72139e-10 -3.75215e-16 1.72505e-16 3.67308e-15 0 0 0 0 0 0 0 0
1484 1 0.00669485 -0.0014715 0.0292197 0.0008 3.43146e-06 1.75208e-12 -1.66789e-13 6.37097e-13 6.32086e-10 -4.61368e-09 4.37405e-09 -3.10825e-15 -3.45041e-16 -1.84279e-15 0 0 0 0 0 0 0 0
1485 1 0.00461072 0.0030458 0.0290225 0.0008 3.43146e-06 -1.84733e-12 8.78449e-13 -2.47307e-12 7.82022e-11 -3.95395e-09 2.93643e-10 -5.58428e-15 -5.90677e-15 2.09935e-15 0 0 0 0 0 0 0 0
1486 1 0.00387412 -0.00407332 0.0305577 0.0008 3.43146e-06 -2.63801e-13 3.98656e-13 1.84448e-13 -1.41007e-09 1.78669e-09 2.24681e-10 7.2851e-16 -6.09697e-15 -9.8343e-17 0 0 0 0 0 0 0 0
1487 1 0.0023762 -0.00661298 0.0301695 0.0008 3.43146e-06 -7.58497e-13 2.08549e-13 4.77648e-12 8.35337e-10 2.3342e-09 3.89057e-10 1.40474e-15 4.31007e-18 3.79165e-16 0 0 0 0 0 0 0 0
1488 1 0.00389065 -0.00605835 0.030425 0.0008 3.43146e-06 3.90307e-13 4.99465e-15 1.43239e-12 1.36829e-09 1.00078e-09 -3.5609e-10 1.10261e-15 -2.52486e-17 -2.71787e-15 1 -1.18557e-05 2.25849e-05 -1.85208e-06 0.00432291 -0.00673145 0.030425 0.0008
1489 1 0.00020545 0.00156525 0.0281858 0.0008 3.43146e-06 -7.46978e-13 5.42033e-13 -3.81579e-12 -5.76093e-09 5.7089e-09 -4.64081e-09 -1.05298e-15 -1.3665e-16 -2.56297e-15 0 0 0 0 0 0 0 0
1490 1 0.00710516 0.00116686 0.0305226 0.0008 3.43146e-06 -1.40374e-12 -3.18298e-13 -8.54084e-14 -1.16248e-10 -1.15857e-10 9.09367e-11 -1.37196e-16 -2.55027e-15 -1.69349e-15 1 -0.000413104 -4.34945e-05 2.78702e-05 0.00789425 0.00129645 0.0305226 0.0008
1491 1 -0.00575666 -0.000263942 0.0284619 0.0008 3.43146e-06 -2.14795e-12 8.72159e-13 1.0262e-12 -1.26117e-09 -1.91552e-09 2.26535e-09 1.42952e-15 -5.88776e-16 -7.94265e-15 0 0 0 0 0 0 0 0
1492 1 0.000659737 0.00302927 0.028644 0.0008 3.43146e-06 -2.70518e-13 1.08405e-12 1.50628e-12 1.49054e-08 2.29181e-09 7.24731e-09 -3.13709e-16 1.56474e-16 -1.32652e-14 0 0 0 0 0 0 0 0
1493 1 0.00281675 0.00159044 0.0315875 0.0008 3.43146e-06 2.29412e-13 4.24732e-13 -5.28939e-13 -1.16748e-10 4.26382e-10 -1.22125e-09 6.51312e-15 -2.56855e-16 -1.23245e-14 0 0 0 0 0 0 0 0
1494 1 -0.000676196 0.00311431 0.0277682 0.0008 3.43146e-06 -4.11203e-13 7.29621e-13 4.32847e-12 -3.34455e-09 1.06528e-10 9.16389e-10 8.78137e-15 -1.88093e-15 9.41656e-17 0 0 0 0 0 0 0 0
1495 1 0.00383987 -0.000678009 0.0257855 0.0008 3.43146e-06 -3.11417e-13 -2.04822e-13 1.80396e-13 -1.71993e-09 -3.24391e-10 1.11401e-09 3.06797e-15 -4.06352e-15 -4.26678e-15 0 0 0 0 0 0 0 0
1496 1 -0.00234593 0.00250239 0.0268106 0.0008 3.43146e-06 6.95677e-13 -2.44522e-13 5.26837e-13 3.14149e-10 3.3651e-10 8.8413e-10 1.49673e-15 -2.02021e-15 5.40835e-15 0 0 0 0 0 0 0 0
1497 1 -0.00376872 0.000450848 0.027489 0.0008 3.43146e-06 -1.08421e-12 -3.81049e-13 -5.09929e-13 1.37836e-11 -9.1281e-10 -9.11392e-10 -2.28123e-16 1.25129e-15 4.56066e-15 0 0 0 0 0 0 0 0
1498 1 0.00516929 -0.00501225 0.0305437 0.0008 3.43146e-06 -3.3503e-13 5.12637e-13 -1.27631e-13 2.68748e-10 -4.59131e-10 -1.45355e-10 3.6426e-15 -1.78916e-15 1.60621e-15 1 -0.000245337 0.000221235 -2.01518e-05 0.00574342 -0.00556894 0.0305437 0.0008
1499 1 -0.00113997 -0.000663237 0.0283014 0.0008 3.43146e-06 -4.61698e-13 2.38994e-13 -6.18753e-13 -1.12584e-09 -4.51302e-11 -1.0943e-09 -8.56655e-15 1.7261e-15 4.19843e-16 0 0 0 0 0 0 0 0
1500 1 -0.00184559 0.00168293 0.0297357 0.0008 3.43146e-06 -5.42028e-13 -3.79484e-13 -6.64917e-13 2.39191e-09 2.04571e-09 8.46396e-10 -2.31514e-16 -2.47048e-15 1.02527e-14 0 0 0 0 0 0 0 0
1501 1 0.00546718 -0.00468528 0.0282496 0.0008 3.43146e-06 -4.8434e-13 1.33157e-13 -5.40779e-13 -1.12787e-09 2.94111e-11 3.44437e-10 1.5374e-15 1.07608e-15 -5.15989e-16 1 -8.80951e-05 6.11903e-05 1.17851e-06 0.00607453 -0.00520577 0.0282496 0.0008
1502 1 0.0025206 -0.00529392 0.0281094 0.0008 3.43146e-06 4.78212e-13 1.66203e-12 2.50616e-12 2.34981e-09 -5.03998e-09 2.58197e-09 8.05536e-16 1.77606e-15 -1.5924e-15 0 0 0 0 0 0 0 0
1503 1 0.00284058 -0.00361776 0.0254918 0.0008 3.43146e-06 1.08408e-12 1.04368e-12 -1.93336e-13 2.30289e-09 2.85822e-10 -7.56696e-10 1.14775e-16 1.99642e-16 4.89086e-15 0 0 0 0 0 0 0 0
1504 1 0.0023388 -0.00288472 0.0282831 0.0008 3.43146e-06 -1.01666e-12 -2.64105e-14 1.85451e-12 -3.97617e-10 -4.95935e-09 2.00685e-09 -2.55956e-15 -9.75875e-16 -9.40122e-16 0 0 0 0 0 0 0 0
1505 1 -0.000441431 -0.00599105 0.0280782 0.0008 3.43146e-06 -4.40436e-13 -1.63585e-12 -4.17664e-12 4.68569e-09 4.11001e-10 -1.47398e-09 1.23986e-15 -1.80183e-15 3.14854e-15 0 0 0 0 0 0 0 0
1506 1 0.00583319 0.000169698 0.0285739 0.0008 3.43146e-06 -2.16846e-12 -2.3178e-13 6.57646e-13 -7.71365e-10 -1.8349e-09 -4.60622e-10 -4.86252e-16 -4.58046e-16 -1.3389e-15 0 0 0 0 0 0 0 0
1507 1 0.0019185 0.00326463 0.0276692 0.0008 3.43146e-06 1.83558e-12 -1.08401e-12 -5.44544e-12 8.16025e-09 -2.07447e-10 -3.20659e-09 -3.33401e-15 1.24348e-15 5.46074e-15 0 0 0 0 0 0 0 0
1508 1 -0.00364856 -0.00458312 0.0304897 0.0008 3.43146e-06 -1.08395e-12 -1.43703e-12 2.15116e-12 -5.7499e-09 -1.44596e-09 2.32049e-09 2.45713e-16 -2.36885e-15 7.69936e-15 0 0 0 0 0 0 0 0
1509 1 0.00543986 -0.00190497 0.0307412 0.0008 3.43146e-06 1.60853e-12 -5.42003e-13 -5.93684e-13 2.52638e-09 -2.06945e-09 -4.51441e-10 4.86402e-15 -5.77559e-17 3.01256e-15 0 0 0 0 0 0 0 0
1510 1 -0.00265052 0.0054242 0.0301513 0.0008 3.43146e-06 -4.8572e-13 1.78871e-12 -4.98441e-12 -1.66385e-09 -6.83094e-10 6.73716e-10 5.1637e-15 -6.78644e-15 9.84972e-15 0 0 0 0 0 0 0 0
1511 1 -0.00315071 0.00495437 0.0254034 0.0008 3.43146e-06 -1.08345e-12 -1.32903e-12 2.95581e-12 1.95322e-09 -5.42299e-09 1.98963e-09 9.19899e-16 1.51579e-16 6.97045e-15 0 0 0 0 0 0 0 0
1512 1 -0.00214719 -0.00406055 0.0306683 0.0008 3.43146e-06 -1.08188e-12 1.1354e-12 -1.07149e-12 -3.79351e-09 2.57201e-09 -3.45197e-10 -1.77812e-15 5.83609e-15 5.69267e-15 0 0 0 0 0 0 0 0
1513 1 -0.00149364 0.00617189 0.0293376 0.0008 3.43146e-06 -5.42038e-13 -3.31175e-13 -1.35665e-12 -7.04601e-10 -4.28155e-09 -6.50669e-10 1.76748e-16 1.31861e-15 2.68815e-15 0 0 0 0 0 0 0 0
1514 1 -0.00241095 -0.00301126 0.0294897 0.0008 3.43146e-06 -1.08397e-12 -1.07842e-12 -1.07279e-12 1.56998e-09 -1.48585e-09 -4.24317e-10 3.5148e-16 8.15067e-16 9.96603e-15 0 0 0 0 0 0 0 0
1515 1 -0.00112566 0.00453338 0.0292277 0.0008 3.43146e-06 5.42117e-13 1.38905e-12 -5.23943e-12 -4.75659e-09 -3.38653e-09 3.02357e-09 8.5183e-17 -5.70556e-15 -1.64657e-15 0 0 0 0 0 0 0 0
1516 1 0.00331231 0.00263679 0.0281819 0.0008 3.43146e-06 -1.64806e-13 -9.32487e-13 -3.80255e-12 -2.04785e-09 1.02533e-09 1.14736e-09 -1.13183e-14 -7.54255e-15 1.28011e-15 0 0 0 0 0 0 0 0
1517 1 -0.00389362 -0.00605663 0.0281426 0.0008 3.43146e-06 1.08255e-12 1.64573e-12 -1.08494e-12 2.29142e-10 2.66624e-09 -5.80754e-11 -2.39352e-16 -6.54731e-16 -1.49119e-15 1 0.000141593 0.000156176 5.2185e-05 -0.00432611 -0.00672939 0.0281426 0.0008
1518 1 -0.00260199 -4.14049e-05 0.02849 0.0008 3.43146e-06 -6.49308e-14 -1.25025e-13 1.0812e-12 1.44905e-09 2.68131e-09 1.05661e-09 -3.26845e-15 1.23594e-15 3.434e-15 0 0 0 0 0 0 0 0
1519 1 0.000900832 0.00466256 0.0268437 0.0008 3.43146e-06 2.95615e-13 -2.16812e-12 3.57836e-12 2.02703e-09 -2.07322e-09 1.36252e-09 2.50517e-15 -2.67287e-16 3.2195e-15 0 0 0 0 0 0 0 0
1520 1 0.00394912 0.00602041 0.0294617 0.0008 3.43146e-06 5.91743e-13 1.85031e-12 -8.07018e-13 1.80996e-09 1.28673e-09 -2.84826e-10 3.66015e-15 1.01673e-15 2.45609e-15 1 -1.64922e-05 -2.6363e-05 5.33938e-06 0.00438788 0.00668929 0.0294617 0.0008
1521 1 -0.0014174 -0.00481602 0.0285539 0.0008 3.43146e-06 -1.24605e-13 2.04455e-12 -3.03163e-13 -9.17828e-10 4.3896e-10 -2.69865e-09 -3.43275e-15 3.39941e-15 3.49898e-15 0 0 0 0 0 0 0 0
1522 1 -0.0025523 0.00193667 0.0314217 0.0008 3.43146e-06 7.29141e-13 5.22731e-13 2.00164e-12 -8.12748e-09 -2.89025e-09 3.84169e-10 1.2346e-15 -1.86477e-15 -3.51488e-15 0 0 0 0 0 0 0 0
1523 1 -0.00100359 0.00712987 0.0272721 0.0008 3.43146e-06 -5.17754e-13 4.9896e-13 3.06874e-12 -3.58514e-09 -2.0838e-09 -5.73857e-10 -2.49651e-15 -1.06477e-15 6.16689e-15 1 3.48879e-05 -0.000132277 -1.08886e-05 -0.00111507 0.00792191 0.0272721 0.0008
1524 1 0.00309682 0.00371521 0.0322826 0.0008 3.43146e-06 5.22037e-14 -7.40371e-13 -4.80084e-12 -1.04528e-09 -2.11626e-09 1.3438e-09 6.00151e-15 -3.29764e-15 -7.83715e-15 0 0 0 0 0 0 0 0
1525 1 0.00425741 -0.00580644 0.027702 0.0008 3.43146e-06 1.69063e-12 -3.48373e-14 -1.9124e-13 -1.24232e-09 1.36354e-09 -1.63236e-09 -6.22685e-16 9.3958e-16 -4.31295e-16 1 -2.51556e-06 3.28157e-06 -1.97357e-07 0.00473044 -0.00645158 0.027702 0.0008
1526 1 -0.0059137 -0.00410758 0.0256678 0.0008 3.43146e-06 6.72356e-14 -2.15462e-12 -1.62047e-12 -5.28836e-10 1.94893e-09 -2.19743e-09 2.53262e-16 5.23284e-16 -3.74277e-15 1 0.000243527 0.000213385 2.20686e-05 -0.00657052 -0.0045638 0.0256678 0.0008
1527 1 -0.000416207 0.00398921 0.0311639 0.0008 3.43146e-06 -1.35048e-13 -5.07721e-14 1.69698e-12 1.67831e-09 8.20861e-10 3.77811e-09 -1.3282e-16 -5.26735e-16 1.54428e-15 0 0 0 0 0 0 0 0
1528 1 0.00564121 0.00447425 0.0310903 0.0008 3.43146e-06 -1.23701e-12 -1.63952e-12 1.12744e-12 1.33014e-09 3.05417e-09 6.08101e-10 -1.36226e-15 1.51971e-16 4.13696e-16 1 -8.87008e-05 -9.09483e-05 2.52544e-05 0.00626788 0.00497128 0.0310903 0.0008
1529 1 -0.00719677 0.000221311 0.0289623 0.0008 3.43146e-06 -2.07167e-12 6.84874e-14 -9.05945e-13 -2.18417e-09 1.14446e-09 1.07511e-10 1.8281e-16 -9.57516e-16 -2.04025e-15 1 0.000150953 -4.0897e-05 3.28175e-05 -0.00799622 0.000245895 0.0289623 0.0008
1530 1 0.00486763 -0.00361776 0.02587 0.0008 3.43146e-06 1.60599e-12 -1.03127e-12 7.81517e-13 -2.58503e-09 -1.26367e-09 2.06302e-09 -5.9419e-15 -1.806e-15 -1.64577e-15 0 0 0 0 0 0 0 0
1531 1 -0.00373827 0.0052139 0.0284444 0.0008 3.43146e-06 1.08431e-12 -1.26243e-13 4.82019e-12 3.56728e-09 -3.37948e-09 5.88074e-09 6.36069e-17 -9.38184e-15 9.71099e-15 0 0 0 0 0 0 0 0
1532 1 0.00145469 -0.000790145 0.0266382 0.0008 3.43146e-06 5.31665e-13 -2.71062e-13 9.17654e-13 -7.28521e-10 -7.25647e-11 -1.70618e-09 -1.03274e-15 -1.04181e-16 6.24557e-15 0 0 0 0 0 0 0 0
1533 1 -0.00162853 -0.00701348 0.0301276 0.0008 3.43146e-06 -5.41902e-13 2.02698e-12 8.86251e-13 1.81196e-09 2.55039e-09 1.50307e-09 -2.8288e-16 -3.6131e-16 2.65117e-15 1 1.45891e-05 3.86816e-05 -2.77567e-06 -0.00180946 -0.00779268 0.0301276 0.0008
1534 1 0.00119893 -0.0051362 0.0271473 0.0008 3.43146e-06 5.41593e-13 -2.16748e-12 -5.09052e-13 -9.63771e-11 -2.32519e-09 -9.1302e-10 7.40832e-16 -5.14916e-16 -2.73227e-15 0 0 0 0 0 0 0 0
1535 1 -0.00053089 -0.00718044 0.0312793 0.0008 3.43146e-06 2.70679e-13 -5.26461e-13 2.67031e-12 3.34481e-09 -3.67394e-09 -2.62484e-10 1.381e-15 -1.69351e-15 -2.6329e-15 1 5.57758e-07 1.66795e-05 1.93888e-06 -0.000589875 -0.00797822 0.0312793 0.0008
1536 1 -0.00498772 -0.0030333 0.0280674 0.0008 3.43146e-06 2.11034e-12 -1.08325e-12 1.59512e-13 6.02586e-09 7.00124e-09 5.06278e-10 1.18444e-15 3.91143e-16 -1.60004e-15 0 0 0 0 0 0 0 0
1537 1 -0.00690099 0.00205349 0.0315116 0.0008 3.43146e-06 -1.35471e-12 6.55253e-13 -1.18167e-12 1.64466e-09 1.16766e-09 3.25127e-10 3.22181e-15 -1.44837e-16 6.1539e-15 1 1.45062e-05 -2.92012e-06 2.88794e-06 -0.00766773 0.00228165 0.0315116 0.0008
1538 1 -0.00531128 0.00486159 0.0285043 0.0008 3.43146e-06 1.69059e-12 -1.36205e-12 5.4405e-13 -1.25556e-09 2.36789e-10 1.88819e-10 7.03124e-17 9.13749e-16 -2.2311e-15 1 0.000266675 -0.000305279 -2.79302e-05 -0.00590115 0.00540152 0.0285043 0.0008
1539 1 -0.00312778 0.00143485 0.0288117 0.0008 3.43146e-06 -5.98521e-14 -5.42133e-13 1.36648e-12 -2.11681e-09 -2.36525e-10 -4.45103e-12 4.05033e-16 -5.96187e-16 7.7153e-15 0 0 0 0 0 0 0 0
1540 1 0.00561949 -0.000490471 0.0300154 0.0008 3.43146e-06 -1.06786e-12 -2.04556e-13 1.61841e-12 -2.74155e-10 1.80854e-09 4.11319e-09 6.7586e-15 -5.31848e-16 7.18132e-15 0 0 0 0 0 0 0 0
1541 1 0.0016509 0.0042928 0.0288653 0.0008 3.43146e-06 5.41749e-13 -2.16875e-12 -4.62913e-13 -2.34316e-09 -4.56062e-09 -5.41036e-10 1.62941e-15 3.63401e-16 -2.02791e-15 0 0 0 0 0 0 0 0
1542 1 -0.00693615 0.000903572 0.0303858 0.0008 3.43146e-06 -2.10682e-12 2.67795e-13 5.21512e-13 2.8376e-09 -1.42248e-09 1.39946e-10 -9.79941e-16 -6.39258e-16 6.33705e-15 0 0 0 0 0 0 0 0
1543 1 0.00280045 0.00490145 0.0259945 0.0008 3.43146e-06 5.55245e-13 8.23457e-13 -8.34954e-12 -1.80975e-10 -2.71847e-09 -5.74888e-10 -1.45594e-15 2.32463e-15 1.49172e-15 0 0 0 0 0 0 0 0
1544 1 -0.00255585 -0.00538135 0.0275825 0.0008 3.43146e-06 -3.78262e-13 -5.22267e-14 -1.49454e-12 -4.51026e-09 -3.47626e-09 5.1102e-10 -3.80834e-16 1.62509e-15 2.4448e-16 0 0 0 0 0 0 0 0
1545 1 0.00151793 0.00597789 0.0295052 0.0008 3.43146e-06 -5.41845e-13 -8.32029e-13 2.89348e-12 4.64062e-09 -3.37325e-09 -1.3823e-09 -1.59048e-16 -2.01283e-16 -1.25493e-14 0 0 0 0 0 0 0 0
1546 1 0.00237941 -0.00402936 0.0271402 0.0008 3.43146e-06 1.08174e-12 1.62195e-12 3.12187e-13 -3.98515e-09 -1.00636e-09 9.80479e-10 -4.07619e-16 5.18157e-15 -1.70847e-15 0 0 0 0 0 0 0 0
1547 1 0.000772018 -0.00325521 0.0295498 0.0008 3.43146e-06 -2.70695e-13 8.74921e-14 4.09989e-14 6.73078e-10 -1.24189e-09 -2.73778e-09 -2.52539e-16 1.74856e-16 -1.1387e-16 0 0 0 0 0 0 0 0
1548 1 -0.000636742 -0.00344427 0.0288153 0.0008 3.43146e-06 2.71126e-13 1.08421e-12 -1.34347e-12 -1.09659e-09 -7.67525e-10 1.23686e-09 1.23134e-15 9.23304e-16 -5.88103e-16 0 0 0 0 0 0 0 0
1549 1 -0.00718768 0.00042163 0.0268514 0.0008 3.43146e-06 2.06738e-12 -3.11475e-13 -1.8542e-13 -2.05427e-09 -2.37682e-11 -5.61667e-10 -1.25835e-16 1.10725e-15 -1.19123e-15 1 1.28429e-05 -4.09537e-06 1.6927e-06 -0.00798627 0.000468475 0.0268514 0.0008
1550 1 -0.00373375 0.00205009 0.0274654 0.0008 3.43146e-06 1.47034e-13 -1.08415e-12 8.77711e-13 1.30679e-09 1.46112e-10 -6.17344e-10 1.54906e-15 7.52137e-16 2.68664e-15 0 0 0 0 0 0 0 0
1551 1 -0.00196711 -0.00575326 0.026132 0.0008 3.43146e-06 9.45411e-13 -2.16216e-12 1.14901e-12 -3.35946e-09 -5.47662e-10 3.32531e-10 -3.41856e-15 4.44055e-16 -5.65312e-16 0 0 0 0 0 0 0 0
1552 1 0.00160094 -0.00244391 0.0315652 0.0008 3.43146e-06 -5.422e-13 -1.08398e-12 7.32615e-13 -2.33792e-09 2.75069e-09 -1.64864e-09 -4.23962e-16 7.56677e-16 -2.35887e-15 0 0 0 0 0 0 0 0
1553 1 -0.00123491 0.00264731 0.0308567 0.0008 3.43146e-06 -1.88144e-13 2.23685e-13 8.66045e-13 -2.68374e-11 3.50429e-10 2.7745e-09 6.54268e-15 -1.05581e-14 1.02179e-14 0 0 0 0 0 0 0 0
1554 1 -0.00501178 -0.00113975 0.0256515 0.0008 3.43146e-06 -2.1281e-12 -5.41911e-13 -1.13288e-13 3.70465e-10 2.23348e-10 1.12512e-11 1.4439e-15 -4.14999e-16 -2.42278e-15 0 0 0 0 0 0 0 0
1555 1 -0.00425619 0.00388964 0.0292123 0.0008 3.43146e-06 5.18955e-13 -6.50411e-13 -1.19504e-12 1.47217e-09 1.26105e-09 -9.65757e-10 -2.47906e-15 3.48126e-15 2.70177e-15 0 0 0 0 0 0 0 0
1556 1 0.000677566 0.00716817 0.0288444 0.0008 3.43146e-06 2.6957e-13 -6.77573e-13 3.11555e-12 -3.58277e-09 1.79654e-09 8.00099e-10 9.76027e-16 1.62335e-15 -7.04774e-15 1 -3.46268e-05 -8.73078e-05 -2.25113e-06 0.000752838 0.0079645 0.0288444 0.0008
1557 1 0.00106312 0.00712117 0.0305278 0.0008 3.43146e-06 -5.42113e-13 2.167e-12 4.04239e-12 -5.06381e-09 1.25735e-09 -1.66401e-09 -6.22004e-16 -5.99504e-16 -1.54747e-14 1 -1.42488e-05 -5.43776e-05 3.01939e-06 0.00118123 0.00791231 0.0305278 0.0008
1558 1 0.00364381 0.00459425 0.0285179 0.0008 3.43146e-06 -1.0835e-12 2.28485e-13 -2.07149e-12 1.9058e-09 -2.57038e-10 -1.779e-10 7.70775e-16 -9.52039e-16 -7.05408e-15 0 0 0 0 0 0 0 0
1559 1 -0.000385886 -0.00719003 0.0291355 0.0008 3.43146e-06 1.18362e-13 6.20029e-13 -4.7849e-12 -5.97733e-09 2.67672e-09 -1.56723e-11 -6.92003e-16 1.23964e-15 -1.03641e-15 1 6.76509e-05 0.000492703 -4.63451e-05 -0.00042874 -0.0079885 0.0291355 0.0008
1560 1 0.00182319 0.0018139 0.0262708 0.0008 3.43146e-06 -5.42928e-13 2.63588e-12 -8.67256e-12 5.3383e-09 -7.79757e-10 1.36117e-09 -1.82552e-15 9.55976e-16 9.88854e-16 0 0 0 0 0 0 0 0
1561 1 0.000107429 -0.00483485 0.0290834 0.0008 3.43146e-06 5.09245e-13 2.16775e-12 3.86615e-12 -4.27849e-09 -2.02364e-09 -4.41672e-10 -8.1218e-16 8.45596e-16 -2.52942e-15 0 0 0 0 0 0 0 0
1562 1 1.30941e-05 -0.00602127 0.0301524 0.0008 3.43146e-06 -6.99647e-14 2.16675e-12 -1.51551e-12 8.68057e-09 -1.70959e-09 2.42866e-09 8.9306e-17 -6.0363e-17 -3.76173e-15 0 0 0 0 0 0 0 0
1563 1 -0.00614819 0.00374705 0.0292897 0.0008 3.43146e-06 8.25787e-13 -1.07811e-12 1.18426e-12 -1.20923e-10 -1.21719e-09 -5.7363e-10 5.88383e-15 5.17695e-16 -2.42715e-15 1 1.73186e-05 -1.00232e-05 1.43667e-06 -0.00683128 0.00416336 0.0292897 0.0008
1564 1 -0.00578529 0.0011237 0.0275011 0.0008 3.43146e-06 1.9506e-12 -4.91266e-13 4.62318e-13 1.37313e-09 7.77793e-10 -2.93146e-09 1.07794e-15 1.95805e-15 -8.51252e-15 0 0 0 0 0 0 0 0
1565 1 -0.00279096 -0.00142345 0.0292734 0.0008 3.43146e-06 -1.08424e-12 5.42085e-13 -8.09596e-13 8.75456e-11 -3.17143e-09 -2.73686e-09 -3.57632e-17 -9.59809e-16 -8.2815e-16 0 0 0 0 0 0 0 0
1566 1 -0.00202584 0.00251014 0.0283781 0.0008 3.43146e-06 -1.08405e-12 -5.86885e-13 3.07786e-12 6.4712e-10 -3.41348e-09 1.90512e-09 -2.13425e-16 4.95602e-16 9.95475e-15 0 0 0 0 0 0 0 0
1567 1 0.00138651 0.000608746 0.0275134 0.0008 3.43146e-06 5.42139e-13 -1.96512e-12 -2.92109e-12 -3.53618e-09 -1.02248e-10 -1.35062e-09 -7.47522e-16 -3.56919e-15 -1.47048e-14 0 0 0 0 0 0 0 0
1568 1 -0.00313348 0.00349926 0.0277827 0.0008 3.43146e-06 -5.59536e-13 -9.77507e-13 -1.765e-13 -1.56154e-10 -1.99846e-09 9.79643e-11 5.93269e-16 -3.15493e-15 8.68557e-15 0 0 0 0 0 0 0 0
1569 1 -0.0041625 -0.00212203 0.0319427 0.0008 3.43146e-06 -2.16825e-12 1.08434e-12 -4.58952e-12 6.16155e-09 6.51805e-09 -2.31714e-09 1.64452e-15 1.47333e-16 2.99774e-15 0 0 0 0 0 0 0 0
1570 1 0.00238995 -0.0052302 0.0260834 0.0008 3.43146e-06 9.32651e-13 -1.0044e-12 -1.04911e-12 3.20074e-09 2.38083e-09 -6.35991e-11 3.16895e-15 1.71287e-15 -3.56451e-15 0 0 0 0 0 0 0 0
1571 1 0.00326974 -0.00295898 0.0295819 0.0008 3.43146e-06 -9.30046e-13 -2.82203e-13 1.6654e-12 -1.04882e-09 5.31256e-09 -4.50593e-09 1.43847e-15 -6.34643e-15 2.85669e-15 0 0 0 0 0 0 0 0
1572 1 -0.0051113 0.00255179 0.026825 0.0008 3.43146e-06 -9.59666e-13 -1.08411e-12 2.66447e-14 1.04375e-09 -1.65655e-09 2.17957e-09 1.83504e-15 -1.41108e-16 -9.81833e-16 0 0 0 0 0 0 0 0
1573 1 0.00719261 -0.000330202 0.0277357 0.0008 3.43146e-06 -7.87389e-13 8.36505e-14 -1.35986e-12 -1.23528e-09 -1.64152e-09 -1.47424e-11 1.03413e-15 -9.31247e-16 -3.65952e-16 1 -0.000164247 1.64724e-05 -2.8004e-05 0.00799158 -0.000366882 0.0277357 0.0008
1574 1 0.000243269 -0.00719613 0.0258804 0.0008 3.43146e-06 -1.70485e-13 -2.16296e-12 4.78906e-13 6.46912e-10 -1.90637e-09 3.02631e-10 -1.86854e-15 -7.94679e-16 -1.89207e-16 1 -4.78667e-06 0.000251486 4.36576e-05 0.00027029 -0.00799543 0.0258804 0.0008
1575 1 0.00302082 -0.00142869 0.029187 0.0008 3.43146e-06 -4.05126e-13 -5.41956e-13 2.21165e-12 1.40285e-10 3.93241e-09 1.50631e-09 -5.83384e-15 -6.16484e-17 2.98169e-16 0 0 0 0 0 0 0 0
1576 1 0.00246064 0.00633619 0.0271465 0.0008 3.43146e-06 -1.08422e-12 9.53006e-13 4.39041e-12 2.39684e-09 -1.6764e-09 -5.87763e-09 8.23926e-17 6.09238e-15 -2.72524e-15 0 0 0 0 0 0 0 0
1577 1 0.00312235 0.00130356 0.0290459 0.0008 3.43146e-06 -1.07745e-12 1.37785e-13 -2.84562e-12 -4.44316e-10 -4.43196e-09 -2.39482e-11 -1.68309e-14 -9.26557e-16 -4.04304e-15 0 0 0 0 0 0 0 0
1578 1 0.00182329 -0.00105621 0.0281722 0.0008 3.43146e-06 5.56076e-13 -1.56806e-12 8.04335e-13 1.72926e-09 -2.71862e-10 -8.21562e-10 1.06326e-14 3.37111e-15 2.899e-15 0 0 0 0 0 0 0 0
1579 1 -0.0029332 -0.00657552 0.029312 0.0008 3.43146e-06 1.01328e-12 1.24742e-12 7.07477e-13 -9.71928e-10 -4.06105e-09 -5.51599e-10 -8.69205e-16 4.20828e-17 2.46821e-15 1 3.13834e-05 3.63494e-05 3.27825e-06 -0.00325908 -0.00730605 0.029312 0.0008
1580 1 -0.00152644 7.14888e-05 0.0296692 0.0008 3.43146e-06 -5.41271e-13 -2.94906e-13 -7.00066e-13 1.69169e-09 -6.38451e-10 1.48198e-09 5.58824e-16 -8.86505e-15 -3.49406e-16 0 0 0 0 0 0 0 0
1581 1 0.0027076 0.00667169 0.028691 0.0008 3.43146e-06 5.95057e-13 9.30809e-14 2.90507e-12 -2.62027e-09 3.17303e-09 7.28928e-10 1.13025e-15 1.45405e-15 -4.79139e-15 1 -4.72067e-05 -0.00014906 -4.09196e-05 0.00300837 0.00741281 0.028691 0.0008
1582 1 0.00509543 -0.00373709 0.0295805 0.0008 3.43146e-06 -9.915e-13 6.61958e-13 -1.003e-12 -9.78366e-10 -7.47069e-10 2.07301e-09 5.34955e-17 1.38941e-15 7.99921e-16 0 0 0 0 0 0 0 0
1583 1 0.00517275 0.00500847 0.0296569 0.0008 3.43146e-06 -2.16453e-12 1.01024e-12 -1.44461e-12 1.90935e-10 -2.30217e-09 -2.67071e-09 -1.30421e-15 2.70099e-15 5.09543e-15 1 -8.1323e-05 -9.67547e-05 1.45583e-05 0.00574738 0.00556485 0.0296569 0.0008
1584 1 0.00668284 0.00267961 0.0308274 0.0008 3.43146e-06 -8.4693e-13 -7.84571e-14 8.13295e-13 9.16991e-10 1.39022e-09 -5.08529e-10 -1.42414e-16 2.44021e-18 -2.30366e-15 1 -1.68616e-05 -4.90552e-06 1.72577e-06 0.00742533 0.00297732 0.0308274 0.0008
1585 1 -0.00440535 -0.000128808 0.0305482 0.0008 3.43146e-06 -2.16367e-12 5.18609e-13 8.66893e-12 -9.09817e-10 -4.97243e-09 4.71489e-10 3.59279e-15 8.82697e-15 -2.45647e-15 0 0 0 0 0 0 0 0
1586 1 0.00577355 0.000898559 0.0313677 0.0008 3.43146e-06 -1.05229e-13 -2.71384e-13 -1.52463e-13 -5.17007e-10 8.20178e-10 5.30405e-10 3.21339e-15 5.62034e-16 -2.32059e-15 0 0 0 0 0 0 0 0
1587 1 -0.00603133 0.00131186 0.0290708 0.0008 3.43146e-06 -1.49888e-12 -5.41974e-13 4.48393e-13 -3.25207e-10 -5.70584e-09 -1.49689e-09 2.67118e-15 -6.85158e-16 2.32164e-16 0 0 0 0 0 0 0 0
1588 1 0.0032182 0.00252978 0.0265886 0.0008 3.43146e-06 -4.29994e-13 -2.72164e-13 -4.7006e-12 2.95669e-09 -9.54577e-10 -3.43195e-09 -1.79382e-16 -6.29565e-15 3.34569e-15 0 0 0 0 0 0 0 0
1589 1 -0.00716833 -0.000674694 0.0310371 0.0008 3.43146e-06 -1.38739e-12 -3.02994e-13 5.24709e-13 9.18923e-10 -4.76386e-10 -2.99366e-10 -5.29788e-16 -1.03977e-15 2.37759e-14 1 2.21892e-06 1.31812e-07 2.13054e-08 -0.0079648 -0.000749659 0.0310371 0.0008
1590 1 -0.0020802 0.00525772 0.028163 0.0008 3.43146e-06 -9.91638e-13 -4.24004e-14 -5.8969e-12 3.07356e-09 8.23605e-10 -2.02399e-09 1.98945e-15 -5.21452e-15 3.33942e-15 0 0 0 0 0 0 0 0
1591 1 -0.00370884 -0.000823846 0.0265242 0.0008 3.43146e-06 -1.0836e-12 -2.71343e-13 -1.30246e-13 -1.83382e-10 4.83779e-10 5.70602e-10 4.22892e-16 -3.67449e-16 -1.0673e-16 0 0 0 0 0 0 0 0
1592 1 -0.0017204 -0.000692137 0.0316204 0.0008 3.43146e-06 5.33711e-13 8.95986e-13 -5.28072e-12 -9.57743e-10 -2.95998e-10 7.7675e-10 -1.29514e-15 8.13665e-15 -8.98551e-16 0 0 0 0 0 0 0 0
1593 1 0.00448068 0.00563605 0.0313869 0.0008 3.43146e-06 -6.67534e-13 1.36509e-12 -3.79794e-13 2.79813e-09 2.78859e-09 -1.73563e-09 -3.109e-15 3.02741e-15 4.82397e-15 1 -4.32081e-05 -6.01214e-05 -2.91329e-06 0.00497846 0.00626218 0.0313869 0.0008
1594 1 -0.00599941 -0.00398101 0.030442 0.0008 3.43146e-06 -3.69743e-14 2.16794e-12 1.18121e-12 -9.66054e-09 -8.50156e-09 2.1879e-09 -1.41057e-15 -1.33226e-15 8.21711e-16 1 5.8491e-05 2.40607e-05 -4.08218e-06 -0.00666592 -0.00442329 0.030442 0.0008
1595 1 -0.00714727 -0.00087045 0.027794 0.0008 3.43146e-06 -5.63721e-13 -2.7095e-13 3.07579e-12 -1.22267e-09 -4.08175e-09 -4.1846e-10 1.43491e-15 3.34462e-16 2.20144e-15 1 4.48744e-05 -5.45346e-07 3.82704e-06 -0.00794132 -0.000967157 0.027794 0.0008
1596 1 0.000639342 -0.00210808 0.0262417 0.0008 3.43146e-06 -2.71261e-13 -1.08238e-12 2.04289e-13 1.3291e-09 -1.95803e-10 1.34517e-09 5.01345e-16 6.94659e-16 8.16383e-15 0 0 0 0 0 0 0 0
1597 1 -0.0051485 0.00284084 0.028398 0.0008 3.43146e-06 -1.89312e-12 -8.67892e-13 -9.0193e-13 -1.55128e-09 8.47655e-10 -5.65192e-10 5.81204e-15 1.33839e-15 3.90966e-15 0 0 0 0 0 0 0 0
1598 1 -0.00229995 -0.00101536 0.0272573 0.0008 3.43146e-06 -1.08402e-12 2.87431e-13 -6.40811e-13 -2.16664e-10 3.84957e-11 -1.13032e-10 4.77773e-16 -4.16448e-17 -7.19311e-16 0 0 0 0 0 0 0 0
1599 1 0.00311042 -0.000106706 0.0282904 0.0008 3.43146e-06 -4.33114e-15 -9.03921e-14 -4.50834e-13 -2.35402e-09 -3.18953e-09 -2.4218e-09 -3.56989e-15 -8.3231e-16 -7.2398e-15 0 0 0 0 0 0 0 0
1600 1 0.00545439 0.00185793 0.0283615 0.0008 3.43146e-06 -2.15822e-12 5.41918e-13 3.47051e-13 -1.06582e-09 -4.37463e-10 -2.24296e-09 -6.6803e-16 9.68839e-17 -1.30177e-15 0 0 0 0 0 0 0 0
1601 1 -0.00627972 0.00296019 0.0256684 0.0008 3.43146e-06 1.93421e-12 5.11485e-13 -9.90578e-13 1.72767e-10 8.39731e-10 -8.30423e-10 6.87961e-16 -1.33402e-15 1.23598e-16 0 0 0 0 0 0 0 0
1602 1 0.00703518 0.00153179 0.0288503 0.0008 3.43146e-06 -1.76486e-12 5.41948e-13 2.22123e-13 -1.66714e-10 1.02134e-10 -1.17895e-09 1.94396e-15 -4.64932e-16 4.11159e-15 1 -1.60341e-06 -5.21143e-07 -4.96898e-08 0.00781686 0.00170199 0.0288503 0.0008
1603 1 -0.00302747 0.00653275 0.0290611 0.0008 3.43146e-06 -9.50569e-13 1.05726e-12 -2.94378e-12 3.06207e-09 1.78092e-09 -3.87308e-10 1.39566e-15 -1.48739e-15 3.11365e-15 1 4.76144e-05 -0.000138067 1.96549e-06 -0.00336378 0.00725844 0.0290611 0.0008
1604 1 0.00156492 -0.00656196 0.0265207 0.0008 3.43146e-06 -4.04865e-13 -2.16784e-12 3.24186e-12 -2.86938e-09 -2.67175e-09 -1.94168e-09 9.88154e-16 8.07625e-16 2.44019e-15 0 0 0 0 0 0 0 0
1605 1 -0.00595617 -0.00404273 0.028844 0.0008 3.43146e-06 2.28789e-12 -2.24419e-12 7.85871e-13 4.39188e-09 5.31374e-09 -8.10026e-09 1.28699e-15 2.81941e-15 -8.51298e-15 0 0 0 0 0 0 0 0
1606 1 -0.00440346 0.00297265 0.030515 0.0008 3.43146e-06 -3.56404e-13 -1.06257e-12 -3.21572e-12 2.82447e-10 -2.90632e-09 1.18842e-09 -1.33911e-15 1.21482e-16 1.11033e-14 0 0 0 0 0 0 0 0
1607 1 0.00276942 -0.00454856 0.0295027 0.0008 3.43146e-06 -7.07139e-13 6.92932e-13 6.21501e-12 1.46649e-09 4.75242e-09 1.32572e-09 6.28661e-15 -1.71015e-16 -4.61744e-15 0 0 0 0 0 0 0 0
1608 1 0.00371299 -0.00318276 0.0268883 0.0008 3.43146e-06 6.7815e-13 1.08413e-12 -2.11942e-12 -4.20383e-09 -5.61361e-10 -4.58307e-11 -4.68922e-15 -6.44578e-16 2.32835e-15 0 0 0 0 0 0 0 0
1609 1 0.00394973 0.00602024 0.0278607 0.0008 3.43146e-06 1.74168e-13 1.18355e-12 -6.31091e-13 2.51864e-12 -1.49525e-09 -6.40377e-10 -1.29697e-15 -4.24938e-15 -5.33626e-15 1 -0.000115944 -0.000249287 2.67024e-05 0.00438843 0.00668892 0.0278607 0.0008
1610 1 -0.0005495 -0.000847709 0.0305415 0.0008 3.43146e-06 2.704e-13 2.72057e-13 -5.10274e-12 9.445e-10 1.50621e-10 -1.80826e-09 1.39099e-15 6.16211e-16 -8.05174e-15 0 0 0 0 0 0 0 0
1611 1 0.00702615 -0.00157349 0.0323787 0.0008 3.43146e-06 -5.06704e-13 -2.61191e-13 -5.7025e-13 -1.44874e-09 -3.82161e-10 4.41407e-10 -1.26312e-15 -1.6414e-15 -3.33215e-15 1 -0.000155834 5.85962e-05 -5.60469e-06 0.00780663 -0.00174828 0.0323787 0.0008
1612 1 -0.00301117 -0.00654027 0.0320477 0.0008 3.43146e-06 -1.04609e-12 -7.77867e-13 -2.29838e-12 -3.94532e-09 -1.87333e-09 8.54486e-10 3.96884e-16 5.02422e-17 1.20304e-15 1 6.35288e-05 0.00012206 3.0054e-06 -0.00334567 -0.00726681 0.0320477 0.0008
1613 1 -0.00326258 -0.00479089 0.0288905 0.0008 3.43146e-06 1.08306e-12 2.1676e-12 -5.72749e-12 -2.76057e-09 5.21487e-09 3.39603e-09 2.93333e-16 -1.14118e-16 -2.76374e-15 0 0 0 0 0 0 0 0
1614 1 0.00121044 -0.00709775 0.0291868 0.0008 3.43146e-06 3.97346e-13 4.20057e-13 -4.99639e-13 8.48258e-10 -8.22056e-09 -5.03661e-10 4.69558e-16 3.87665e-16 -2.04305e-16 1 2.03528e-05 0.000232244 2.32351e-05 0.00134489 -0.00788614 0.0291868 0.0008
1615 1 -0.0049509 0.00111706 0.026136 0.0008 3.43146e-06 6.90135e-13 -5.42023e-13 -5.37389e-13 -7.91598e-11 1.40255e-09 1.26614e-10 -3.39582e-15 5.73233e-16 -2.43766e-15 0 0 0 0 0 0 0 0
1616 1 0.000842947 -0.00231889 0.0282391 0.0008 3.43146e-06 -3.33654e-13 -1.08044e-12 -1.02207e-12 8.21966e-10 6.29785e-10 -8.15166e-10 3.53559e-15 1.11502e-15 1.26289e-15 0 0 0 0 0 0 0 0
1617 1 -0.00240438 -0.00367316 0.0280253 0.0008 3.43146e-06 1.0824e-12 2.00304e-13 -1.06531e-12 -3.76661e-09 2.32053e-09 1.38762e-09 -5.39194e-16 4.99495e-15 4.57487e-16 0 0 0 0 0 0 0 0
1618 1 0.00353248 0.00288786 0.0309844 0.0008 3.43146e-06 2.5479e-13 -9.92583e-13 -1.94684e-12 -1.45799e-09 1.64515e-09 -4.19564e-11 6.39098e-15 -8.16022e-15 -3.53089e-15 0 0 0 0 0 0 0 0
1619 1 -0.00183983 -0.00219049 0.0282407 0.0008 3.43146e-06 -5.42141e-13 -6.20979e-13 5.45765e-13 -8.4119e-11 3.23969e-10 1.39541e-10 -2.02035e-16 3.99133e-15 8.52689e-16 0 0 0 0 0 0 0 0
1620 1 0.00498337 0.005197 0.0269094 0.0008 3.43146e-06 4.01813e-13 1.97023e-13 -7.33504e-13 5.72963e-10 -7.68879e-10 2.7919e-10 -5.2305e-16 2.36859e-16 -3.7901e-16 1 -0.000113725 -0.000141764 -1.10144e-05 0.00553693 0.00577429 0.0269094 0.0008
1621 1 0.00175256 0.00273447 0.0297744 0.0008 3.43146e-06 -5.41729e-13 -1.08415e-12 -4.73932e-12 -2.45676e-09 3.03657e-10 1.82416e-10 3.78722e-16 3.9823e-16 1.26075e-15 0 0 0 0 0 0 0 0
1622 1 -0.0031439 0.00647785 0.0258905 0.0008 3.43146e-06 -1.08406e-12 -2.13129e-12 1.26988e-12 -3.59211e-09 3.94858e-09 -2.3967e-09 1.23881e-16 -1.85584e-15 4.3508e-16 1 0.000233572 -0.00062795 -1.04518e-05 -0.003493 0.00719715 0.0258905 0.0008
1623 1 -0.000258427 0.00148298 0.0297147 0.0008 3.43146e-06 -7.76265e-14 5.42093e-13 -5.41298e-13 6.7796e-09 -3.34728e-09 5.14362e-10 9.7015e-16 1.0386e-16 3.54062e-15 0 0 0 0 0 0 0 0
1624 1 0.00567967 0.00118926 0.0297972 0.0008 3.43146e-06 -2.07552e-12 3.04783e-14 9.06197e-13 9.15603e-10 1.56444e-09 -2.85779e-10 -1.50782e-16 -6.89274e-16 -4.79852e-15 0 0 0 0 0 0 0 0
1625 1 -0.00349496 -0.00256466 0.028401 0.0008 3.43146e-06 -6.4399e-13 -1.08375e-12 -3.37693e-12 -6.39485e-10 -1.53901e-09 2.01452e-09 2.19547e-15 -4.05421e-16 -1.01263e-15 0 0 0 0 0 0 0 0
1626 1 0.00666374 -0.00272833 0.0260272 0.0008 3.43146e-06 1.12696e-12 7.63306e-13 -1.40681e-12 -1.18671e-09 -1.39388e-09 -1.38107e-09 1.28096e-15 2.278e-15 1.65112e-15 1 -0.00101407 0.000364794 -3.30818e-05 0.0074035 -0.00303121 0.0260272 0.0008
1627 1 0.003912 0.00117541 0.0339374 0.0008 3.43146e-06 -1.68519e-12 -2.96071e-13 -2.00882e-12 -4.68497e-10 2.19671e-10 1.55499e-09 6.8658e-15 -1.48935e-15 -1.00295e-14 0 0 0 0 0 0 0 0
1628 1 0.0044028 -0.00192474 0.0335681 0.0008 3.43146e-06 -2.16722e-12 -5.41727e-13 -2.40462e-13 2.41813e-09 2.77642e-09 -1.20444e-09 -3.90906e-17 -9.33687e-16 -3.88044e-15 0 0 0 0 0 0 0 0
1629 1 0.00170099 0.0058823 0.0329211 0.0008 3.43146e-06 -5.41684e-13 -2.12224e-12 8.89743e-13 -8.7004e-10 6.46515e-09 -2.31288e-09 -5.60917e-16 3.90456e-15 7.4731e-16 0 0 0 0 0 0 0 0
1630 1 -0.00555432 -0.00458148 0.0324444 0.0008 3.43146e-06 2.70191e-13 -1.2563e-12 1.05912e-12 -1.06318e-08 -1.00248e-08 -1.89193e-09 3.3022e-15 1.52508e-15 -3.32209e-15 1 6.23638e-06 5.6307e-06 2.11255e-06 -0.00617144 -0.00509051 0.0324444 0.0008
1631 1 -0.00191952 0.00498022 0.0329921 0.0008 3.43146e-06 1.91333e-12 1.38683e-12 -6.57417e-12 1.35831e-09 3.11844e-09 -1.88198e-09 -1.34449e-14 -5.05292e-15 6.62651e-15 0 0 0 0 0 0 0 0
1632 1 -0.00415516 0.00179408 0.0315681 0.0008 3.43146e-06 -2.43482e-13 -4.7135e-13 3.55303e-12 -4.84467e-09 -7.07188e-09 7.22524e-09 1.3832e-14 2.00388e-15 4.89583e-15 0 0 0 0 0 0 0 0
1633 1 0.00337629 -0.00311028 0.0338851 0.0008 3.43146e-06 -8.5791e-13 -1.08382e-12 -1.90084e-12 2.6051e-09 1.00695e-10 1.78166e-09 2.35321e-15 2.52534e-16 -2.45477e-16 0 0 0 0 0 0 0 0
1634 1 0.00275352 0.00500039 0.0297834 0.0008 3.43146e-06 -1.08373e-12 -2.16801e-12 7.26378e-13 2.09996e-09 1.72254e-09 7.04665e-10 -3.00813e-16 -4.45722e-16 -1.31815e-15 0 0 0 0 0 0 0 0
1635 1 -0.0015286 -0.00703599 0.0325217 0.0008 3.43146e-06 5.42111e-13 -5.97708e-13 -2.46184e-12 -3.16449e-09 -2.97452e-10 -9.25057e-10 -7.29771e-16 9.45174e-16 5.34768e-16 1 2.95204e-05 8.41389e-05 2.10335e-05 -0.00169842 -0.00781763 0.0325217 0.0008
1636 1 -0.00195113 0.000813032 0.0346381 0.0008 3.43146e-06 -6.05865e-14 5.65429e-13 -5.78155e-12 3.47419e-09 -1.70234e-10 -1.64632e-09 -7.05744e-15 1.20089e-15 -6.83944e-15 0 0 0 0 0 0 0 0
1637 1 -0.00605844 0.00389066 0.0328377 0.0008 3.43146e-06 2.16741e-12 1.08463e-12 1.04526e-11 -3.71596e-09 -1.33206e-08 3.3314e-09 -1.1385e-15 1.11946e-15 3.18195e-15 1 8.86391e-05 -5.21549e-05 -3.00628e-06 -0.00673147 0.00432288 0.0328377 0.0008
1638 1 0.00719816 -0.000163889 0.0314059 0.0008 3.43146e-06 -9.39741e-13 -6.72159e-14 7.53488e-13 -9.86684e-10 9.70147e-10 5.92689e-11 2.39191e-16 2.04017e-16 2.07121e-15 1 -7.50124e-06 -2.11158e-07 -6.08247e-07 0.00799793 -0.000182098 0.0314059 0.0008
1639 1 0.00696779 0.00181396 0.0349368 0.0008 3.43146e-06 -1.45451e-13 -5.42522e-13 5.74423e-13 6.1888e-10 1.01004e-09 8.48872e-10 1.02747e-14 -2.65348e-16 4.67192e-15 1 -1.4021e-05 -7.44357e-06 -9.90348e-07 0.00774195 0.00201551 0.0349368 0.0008
1640 1 -0.000715845 -0.00716434 0.0338938 0.0008 3.43146e-06 2.71299e-13 -1.83681e-12 2.54448e-12 3.11771e-09 -2.98024e-09 -9.10626e-10 6.03993e-17 1.18787e-15 -3.0576e-15 1 -4.44952e-07 5.32318e-06 -5.07155e-07 -0.000795381 -0.00796036 0.0338938 0.0008
1641 1 -0.0018196 0.0055752 0.0315103 0.0008 3.43146e-06 -2.27103e-14 1.64739e-12 -4.97342e-12 -1.96349e-10 5.12146e-10 -6.04546e-10 -1.58767e-14 -1.27085e-15 9.98755e-15 0 0 0 0 0 0 0 0
1642 1 0.00280909 -0.000165932 0.0301463 0.0008 3.43146e-06 9.28563e-13 -3.40944e-13 1.53103e-12 -1.75866e-09 -1.19899e-10 -7.9676e-10 1.77029e-15 5.1376e-17 2.90009e-17 0 0 0 0 0 0 0 0
1643 1 -0.00326206 0.00493692 0.0342491 0.0008 3.43146e-06 -2.04805e-12 -2.16832e-12 1.34264e-11 1.62646e-08 7.40743e-09 2.99731e-09 9.8248e-16 -3.72107e-17 -5.52958e-15 0 0 0 0 0 0 0 0
1644 1 0.00512041 -0.00351457 0.0313907 0.0008 3.43146e-06 5.27344e-13 -1.08268e-12 -1.04813e-12 4.56745e-09 1.10469e-09 -2.05294e-10 -3.55908e-15 4.69527e-16 2.54969e-15 0 0 0 0 0 0 0 0
1645 1 0.00289442 0.00543993 0.0313151 0.0008 3.43146e-06 3.77451e-13 3.82591e-13 2.87257e-12 -4.04895e-09 1.07382e-09 3.21288e-09 -5.41804e-15 5.09811e-15 4.75142e-15 0 0 0 0 0 0 0 0
1646 1 0.00615015 -0.00028149 0.0327288 0.0008 3.43146e-06 -1.77437e-12 4.54045e-14 -1.77571e-12 -3.22358e-10 -1.0811e-11 8.41828e-10 -9.39678e-16 -2.20801e-15 -6.23058e-15 0 0 0 0 0 0 0 0
1647 1 -0.000848867 0.00290617 0.0334228 0.0008 3.43146e-06 2.91833e-13 9.5349e-13 7.00776e-12 -3.33728e-09 4.15799e-09 -3.75551e-09 -1.97493e-15 1.14026e-15 -1.06456e-14 0 0 0 0 0 0 0 0
1648 1 0.000291801 -0.00719412 0.0326514 0.0008 3.43146e-06 1.35255e-13 -1.83306e-12 -1.13516e-12 -1.78079e-09 5.86708e-09 -3.64703e-10 -1.86486e-19 -3.647e-16 -2.92252e-17 1 -1.30228e-06 1.22359e-05 -1.76617e-07 0.000324222 -0.00799343 0.0326514 0.0008
1649 1 -0.00464416 -0.00322806 0.0343235 0.0008 3.43146e-06 -2.16488e-12 -9.73805e-13 -6.344e-13 2.99938e-09 2.88129e-09 -4.84508e-09 4.4355e-16 1.88481e-15 -3.47426e-15 0 0 0 0 0 0 0 0
1650 1 -0.00464434 0.00550211 0.0315863 0.0008 3.43146e-06 5.72924e-13 -3.04814e-13 -1.52912e-12 -5.08588e-09 8.95716e-09 1.88639e-10 -5.51285e-15 4.43988e-15 6.8041e-15 1 0.000102485 -0.00018105 2.19202e-06 -0.00516022 0.00611327 0.0315863 0.0008
1651 1 0.00512094 -0.000552638 0.0315344 0.0008 3.43146e-06 7.47488e-13 -4.19136e-13 9.68988e-13 -5.87594e-10 -4.40854e-11 3.86136e-10 6.50947e-15 -3.51595e-16 3.06192e-15 0 0 0 0 0 0 0 0
1652 1 -0.00551519 0.00253429 0.0321504 0.0008 3.43146e-06 -4.50382e-13 3.55054e-13 -8.88791e-12 -1.11945e-08 5.27726e-09 -4.1347e-09 1.99495e-14 -3.40049e-16 4.74715e-15 0 0 0 0 0 0 0 0
1653 1 0.00700151 0.00167912 0.0320346 0.0008 3.43146e-06 -2.38112e-13 -4.87003e-13 1.39413e-12 8.54833e-10 1.95597e-09 5.36041e-10 -3.6878e-15 -1.59003e-15 -2.09017e-15 1 -1.56157e-05 -1.10767e-06 3.7004e-06 0.00777941 0.00186568 0.0320346 0.0008
1654 1 -0.0059908 -0.0039939 0.033867 0.0008 3.43146e-06 2.08717e-12 -1.23505e-14 -2.65298e-12 8.51368e-09 9.73073e-09 -1.72847e-09 -1.17272e-15 8.91944e-15 -1.14595e-16 1 2.63635e-05 1.72045e-05 2.16464e-06 -0.00665638 -0.00443763 0.033867 0.0008
1655 1 0.00284567 -0.00661382 0.0341618 0.0008 3.43146e-06 -9.18038e-14 -1.75963e-12 5.79844e-13 4.52879e-10 6.61507e-10 9.60476e-10 -3.75316e-16 -2.60306e-15 7.59009e-16 1 -2.89993e-06 1.15769e-05 -6.16616e-07 0.00316184 -0.00734866 0.0341618 0.0008
1656 1 0.00357812 -0.00192365 0.0349391 0.0008 3.43146e-06 -1.08367e-12 -4.89525e-13 5.61579e-13 -8.72811e-10 -1.13997e-09 -1.71485e-09 -9.41631e-17 1.75204e-15 -7.21553e-15 0 0 0 0 0 0 0 0
1657 1 -0.00703594 -0.00152831 0.0348284 0.0008 3.43146e-06 -1.00037e-12 -1.18289e-13 -1.19209e-11 -9.88523e-10 1.47775e-08 -3.86841e-11 -4.11936e-15 8.32714e-15 -1.17698e-14 1 3.94113e-06 4.96092e-07 2.76812e-07 -0.0078177 -0.00169812 0.0348284 0.0008
1658 1 -0.00711721 0.000429975 0.0336351 0.0008 3.43146e-06 -2.10323e-12 2.0907e-12 1.72763e-11 -2.7144e-09 -2.63425e-09 -5.74481e-09 3.79696e-15 8.16669e-15 1.25195e-15 0 0 0 0 0 0 0 0
1659 1 1.28116e-05 0.00151879 0.0332453 0.0008 3.43146e-06 -1.55616e-14 -5.42486e-13 -5.74734e-13 1.53983e-09 -2.654e-10 3.7137e-09 -4.19693e-15 1.79916e-16 -4.98554e-15 0 0 0 0 0 0 0 0
1660 1 0.00631976 0.000898257 0.033796 0.0008 3.43146e-06 -1.41882e-12 -2.71189e-13 -1.20796e-12 1.07323e-09 -5.14886e-10 -1.78713e-09 4.16202e-15 5.81778e-16 1.64499e-15 0 0 0 0 0 0 0 0
1661 1 0.00218147 0.000387127 0.0349824 0.0008 3.43146e-06 -1.08414e-12 -1.22879e-13 -1.81377e-12 2.24411e-10 1.18229e-09 1.30995e-09 7.33584e-16 1.08074e-15 -1.9484e-14 0 0 0 0 0 0 0 0
1662 1 -0.00231785 -0.00427414 0.0339274 0.0008 3.43146e-06 -6.79209e-13 2.16938e-12 -1.90952e-12 2.38608e-09 1.22809e-09 7.29608e-10 -2.51041e-15 9.05552e-15 -1.52517e-14 0 0 0 0 0 0 0 0
1663 1 -0.00505246 -0.00512982 0.0310277 0.0008 3.43146e-06 1.40614e-12 -1.80159e-12 3.14499e-12 1.11189e-08 5.83217e-09 -2.92678e-09 1.01361e-15 -8.32711e-16 -2.65517e-16 1 9.039e-05 0.000120778 2.59844e-05 -0.00561372 -0.00569966 0.0310277 0.0008
1664 1 -0.00274067 -0.00266191 0.0328317 0.0008 3.43146e-06 -5.16537e-13 6.72587e-13 -4.67057e-12 5.61461e-09 3.63236e-09 1.66767e-09 -5.37956e-17 8.47137e-16 -2.9697e-16 0 0 0 0 0 0 0 0
1665 1 -0.00195846 -0.00545929 0.029915 0.0008 3.43146e-06 -1.08403e-12 1.721e-12 2.12971e-12 2.94874e-10 -9.69441e-11 1.78004e-09 -1.45574e-16 5.38461e-15 2.69118e-15 0 0 0 0 0 0 0 0
1666 1 0.00641645 -0.00295669 0.0300341 0.0008 3.43146e-06 -7.85248e-13 4.71222e-13 -1.70249e-12 1.41849e-09 1.85348e-09 -2.28327e-09 3.58901e-15 3.44219e-15 -2.87134e-15 0 0 0 0 0 0 0 0
1667 1 0.00236172 0.00542879 0.0348059 0.0008 3.43146e-06 1.14747e-12 -2.16833e-12 8.35204e-13 -2.79944e-10 3.52588e-09 8.73513e-09 -2.51668e-15 -6.09832e-16 3.15106e-15 0 0 0 0 0 0 0 0
1668 1 0.00679254 0.00238789 0.0334536 0.0008 3.43146e-06 -4.63126e-13 -1.0842e-12 -9.19602e-13 -1.6957e-09 -1.85489e-09 1.03959e-09 -1.15689e-15 -5.55777e-16 4.4298e-15 1 -1.47032e-05 -9.25205e-06 3.81835e-06 0.00754722 0.0026532 0.0334536 0.0008
1669 1 -0.000169616 -0.00535821 0.0343102 0.0008 3.43146e-06 -6.03673e-14 1.39388e-12 -5.74327e-12 2.21818e-09 1.19175e-09 1.15212e-09 -4.09475e-16 4.21784e-15 4.13164e-16 0 0 0 0 0 0 0 0
1670 1 0.00614848 0.00374473 0.0297598 0.0008 3.43146e-06 -1.66215e-12 -2.54858e-13 7.98146e-13 -6.34153e-10 -1.39692e-09 2.19918e-09 -4.09698e-15 2.1613e-15 -6.51394e-16 0 0 0 0 0 0 0 0
1671 1 -0.00499795 -0.00518284 0.0342675 0.0008 3.43146e-06 1.42328e-12 5.91621e-13 -6.2819e-12 -1.0997e-08 -1.75915e-10 -7.30548e-10 3.46738e-15 2.89311e-15 1.40888e-15 1 3.94331e-05 4.51594e-05 7.28278e-08 -0.00555321 -0.00575864 0.0342675 0.0008
1672 1 0.00363171 -0.00455798 0.0332537 0.0008 3.43146e-06 -6.16798e-13 -2.16752e-12 -5.08414e-12 -3.80353e-10 4.99086e-09 2.74464e-10 -5.28199e-16 -3.72945e-16 2.93084e-15 0 0 0 0 0 0 0 0
1673 1 0.00329927 0.00227553 0.0329504 0.0008 3.43146e-06 -9.82232e-13 -1.08383e-12 -2.93044e-12 -4.22648e-10 -2.03319e-09 -1.04339e-09 7.75573e-16 -1.73315e-16 -9.51457e-15 0 0 0 0 0 0 0 0
1674 1 0.00100989 0.00494143 0.0341023 0.0008 3.43146e-06 5.4167e-13 -1.00449e-12 7.05143e-12 9.71579e-09 5.81227e-09 -5.57572e-09 9.08147e-16 -5.75642e-15 -3.90712e-15 0 0 0 0 0 0 0 0
1675 1 -0.00136769 0.0015907 0.0324398 0.0008 3.43146e-06 -5.42059e-13 7.54695e-13 1.73127e-12 3.66191e-09 3.36987e-09 -3.96878e-09 -4.46924e-17 -2.63647e-15 6.91634e-15 0 0 0 0 0 0 0 0
1676 1 0.000543952 -0.00256685 0.0327598 0.0008 3.43146e-06 -3.12648e-13 4.28377e-13 7.2365e-13 -4.90367e-11 -2.47438e-09 1.35596e-09 3.0057e-15 -4.71313e-15 -9.77168e-15 0 0 0 0 0 0 0 0
1677 1 0.0049772 -0.000450248 0.0338036 0.0008 3.43146e-06 -1.74138e-12 -9.1881e-14 -7.02509e-13 -1.83175e-09 6.4916e-10 1.21993e-09 1.23018e-15 -4.52377e-16 -3.40553e-15 0 0 0 0 0 0 0 0
1678 1 -0.00337209 0.00334613 0.0341186 0.0008 3.43146e-06 -7.37833e-13 -1.33455e-12 8.22884e-12 -1.00017e-08 -5.53354e-09 -7.01786e-10 -1.28225e-14 1.21323e-14 1.70348e-14 0 0 0 0 0 0 0 0
1679 1 -0.00708873 -0.00126225 0.0295511 0.0008 3.43146e-06 -6.48142e-13 5.41842e-13 3.51031e-13 1.62159e-10 -3.02141e-10 1.03726e-09 -3.88106e-15 8.8248e-16 -5.77518e-15 1 0.000232957 8.68594e-05 3.38346e-05 -0.00787611 -0.00140246 0.0295511 0.0008
1680 1 -0.000886319 -0.00202742 0.0295149 0.0008 3.43146e-06 -7.97448e-13 1.05219e-12 -3.42518e-12 -1.55607e-09 2.6816e-09 1.76287e-09 1.4593e-15 4.73633e-15 -1.18686e-15 0 0 0 0 0 0 0 0
1681 1 -0.0051092 -0.00308623 0.0327993 0.0008 3.43146e-06 -1.79978e-12 3.87934e-13 -5.59563e-12 -2.79497e-09 -4.68233e-09 1.14243e-09 3.76785e-15 7.31451e-15 5.57768e-15 0 0 0 0 0 0 0 0
1682 1 -0.00520099 0.000755398 0.0342592 0.0008 3.43146e-06 -8.06844e-14 1.5528e-13 1.63158e-12 -8.86384e-10 -1.5335e-09 -1.12917e-09 3.1826e-14 6.60212e-15 1.46519e-14 0 0 0 0 0 0 0 0
1683 1 -0.00401352 -0.00198997 0.0335302 0.0008 3.43146e-06 2.16742e-12 -8.13224e-13 -3.28675e-12 -3.97601e-09 -1.11719e-09 -1.51134e-09 6.74877e-17 4.6077e-15 2.24372e-15 0 0 0 0 0 0 0 0
1684 1 4.28216e-05 -0.000757917 0.0332467 0.0008 3.43146e-06 -2.11476e-14 -2.07631e-13 -3.65464e-12 1.05526e-09 6.33245e-10 9.26957e-11 1.82555e-15 8.32182e-16 -6.55567e-15 0 0 0 0 0 0 0 0
1685 1 0.0014879 -0.000574882 0.0339085 0.0008 3.43146e-06 -5.41817e-13 -3.56268e-13 -2.79566e-12 6.05988e-10 -1.44797e-09 2.09281e-10 -2.3641e-16 -2.29613e-15 -8.01415e-15 0 0 0 0 0 0 0 0
1686 1 -0.00569558 -0.000389522 0.0331911 0.0008 3.43146e-06 -3.47205e-13 6.51047e-13 1.21693e-11 -4.99184e-09 1.40621e-08 -5.23296e-09 6.11927e-15 1.07438e-14 1.52774e-14 0 0 0 0 0 0 0 0
1687 1 -0.0030703 -0.00104711 0.0324023 0.0008 3.43146e-06 -7.55139e-13 5.82207e-13 -6.05912e-12 -3.75847e-09 -2.23921e-09 1.77475e-09 2.2384e-15 -6.07968e-16 -1.15588e-14 0 0 0 0 0 0 0 0
1688 1 -0.00677467 0.00243838 0.0299639 0.0008 3.43146e-06 -9.52342e-13 -3.01576e-13 1.7949e-12 -1.90414e-09 -2.02018e-09 -7.28428e-10 3.55117e-15 -3.71685e-15 1.06229e-14 1 8.50505e-05 -4.36043e-05 2.88061e-06 -0.00752728 0.00270926 0.0299639 0.0008
1689 1 0.00533572 0.00234907 0.0327422 0.0008 3.43146e-06 -8.29456e-13 -5.12818e-13 -6.38473e-13 3.30941e-10 -1.14476e-09 3.30325e-10 3.7354e-15 -1.45407e-15 -2.52253e-15 0 0 0 0 0 0 0 0
1690 1 0.00272407 -0.0051093 0.0310002 0.0008 3.43146e-06 4.36045e-13 6.44596e-13 -6.01736e-12 3.85166e-09 -5.32391e-09 3.02411e-09 7.61949e-15 -5.04436e-15 -5.36366e-15 0 0 0 0 0 0 0 0
1691 1 -0.00675518 0.00249207 0.0331809 0.0008 3.43146e-06 1.88429e-12 1.08236e-12 1.01635e-11 -7.44399e-09 -1.06146e-08 1.72952e-09 6.1982e-15 1.08421e-15 -7.70763e-16 1 0.000187558 -4.56401e-05 -1.01659e-05 -0.00750555 0.00276889 0.0331809 0.0008
1692 1 0.0033161 -0.00222754 0.0323829 0.0008 3.43146e-06 2.28827e-13 2.65397e-13 7.17234e-14 -2.77601e-09 4.0834e-10 1.76834e-09 2.45191e-15 -2.40129e-15 -1.6263e-15 0 0 0 0 0 0 0 0
1693 1 0.00373248 0.000274929 0.0313762 0.0008 3.43146e-06 -1.23175e-13 -4.11674e-13 -3.51725e-14 -1.17992e-10 -4.40004e-10 -5.64326e-10 8.71194e-16 -8.87227e-16 -8.30237e-15 0 0 0 0 0 0 0 0
1694 1 -0.000951488 0.00713692 0.0347061 0.0008 3.43146e-06 3.65508e-12 2.13497e-12 7.763e-12 -8.53973e-09 -8.49362e-09 4.87213e-09 8.61247e-15 -1.25833e-15 -1.82024e-15 1 5.17146e-06 -3.56248e-05 2.9871e-06 -0.0010572 0.00792984 0.0347061 0.0008
1695 1 0.000572883 0.00377473 0.0327527 0.0008 3.43146e-06 2.70751e-13 4.87584e-13 2.12381e-12 -7.82821e-09 4.12515e-09 -2.26408e-09 -5.98676e-17 -3.01208e-15 -6.53312e-15 0 0 0 0 0 0 0 0
1696 1 0.00523253 0.00494586 0.0344217 0.0008 3.43146e-06 -2.16785e-12 -1.49806e-12 -1.37251e-12 -3.03381e-11 -2.31463e-09 -5.46236e-10 -3.68468e-16 -2.39129e-15 -6.00019e-15 1 -1.66734e-05 -2.70715e-05 -3.16143e-06 0.00581387 0.00549535 0.0344217 0.0008
1697 1 -0.00455287 0.00296778 0.0351298 0.0008 3.43146e-06 2.9962e-13 -2.55746e-12 -3.42963e-12 1.30009e-08 -4.62121e-09 3.27125e-09 -4.66289e-14 4.1704e-14 2.97989e-14 0 0 0 0 0 0 0 0
1698 1 -0.000770519 0.00295788 0.0293576 0.0008 3.43146e-06 -3.72811e-13 2.01753e-13 4.15534e-12 4.97258e-09 1.4788e-09 -1.62329e-08 9.43224e-15 -2.38678e-15 -7.41121e-15 0 0 0 0 0 0 0 0
1699 1 -0.00635932 -0.00169109 0.0319844 0.0008 3.43146e-06 1.62038e-12 1.6159e-12 3.03527e-12 -9.83665e-10 8.70251e-09 -1.06737e-08 1.15779e-15 -3.25542e-16 3.35218e-15 0 0 0 0 0 0 0 0
1700 1 0.00450072 -0.000680465 0.0288367 0.0008 3.43146e-06 1.85933e-12 -1.67575e-13 1.99269e-12 -9.70465e-10 -4.21089e-10 1.08351e-09 -9.65194e-16 1.30682e-15 -4.53382e-15 0 0 0 0 0 0 0 0
1701 1 0.00467273 -0.00337935 0.0329593 0.0008 3.43146e-06 -1.03474e-12 -8.93306e-13 -3.67812e-12 1.99051e-09 -5.94568e-09 1.1759e-09 2.14775e-15 -2.18176e-15 6.37256e-16 0 0 0 0 0 0 0 0
1702 1 0.0035877 -0.000256713 0.0345728 0.0008 3.43146e-06 -1.08412e-12 4.01917e-13 -1.62936e-12 -7.74637e-10 -9.85628e-10 -5.93617e-10 -8.43684e-16 1.85946e-16 -1.05498e-14 0 0 0 0 0 0 0 0
1703 1 0.000473529 -0.00327102 0.0345935 0.0008 3.43146e-06 3.1716e-13 -8.80972e-13 -3.46662e-12 1.09109e-09 7.05846e-10 1.25324e-09 -2.45673e-15 1.96908e-15 -6.58199e-15 0 0 0 0 0 0 0 0
1704 1 -0.00323255 0.00243961 0.0327796 0.0008 3.43146e-06 6.0872e-13 -1.1385e-12 -7.21319e-12 7.65074e-09 -2.99814e-09 -1.5792e-09 -4.8717e-15 -8.35525e-15 1.20327e-14 0 0 0 0 0 0 0 0
1705 1 -0.000459889 0.000374614 0.0342589 0.0008 3.43146e-06 -5.36541e-13 -6.44991e-13 -3.38855e-12 4.36724e-10 -3.76328e-09 -1.63003e-09 -8.94885e-16 3.32838e-15 1.61693e-15 0 0 0 0 0 0 0 0
1706 1 0.00276576 -0.00145263 0.031096 0.0008 3.43146e-06 4.97601e-14 -5.42137e-13 1.38947e-13 3.12842e-09 -1.75483e-09 1.05811e-09 -3.26187e-15 2.03848e-16 -2.13187e-15 0 0 0 0 0 0 0 0
1707 1 -0.00265832 -0.00669134 0.0336009 0.0008 3.43146e-06 4.63357e-14 1.41408e-12 -2.4202e-15 1.00757e-09 2.43926e-09 5.61078e-10 4.8234e-15 8.00056e-15 5.90205e-15 1 6.29036e-06 2.00388e-05 2.98625e-06 -0.00295367 -0.00743477 0.0336009 0.0008
1708 1 -0.00434976 0.000820337 0.0328226 0.0008 3.43146e-06 -3.97767e-13 -7.18901e-13 5.6479e-12 2.59889e-09 2.29434e-09 -1.27785e-09 2.55284e-14 2.46753e-15 -6.82264e-16 0 0 0 0 0 0 0 0
1709 1 -0.0050027 0.00478043 0.0336459 0.0008 3.43146e-06 1.33368e-12 -8.71656e-14 1.58956e-11 1.68039e-08 1.57887e-08 2.34944e-09 -2.97871e-15 3.34676e-14 -1.94987e-14 0 0 0 0 0 0 0 0
1710 1 -0.00253285 -0.00510927 0.0325798 0.0008 3.43146e-06 -9.22459e-13 1.7725e-12 -4.50592e-12 -1.19377e-09 -1.94422e-09 -1.77982e-09 -2.53212e-15 1.06397e-15 5.06711e-15 0 0 0 0 0 0 0 0
1711 1 0.00718593 -0.000452503 0.0339359 0.0008 3.43146e-06 -6.69005e-13 1.86446e-13 -1.96705e-13 3.40153e-10 -2.35407e-10 -2.03426e-10 3.38575e-15 -1.67712e-15 -3.1157e-15 1 -0.000145626 1.08558e-05 -4.08503e-05 0.00798419 -0.000502769 0.0339359 0.0008
1712 1 -0.00435968 -0.00573004 0.032339 0.0008 3.43146e-06 1.55395e-12 2.16151e-13 -8.08974e-12 -1.06775e-08 2.81783e-09 -1.25514e-09 -3.29658e-15 -7.41838e-16 -3.68258e-16 1 1.66077e-06 2.4687e-06 2.72988e-07 -0.00484408 -0.0063667 0.032339 0.0008
1713 1 -0.00106431 -0.00558251 0.0330029 0.0008 3.43146e-06 9.95524e-15 2.1671e-12 -3.54242e-12 1.08988e-09 9.71019e-10 2.74743e-09 2.70124e-15 8.46924e-16 -4.08517e-15 0 0 0 0 0 0 0 0
1714 1 -0.00136929 8.30294e-05 0.0329752 0.0008 3.43146e-06 3.18599e-13 7.41586e-13 -4.7666e-12 3.1766e-09 2.43183e-09 3.44253e-09 2.48007e-15 8.46235e-15 9.74394e-15 0 0 0 0 0 0 0 0
1715 1 -0.000467861 0.00441742 0.0337839 0.0008 3.43146e-06 -3.9552e-13 7.5382e-13 8.8685e-12 7.42454e-09 3.15584e-09 6.57694e-09 1.24668e-15 -5.98601e-15 -1.94535e-14 0 0 0 0 0 0 0 0
1716 1 0.00464716 0.00354156 0.0319277 0.0008 3.43146e-06 1.0788e-12 -3.60235e-13 -1.17905e-12 4.13227e-10 -2.37556e-09 -7.29028e-10 5.83004e-15 -6.12496e-15 8.1985e-16 0 0 0 0 0 0 0 0
1717 1 -0.00272876 0.000988919 0.033251 0.0008 3.43146e-06 -1.02913e-12 5.90224e-13 3.55964e-12 -2.66154e-09 6.67752e-09 7.41798e-10 1.96247e-15 -5.15853e-15 -2.86418e-14 0 0 0 0 0 0 0 0
1718 1 0.00609193 -0.00159105 0.0336775 0.0008 3.43146e-06 -8.27695e-13 5.41896e-13 -3.10609e-13 -1.02765e-10 1.80694e-10 1.42808e-11 1.70867e-15 9.26962e-17 -4.29616e-15 0 0 0 0 0 0 0 0
1719 1 -0.00384995 0.00448519 0.0306405 0.0008 3.43146e-06 -3.71035e-13 -2.00854e-12 -3.65619e-12 -1.98298e-10 -8.10352e-12 4.31457e-09 2.07988e-15 -3.69944e-15 8.99313e-15 0 0 0 0 0 0 0 0
1720 1 -0.000777593 -0.00409982 0.0335313 0.0008 3.43146e-06 2.56412e-14 1.67077e-12 -3.7266e-12 -5.50695e-10 1.05821e-09 -2.17981e-09 2.26507e-15 -1.71406e-15 -1.38578e-15 0 0 0 0 0 0 0 0
1721 1 -0.00109156 -0.00441634 0.0318166 0.0008 3.43146e-06 -5.35622e-13 1.26594e-12 -5.55926e-12 5.22599e-09 1.38119e-09 1.23288e-09 2.74738e-16 5.47468e-15 -6.09146e-16 0 0 0 0 0 0 0 0
1722 1 0.00540211 -0.00292977 0.0343105 0.0008 3.43146e-06 -2.07967e-12 9.34949e-13 -4.50737e-12 -4.63998e-09 5.06974e-09 -9.19008e-10 1.55587e-15 -3.46036e-15 7.8075e-15 0 0 0 0 0 0 0 0
1723 1 0.00286933 -0.00133309 0.033632 0.0008 3.43146e-06 -5.07003e-13 5.40434e-13 -1.86569e-12 6.49329e-10 -4.86886e-10 4.64184e-10 4.29253e-15 -5.23105e-16 -3.90289e-15 0 0 0 0 0 0 0 0
1724 1 -0.00117102 0.0071043 0.0325488 0.0008 3.43146e-06 2.9198e-13 -9.04435e-13 9.77769e-12 -1.37675e-08 9.09742e-09 -1.51228e-10 1.25938e-14 1.35752e-14 -1.26547e-14 1 -4.77261e-06 -0.000145601 1.77749e-05 -0.0013011 0.00789349 0.0325488 0.0008
1725 1 0.0010098 -0.0070246 0.034071 0.0008 3.43146e-06 5.41142e-13 -2.16585e-12 -9.96502e-12 1.29499e-09 -3.11098e-10 6.40833e-10 1.36398e-16 6.44829e-17 5.70488e-15 0 0 0 0 0 0 0 0
1726 1 -0.00303591 0.00345586 0.0315557 0.0008 3.43146e-06 1.08323e-12 1.04326e-12 -4.69113e-12 -4.9317e-10 1.23292e-09 -8.52308e-10 -9.97043e-18 -3.52559e-15 -5.77853e-15 0 0 0 0 0 0 0 0
1727 1 0.0049621 -0.00521717 0.0338496 0.0008 3.43146e-06 -1.59923e-12 -7.48095e-13 -3.56999e-12 1.83895e-09 -8.43141e-09 2.0545e-09 2.85559e-15 1.52424e-15 2.51697e-16 1 -4.57665e-05 3.89549e-05 -4.08851e-06 0.00551337 -0.00579678 0.0338496 0.0008
1728 1 0.00199301 -0.00359531 0.0305261 0.0008 3.43146e-06 -9.57674e-13 -1.08358e-12 5.3726e-12 -1.42523e-09 -4.50716e-09 8.74552e-10 4.87573e-15 -7.07909e-16 -3.24696e-16 0 0 0 0 0 0 0 0
1729 1 0.00173967 0.00457244 0.0320032 0.0008 3.43146e-06 5.42101e-13 -2.16801e-12 1.42604e-12 6.61005e-11 -7.38909e-09 3.16847e-09 -8.08747e-16 -5.20775e-16 -8.22851e-15 0 0 0 0 0 0 0 0
1730 1 -0.000438906 -0.00158578 0.0319652 0.0008 3.43146e-06 1.14433e-13 5.42083e-13 -3.07452e-12 -1.08824e-09 -1.39855e-09 -1.40345e-09 -1.86186e-15 -8.67959e-18 -8.81333e-15 0 0 0 0 0 0 0 0
1731 1 -0.00711085 -0.00113022 0.0332806 0.0008 3.43146e-06 -2.16758e-12 1.63648e-12 1.11246e-11 1.03877e-08 -1.24641e-08 2.47733e-09 6.90224e-16 -7.6586e-16 5.30478e-15 1 8.30955e-05 5.28957e-06 5.96938e-06 -0.00790082 -0.00125578 0.0332806 0.0008
1732 1 0.00209127 0.00688963 0.0317352 0.0008 3.43146e-06 -1.05878e-12 -2.135e-12 -3.04055e-12 4.58325e-09 1.69462e-09 -4.86502e-10 2.2222e-15 3.02776e-15 1.42827e-14 1 -4.05834e-06 -9.84564e-06 -1.66521e-06 0.00232363 0.00765511 0.0317352 0.0008
1733 1 0.00146078 -0.00586642 0.0316247 0.0008 3.43146e-06 5.41933e-13 -2.1367e-12 -8.1031e-12 -3.63348e-09 1.88256e-09 9.43712e-10 8.52382e-16 -2.81015e-15 8.32542e-18 0 0 0 0 0 0 0 0
1734 1 0.00300982 0.000540107 0.0327788 0.0008 3.43146e-06 -4.5398e-13 4.05996e-15 -5.82185e-15 -1.099e-11 1.61846e-10 -1.09295e-09 1.99537e-15 1.69137e-15 -8.93207e-15 0 0 0 0 0 0 0 0
1735 1 0.00527871 0.00489652 0.0325902 0.0008 3.43146e-06 5.77175e-13 -1.88589e-12 8.55535e-13 -1.8774e-09 -1.61773e-10 2.16933e-09 -4.53798e-15 2.67529e-15 -1.19331e-15 1 -1.53909e-05 -1.13342e-05 2.81032e-06 0.0058652 0.00544054 0.0325902 0.0008
1736 1 -0.00208966 -0.00273299 0.0342914 0.0008 3.43146e-06 -9.78493e-14 1.08804e-12 -5.28652e-12 -6.39018e-09 -2.38421e-09 -1.70234e-09 1.3882e-14 2.08847e-15 -2.05172e-15 0 0 0 0 0 0 0 0
1737 1 0.00313875 0.00338409 0.0342759 0.0008 3.43146e-06 -6.35718e-13 -1.08292e-12 -4.3854e-12 -1.92587e-09 -5.79459e-09 -2.45202e-10 4.04625e-15 -2.06412e-16 1.90349e-15 0 0 0 0 0 0 0 0
1738 1 0.00539928 -0.00210109 0.0323285 0.0008 3.43146e-06 -5.93429e-13 -1.08387e-12 -6.74146e-13 -1.74757e-09 -6.84835e-10 5.19988e-10 6.10668e-15 1.47549e-16 -1.22967e-15 0 0 0 0 0 0 0 0
1739 1 -0.00592669 -0.000300417 0.0300838 0.0008 3.43146e-06 -1.97713e-12 1.67174e-13 1.67835e-12 -8.46784e-10 -3.23995e-09 -1.07914e-09 -7.83713e-15 -6.78467e-15 -1.25119e-14 0 0 0 0 0 0 0 0
1740 1 0.000444931 0.00130079 0.0312196 0.0008 3.43146e-06 4.12865e-13 4.22103e-13 8.99434e-13 2.93184e-09 1.38439e-09 -3.64731e-09 -3.93978e-17 -3.424e-15 -4.70684e-15 0 0 0 0 0 0 0 0
1741 1 -0.00218661 0.00227521 0.0340326 0.0008 3.43146e-06 1.08414e-12 -1.02844e-12 8.68768e-12 1.26209e-08 2.03223e-09 2.11316e-09 -6.95877e-16 -1.78577e-15 -1.20169e-15 0 0 0 0 0 0 0 0
1742 1 0.000271878 0.00395814 0.0351262 0.0008 3.43146e-06 2.20108e-13 -8.05914e-14 2.76377e-12 -2.02109e-09 -1.72517e-09 -1.27338e-09 -4.76794e-15 -1.45663e-14 -1.17017e-14 0 0 0 0 0 0 0 0
1743 1 0.000204492 -0.00225621 0.0306629 0.0008 3.43146e-06 -2.88276e-13 7.55297e-13 1.50109e-13 7.72863e-11 -6.06017e-10 6.74718e-11 -5.59196e-15 -9.45281e-16 8.53991e-16 0 0 0 0 0 0 0 0
1744 1 -0.000138601 0.00658947 0.0314405 0.0008 3.43146e-06 -3.19891e-13 -2.1524e-12 4.79699e-12 7.21044e-09 -1.12836e-09 6.9197e-09 9.17064e-15 2.01202e-15 -1.45235e-14 0 0 0 0 0 0 0 0
1745 1 -0.0066842 -0.00267637 0.0332813 0.0008 3.43146e-06 2.7407e-13 1.08422e-12 4.69562e-14 -7.67181e-09 -3.28962e-09 1.30061e-09 -4.39474e-15 8.81708e-16 3.64842e-16 1 7.05904e-05 1.25425e-05 8.34824e-06 -0.00742678 -0.0029737 0.0332813 0.0008
1746 1 -0.00165675 -0.00149738 0.0330014 0.0008 3.43146e-06 5.25068e-13 4.56496e-13 -3.84467e-12 3.49721e-10 1.12937e-09 -2.40379e-09 -3.03302e-15 1.52194e-14 -9.63416e-15 0 0 0 0 0 0 0 0
1747 1 0.000846619 -0.0047112 0.0305381 0.0008 3.43146e-06 -2.76294e-13 1.90926e-12 3.62867e-12 -4.79871e-09 -4.1356e-09 -2.96223e-09 1.60584e-15 -9.50768e-15 -1.21943e-15 0 0 0 0 0 0 0 0
1748 1 -0.000151197 0.00254526 0.0320291 0.0008 3.43146e-06 3.56034e-13 -7.32913e-14 5.24111e-12 3.7417e-09 -3.80761e-09 1.22983e-09 4.76855e-16 -1.45257e-14 -2.29686e-15 0 0 0 0 0 0 0 0
1749 1 0.00079785 -0.0040825 0.0332533 0.0008 3.43146e-06 -2.70992e-13 -2.16756e-12 -4.81117e-12 -1.55405e-09 2.59982e-10 -2.24004e-09 7.24091e-17 -1.56598e-16 -2.02676e-15 0 0 0 0 0 0 0 0
1750 1 -0.00422221 -0.000429229 0.0338136 0.0008 3.43146e-06 1.79744e-12 -5.08892e-13 -1.91908e-12 4.83161e-09 2.63267e-09 2.18948e-09 1.07777e-14 7.08369e-15 1.34463e-14 0 0 0 0 0 0 0 0
1751 1 0.00180251 -0.00111725 0.0324365 0.0008 3.43146e-06 9.52684e-13 -5.55715e-13 -2.04996e-12 -5.80078e-10 -5.59934e-10 4.32352e-10 -1.20513e-15 4.58449e-15 -2.41249e-15 0 0 0 0 0 0 0 0
1752 1 0.0010521 0.00041657 0.0327309 0.0008 3.43146e-06 5.42145e-13 -1.78194e-13 -2.03258e-12 -4.26674e-10 1.66897e-09 -2.56349e-09 -1.86942e-17 -5.17084e-15 -4.2515e-16 0 0 0 0 0 0 0 0
1753 1 0.000332021 0.00414219 0.029758 0.0008 3.43146e-06 2.60353e-13 1.64923e-12 -3.16891e-12 6.08136e-10 1.80982e-09 -4.2854e-09 5.50187e-16 7.14084e-16 6.1682e-15 0 0 0 0 0 0 0 0
1754 1 0.000783843 0.00715744 0.0326176 0.0008 3.43146e-06 -4.51771e-13 -1.23084e-12 3.32156e-12 -3.87122e-09 5.06586e-09 -4.98848e-10 1.24426e-14 -6.07497e-15 -1.25478e-14 1 -2.21558e-05 -0.000244149 -1.48514e-05 0.000870908 0.00795245 0.0326176 0.0008
1755 1 0.00031324 -0.00131042 0.0347237 0.0008 3.43146e-06 -5.21558e-13 3.74756e-13 -5.81333e-12 -9.89691e-10 -6.8877e-10 -6.70022e-10 -4.69429e-15 1.24526e-14 -1.12319e-15 0 0 0 0 0 0 0 0
1756 1 -0.00637796 -0.00334113 0.0318586 0.0008 3.43146e-06 -1.18476e-12 1.08405e-12 -2.72097e-12 8.1301e-09 7.7798e-09 1.93373e-09 2.91189e-16 2.02753e-16 -1.31313e-15 1 7.49284e-05 1.57898e-05 8.47516e-06 -0.00708652 -0.00371231 0.0318586 0.0008
1757 1 -0.000605121 -0.00245784 0.0354509 0.0008 3.43146e-06 1.72669e-13 2.64933e-13 -6.74522e-13 -2.03664e-09 2.20265e-09 -7.73443e-10 1.10346e-14 -2.32801e-15 -1.5709e-14 0 0 0 0 0 0 0 0
1758 1 -0.00110306 -0.00295325 0.032464 0.0008 3.43146e-06 -5.10624e-13 5.68958e-14 -1.50899e-12 2.83512e-10 2.98101e-09 4.52953e-10 1.50352e-15 3.64808e-15 -9.60923e-15 0 0 0 0 0 0 0 0
1759 1 -0.00282503 -0.000398441 0.0305011 0.0008 3.43146e-06 7.55417e-13 -2.38147e-13 2.81401e-12 3.69201e-09 6.2384e-09 2.52161e-09 -4.53446e-15 3.66291e-15 4.48011e-15 0 0 0 0 0 0 0 0
1760 1 0.000554477 0.00271014 0.0341657 0.0008 3.43146e-06 -1.70007e-13 -1.08411e-12 2.10774e-12 2.40879e-09 1.49084e-09 -4.27772e-10 -2.71167e-15 -1.07695e-15 -6.89652e-15 0 0 0 0 0 0 0 0
1761 1 0.000536363 -0.00129382 0.0294287 0.0008 3.43146e-06 1.26831e-12 5.4169e-13 -1.28391e-13 -3.42642e-10 1.12747e-10 -2.55625e-09 -3.81912e-15 -1.86419e-16 7.12314e-15 0 0 0 0 0 0 0 0
1762 1 0.0027387 0.00665883 0.0302905 0.0008 3.43146e-06 -1.03867e-13 1.54364e-12 -1.63576e-12 7.96876e-10 -3.91301e-09 -8.59779e-10 -2.1032e-15 -4.40254e-15 -3.33061e-15 1 -5.92476e-06 -1.2838e-05 8.05066e-07 0.00304299 0.00739866 0.0302905 0.0008
1763 1 0.00274532 0.00665616 0.0338539 0.0008 3.43146e-06 -1.08398e-12 -2.15028e-12 -5.22265e-13 -2.7294e-09 -7.88511e-09 -4.12467e-10 4.62751e-16 7.01694e-16 5.22517e-15 1 -2.52194e-05 -4.58503e-05 6.30658e-06 0.00305032 0.00739564 0.0338539 0.0008
1764 1 -0.00287157 -0.00275365 0.0312399 0.0008 3.43146e-06 -1.08431e-12 4.03317e-13 -8.23241e-12 -5.2919e-09 -3.15355e-09 2.40204e-09 9.48663e-16 -8.22844e-15 7.74069e-15 0 0 0 0 0 0 0 0
1765 1 7.39105e-05 0.00516335 0.0321339 0.0008 3.43146e-06 1.84754e-12 -2.16606e-12 -7.10082e-13 -9.69549e-10 4.76807e-09 -4.48675e-09 -1.60479e-15 2.61543e-16 -3.3156e-15 0 0 0 0 0 0 0 0
1766 1 0.000617937 0.0064921 0.034063 0.0008 3.43146e-06 8.346e-13 -2.15282e-12 1.47393e-11 -1.11296e-09 -4.00906e-09 5.64527e-09 -1.28536e-14 -1.35093e-15 -2.53653e-14 0 0 0 0 0 0 0 0
1767 1 0.00242637 0.00456299 0.033462 0.0008 3.43146e-06 5.41352e-13 -2.16793e-12 -3.95421e-12 2.12713e-09 3.99903e-09 4.99325e-10 2.64005e-15 2.58572e-15 -2.86222e-15 0 0 0 0 0 0 0 0
1768 1 0.00195622 0.00131606 0.0336994 0.0008 3.43146e-06 -7.52144e-13 5.42057e-13 1.34464e-12 2.96714e-09 -1.37644e-09 -1.38873e-09 1.17131e-15 -1.33551e-16 -1.54435e-14 0 0 0 0 0 0 0 0
1769 1 0.00472345 -0.00219953 0.0293415 0.0008 3.43146e-06 -1.90399e-12 -7.74669e-13 -3.05714e-12 -2.70916e-09 4.34082e-09 -1.19735e-09 -1.36175e-15 1.97486e-15 4.49531e-17 0 0 0 0 0 0 0 0
1770 1 -0.00175162 -0.00567837 0.0344445 0.0008 3.43146e-06 4.74689e-13 2.17062e-12 -2.18555e-12 -2.51497e-09 1.32941e-10 2.00004e-10 -4.30513e-15 -8.40151e-15 -2.25456e-15 0 0 0 0 0 0 0 0
1771 1 -0.00316782 0.000461361 0.0318059 0.0008 3.43146e-06 -7.4744e-13 -2.13633e-13 8.4522e-12 -4.13887e-10 -5.23367e-09 -1.71899e-10 8.85385e-15 5.18577e-15 6.35386e-15 0 0 0 0 0 0 0 0
1772 1 -0.00270669 0.00667168 0.0326668 0.0008 3.43146e-06 1.79593e-12 -4.12836e-12 1.65761e-11 1.78571e-09 -3.62349e-09 5.37966e-09 -7.49272e-15 7.48811e-15 -3.44671e-15 0 0 0 0 0 0 0 0
1773 1 -0.0036335 0.000855542 0.0345638 0.0008 3.43146e-06 1.02981e-12 -7.00753e-13 5.62393e-12 3.94194e-09 -3.05926e-09 3.05891e-10 -4.89237e-15 9.36424e-16 -1.23207e-14 0 0 0 0 0 0 0 0
1774 1 -0.00124619 -0.00386591 0.0350431 0.0008 3.43146e-06 -3.28944e-14 3.00546e-13 -7.16237e-13 3.05762e-09 -3.09205e-10 1.17479e-09 -4.62746e-15 9.68372e-15 -1.51819e-14 0 0 0 0 0 0 0 0
1775 1 0.000775948 0.00124842 0.0347774 0.0008 3.43146e-06 2.41674e-13 -5.43955e-13 -6.94941e-13 2.109e-10 5.46264e-10 5.12725e-10 -3.40031e-15 -2.56285e-15 -9.49215e-15 0 0 0 0 0 0 0 0
1776 1 0.000749342 -0.00571304 0.0330495 0.0008 3.43146e-06 1.36222e-13 1.66093e-12 -6.48929e-12 -5.82849e-10 -1.28056e-09 -2.57442e-09 1.10561e-15 -1.3007e-15 4.5955e-15 0 0 0 0 0 0 0 0
1777 1 -0.00110987 0.000992483 0.0309773 0.0008 3.43146e-06 -1.85008e-13 5.42031e-13 -3.48328e-12 -3.84144e-09 2.12448e-09 -3.73985e-09 -2.12741e-15 -1.97934e-16 5.13432e-15 0 0 0 0 0 0 0 0
1778 1 -0.00447076 0.00343682 0.0329592 0.0008 3.43146e-06 1.94262e-12 -6.83225e-13 -7.16384e-12 7.96662e-09 -9.57987e-09 -2.30505e-09 1.45667e-14 -5.6608e-18 3.16233e-14 0 0 0 0 0 0 0 0
1779 1 0.00151943 -0.00216206 0.0341075 0.0008 3.43146e-06 -3.62643e-13 4.30868e-13 -2.74663e-12 -7.35757e-10 -2.10958e-09 6.81601e-10 -6.93758e-15 -7.91849e-15 2.24641e-15 0 0 0 0 0 0 0 0
1780 1 0.00285473 0.0019274 0.0348736 0.0008 3.43146e-06 -4.96198e-13 -5.35572e-13 -1.12548e-12 -2.48808e-09 3.90221e-09 1.31631e-09 3.5208e-15 2.1103e-15 -3.96712e-15 0 0 0 0 0 0 0 0
1781 1 0.00496715 0.000793213 0.032797 0.0008 3.43146e-06 -1.47584e-12 1.49596e-13 -1.8183e-12 9.37926e-10 -6.59653e-10 -1.32764e-09 -1.44535e-15 -1.61258e-15 -1.85994e-15 0 0 0 0 0 0 0 0
1782 1 0.00378677 -0.00612385 0.0329643 0.0008 3.43146e-06 -1.38978e-13 -1.97894e-12 -2.26682e-12 -3.65968e-09 4.96072e-10 1.40399e-09 -4.66439e-16 -4.06352e-16 1.01674e-15 1 -3.03963e-05 4.3528e-05 -5.43767e-06 0.00420747 -0.0068042 0.0329643 0.0008
1783 1 -0.000827615 0.00596773 0.033621 0.0008 3.43146e-06 1.87052e-12 2.16842e-12 1.6494e-11 8.53397e-10 4.66539e-09 -1.0622e-08 1.05704e-14 -1.35495e-15 -6.83338e-15 0 0 0 0 0 0 0 0
1784 1 -0.00261418 -0.000496712 0.0338336 0.0008 3.43146e-06 -1.08419e-12 9.43267e-13 1.03432e-12 5.62067e-09 -1.52637e-09 -2.62063e-09 1.98867e-16 -2.00366e-16 -1.29785e-14 0 0 0 0 0 0 0 0
1785 1 0.00549369 -0.00465435 0.0324495 0.0008 3.43146e-06 2.10624e-12 -2.15726e-12 -1.15392e-12 -4.01021e-09 1.44683e-09 3.89212e-10 -4.51931e-16 -1.43352e-15 2.71658e-15 1 -0.000205793 0.000167491 -3.72945e-05 0.00610389 -0.00517132 0.0324495 0.0008
1786 1 0.00393182 -0.000753066 0.0325858 0.0008 3.43146e-06 -1.57069e-12 -2.34692e-13 1.37771e-12 -9.04846e-10 -1.7438e-09 -2.86134e-11 2.30411e-15 -4.70053e-15 -7.3219e-16 0 0 0 0 0 0 0 0
1787 1 0.00610876 0.00381108 0.0337116 0.0008 3.43146e-06 -1.67168e-12 -1.00377e-12 -1.3713e-12 2.20031e-09 -6.76747e-10 -1.29695e-10 3.67684e-17 6.34135e-16 -2.28658e-15 1 -4.44069e-05 -3.67994e-05 1.92614e-06 0.00678743 0.00423448 0.0337116 0.0008
1788 1 -0.00400695 0.00598215 0.0332939 0.0008 3.43146e-06 -1.54489e-12 -1.98689e-12 1.38301e-11 -1.51576e-08 -8.37765e-09 -2.77953e-09 1.34167e-14 5.72668e-15 -1.30479e-14 1 5.86784e-05 -6.5437e-05 2.83104e-06 -0.00445209 0.00664672 0.0332939 0.0008
1789 1 0.0044124 0.00170496 0.0316054 0.0008 3.43146e-06 5.60644e-13 -5.42104e-13 -7.66271e-13 -1.18009e-09 -4.30002e-10 -3.25105e-10 -3.14325e-15 -6.86922e-16 -8.92224e-15 0 0 0 0 0 0 0 0
1790 1 -0.00465527 -0.00540168 0.0293879 0.0008 3.43146e-06 2.16845e-12 2.16829e-12 -1.84644e-12 -5.142e-10 -2.19e-09 -1.89163e-09 -6.86011e-16 1.87953e-16 -1.81748e-15 0 0 0 0 0 0 0 0
1791 1 -0.00717746 0.000569788 0.0320425 0.0008 3.43146e-06 -8.9804e-13 -6.27315e-14 -3.52133e-13 -2.00959e-09 7.24979e-10 -2.01505e-10 3.02006e-15 -6.26788e-15 1.17217e-14 1 1.87433e-05 4.78437e-06 -1.17065e-06 -0.00797491 0.000633094 0.0320425 0.0008
1792 1 0.00377334 0.00465594 0.0350105 0.0008 3.43146e-06 -1.08419e-12 1.1025e-12 -4.24961e-12 -1.82573e-09 -2.19934e-10 -1.42543e-09 1.01103e-16 9.47734e-15 -9.87497e-16 0 0 0 0 0 0 0 0
1793 1 -0.00352902 -0.00401099 0.031979 0.0008 3.43146e-06 2.47952e-13 1.70901e-12 -4.00099e-12 -6.28377e-10 4.27792e-09 -6.09924e-10 -7.60968e-15 -9.79027e-15 5.09606e-15 0 0 0 0 0 0 0 0
1794 1 -0.00115911 0.00448795 0.0356073 0.0008 3.43146e-06 -4.02943e-13 -1.73701e-12 6.73615e-12 7.31205e-09 5.12643e-09 2.22177e-09 2.37664e-15 -5.0811e-16 -5.28561e-14 0 0 0 0 0 0 0 0
1795 1 0.00630186 0.00348248 0.0321578 0.0008 3.43146e-06 -3.19176e-13 -3.04961e-13 -3.29824e-13 -1.50676e-09 -1.18967e-09 2.60537e-10 2.61851e-15 -4.59547e-15 2.59414e-16 1 -4.17366e-05 -2.63103e-05 -8.63971e-07 0.00700199 0.00386938 0.0321578 0.0008
1796 1 0.00187165 -0.00695269 0.0327249 0.0008 3.43146e-06 5.04965e-13 -2.05245e-12 -1.9634e-12 -1.1632e-09 -5.12924e-09 6.91033e-11 -1.29243e-16 -2.89464e-17 7.67345e-16 1 -5.16685e-05 0.000198617 -9.35676e-06 0.00207955 -0.00772499 0.0327249 0.0008
1797 1 0.00414364 -0.00102237 0.0303581 0.0008 3.43146e-06 2.05202e-12 -5.42138e-13 1.96045e-12 9.89484e-10 1.20367e-10 1.23382e-09 2.23351e-15 -5.14429e-16 -7.08928e-15 0 0 0 0 0 0 0 0
1798 1 0.00298485 -0.00655216 0.0316478 0.0008 3.43146e-06 1.0839e-12 -2.16623e-12 2.09571e-12 2.3241e-09 1.13386e-09 -2.88866e-10 1.59171e-16 -4.0253e-16 -1.211e-15 1 -1.45259e-06 2.6308e-06 -1.38009e-07 0.00331649 -0.00728017 0.0316478 0.0008
1799 1 0.00513988 0.000736434 0.0348644 0.0008 3.43146e-06 -2.01648e-12 1.34783e-13 -2.04997e-12 7.1153e-10 -5.20671e-10 -7.18695e-10 1.26195e-15 -4.42995e-15 1.83138e-16 0 0 0 0 0 0 0 0
1800 1 -0.00567545 0.000414911 0.0314925 0.0008 3.43146e-06 -2.16844e-12 -2.09622e-13 2.70379e-12 1.4107e-09 1.36722e-09 -9.43972e-10 -1.85231e-17 9.77221e-16 1.12156e-14 0 0 0 0 0 0 0 0
1801 1 0.00453972 0.00356101 0.0335238 0.0008 3.43146e-06 4.2424e-13 -1.13948e-12 -1.08324e-12 5.8425e-10 1.36811e-09 1.03555e-09 2.0964e-14 1.27053e-15 8.59941e-15 0 0 0 0 0 0 0 0
1802 1 -0.00334991 0.00637339 0.0312327 0.0008 3.43146e-06 -8.38079e-13 -1.92987e-12 -4.4048e-12 7.66959e-09 -2.6502e-09 -2.05005e-09 -1.04054e-14 -6.8113e-16 1.59872e-14 1 5.70933e-05 -8.7906e-05 1.78948e-05 -0.00372205 0.00708141 0.0312327 0.0008
1803 1 -0.00193911 0.00403785 0.0342849 0.0008 3.43146e-06 -5.55083e-13 -2.16367e-12 8.3673e-12 -8.82326e-09 -4.13267e-09 -2.3055e-09 2.80856e-15 1.25343e-15 -1.03583e-14 0 0 0 0 0 0 0 0
1804 1 -0.00554132 -0.00178481 0.0339585 0.0008 3.43146e-06 2.16834e-12 -3.907e-13 2.01312e-12 1.46292e-08 6.07851e-09 -1.53504e-09 -1.61812e-15 5.67187e-15 9.23291e-15 0 0 0 0 0 0 0 0
1805 1 -0.000223167 -3.83782e-06 0.031861 0.0008 3.43146e-06 -6.51379e-14 3.41606e-13 -1.96328e-12 1.13897e-09 -1.26671e-09 2.0779e-09 2.53641e-15 6.82796e-16 -2.03715e-15 0 0 0 0 0 0 0 0
1806 1 -0.00320413 0.00497196 0.0320383 0.0008 3.43146e-06 1.08274e-12 2.16823e-12 -5.55291e-12 -1.00412e-09 -1.44577e-09 7.7697e-10 -3.9775e-16 1.78293e-16 1.00627e-14 0 0 0 0 0 0 0 0
1807 1 -0.00169244 -0.00587057 0.0314379 0.0008 3.43146e-06 8.37551e-15 4.26841e-13 -3.32244e-12 3.21765e-09 2.03506e-09 6.43476e-11 4.56895e-15 1.31056e-15 1.84358e-15 0 0 0 0 0 0 0 0
1808 1 0.00098503 -0.00713245 0.0307703 0.0008 3.43146e-06 -5.10558e-13 4.08141e-13 1.00634e-13 -8.4091e-10 7.13302e-09 5.98709e-10 -1.62045e-15 -1.79801e-15 1.37067e-15 1 -2.23023e-05 0.000122952 6.71466e-06 0.00109445 -0.00792478 0.0307703 0.0008
1809 1 -0.00538125 0.00478367 0.0302365 0.0008 3.43146e-06 -2.16739e-12 1.85232e-12 6.75257e-12 -1.82784e-09 -9.84346e-09 -2.22347e-10 -1.85058e-15 1.52474e-15 4.18687e-15 1 3.95686e-05 -4.6696e-05 -9.06776e-06 -0.00597909 0.00531512 0.0302365 0.0008
1810 1 0.00165112 -0.00430533 0.0319185 0.0008 3.43146e-06 -5.42103e-13 2.55792e-13 -6.17337e-12 5.74585e-09 4.80143e-10 1.55469e-09 -1.17974e-16 1.74624e-15 -1.11612e-16 0 0 0 0 0 0 0 0
1811 1 0.00315471 -0.00375977 0.0319518 0.0008 3.43146e-06 -1.35487e-13 -6.56222e-13 -1.37576e-12 3.78598e-09 -3.2362e-09 -2.74542e-09 -2.41604e-15 -7.22207e-15 3.41399e-15 0 0 0 0 0 0 0 0
1812 1 -0.00591059 0.00116601 0.0328853 0.0008 3.43146e-06 2.16846e-12 6.13472e-13 1.39953e-11 4.39284e-09 6.31926e-09 -1.60637e-09 1.60288e-15 6.64215e-15 -1.92582e-16 0 0 0 0 0 0 0 0
1813 1 -0.00456453 -0.000578052 0.0320754 0.0008 3.43146e-06 -2.16809e-12 -1.03207e-12 -5.29946e-12 8.09815e-09 2.55537e-09 1.61001e-09 -1.81317e-15 8.92298e-15 1.03504e-15 0 0 0 0 0 0 0 0
1814 1 0.00189266 -0.0069468 0.035403 0.0008 3.43146e-06 -5.36828e-13 1.0815e-13 -3.73624e-12 -3.50205e-09 -5.14245e-09 6.42156e-10 7.75429e-16 -2.24523e-15 2.50634e-15 1 -1.7302e-06 4.25184e-06 -1.13769e-06 0.00210295 -0.00771865 0.035403 0.0008
1815 1 -0.00551556 0.00180916 0.0307243 0.0008 3.43146e-06 -2.16758e-12 -9.0886e-14 5.95079e-12 2.29607e-09 -3.87891e-09 2.08098e-09 -4.08854e-16 -8.91618e-15 1.67244e-14 0 0 0 0 0 0 0 0
1816 1 -0.00588731 0.00324754 0.0342926 0.0008 3.43146e-06 2.06283e-12 1.8314e-12 7.65602e-12 4.78955e-09 1.24534e-08 -9.43118e-10 -7.19367e-15 1.39002e-14 1.09047e-14 0 0 0 0 0 0 0 0
1817 1 -0.00440627 0.00208097 0.0338061 0.0008 3.43146e-06 2.16827e-12 -1.0843e-12 -3.95859e-12 -1.1648e-08 6.59733e-09 4.30628e-09 -3.14173e-16 1.2088e-15 -1.86169e-16 0 0 0 0 0 0 0 0
1818 1 -0.00158196 0.00363182 0.0321997 0.0008 3.43146e-06 -1.03147e-13 9.9809e-13 -2.18409e-12 -5.2317e-09 -5.45676e-09 -1.6872e-09 3.91228e-15 -2.24972e-15 -1.02802e-14 0 0 0 0 0 0 0 0
1819 1 0.00221979 -0.00419501 0.0341009 0.0008 3.43146e-06 4.4233e-13 -9.31415e-13 -2.32703e-12 1.88221e-09 2.42337e-09 7.9169e-10 1.18621e-15 -1.22207e-15 5.49851e-15 0 0 0 0 0 0 0 0
1820 1 0.00395083 0.00504836 0.0334696 0.0008 3.43146e-06 2.15539e-12 -1.74009e-12 -4.13979e-12 -1.58325e-09 -3.60518e-09 -6.31497e-10 -1.34902e-15 3.98198e-15 -4.34769e-15 0 0 0 0 0 0 0 0
1821 1 0.00181542 0.00125715 0.0303851 0.0008 3.43146e-06 2.18691e-14 -5.18473e-13 -1.96949e-12 -6.78821e-10 -1.04322e-09 1.14207e-09 3.25022e-15 1.10771e-15 -8.48878e-15 0 0 0 0 0 0 0 0
1822 1 0.000270684 -0.00358297 0.0315546 0.0008 3.43146e-06 -3.17893e-13 8.15208e-13 -1.65786e-12 2.14514e-09 1.85501e-09 -1.14765e-09 3.90711e-15 -2.63953e-15 -2.46413e-15 0 0 0 0 0 0 0 0
1823 1 -0.000288488 0.00575123 0.0351535 0.0008 3.43146e-06 1.35821e-12 -2.16957e-12 1.12407e-11 6.55091e-09 4.84969e-09 -9.28468e-09 1.86074e-14 -1.77925e-15 -4.70412e-14 0 0 0 0 0 0 0 0
1824 1 0.00413335 -0.00513306 0.0317569 0.0008 3.43146e-06 -2.82633e-13 -1.64535e-12 -1.39348e-12 4.80512e-09 -2.60641e-10 -1.58083e-09 2.28281e-15 -1.42905e-15 -2.71205e-15 0 0 0 0 0 0 0 0
1825 1 -0.00385897 -0.00435702 0.0335057 0.0008 3.43146e-06 3.98552e-13 -9.31817e-13 -5.24847e-12 3.44982e-09 -5.26517e-09 4.7986e-09 -3.45183e-15 7.96685e-16 -5.18536e-15 0 0 0 0 0 0 0 0
1826 1 -0.00507807 0.0039623 0.0315755 0.0008 3.43146e-06 2.16746e-12 2.0246e-12 6.97814e-12 1.12826e-09 1.57888e-08 1.20291e-09 1.00868e-16 4.68229e-15 4.55615e-15 0 0 0 0 0 0 0 0
1827 1 0.00631869 -0.00345178 0.0331075 0.0008 3.43146e-06 -1.9603e-12 -1.08415e-12 -3.22438e-12 -1.38939e-11 -4.75856e-09 2.51674e-09 2.82482e-15 1.14125e-15 6.21575e-15 1 -1.78043e-05 9.55699e-06 -1.21608e-06 0.00702072 -0.00383529 0.0331075 0.0008
1828 1 -0.00422258 0.000286301 0.0290141 0.0008 3.43146e-06 -9.31532e-13 1.34314e-13 5.03164e-12 -7.49256e-10 3.6412e-09 -1.57183e-09 1.24637e-15 -8.34339e-16 -9.96903e-16 0 0 0 0 0 0 0 0
1829 1 0.00137505 -0.00427129 0.0354575 0.0008 3.43146e-06 -2.7005e-13 -3.57679e-13 -1.61506e-12 -2.63477e-09 -2.73342e-09 -1.0632e-09 -4.9508e-15 -3.02436e-15 7.23515e-15 0 0 0 0 0 0 0 0
1830 1 -0.00541421 -0.0026269 0.0298227 0.0008 3.43146e-06 5.35406e-13 -1.03104e-13 -3.03501e-12 4.61656e-09 1.22771e-08 -4.43671e-09 -5.40217e-15 4.02416e-15 -4.84569e-15 0 0 0 0 0 0 0 0
1831 1 -0.00195958 0.00692831 0.0306681 0.0008 3.43146e-06 -4.01541e-13 -1.12506e-12 -1.99364e-12 1.64132e-09 3.16484e-09 -7.44536e-10 -2.92954e-15 1.52649e-16 6.23471e-15 1 7.08216e-06 -6.9051e-05 -2.91858e-06 -0.00217728 0.00769802 0.0306681 0.0008
1832 1 -0.00615375 -0.00285462 0.0349784 0.0008 3.43146e-06 7.10844e-13 6.20395e-13 -4.87076e-12 -1.08527e-08 -1.25354e-08 1.63667e-09 -5.65137e-15 1.44447e-14 -8.39345e-15 0 0 0 0 0 0 0 0
1833 1 0.00143116 0.00192243 0.0323151 0.0008 3.43146e-06 -5.42042e-13 1.98202e-13 -9.93211e-13 -3.60313e-09 -7.59733e-10 3.89674e-09 1.68086e-16 2.27354e-15 -9.12118e-15 0 0 0 0 0 0 0 0
1834 1 -0.00313431 -0.00164305 0.0348211 0.0008 3.43146e-06 1.07202e-12 2.34459e-14 -7.23294e-12 3.30321e-09 2.93837e-09 2.88945e-09 3.49374e-15 9.10655e-15 1.15304e-14 0 0 0 0 0 0 0 0
1835 1 0.00232906 -0.0054816 0.0331562 0.0008 3.43146e-06 6.73659e-14 -7.03579e-13 -2.19874e-12 -1.88274e-09 -2.31709e-09 -1.27717e-09 -7.5164e-18 -1.29566e-15 5.62923e-15 0 0 0 0 0 0 0 0
1836 1 0.00208423 -0.0031008 0.0329416 0.0008 3.43146e-06 -4.05119e-13 3.88043e-13 -1.20534e-12 1.22099e-10 2.96109e-10 -2.15255e-09 -8.79068e-16 -2.6377e-15 4.3285e-15 0 0 0 0 0 0 0 0
1837 1 0.00143738 -0.00553899 0.0344834 0.0008 3.43146e-06 3.34947e-13 -2.05092e-12 -5.02382e-12 4.8278e-09 6.93349e-10 2.41172e-10 -8.2303e-16 -3.31134e-15 2.5604e-15 0 0 0 0 0 0 0 0
1838 1 -0.00346105 -0.00559208 0.0344417 0.0008 3.43146e-06 1.08368e-12 2.16848e-12 -2.77183e-12 -6.46105e-09 6.53309e-11 6.893e-10 5.41693e-16 -4.08362e-16 1.89729e-15 0 0 0 0 0 0 0 0
1839 1 0.00187962 0.00306422 0.0333421 0.0008 3.43146e-06 3.16222e-14 3.48748e-13 -3.79744e-12 2.18367e-09 5.99227e-09 -1.42778e-09 6.63736e-15 1.39959e-15 -1.35427e-14 0 0 0 0 0 0 0 0
1840 1 0.00175959 0.00698171 0.0350713 0.0008 3.43146e-06 3.38885e-13 1.63037e-12 5.00621e-12 -2.57537e-09 1.40204e-08 3.16167e-10 -2.09893e-15 1.20693e-14 -3.1818e-15 1 -8.95021e-07 -1.11068e-05 4.65102e-07 0.0019551 0.00775742 0.0350713 0.0008
1841 1 0.00601374 -0.000691493 0.0349983 0.0008 3.43146e-06 3.99767e-13 4.98704e-13 -2.23762e-13 4.3381e-10 1.16211e-09 -9.57996e-10 6.85169e-15 -4.9852e-16 -6.45194e-15 0 0 0 0 0 0 0 0
1842 1 0.00545853 0.00248707 0.0343314 0.0008 3.43146e-06 -2.07596e-12 3.68858e-13 -2.55074e-12 -1.71571e-09 -3.66819e-10 -9.16719e-10 -2.8224e-15 2.66641e-15 2.62286e-15 0 0 0 0 0 0 0 0
1843 1 -0.000600563 -0.00234316 0.0338551 0.0008 3.43146e-06 -2.63224e-13 -1.0791e-12 -3.54231e-12 1.62736e-10 -1.40983e-09 4.35605e-10 -7.70608e-16 2.41892e-15 -6.49639e-15 0 0 0 0 0 0 0 0
1844 1 0.00354079 0.00626941 0.0325207 0.0008 3.43146e-06 1.02365e-12 -5.33921e-13 -1.28363e-12 5.11446e-09 5.58039e-09 1.37378e-09 -3.75674e-15 6.86097e-15 2.93181e-15 1 -8.14481e-05 -0.000143985 -1.85321e-05 0.00393411 0.00696583 0.0325207 0.0008
1845 1 0.0070145 -0.00162467 0.0307797 0.0008 3.43146e-06 -8.47104e-13 -5.41628e-13 8.04976e-13 9.37571e-10 8.39754e-10 9.24584e-10 -1.3318e-15 3.52048e-16 1.4546e-15 1 -0.000179674 3.54575e-05 -4.07696e-05 0.00779368 -0.00180514 0.0307797 0.0008
1846 1 -0.0012368 -0.00100856 0.0344665 0.0008 3.43146e-06 -8.14322e-13 -5.14265e-13 -2.83737e-12 -1.22749e-09 4.87265e-09 1.55304e-09 -6.5772e-15 4.62049e-15 -8.29642e-15 0 0 0 0 0 0 0 0
1847 1 -0.00370575 -0.00617336 0.0306539 0.0008 3.43146e-06 1.61354e-13 -9.02818e-13 2.40933e-12 5.41447e-09 3.18667e-09 -8.38564e-10 7.2517e-16 -2.64164e-16 -1.59997e-17 1 0.000116901 0.000164793 -4.70974e-05 -0.00411738 -0.0068591 0.0306539 0.0008
1848 1 0.00402462 0.00434821 0.0305544 0.0008 3.43146e-06 -2.16401e-12 7.276e-13 -3.16719e-12 1.01582e-09 1.03031e-09 2.90266e-09 6.11669e-16 -3.31979e-16 5.3725e-15 0 0 0 0 0 0 0 0
1849 1 0.000590258 0.000179221 0.0300883 0.0008 3.43146e-06 2.74774e-13 6.62577e-14 -2.94202e-12 3.92871e-10 -2.36932e-09 1.78587e-09 -9.74682e-16 2.27619e-15 -1.79931e-15 0 0 0 0 0 0 0 0
1850 1 1.86917e-05 -0.00719999 0.0353147 0.0008 3.43146e-06 -1.30692e-13 -2.16404e-12 -2.32139e-12 -2.95674e-09 5.35858e-09 1.58657e-10 2.17562e-15 -6.5241e-16 1.63247e-15 1 9.07185e-07 2.96607e-06 -3.12865e-07 2.07685e-05 -0.00799997 0.0353147 0.0008
