ITEM: TIMESTEP
4000000
ITEM: NUMBER OF ATOMS
1850
ITEM: BOX BOUNDS ff ff ff
-8.0000000000000002e-03 8.0000000000000002e-03
-8.0000000000000002e-03 8.0000000000000002e-03
0.0000000000000000e+00 7.0000000000000007e-02
ITEM: ATOMS id type x y z radius mass vx vy vz omegax omegay omegaz fx fy fz f_tubeWall[1] f_tubeWall[2] f_tubeWall[3] f_tubeWall[4] f_tubeWall[5] f_tubeWall[6] f_tubeWall[7] f_tubeWall[8]
1 1 0.000887368 0.00714544 0.00348122 0.0008 3.43146e-06 3.94013e-14 -6.99592e-14 3.41586e-13 -1.95995e-10 1.93888e-09 5.42741e-11 6.43994e-16 2.59572e-16 8.16339e-16 1 -8.31463e-05 -0.000401034 5.16693e-05 0.000985919 0.00793902 0.00348122 0.0008
2 1 0.00208708 0.00319356 0.00359378 0.0008 3.43146e-06 -1.08359e-12 -1.08393e-12 4.87952e-13 1.41433e-09 -1.04742e-11 8.56558e-10 8.49479e-17 -1.83234e-16 2.94705e-15 0 0 0 0 0 0 0 0
3 1 -0.00711403 -0.00111061 0.000799399 0.0008 3.43146e-06 1.71888e-13 2.83332e-13 -8.17768e-14 -3.44105e-10 1.76131e-10 2.81393e-10 4.89727e-16 -3.30453e-16 -1.43934e-16 1 -2.30986e-05 -7.76035e-05 0.000965491 -0.00711403 -0.00111061 0 0.0008
4 1 -0.00552204 -0.00176643 0.000799936 0.0008 3.43146e-06 -3.48005e-41 2.08208e-40 1.87224e-13 -2.60254e-37 -4.34996e-38 -2.34193 1.24288e-44 -7.43602e-44 2.25444e-21 1 -4.97147e-45 2.97438e-44 3.36626e-05 -0.00552204 -0.00176643 0 0.0008
5 1 -0.00422827 0.00396022 0.00152421 0.0008 3.43146e-06 -4.04955e-13 -6.68447e-13 -3.87892e-13 6.6736e-10 -9.69841e-10 -8.97714e-10 -4.83931e-16 9.92781e-16 -4.88525e-16 0 0 0 0 0 0 0 0
6 1 -0.0034452 0.000863303 0.000799325 0.0008 3.43146e-06 1.16711e-14 -2.70914e-13 2.70621e-13 3.27325e-10 2.94616e-11 3.88076e-10 1.03676e-15 -4.62012e-17 -5.04447e-16 1 0.000199082 -3.53354e-05 0.00114942 -0.0034452 0.000863303 0 0.0008
7 1 -0.00496131 0.00392143 0.00320909 0.0008 3.43146e-06 -3.58531e-13 -5.06845e-13 8.65237e-13 -1.10022e-09 -2.19613e-09 -1.02185e-09 -4.99987e-16 -1.70175e-16 -5.61171e-16 0 0 0 0 0 0 0 0
8 1 0.00549036 0.00139742 0.000799651 0.0008 3.43146e-06 -7.16722e-13 2.80294e-13 1.76242e-13 -3.50804e-10 -8.96116e-10 1.59167e-09 -1.9325e-16 -9.77274e-17 1.29783e-16 1 2.69092e-05 -0.000102352 0.000427334 0.00549036 0.00139742 0 0.0008
9 1 0.00183091 -0.00169254 0.00450717 0.0008 3.43146e-06 5.07561e-13 -5.40806e-13 -1.93466e-12 7.75934e-10 6.7146e-10 -1.19592e-09 -1.23596e-15 -2.93572e-16 1.10967e-15 0 0 0 0 0 0 0 0
10 1 -0.000384911 -9.29826e-05 0.00461155 0.0008 3.43146e-06 1.35874e-13 1.62505e-13 9.56416e-13 -1.02282e-09 -2.36872e-10 1.99469e-10 2.57541e-16 -5.43556e-16 2.62987e-16 0 0 0 0 0 0 0 0
11 1 -0.00231075 -0.00321907 0.000799392 0.0008 3.43146e-06 3.91385e-13 3.70098e-13 2.68463e-13 -4.49708e-10 4.66352e-10 -1.24139e-09 8.29018e-16 5.45907e-16 -1.63254e-16 1 -1.67625e-05 -0.000114082 0.000981293 -0.00231075 -0.00321907 0 0.0008
12 1 0.0021355 0.000695112 0.00321119 0.0008 3.43146e-06 1.84954e-13 -1.33874e-13 1.05468e-12 4.96848e-10 1.00686e-09 7.57817e-10 -3.05509e-16 4.43887e-16 -7.77324e-16 0 0 0 0 0 0 0 0
13 1 0.00431527 0.00185224 0.00196913 0.0008 3.43146e-06 1.2761e-12 2.2477e-13 1.06858e-12 1.07698e-09 4.01105e-10 -9.39534e-10 8.51861e-16 -9.23272e-17 1.7709e-16 0 0 0 0 0 0 0 0
14 1 0.000240443 0.00313746 0.000799458 0.0008 3.43146e-06 5.92797e-14 1.34396e-13 -6.56765e-14 -1.79308e-10 7.54119e-11 -2.99222e-10 1.99113e-16 -1.03458e-16 2.6294e-16 1 -9.22537e-05 -3.88129e-05 0.000827265 0.000240443 0.00313746 0 0.0008
15 1 0.00096077 -0.000677671 0.000799716 0.0008 3.43146e-06 1.40939e-13 2.48514e-13 -3.06452e-14 -3.44921e-10 1.81351e-10 7.12115e-10 -1.28373e-16 2.28512e-16 3.35738e-16 1 9.9823e-06 1.57283e-06 0.000312996 0.00096077 -0.000677671 0 0.0008
16 1 0.000586589 -0.00386578 0.00381781 0.0008 3.43146e-06 2.70377e-13 -4.26759e-13 1.31691e-13 -2.94084e-10 -3.78802e-10 -1.29011e-09 -7.61383e-16 3.61373e-16 -1.18504e-16 0 0 0 0 0 0 0 0
17 1 0.00560651 -0.00102028 0.00247165 0.0008 3.43146e-06 -2.28056e-13 -5.4091e-13 1.95848e-13 8.76184e-10 -3.07708e-10 3.30946e-10 -7.19845e-16 -4.77583e-17 -4.50364e-16 0 0 0 0 0 0 0 0
18 1 -0.00244538 -0.00101757 0.0034193 0.0008 3.43146e-06 9.30165e-13 3.1581e-13 -1.0427e-12 2.33067e-10 -6.66779e-10 -6.05094e-10 1.59886e-15 4.62177e-16 -1.68402e-15 0 0 0 0 0 0 0 0
19 1 -0.00715375 0.00081753 0.00529868 0.0008 3.43146e-06 4.4773e-13 -2.70546e-13 -2.63886e-14 -9.82459e-10 2.64703e-10 -4.67688e-10 2.27251e-15 -1.36963e-17 5.78965e-16 1 0.000381034 1.31849e-05 6.83375e-05 -0.00794827 0.000908327 0.00529868 0.0008
20 1 -0.00551869 0.00245971 0.00354966 0.0008 3.43146e-06 -8.34957e-13 -6.12282e-13 7.47878e-13 1.45277e-09 -2.51754e-10 -3.14475e-09 1.62528e-15 -2.64204e-16 -2.22963e-15 0 0 0 0 0 0 0 0
21 1 0.00277378 -0.000456744 0.00230337 0.0008 3.43146e-06 6.40508e-13 1.29725e-13 7.2062e-14 1.23509e-10 -2.93681e-11 3.80409e-10 -2.19396e-16 1.66181e-16 1.19517e-15 0 0 0 0 0 0 0 0
22 1 0.00282163 -0.000566629 0.00391575 0.0008 3.43146e-06 -2.81068e-13 -2.11253e-13 9.05109e-13 -1.17816e-10 -1.53274e-09 -1.05534e-09 -3.21174e-16 1.28998e-16 4.86697e-16 0 0 0 0 0 0 0 0
23 1 -0.00645935 -0.00318107 0.000799626 0.0008 3.43146e-06 -5.37869e-14 -1.46963e-13 8.76062e-14 1.73874e-10 -5.92825e-11 -1.22909e-10 -1.45773e-17 4.9724e-17 9.0726e-17 1 0.00011592 2.43789e-05 0.000474098 -0.00645935 -0.00318107 0 0.0008
24 1 -0.00291073 -0.00221097 0.00443262 0.0008 3.43146e-06 7.82115e-13 -1.08137e-12 -6.6236e-13 -5.8418e-10 -2.15967e-10 1.15774e-09 5.66456e-16 -2.61681e-16 1.15304e-15 0 0 0 0 0 0 0 0
25 1 -0.0021057 -0.00540209 0.00387766 0.0008 3.43146e-06 1.08382e-12 -8.02416e-13 4.78992e-13 -1.36906e-09 1.80446e-10 1.43363e-09 1.2436e-16 6.83568e-16 5.93828e-16 0 0 0 0 0 0 0 0
26 1 0.000161011 0.00505671 0.00509024 0.0008 3.43146e-06 -5.94207e-14 4.17257e-13 -1.77727e-12 -1.31682e-09 -1.94587e-10 -9.68232e-10 3.29086e-16 -1.59793e-17 -1.2999e-15 0 0 0 0 0 0 0 0
27 1 0.00550428 0.00464206 0.00379456 0.0008 3.43146e-06 -1.41064e-12 -1.36202e-12 7.39916e-13 -2.60238e-10 9.83406e-10 1.72369e-10 3.57562e-16 -4.79194e-16 -3.06519e-16 1 -0.000368479 -0.000406747 1.50793e-05 0.00611552 0.00515756 0.00379456 0.0008
28 1 0.000427828 0.00290403 0.003086 0.0008 3.43146e-06 -3.62193e-14 8.21749e-13 -7.64074e-14 -1.42423e-09 5.79913e-10 4.88837e-10 2.85393e-16 1.60934e-16 4.84495e-16 0 0 0 0 0 0 0 0
29 1 0.00317908 -0.00646078 0.00358334 0.0008 3.43146e-06 8.74566e-13 -1.01554e-12 2.86163e-13 1.67507e-10 4.81318e-10 -4.16411e-10 -1.24437e-16 -4.25732e-17 -3.84553e-16 1 -0.000299605 0.000866321 0.000277618 0.00353203 -0.00717808 0.00358334 0.0008
30 1 -0.00189988 4.1925e-05 0.000799796 0.0008 3.43146e-06 -1.68975e-13 -6.77888e-14 2.70712e-13 6.41853e-11 -2.50406e-10 2.22802e-10 -9.52349e-16 -3.45003e-17 -8.06781e-17 1 -5.29409e-05 -1.35845e-06 0.000191085 -0.00189988 4.1925e-05 0 0.0008
31 1 -0.00604261 0.00391542 0.00203042 0.0008 3.43146e-06 8.04847e-13 -4.53806e-13 -2.50271e-13 3.01614e-10 1.7806e-10 7.73e-11 -5.77793e-16 -1.02263e-15 -4.82919e-16 1 0.000257475 -0.00010316 -1.75838e-05 -0.00671378 0.00435031 0.00203042 0.0008
32 1 0.00374626 -0.00104634 0.000798384 0.0008 3.43146e-06 2.84509e-13 5.31115e-13 2.69771e-13 -6.59073e-10 3.57746e-10 6.0652e-11 1.25056e-16 -3.1764e-16 -3.97671e-17 1 0.00030256 -8.20368e-05 0.00425851 0.00374626 -0.00104634 0 0.0008
33 1 0.00351994 -0.00435742 0.000799326 0.0008 3.43146e-06 -4.84665e-13 9.98416e-14 2.64251e-13 -1.00773e-10 -5.91567e-10 -5.30835e-10 5.3317e-16 -4.82436e-16 -6.65628e-16 1 0.000367708 2.93149e-05 0.00114731 0.00351994 -0.00435742 0 0.0008
34 1 -0.00503696 0.000934907 0.00351552 0.0008 3.43146e-06 -1.77798e-12 1.49759e-13 9.0994e-15 4.78562e-11 -1.06634e-09 2.28799e-09 -1.37819e-16 5.41374e-16 -1.01957e-15 0 0 0 0 0 0 0 0
35 1 -0.000505851 0.00718262 0.00451494 0.0008 3.43146e-06 2.69778e-13 -6.24076e-13 1.14438e-12 -1.33964e-09 -1.30852e-09 2.75451e-10 2.36009e-17 -3.83695e-16 1.34846e-15 1 5.23609e-05 -0.000566544 1.40042e-05 -0.000562024 0.00798023 0.00451494 0.0008
36 1 0.000477759 -0.00387153 0.000799936 0.0008 3.43146e-06 -8.52148e-41 -1.47073e-41 -1.62712e-13 1.83838e-38 -1.06516e-37 0.00910697 3.04339e-44 5.25264e-45 1.25586e-22 1 -1.21735e-44 -2.10104e-45 3.36626e-05 0.000477759 -0.00387153 0 0.0008
37 1 0.00700947 -0.00164654 0.00079971 0.0008 3.43146e-06 -6.60162e-14 -3.29051e-13 2.56905e-14 4.12362e-10 -7.59453e-11 4.23335e-10 -1.09226e-16 8.41859e-17 6.73654e-17 1 3.74171e-05 2.5863e-05 0.000323636 0.00700947 -0.00164654 0 0.0008
38 1 -0.00517789 -0.000587979 0.00398383 0.0008 3.43146e-06 -2.06979e-13 2.70834e-13 3.92267e-13 -7.79555e-10 -1.19974e-09 3.59724e-10 -6.95947e-16 -5.48932e-16 3.04426e-15 0 0 0 0 0 0 0 0
39 1 0.00258523 5.42586e-05 0.000799416 0.0008 3.43146e-06 2.42911e-13 4.4898e-14 2.708e-13 -5.45454e-11 3.0188e-10 4.48853e-10 -1.50322e-16 1.16776e-16 -6.28245e-16 1 8.652e-05 8.25054e-05 0.000924782 0.00258523 5.42586e-05 0 0.0008
40 1 0.0070489 0.00147118 0.00217196 0.0008 3.43146e-06 1.26049e-13 3.09509e-13 1.0489e-13 1.53966e-10 1.59204e-10 -3.48389e-10 1.09181e-17 1.7056e-16 -1.56836e-17 1 -0.00141526 -0.000469898 0.000142807 0.00783125 0.00163447 0.00217196 0.0008
41 1 0.00399726 0.000807222 0.000799936 0.0008 3.43146e-06 4.02373e-41 -4.46245e-41 3.75657e-14 5.57794e-38 5.02954e-38 0.0586345 -1.43705e-44 1.59374e-44 9.31506e-22 1 5.74815e-45 -6.3749e-45 3.36626e-05 0.00399726 0.000807222 0 0.0008
42 1 -0.00509615 -0.00508639 0.0034251 0.0008 3.43146e-06 2.06936e-13 2.08646e-13 4.9433e-13 -3.05653e-11 -8.97197e-10 -2.91891e-12 6.35226e-16 2.27199e-16 -3.17469e-16 1 7.76374e-05 8.43491e-05 2.77249e-05 -0.00566227 -0.00565143 0.0034251 0.0008
43 1 0.00501925 0.00326602 0.00313887 0.0008 3.43146e-06 -1.11068e-12 4.75938e-13 1.08399e-12 9.51275e-10 -6.7619e-10 -3.96171e-10 9.33563e-16 -5.83233e-16 -1.26873e-18 0 0 0 0 0 0 0 0
44 1 -0.000357761 -0.00491166 0.00205874 0.0008 3.43146e-06 -1.3548e-13 -1.05972e-12 -1.85931e-13 1.25522e-09 -1.04113e-09 2.29689e-11 1.09306e-16 2.82551e-16 1.68243e-16 0 0 0 0 0 0 0 0
45 1 0.00412469 0.00376826 0.00191137 0.0008 3.43146e-06 -6.89782e-13 5.93264e-13 5.30884e-13 -9.59309e-10 -1.71853e-10 3.15127e-10 8.38674e-16 -3.2332e-16 4.62579e-16 0 0 0 0 0 0 0 0
46 1 0.00328986 0.00640536 0.00219648 0.0008 3.43146e-06 1.5164e-13 -1.18682e-12 -4.61637e-13 1.1065e-09 8.82419e-10 8.54244e-10 -2.90058e-16 -3.78684e-16 2.52878e-17 1 -0.000646603 -0.00144626 0.000253084 0.00365498 0.00711626 0.00219648 0.0008
47 1 0.00091887 -0.0023332 0.000799457 0.0008 3.43146e-06 2.71045e-13 -1.08418e-12 -2.70465e-13 1.36713e-09 3.82448e-10 -7.30538e-10 -6.96167e-17 1.92888e-17 6.37469e-16 1 -7.54572e-05 -0.000133032 0.000829618 0.00091887 -0.0023332 0 0.0008
48 1 0.00561485 -0.0045072 0.000799749 0.0008 3.43146e-06 4.17772e-13 1.07438e-13 2.70697e-13 -1.33305e-10 5.28918e-10 -4.34584e-10 -3.7948e-17 -1.73766e-16 8.5859e-18 1 4.46704e-05 1.21343e-05 0.000260058 0.00561485 -0.0045072 0 0.0008
49 1 -0.00189273 -0.00694714 0.000799867 0.0008 3.43146e-06 1.83533e-14 1.47545e-13 -1.14852e-14 -6.91921e-11 -4.21793e-11 3.86271e-11 -5.56829e-18 1.90891e-16 -1.04338e-16 1 2.31446e-05 6.31832e-06 0.000100279 -0.00189273 -0.00694714 0 0.0008
50 1 -0.00538833 0.00313147 0.000799114 0.0008 3.43146e-06 5.27233e-13 1.26868e-13 -2.7088e-13 -1.62793e-10 6.54091e-10 8.82192e-10 -3.68974e-16 6.65909e-16 6.12061e-17 1 -0.000107507 -0.000152919 0.00172753 -0.00538833 0.00313147 0 0.0008
51 1 0.00231059 0.00180292 0.00435159 0.0008 3.43146e-06 5.10066e-13 -4.79534e-13 -2.37165e-13 -1.02529e-09 1.33258e-09 8.46191e-10 -1.14262e-15 -7.81447e-17 1.16119e-15 0 0 0 0 0 0 0 0
52 1 -0.000770045 0.00297507 0.00202826 0.0008 3.43146e-06 -2.70097e-13 -2.0194e-13 -2.76985e-13 5.77695e-10 -5.67145e-10 4.49568e-10 8.10552e-17 2.11017e-16 -2.59918e-16 0 0 0 0 0 0 0 0
53 1 -0.000620725 -0.000919178 0.000799594 0.0008 3.43146e-06 1.64672e-13 -2.71028e-13 2.70803e-13 3.81496e-10 1.96153e-10 -1.60482e-10 2.71087e-16 -2.53748e-17 8.0724e-18 1 2.61734e-05 4.32991e-05 0.000535841 -0.000620725 -0.000919178 0 0.0008
54 1 -0.00315707 0.0051198 0.00178316 0.0008 3.43146e-06 -5.18568e-13 -8.33518e-13 3.96505e-13 9.91758e-11 3.01758e-10 7.58639e-10 -2.00865e-16 3.89274e-16 -1.00861e-15 0 0 0 0 0 0 0 0
55 1 -0.000514601 -0.000996757 0.00329782 0.0008 3.43146e-06 2.70347e-13 -3.52658e-13 2.55019e-13 9.55305e-10 3.30421e-11 7.7376e-11 1.33736e-16 5.17189e-16 -1.15709e-15 0 0 0 0 0 0 0 0
56 1 0.00612849 -0.00377939 0.00580232 0.0008 3.43146e-06 1.31595e-12 -9.6378e-13 -4.05468e-13 -1.79309e-10 -4.62468e-10 1.39965e-10 1.87662e-16 -8.20142e-16 4.29854e-16 1 -0.000105368 7.48316e-05 2.35353e-05 0.00680929 -0.00419923 0.00580232 0.0008
57 1 0.00202488 0.00578084 0.00295101 0.0008 3.43146e-06 3.89702e-13 -2.06345e-12 -9.93089e-13 3.57657e-09 6.55859e-10 -2.2064e-09 -1.70888e-15 4.79525e-16 9.12804e-16 0 0 0 0 0 0 0 0
58 1 -0.00570464 0.000571463 0.00204536 0.0008 3.43146e-06 -2.2734e-13 -2.70932e-13 -1.08383e-12 1.221e-09 2.86307e-10 -1.19966e-09 -3.93673e-15 2.06729e-16 -6.78552e-17 0 0 0 0 0 0 0 0
59 1 0.00683471 0.00226538 0.000799424 0.0008 3.43146e-06 -1.74365e-13 -2.77492e-13 -2.43473e-13 3.48469e-10 -2.12703e-10 2.6203e-10 -5.57698e-17 1.15815e-16 -3.73904e-17 1 -0.00024623 0.000135502 0.000905692 0.00683471 0.00226538 0 0.0008
60 1 0.00363181 0.00621746 0.00374729 0.0008 3.43146e-06 -1.04843e-12 -1.58188e-12 -6.96767e-13 -3.75052e-10 -2.38427e-09 -1.43758e-10 -3.52362e-16 -2.71471e-16 -3.63661e-17 1 -0.000295503 -0.000622102 0.000200965 0.00403508 0.00690783 0.00374729 0.0008
61 1 0.00482046 0.00285199 0.000799665 0.0008 3.43146e-06 -3.26607e-13 -5.44734e-13 6.74844e-14 6.8161e-10 -4.07995e-10 -1.28447e-09 7.99557e-17 -8.95905e-17 2.88029e-16 1 9.53158e-05 -2.62626e-05 0.000401216 0.00482046 0.00285199 0 0.0008
62 1 -0.00150945 0.00522821 0.00445534 0.0008 3.43146e-06 3.66992e-13 -1.62148e-12 1.42987e-12 2.38134e-09 1.8586e-10 -2.03226e-09 -2.04855e-16 2.31258e-15 -1.83022e-15 0 0 0 0 0 0 0 0
63 1 0.00592669 0.00326401 0.00448869 0.0008 3.43146e-06 3.52233e-13 -1.53344e-13 -3.33703e-13 1.01244e-09 -5.11278e-10 2.54937e-09 8.91062e-17 1.70475e-17 -1.36203e-16 0 0 0 0 0 0 0 0
64 1 0.00126289 -0.000981505 0.00234096 0.0008 3.43146e-06 5.41841e-13 -5.80662e-14 1.55686e-14 8.14151e-10 2.34483e-10 -1.73391e-10 -2.47409e-16 8.13237e-16 1.54771e-15 0 0 0 0 0 0 0 0
65 1 -0.00216357 -0.00162293 0.000799339 0.0008 3.43146e-06 -1.04959e-13 -3.73294e-13 2.70058e-13 4.55786e-10 -1.40107e-10 2.14755e-09 8.36249e-16 -1.1607e-15 -8.43628e-17 1 -9.36903e-05 -7.45908e-05 0.00111434 -0.00216357 -0.00162293 0 0.0008
66 1 -0.00519908 -0.00498063 0.000799936 0.0008 3.43146e-06 3.4735e-41 -8.39567e-41 1.256e-13 1.04943e-37 4.34178e-38 0.0405152 -1.24054e-44 2.99846e-44 -4.24859e-21 1 4.96212e-45 -1.19937e-44 3.36626e-05 -0.00519908 -0.00498063 0 0.0008
67 1 0.0022674 -0.00151397 0.00119091 0.0008 3.43146e-06 -2.32799e-13 5.41949e-13 -5.17231e-14 1.08388e-09 -7.90027e-10 -3.95269e-10 -4.72732e-16 3.89124e-18 3.32277e-16 0 0 0 0 0 0 0 0
68 1 0.00579738 0.00245321 0.00200191 0.0008 3.43146e-06 -1.29956e-13 -3.0525e-13 1.08784e-13 -1.34187e-09 7.39366e-10 1.00522e-09 8.7638e-17 -1.42563e-16 5.21876e-18 0 0 0 0 0 0 0 0
69 1 -0.00306423 -0.00179279 0.00216521 0.0008 3.43146e-06 1.08374e-12 3.41799e-13 -1.08415e-12 -1.43842e-09 -1.02504e-09 -1.77998e-09 1.54207e-16 3.0781e-15 -1.28656e-15 0 0 0 0 0 0 0 0
70 1 -0.00318108 0.00252217 0.00348894 0.0008 3.43146e-06 3.06912e-13 -9.54898e-13 -9.44698e-13 2.20819e-09 -9.58919e-10 -1.41475e-09 -9.25712e-18 1.24864e-15 1.1705e-15 0 0 0 0 0 0 0 0
71 1 0.000933221 -0.000232211 0.00371554 0.0008 3.43146e-06 5.85159e-13 -4.09902e-13 1.08419e-12 3.38187e-10 -2.46806e-10 -5.11718e-10 1.97648e-15 -1.91156e-16 2.56542e-17 0 0 0 0 0 0 0 0
72 1 -0.00623748 -0.00359736 0.0023283 0.0008 3.43146e-06 -5.74355e-13 7.88701e-15 4.00459e-13 -4.0256e-10 -7.63988e-10 3.74467e-10 -7.87405e-17 6.55522e-16 4.58159e-16 1 0.000689273 0.000316177 0.000159556 -0.00693005 -0.00399679 0.0023283 0.0008
73 1 -0.00142201 -0.00230276 0.00361555 0.0008 3.43146e-06 5.41771e-13 -1.02442e-12 -4.57612e-13 -1.30544e-09 5.3848e-10 1.58771e-10 4.07839e-16 1.50465e-16 -9.12709e-17 0 0 0 0 0 0 0 0
74 1 -0.00542763 0.00473127 0.000799425 0.0008 3.43146e-06 3.2837e-13 -1.0536e-13 -2.71002e-13 1.20106e-10 3.98946e-10 1.76109e-10 1.90024e-16 4.57955e-16 -3.01073e-16 1 0.000162014 -7.08288e-05 0.000903829 -0.00542763 0.00473127 0 0.0008
75 1 -0.00303346 -0.00495443 0.00218156 0.0008 3.43146e-06 1.06743e-12 4.07918e-13 -4.98758e-13 -1.73512e-10 3.20517e-10 -5.88459e-10 -4.05398e-16 -2.37135e-16 -1.12498e-15 0 0 0 0 0 0 0 0
76 1 -0.00462394 -0.00248518 0.00208521 0.0008 3.43146e-06 2.16834e-12 1.00711e-12 1.91768e-12 1.7389e-09 2.71433e-09 -2.7207e-09 -6.32002e-16 -2.55524e-16 2.60869e-16 0 0 0 0 0 0 0 0
77 1 -0.00254305 0.00164501 0.00466402 0.0008 3.43146e-06 -1.83404e-13 -5.41996e-13 -2.00603e-12 -1.75189e-09 9.38838e-10 1.40887e-09 -3.10558e-16 -6.34013e-16 -3.84394e-16 0 0 0 0 0 0 0 0
78 1 0.00140109 0.00051417 0.00177189 0.0008 3.43146e-06 2.83589e-13 -2.66819e-13 5.41269e-13 1.30927e-09 -3.62553e-10 -9.71897e-10 1.77842e-16 3.44206e-16 2.07653e-17 0 0 0 0 0 0 0 0
79 1 0.00580364 -0.000173182 0.000799689 0.0008 3.43146e-06 2.06215e-13 5.88567e-14 1.22698e-13 -7.04484e-11 2.58478e-10 4.63053e-10 4.20619e-17 -1.58055e-16 1.39208e-16 1 8.82778e-06 2.17774e-05 0.00035858 0.00580364 -0.000173182 0 0.0008
80 1 -0.00368293 -0.00234796 0.000799161 0.0008 3.43146e-06 6.52435e-13 2.21362e-13 -2.70372e-13 -2.64977e-10 7.8557e-10 -1.08706e-09 -6.48929e-16 2.40455e-15 1.61783e-16 1 8.01764e-06 0.000107444 0.00159238 -0.00368293 -0.00234796 0 0.0008
81 1 -0.00719428 -0.000301604 0.00217679 0.0008 3.43146e-06 7.53263e-15 1.34954e-13 1.61301e-13 6.06661e-10 -1.73658e-10 2.24944e-10 1.33927e-16 1.47463e-17 8.87251e-16 1 0.000994173 -7.42178e-05 0.000139609 -0.00799298 -0.000335087 0.00217679 0.0008
82 1 0.00058277 0.00578593 0.00225871 0.0008 3.43146e-06 -2.70886e-13 9.88241e-13 -9.71179e-13 1.10041e-10 -2.82804e-10 -2.51586e-10 -3.95979e-16 6.9037e-16 -1.6235e-16 0 0 0 0 0 0 0 0
83 1 -0.00162357 -0.00247701 0.00203884 0.0008 3.43146e-06 5.4213e-13 -9.96597e-13 -1.21795e-13 1.30916e-09 -4.20951e-10 3.3972e-11 -6.44932e-16 3.89499e-16 -1.69074e-15 0 0 0 0 0 0 0 0
84 1 -0.000768784 -0.00580906 0.000799874 0.0008 3.43146e-06 2.70852e-13 8.81627e-14 -2.70804e-13 -1.59885e-10 3.34879e-10 -3.13646e-10 -1.31241e-16 1.61321e-16 -1.26988e-16 1 2.855e-06 -1.72831e-05 9.21516e-05 -0.000768784 -0.00580906 0 0.0008
85 1 -0.00686564 -0.00217056 0.00197113 0.0008 3.43146e-06 3.75897e-14 -5.05632e-13 4.15124e-13 6.70674e-10 -3.53893e-10 -5.88552e-10 3.86914e-16 -3.53904e-16 -1.00585e-16 1 0.00092626 0.000160643 -7.25232e-05 -0.00762787 -0.00241154 0.00197113 0.0008
86 1 0.00288241 -0.0058917 0.000799936 0.0008 3.43146e-06 -3.56807e-41 2.08609e-40 1.87224e-13 -2.60755e-37 -4.45999e-38 -0.00159425 1.27431e-44 -7.45034e-44 -4.52186e-21 1 -5.09721e-45 2.98011e-44 3.36626e-05 0.00288241 -0.0058917 0 0.0008
87 1 -9.13272e-05 -0.00336827 0.0023854 0.0008 3.43146e-06 -1.02846e-13 -1.08163e-12 3.93276e-13 -1.07589e-09 -2.04745e-09 -6.71904e-10 -1.06988e-16 2.95554e-16 -5.31507e-17 0 0 0 0 0 0 0 0
88 1 -0.00367983 -0.00447425 0.000799577 0.0008 3.43146e-06 6.05404e-13 1.69249e-13 1.25034e-13 -2.11792e-10 7.55685e-10 1.19936e-10 3.06376e-16 -3.61515e-16 -7.81526e-16 1 -5.33454e-08 1.30273e-05 0.000570318 -0.00367983 -0.00447425 0 0.0008
89 1 0.00616555 0.00371847 0.000799917 0.0008 3.43146e-06 -3.14497e-13 9.96406e-14 -2.56964e-13 -1.02298e-10 -4.08112e-10 -3.09918e-10 3.9758e-17 -5.70709e-17 -1.10185e-16 1 -1.49353e-06 6.75462e-06 4.95866e-05 0.00616555 0.00371847 0 0.0008
90 1 -0.00229744 -0.00528137 0.000799559 0.0008 3.43146e-06 1.45533e-13 -2.24195e-13 -2.69147e-13 2.82635e-10 1.82386e-10 -1.58866e-09 1.44724e-16 -1.56363e-16 -1.10639e-16 1 -8.92877e-05 1.41718e-05 0.000605889 -0.00229744 -0.00528137 0 0.0008
91 1 0.00418907 -0.00112461 0.00330044 0.0008 3.43146e-06 1.42082e-12 -5.39054e-13 8.01716e-13 -9.05352e-10 1.18924e-09 1.82178e-09 -9.64219e-17 -1.40152e-16 6.8378e-17 0 0 0 0 0 0 0 0
92 1 0.00270312 0.00328902 0.00506663 0.0008 3.43146e-06 -1.08302e-12 -5.25441e-13 7.22058e-13 -1.5892e-09 -3.56783e-11 5.02554e-10 2.2434e-16 1.21666e-16 6.27662e-16 0 0 0 0 0 0 0 0
93 1 -0.000723784 -0.00716379 0.00221569 0.0008 3.43146e-06 2.7042e-13 -3.9443e-14 -4.99246e-13 -7.43352e-10 -1.15046e-09 -3.54275e-10 -3.11474e-16 -2.58692e-17 1.05565e-17 1 4.35011e-05 0.00028228 3.08253e-07 -0.000804175 -0.00795948 0.00221569 0.0008
94 1 0.00156545 0.00702819 0.00203691 0.0008 3.43146e-06 -5.13893e-13 -4.41562e-13 -1.18205e-13 -8.3402e-11 -1.05054e-09 -4.91974e-10 -1.47786e-16 -2.31874e-16 1.53198e-16 1 -0.000230524 -0.000555266 4.47221e-05 0.00173929 0.00780864 0.00203691 0.0008
95 1 0.0014907 0.00203264 0.0022673 0.0008 3.43146e-06 2.83253e-13 3.88036e-13 6.64002e-13 -1.42952e-09 2.91543e-10 9.90783e-10 5.42791e-16 1.0792e-15 4.61052e-16 0 0 0 0 0 0 0 0
96 1 -0.00420451 0.00386156 0.00482224 0.0008 3.43146e-06 8.92631e-13 -1.17643e-13 -1.54989e-12 9.13286e-10 5.55493e-10 -1.8488e-09 -1.14765e-15 -6.37819e-16 3.07147e-16 0 0 0 0 0 0 0 0
97 1 -0.0043821 0.0026448 0.00243887 0.0008 3.43146e-06 -4.92565e-13 -3.78018e-13 7.92005e-13 2.14332e-09 3.88905e-10 -2.2885e-10 -9.65205e-16 -8.30514e-16 -5.81666e-16 0 0 0 0 0 0 0 0
98 1 -0.0033728 0.00636168 0.000799295 0.0008 3.43146e-06 -5.15019e-13 -1.41533e-13 1.02081e-13 1.87519e-10 -6.40818e-10 -6.49943e-10 1.34202e-16 -4.46452e-16 -4.65714e-16 1 3.5545e-06 -0.000293919 0.00122585 -0.0033728 0.00636168 0 0.0008
99 1 0.00396272 0.00601161 0.000799697 0.0008 3.43146e-06 -3.57364e-13 -2.95338e-14 -2.27314e-13 4.46083e-11 -4.50051e-10 -3.66028e-10 -4.18548e-17 -2.90057e-16 -2.22846e-16 1 -2.89767e-05 9.59922e-05 0.00034529 0.00396272 0.00601161 0 0.0008
100 1 -0.00100811 0.00584765 0.00205893 0.0008 3.43146e-06 1.70854e-13 1.8684e-12 -7.09415e-14 2.72223e-10 5.18103e-11 -7.11515e-10 1.94832e-15 1.40777e-15 -3.53743e-15 0 0 0 0 0 0 0 0
101 1 0.001516 0.00362912 0.00216511 0.0008 3.43146e-06 -5.40359e-13 7.81947e-13 7.09576e-13 1.51712e-09 -1.08302e-09 4.15938e-11 -7.17315e-18 4.89995e-16 1.29939e-16 0 0 0 0 0 0 0 0
102 1 -0.00392864 0.00243769 0.000799923 0.0008 3.43146e-06 4.26787e-13 -6.87972e-13 -1.81972e-13 8.53656e-10 5.40753e-10 1.12867e-09 8.14997e-16 -8.25611e-16 5.80194e-17 1 1.36106e-06 -4.08583e-07 4.39706e-05 -0.00392864 0.00243769 0 0.0008
103 1 0.0024248 -0.00183817 0.00303002 0.0008 3.43146e-06 -8.37499e-15 -5.39581e-13 4.64713e-13 -4.40066e-10 -1.3055e-09 -3.26453e-10 -5.74912e-16 6.06479e-17 1.82441e-15 0 0 0 0 0 0 0 0
104 1 0.000175736 -0.00719816 0.00358927 0.0008 3.43146e-06 1.52598e-14 -9.99047e-13 -9.57226e-14 -9.83615e-11 -3.90827e-10 1.8055e-11 2.56807e-16 -9.78721e-17 -5.37127e-16 1 -7.34769e-05 0.000347508 -4.44518e-05 0.000195254 -0.00799762 0.00358927 0.0008
105 1 0.0033307 -0.00638377 0.005736 0.0008 3.43146e-06 4.97819e-13 -1.98889e-12 1.22775e-12 1.53289e-09 4.12955e-10 5.90753e-10 -1.83098e-16 -2.0913e-16 1.39331e-17 1 -0.000323576 0.000491738 3.18886e-05 0.00370056 -0.00709266 0.005736 0.0008
106 1 -0.00113378 0.00417271 0.000799283 0.0008 3.43146e-06 6.05678e-14 2.87302e-13 -1.98589e-13 -3.60277e-10 9.43744e-11 8.46018e-12 3.88056e-16 -1.15841e-16 -2.81335e-16 1 -6.76877e-05 -0.000273755 0.00125687 -0.00113378 0.00417271 0 0.0008
107 1 0.00368974 -0.00201513 0.00206864 0.0008 3.43146e-06 5.70842e-13 -6.46069e-13 4.83145e-13 1.70615e-09 6.61922e-10 -7.41121e-10 5.12457e-16 -2.90407e-16 6.10645e-16 0 0 0 0 0 0 0 0
108 1 -0.00217532 0.00138989 0.00161669 0.0008 3.43146e-06 3.29271e-13 -5.41829e-13 4.56686e-13 -7.52039e-11 2.58065e-11 -8.14639e-10 1.4878e-16 3.64644e-16 -7.86999e-16 0 0 0 0 0 0 0 0
109 1 6.12265e-05 0.00432995 0.00185074 0.0008 3.43146e-06 -3.26607e-14 1.15564e-12 -3.79977e-13 -9.31745e-10 -8.97141e-11 3.04891e-10 2.14197e-16 -5.60882e-16 1.30174e-16 0 0 0 0 0 0 0 0
110 1 0.00285516 0.00120524 0.0018769 0.0008 3.43146e-06 -4.77329e-14 5.4127e-13 5.4161e-13 -9.05165e-11 -5.83291e-10 -5.89765e-11 -6.77152e-16 -8.229e-16 -1.38444e-16 0 0 0 0 0 0 0 0
111 1 -0.00470222 0.00545276 0.002029 0.0008 3.43146e-06 8.51577e-14 -1.05676e-12 -1.97726e-14 8.02103e-10 -8.94573e-10 -7.90553e-10 8.4842e-17 2.23991e-16 -7.69919e-16 1 0.00015814 -0.000195603 7.49994e-05 -0.00522452 0.00605842 0.002029 0.0008
112 1 0.00331834 0.00229297 0.000799203 0.0008 3.43146e-06 -1.34094e-13 7.03231e-13 -1.58312e-13 -8.71141e-10 -1.63064e-10 1.27704e-09 7.11125e-17 2.98341e-17 -6.15025e-16 1 0.000167146 -8.95167e-05 0.00147365 0.00331834 0.00229297 0 0.0008
113 1 -0.00287928 2.55278e-05 0.00206462 0.0008 3.43146e-06 9.33979e-14 -9.16045e-14 1.07746e-12 -2.41465e-10 1.12793e-09 3.93522e-11 1.07968e-15 -3.26404e-16 -3.41478e-16 0 0 0 0 0 0 0 0
114 1 -0.00223897 0.00684304 0.00182028 0.0008 3.43146e-06 1.14414e-13 1.65499e-14 2.93331e-13 -6.58872e-10 7.93201e-10 1.59887e-10 6.98808e-17 -4.07062e-16 3.79469e-17 1 5.16713e-07 -4.12995e-06 7.86358e-07 -0.00248774 0.00760336 0.00182028 0.0008
115 1 0.00080915 -0.00569599 0.00103848 0.0008 3.43146e-06 2.70979e-13 9.43363e-15 -4.42829e-14 1.793e-10 -6.18077e-10 2.07938e-10 1.6083e-16 -6.56105e-16 7.62306e-16 0 0 0 0 0 0 0 0
116 1 0.00519229 0.00498813 0.000799848 0.0008 3.43146e-06 2.01701e-14 -3.69353e-13 -2.23128e-13 4.54525e-10 3.0251e-11 3.43177e-10 -1.0303e-16 -6.80068e-17 -1.80242e-16 1 2.67434e-06 1.54277e-05 0.000122248 0.00519229 0.00498813 0 0.0008
117 1 -0.00515861 0.00141443 0.000799914 0.0008 3.43146e-06 3.35775e-13 -3.07038e-13 -2.01534e-13 3.75004e-10 4.2294e-10 -1.57459e-09 -6.46609e-16 4.0423e-16 1.07835e-16 1 -1.03661e-06 1.13391e-06 5.20066e-05 -0.00515861 0.00141443 0 0.0008
118 1 0.000560175 0.00716651 0.00079992 0.0008 3.43146e-06 2.10132e-13 -2.10603e-13 -2.4701e-13 2.63117e-10 2.60331e-10 1.9473e-10 -2.6884e-16 -1.22293e-16 1.87168e-16 1 -8.17647e-07 -5.4455e-07 4.66893e-05 0.000560175 0.00716651 0 0.0008
119 1 0.00705331 0.00144602 0.00439715 0.0008 3.43146e-06 1.15593e-12 3.28697e-13 8.15338e-13 4.34764e-10 1.13177e-09 -1.04675e-10 -1.14154e-16 1.00863e-16 -1.24617e-16 1 -2.37949e-06 -8.32871e-07 1.6875e-07 0.007837 0.00160668 0.00439715 0.0008
120 1 0.00288815 0.00281118 0.00225008 0.0008 3.43146e-06 -6.80645e-13 4.99635e-13 3.61636e-13 1.12744e-09 -5.37112e-12 -2.70791e-10 2.66272e-16 2.86971e-16 3.42831e-16 0 0 0 0 0 0 0 0
121 1 -0.000805591 0.00126989 0.000799537 0.0008 3.43146e-06 2.70565e-13 -8.24801e-14 1.56002e-13 9.80078e-11 3.73962e-10 1.47602e-09 3.64806e-16 -7.0033e-17 1.23467e-17 1 -0.000159845 3.59211e-05 0.000652824 -0.000805591 0.00126989 0 0.0008
122 1 -0.00689514 0.00207207 0.000799447 0.0008 3.43146e-06 1.06542e-12 3.62199e-13 6.62518e-14 -4.52342e-10 1.33127e-09 -1.38128e-11 3.95041e-16 8.55532e-17 -3.65614e-17 1 0.000302611 3.62186e-05 0.000851965 -0.00689514 0.00207207 0 0.0008
123 1 0.00569432 0.000621625 0.00218356 0.0008 3.43146e-06 7.12492e-13 7.76392e-14 8.95197e-13 3.89475e-10 1.35801e-09 9.7251e-10 2.20441e-16 -1.2935e-16 3.99793e-16 0 0 0 0 0 0 0 0
124 1 0.00142651 0.00417018 0.00467531 0.0008 3.43146e-06 -5.41225e-13 -1.5606e-12 -4.91826e-13 -2.06854e-09 3.92958e-10 -6.14525e-10 6.51288e-17 9.8478e-16 7.00227e-16 0 0 0 0 0 0 0 0
125 1 0.00519495 -0.00254054 0.00219097 0.0008 3.43146e-06 3.67194e-14 -1.08261e-12 -1.8619e-13 -6.11241e-10 -1.96951e-10 8.3131e-11 -3.5493e-16 4.68284e-16 -1.60466e-16 0 0 0 0 0 0 0 0
126 1 -0.00487664 -0.00341288 0.00079965 0.0008 3.43146e-06 -1.238e-13 1.53461e-13 2.69759e-13 -1.64128e-10 -1.68677e-10 5.00251e-10 6.74244e-16 -1.40688e-16 -2.77264e-17 1 7.45784e-05 -1.57288e-05 0.000428294 -0.00487664 -0.00341288 0 0.0008
127 1 0.00717019 0.000658712 0.000799489 0.0008 3.43146e-06 -9.74642e-14 1.40973e-13 -7.69554e-14 -1.82636e-10 -1.18927e-10 -1.82995e-10 5.05617e-17 -1.15945e-16 1.491e-16 1 6.27899e-05 -2.59031e-05 0.000755861 0.00717019 0.000658712 0 0.0008
128 1 0.00700304 -0.000487596 0.0019023 0.0008 3.43146e-06 -2.80451e-13 -1.29256e-13 5.41311e-13 -1.22539e-10 1.17176e-10 -2.26535e-11 -3.87835e-16 7.02983e-18 -4.16772e-16 0 0 0 0 0 0 0 0
129 1 -5.87698e-05 -0.00181598 0.0019994 0.0008 3.43146e-06 2.87253e-13 -5.4165e-13 -3.20236e-13 3.18012e-10 2.60182e-11 6.36941e-10 -7.51494e-16 7.75027e-17 4.02993e-16 0 0 0 0 0 0 0 0
130 1 0.000757215 0.00161216 0.000799672 0.0008 3.43146e-06 -9.82171e-14 4.92576e-13 -1.81631e-13 -6.03776e-10 -1.3883e-10 -6.68073e-10 -8.71215e-17 -4.47663e-17 -8.21891e-17 1 -0.000117022 3.04229e-06 0.000389372 0.000757215 0.00161216 0 0.0008
131 1 0.00299425 -0.00521001 0.00456229 0.0008 3.43146e-06 7.26991e-13 -2.16647e-12 2.9335e-14 3.42847e-10 2.25239e-10 1.40457e-09 -8.00293e-16 -4.88561e-16 -4.00068e-16 0 0 0 0 0 0 0 0
132 1 0.00114143 -0.00436511 0.00216987 0.0008 3.43146e-06 -4.2094e-13 -8.89204e-13 1.08342e-12 1.7882e-09 4.78334e-10 4.31819e-10 1.2529e-15 1.44687e-15 1.63057e-16 0 0 0 0 0 0 0 0
133 1 -0.00413388 -0.00326502 0.00352667 0.0008 3.43146e-06 8.09238e-13 1.23574e-13 1.08385e-12 2.07372e-09 1.11771e-09 1.77728e-09 -7.09713e-16 2.54385e-15 -4.55426e-16 0 0 0 0 0 0 0 0
134 1 0.00470228 -0.00315813 0.00079941 0.0008 3.43146e-06 -3.32333e-13 6.74556e-13 2.68359e-13 -8.42118e-10 -4.15192e-10 -4.22554e-10 -1.40635e-16 1.42476e-17 -1.80277e-17 1 -5.9139e-05 -0.000201859 0.00093898 0.00470228 -0.00315813 0 0.0008
135 1 0.00445571 0.00530982 0.00218317 0.0008 3.43146e-06 -7.77845e-13 -1.58497e-13 -5.69925e-13 -5.43513e-10 -1.19831e-09 -7.13685e-10 4.21395e-16 2.21096e-16 8.91082e-17 0 0 0 0 0 0 0 0
136 1 -0.00447128 -0.0056444 0.00206196 0.0008 3.43146e-06 3.95281e-13 6.06348e-13 5.83949e-14 6.86614e-10 7.52448e-10 8.86582e-11 -5.59222e-16 -4.8944e-16 -6.27996e-16 1 0.000971623 0.00118921 0.000222818 -0.00496754 -0.00627085 0.00206196 0.0008
137 1 -4.585e-05 -0.000107918 0.00205277 0.0008 3.43146e-06 5.0869e-14 3.55942e-14 1.29316e-14 -8.11255e-10 -9.56707e-11 4.21777e-10 -3.70626e-17 5.42085e-16 8.29876e-17 0 0 0 0 0 0 0 0
138 1 -0.00471325 -0.00407438 0.00224683 0.0008 3.43146e-06 3.65912e-13 1.18321e-13 7.11289e-13 2.25397e-11 4.45404e-10 1.45445e-10 1.08784e-15 -6.26198e-16 -2.46025e-16 0 0 0 0 0 0 0 0
139 1 -0.00286844 0.0027937 0.00194408 0.0008 3.43146e-06 1.06533e-12 -1.28743e-13 -1.04534e-14 -6.66661e-10 1.06042e-10 -1.50514e-10 -4.74064e-16 -5.42565e-16 -6.59518e-16 0 0 0 0 0 0 0 0
140 1 0.00180781 0.00281875 0.000799731 0.0008 3.43146e-06 1.22805e-13 -2.99408e-13 -2.70985e-13 3.95298e-10 1.51073e-10 -1.99524e-10 1.17803e-16 -1.10505e-16 -2.05293e-16 1 5.30054e-05 -7.84008e-05 0.00028916 0.00180781 0.00281875 0 0.0008
141 1 0.00440315 -0.00404586 0.00209559 0.0008 3.43146e-06 -1.96904e-13 -1.69671e-13 1.06648e-12 1.07213e-09 5.25368e-10 1.01986e-09 -3.71712e-16 -1.48918e-16 -1.16656e-16 0 0 0 0 0 0 0 0
142 1 -0.000620871 -0.0032034 0.00466657 0.0008 3.43146e-06 2.70911e-13 -5.12781e-13 -8.50975e-13 3.98848e-10 2.48963e-10 -9.70121e-10 1.95901e-15 5.54783e-16 2.66035e-16 0 0 0 0 0 0 0 0
143 1 -3.42493e-05 0.00148674 0.00218408 0.0008 3.43146e-06 1.05502e-13 4.85826e-13 -4.90305e-13 4.04775e-10 1.78388e-10 1.10018e-09 -1.77028e-16 2.17348e-16 7.78288e-16 0 0 0 0 0 0 0 0
144 1 -0.00353053 0.00627532 0.00443263 0.0008 3.43146e-06 -7.06806e-13 -4.027e-13 -2.59148e-13 1.02622e-10 4.46164e-10 -1.02373e-09 3.36986e-17 2.01133e-16 -5.38664e-17 1 0.000149344 -0.000307675 4.86255e-05 -0.00392265 0.00697229 0.00443263 0.0008
145 1 -0.00186274 -0.00604351 0.00213728 0.0008 3.43146e-06 5.41456e-13 9.26373e-14 -1.08373e-12 -7.98565e-10 1.63254e-09 -7.21598e-11 1.75448e-16 -3.76214e-16 -6.14526e-17 0 0 0 0 0 0 0 0
146 1 0.00518661 8.8851e-05 0.00360416 0.0008 3.43146e-06 -2.31443e-13 3.35532e-14 6.14942e-13 -6.41138e-10 -2.9486e-09 -1.8715e-10 -2.48703e-16 2.62324e-17 5.44258e-16 0 0 0 0 0 0 0 0
147 1 0.00253741 0.00673822 0.000799836 0.0008 3.43146e-06 2.32354e-13 -3.49567e-13 -1.91428e-13 4.09919e-10 2.99117e-10 4.15276e-10 -1.75479e-16 -3.30916e-16 -2.26911e-16 1 6.341e-06 3.18867e-05 0.000137982 0.00253741 0.00673822 0 0.0008
148 1 0.00298243 0.00390477 0.000799709 0.0008 3.43146e-06 -3.10748e-13 -2.71813e-13 2.69599e-13 3.31579e-10 -3.98101e-10 5.75263e-10 3.72025e-16 2.92479e-17 -8.847e-17 1 -4.43902e-05 9.4892e-06 0.000324619 0.00298243 0.00390477 0 0.0008
149 1 0.00394022 -0.00392071 0.00452598 0.0008 3.43146e-06 1.29585e-12 6.108e-14 -5.09501e-13 8.23654e-10 2.3419e-09 -4.13651e-10 6.11809e-16 -7.25026e-16 8.26484e-16 0 0 0 0 0 0 0 0
150 1 0.00182385 -0.00483948 0.00353635 0.0008 3.43146e-06 -4.844e-14 -2.16576e-12 1.69351e-13 1.06337e-10 3.04564e-10 -7.05675e-10 1.05679e-15 -5.60716e-16 8.5253e-17 0 0 0 0 0 0 0 0
151 1 -0.000917257 -0.00436653 0.00360989 0.0008 3.43146e-06 2.70753e-13 1.94604e-13 -2.91449e-13 -3.65089e-10 -4.4102e-10 4.53138e-10 -5.71009e-16 3.42464e-16 2.42415e-16 0 0 0 0 0 0 0 0
152 1 -0.00550267 -0.0024444 0.00342105 0.0008 3.43146e-06 1.11909e-12 -1.07386e-12 1.07331e-12 3.35379e-09 -4.52863e-09 -2.77088e-10 2.74727e-15 -4.11746e-16 -9.41247e-16 0 0 0 0 0 0 0 0
153 1 -0.00696659 -0.00182106 0.00358219 0.0008 3.43146e-06 8.47639e-13 -5.41849e-13 1.40292e-13 2.89899e-09 5.75543e-10 -9.37069e-10 1.54791e-15 -6.54334e-16 -5.62069e-16 1 0.00106869 0.000473764 0.00031267 -0.00773994 -0.00202321 0.00358219 0.0008
154 1 -0.0040591 0.00108838 0.00225907 0.0008 3.43146e-06 -6.7104e-13 4.87979e-13 4.78302e-13 -1.54808e-09 -6.38545e-10 2.32266e-10 8.80646e-17 -6.25805e-16 -9.68372e-16 0 0 0 0 0 0 0 0
155 1 -0.00196635 0.00555837 0.000799936 0.0008 3.43146e-06 -3.50726e-41 2.07866e-40 1.87224e-13 -2.59826e-37 -4.38397e-38 -0.228598 1.25259e-44 -7.4238e-44 2.25443e-21 1 -5.01034e-45 2.9695e-44 3.36626e-05 -0.00196635 0.00555837 0 0.0008
156 1 0.00696165 -0.00183773 0.00478486 0.0008 3.43146e-06 -3.17219e-14 -5.41993e-13 -8.88587e-13 -2.04042e-09 -6.04142e-10 6.77619e-10 -4.2049e-16 3.26335e-16 1.83089e-16 1 -9.06974e-05 2.35439e-05 -6.76517e-06 0.00773503 -0.00204189 0.00478486 0.0008
157 1 0.00245245 0.00526913 0.00144518 0.0008 3.43146e-06 2.95983e-13 1.31351e-12 2.69156e-13 -5.24966e-10 -8.18275e-10 -2.58856e-09 -2.66569e-16 -5.59337e-16 3.0861e-16 0 0 0 0 0 0 0 0
158 1 0.00262806 -0.00377593 0.00199332 0.0008 3.43146e-06 -1.07726e-12 -1.08408e-12 1.08413e-12 2.90074e-09 -2.66682e-10 -8.93521e-11 -7.13703e-16 3.75048e-16 7.16224e-16 0 0 0 0 0 0 0 0
159 1 0.00193614 -0.00458587 0.000799518 0.0008 3.43146e-06 -1.74025e-13 3.94917e-13 2.70144e-13 -4.76085e-10 -2.20675e-10 7.10734e-10 5.53301e-16 1.03047e-15 -8.6373e-16 1 -0.000189732 2.13357e-05 0.000693717 0.00193614 -0.00458587 0 0.0008
160 1 0.00171532 -0.00699261 0.000799248 0.0008 3.43146e-06 5.40356e-13 -5.81975e-14 -2.69671e-13 6.27125e-11 6.68542e-10 -5.35141e-11 2.33247e-16 -3.26506e-16 -2.10882e-16 1 2.87731e-05 6.12436e-05 0.00135011 0.00171532 -0.00699261 0 0.0008
161 1 -0.00431634 0.00228308 0.00458924 0.0008 3.43146e-06 4.31457e-13 -8.0018e-13 1.67827e-13 -2.95645e-09 1.99437e-09 1.69964e-09 1.58676e-15 1.33511e-15 -9.91249e-16 0 0 0 0 0 0 0 0
162 1 0.00521701 0.00168492 0.003279 0.0008 3.43146e-06 -9.61694e-13 -3.00249e-13 8.69195e-13 -1.71884e-10 -2.60769e-09 7.66013e-10 6.05856e-16 -1.96495e-16 1.28896e-16 0 0 0 0 0 0 0 0
163 1 0.003124 -0.00280736 0.000799553 0.0008 3.43146e-06 -1.3363e-13 2.71804e-13 -1.97974e-13 -3.24704e-10 -1.71225e-10 3.43729e-11 -4.70014e-16 -4.97836e-16 1.60387e-16 1 0.000110298 0.000124986 0.000619489 0.003124 -0.00280736 0 0.0008
164 1 -0.00107934 -0.00423997 0.000798833 0.0008 3.43146e-06 2.00861e-13 -2.51308e-13 -8.15102e-14 2.96784e-10 2.38903e-10 4.72087e-10 4.44191e-17 -1.34053e-16 -7.14259e-17 1 -0.000572707 -4.78324e-05 0.00261109 -0.00107934 -0.00423997 0 0.0008
165 1 -0.00675994 0.000469961 0.000799936 0.0008 3.43146e-06 -3.67799e-41 2.06775e-40 1.87224e-13 -2.58462e-37 -4.59738e-38 0.849261 1.31357e-44 -7.38482e-44 2.25443e-21 1 -5.25424e-45 2.9539e-44 3.36626e-05 -0.00675994 0.000469961 0 0.0008
166 1 -0.00175557 0.00269901 0.000799216 0.0008 3.43146e-06 3.81135e-13 -1.40348e-13 1.34084e-13 1.56975e-10 4.671e-10 5.93799e-10 7.4642e-17 -1.8048e-16 -2.21724e-16 1 -3.95881e-05 -1.00105e-05 0.00143863 -0.00175557 0.00269901 0 0.0008
167 1 0.00606284 -0.00388423 0.00220339 0.0008 3.43146e-06 2.43726e-13 -5.85842e-13 -1.27858e-14 8.05941e-10 -5.33599e-10 4.56682e-10 2.92085e-16 -5.38933e-16 1.50145e-16 1 -0.000394715 0.000259904 3.87213e-05 0.00673615 -0.00431559 0.00220339 0.0008
168 1 0.00452419 -0.00364007 0.00598816 0.0008 3.43146e-06 1.2659e-12 -9.84208e-13 -8.82179e-13 5.32828e-10 -2.08824e-09 5.60116e-10 1.34008e-15 -1.16635e-15 -1.76127e-15 0 0 0 0 0 0 0 0
169 1 -0.00440565 -0.000836949 0.00210956 0.0008 3.43146e-06 -1.90532e-12 -1.95168e-13 7.85168e-13 -9.58392e-10 1.00355e-09 2.13824e-09 -1.44907e-15 7.56779e-16 4.76576e-15 0 0 0 0 0 0 0 0
170 1 -4.93314e-05 0.00561771 0.000799318 0.0008 3.43146e-06 7.10767e-14 7.51185e-13 -2.708e-13 -9.3909e-10 1.00281e-10 -6.62245e-10 2.68797e-16 6.71476e-16 1.39885e-15 1 7.51112e-05 6.98074e-05 0.00116748 -4.93314e-05 0.00561771 0 0.0008
171 1 -0.00717196 -0.000640281 0.00464106 0.0008 3.43146e-06 4.29866e-13 -2.70764e-13 1.92516e-12 -1.16215e-09 -2.58553e-09 -4.7953e-10 2.10667e-15 4.82787e-16 4.09406e-16 1 0.000696811 0.000136067 0.000192247 -0.00796831 -0.000711376 0.00464106 0.0008
172 1 -0.00103925 0.00712462 0.000799912 0.0008 3.43146e-06 -1.41037e-13 -2.05881e-13 -1.86008e-13 2.57604e-10 -1.72751e-10 -2.1221e-10 2.01724e-16 6.99851e-18 1.00451e-16 1 -8.7523e-06 -1.58741e-06 5.42026e-05 -0.00103925 0.00712462 0 0.0008
173 1 -0.00339515 0.00398915 0.00288913 0.0008 3.43146e-06 1.03753e-12 -1.19524e-12 1.01725e-12 -2.02273e-10 1.54847e-09 3.51329e-10 -6.28621e-16 5.25033e-16 -7.79423e-16 0 0 0 0 0 0 0 0
174 1 0.00719564 -0.000255296 0.00476452 0.0008 3.43146e-06 -6.88985e-13 -1.35405e-13 -1.21621e-12 1.32658e-09 -1.57117e-09 2.29796e-10 -2.76105e-16 -9.29018e-17 -4.38789e-16 1 -0.000143818 1.61437e-05 3.31227e-05 0.00799497 -0.000283655 0.00476452 0.0008
175 1 0.0012623 0.00441913 0.000798635 0.0008 3.43146e-06 -2.7364e-13 1.03821e-12 9.14646e-14 -1.29683e-09 -3.36033e-10 1.49367e-09 -1.01054e-16 -4.83541e-16 1.26022e-15 1 0.000300679 -0.000200777 0.00330557 0.0012623 0.00441913 0 0.0008
176 1 -0.00457814 -0.00477975 0.00490725 0.0008 3.43146e-06 1.81639e-13 -5.52525e-13 -1.25085e-12 1.03269e-09 1.88327e-09 1.21776e-09 7.62692e-16 8.96643e-16 -3.03919e-16 0 0 0 0 0 0 0 0
177 1 -0.00358696 -0.00622862 0.000799936 0.0008 3.43146e-06 -1.83201e-40 1.69225e-40 -2.0893e-13 -2.11526e-37 -2.28996e-37 -0.550804 6.5429e-44 -6.04375e-44 2.02462e-21 1 -2.61714e-44 2.41748e-44 3.36626e-05 -0.00358696 -0.00622862 0 0.0008
178 1 -0.00404206 0.000715546 0.00474886 0.0008 3.43146e-06 1.0729e-12 2.69114e-13 1.9966e-12 -1.83574e-10 2.17545e-09 -1.17368e-09 2.1257e-15 -1.34448e-16 4.87958e-16 0 0 0 0 0 0 0 0
179 1 0.00448106 -0.00563602 0.000799667 0.0008 3.43146e-06 -1.13228e-13 -4.55386e-13 2.70063e-13 5.66588e-10 -1.30369e-10 4.71235e-10 1.58882e-16 4.4856e-17 1.67224e-16 1 -3.6257e-05 7.57356e-05 0.000398891 0.00448106 -0.00563602 0 0.0008
180 1 -0.00650932 0.00307864 0.00464203 0.0008 3.43146e-06 -6.752e-13 1.21128e-13 6.81434e-13 3.72453e-10 -1.16331e-09 -2.58287e-10 1.61392e-15 1.47472e-15 -3.89445e-16 1 0.00105637 -0.000361983 0.000100678 -0.00723193 0.00342041 0.00464203 0.0008
181 1 -0.00192094 0.00354313 0.00365258 0.0008 3.43146e-06 7.95293e-14 -5.69466e-13 -8.90489e-13 -2.64251e-11 -6.68708e-10 -9.98904e-10 -1.787e-15 -1.47117e-15 -2.25463e-16 0 0 0 0 0 0 0 0
182 1 0.00672947 0.00256187 0.00329724 0.0008 3.43146e-06 8.36273e-13 1.07457e-12 2.32535e-13 -6.06574e-10 8.0617e-11 -8.78363e-10 8.40658e-17 -8.31662e-17 -2.12213e-16 1 -0.00101236 -0.000225819 0.000123653 0.00747654 0.00284628 0.00329724 0.0008
183 1 2.07469e-05 -0.00720038 0.000799539 0.0008 3.43146e-06 1.86727e-14 5.21092e-14 -1.34256e-13 -1.26369e-10 8.46282e-12 -1.8717e-11 1.46748e-16 -2.84718e-16 1.19637e-16 1 9.30951e-05 -7.71348e-05 0.000649081 2.07469e-05 -0.00720038 0 0.0008
184 1 0.00139712 -0.00278852 0.00225612 0.0008 3.43146e-06 6.51623e-15 -1.08402e-12 7.34511e-13 -2.26692e-09 -5.9403e-10 -9.38369e-10 -7.92607e-17 -5.35769e-16 8.28057e-16 0 0 0 0 0 0 0 0
185 1 0.000798195 0.00455369 0.00325537 0.0008 3.43146e-06 -2.67855e-13 -2.07258e-12 5.98836e-14 1.33335e-09 -2.11631e-10 4.51742e-12 2.37794e-16 2.14917e-15 8.13927e-16 0 0 0 0 0 0 0 0
186 1 0.00544851 0.00115391 0.00476905 0.0008 3.43146e-06 -7.40941e-13 -3.70074e-13 2.4063e-13 6.99056e-10 2.55285e-09 5.13735e-10 2.85036e-16 -5.69947e-16 8.69813e-16 0 0 0 0 0 0 0 0
187 1 0.000723795 0.000960073 0.00510636 0.0008 3.43146e-06 -1.79886e-13 -5.67732e-14 1.83745e-12 -8.09244e-10 1.95138e-09 1.87245e-10 -4.05863e-16 5.46798e-16 7.59302e-16 0 0 0 0 0 0 0 0
188 1 0.00647076 -0.00315332 0.000799936 0.0008 3.43146e-06 -6.85811e-41 -5.92677e-41 -2.41943e-13 7.4083e-38 -8.57244e-38 -0.0212614 2.44933e-44 2.11671e-44 1.47029e-21 1 -9.79724e-45 -8.46677e-45 3.36626e-05 0.00647076 -0.00315332 0 0.0008
189 1 -0.00156083 -0.000879632 0.00209324 0.0008 3.43146e-06 4.11452e-13 -1.92312e-13 5.92351e-13 -4.7069e-10 1.55027e-10 1.18941e-10 2.46671e-16 5.15471e-16 -1.30025e-15 0 0 0 0 0 0 0 0
190 1 -0.00280282 0.00390913 0.000799459 0.0008 3.43146e-06 2.76346e-13 -2.96907e-13 -9.68315e-14 3.90982e-10 3.36564e-10 1.05492e-09 -5.23651e-17 1.49406e-17 -5.05361e-16 1 5.50178e-06 -1.69363e-05 0.000824814 -0.00280282 0.00390913 0 0.0008
191 1 -0.0031964 -0.00645258 0.00439076 0.0008 3.43146e-06 1.07735e-12 -1.11061e-12 1.08423e-12 2.33451e-09 1.62727e-09 -1.81247e-09 -8.50437e-17 5.08683e-16 9.39598e-16 1 0.000711415 0.00163669 -5.62559e-05 -0.00355112 -0.00716865 0.00439076 0.0008
192 1 0.00255245 -0.00673273 0.00213702 0.0008 3.43146e-06 7.40521e-13 -4.90483e-13 -8.04924e-14 1.67774e-10 -6.60852e-10 -6.5658e-10 2.4993e-16 -6.79312e-16 -3.70506e-17 1 -0.000120312 0.00037111 0.000135271 0.00283593 -0.00748047 0.00213702 0.0008
193 1 0.00432296 -0.000183009 0.00201394 0.0008 3.43146e-06 5.5023e-13 -8.73804e-15 7.44037e-13 1.35301e-09 -5.28808e-10 -7.8051e-10 1.39592e-16 -3.98737e-16 4.8833e-16 0 0 0 0 0 0 0 0
194 1 -0.000637601 -0.00270227 0.000799684 0.0008 3.43146e-06 2.7071e-13 -1.61672e-13 5.20817e-14 1.60956e-10 3.841e-10 -4.06485e-10 -3.90373e-17 1.33985e-17 7.57329e-16 1 -2.31245e-05 1.91977e-05 0.000367899 -0.000637601 -0.00270227 0 0.0008
195 1 0.00541143 -0.00172413 0.000799971 0.0008 3.43146e-06 7.02045e-14 -2.38826e-13 4.32765e-15 3.07499e-10 8.38018e-11 -5.34011e-10 -7.46084e-17 -8.14147e-17 -3.23453e-17 1 -1.44288e-07 5.59401e-07 1.04304e-05 0.00541143 -0.00172413 0 0.0008
196 1 -0.000131167 -0.0016688 0.00480987 0.0008 3.43146e-06 6.76843e-14 4.01401e-13 -1.53242e-13 -1.03208e-10 -3.55508e-10 5.24083e-11 -6.23905e-17 -4.80266e-16 4.44904e-16 0 0 0 0 0 0 0 0
197 1 -0.0034943 -0.000735552 0.000799394 0.0008 3.43146e-06 -1.01067e-12 -2.70959e-13 -2.65051e-13 3.45504e-10 -1.24779e-09 -1.63361e-09 -1.28153e-15 1.565e-16 1.12935e-16 1 -2.37182e-06 8.73006e-05 0.00097665 -0.0034943 -0.000735552 0 0.0008
198 1 -0.00197805 0.00410548 0.002156 0.0008 3.43146e-06 4.68974e-13 -2.31754e-13 -2.77674e-13 6.48728e-10 2.56139e-10 7.45113e-10 -3.26536e-16 -6.46425e-17 3.57771e-16 0 0 0 0 0 0 0 0
199 1 -0.00328909 -0.00337259 0.00205523 0.0008 3.43146e-06 5.76267e-13 1.08403e-12 3.21125e-13 -4.04559e-10 -2.12473e-10 8.80276e-10 -3.6934e-16 -1.80901e-17 1.81103e-16 0 0 0 0 0 0 0 0
200 1 -0.00585617 0.00219642 0.00200896 0.0008 3.43146e-06 1.42963e-13 6.19287e-13 -4.98038e-13 -4.85516e-10 -1.81937e-09 -4.29836e-10 5.61801e-16 2.30506e-16 -3.53438e-16 0 0 0 0 0 0 0 0
201 1 -0.002756 0.00319997 0.00497323 0.0008 3.43146e-06 -1.08391e-12 -1.08419e-12 -2.16759e-12 1.60692e-09 -1.043e-09 -1.28134e-10 -1.94895e-16 -2.43598e-16 -9.70687e-17 0 0 0 0 0 0 0 0
202 1 -0.00470146 0.00544918 0.0036285 0.0008 3.43146e-06 -6.38804e-13 6.11382e-14 1.02243e-12 -2.19437e-09 -1.92019e-11 1.5942e-09 -6.60521e-16 -8.45648e-16 -2.18825e-16 0 0 0 0 0 0 0 0
203 1 0.00166138 0.00612892 0.0094983 0.0008 3.43146e-06 -5.41936e-13 2.16764e-12 -1.01584e-12 1.00718e-09 1.31981e-09 1.05711e-09 -6.35994e-16 -1.30023e-15 -1.31004e-15 0 0 0 0 0 0 0 0
204 1 0.00517787 0.00303786 0.00701506 0.0008 3.43146e-06 2.15695e-12 -4.96847e-13 -2.16805e-12 -1.01721e-09 -1.14476e-09 -9.49948e-10 3.06638e-17 2.81275e-16 -2.73036e-16 0 0 0 0 0 0 0 0
205 1 -0.00567089 0.00443727 0.00454642 0.0008 3.43146e-06 -4.68103e-13 1.15285e-12 -3.30363e-13 -1.44721e-09 1.65998e-09 7.54587e-10 -1.25521e-15 5.3217e-16 -2.51051e-16 1 0.000882633 -0.000417621 -0.000117791 -0.00630048 0.0049299 0.00454642 0.0008
206 1 -0.00133293 0.000579391 0.00270842 0.0008 3.43146e-06 1.53475e-13 -2.41795e-13 -1.2719e-13 -2.25914e-10 5.58814e-10 4.21586e-10 2.17786e-16 6.58635e-16 -9.80783e-16 0 0 0 0 0 0 0 0
207 1 -0.00378133 -0.00612712 0.00730774 0.0008 3.43146e-06 1.08426e-12 8.62268e-13 -2.16737e-12 4.0252e-10 5.47042e-09 -5.89272e-10 2.30082e-16 -4.44242e-16 1.6132e-15 1 1.59385e-07 2.61435e-07 1.61345e-08 -0.00420147 -0.00680791 0.00730774 0.0008
208 1 0.00417735 -0.0022808 0.00440624 0.0008 3.43146e-06 -7.74672e-14 7.69518e-13 -2.00423e-12 2.30343e-09 -1.84616e-09 -3.81596e-09 -2.10241e-15 4.1365e-16 -2.90954e-15 0 0 0 0 0 0 0 0
209 1 0.00337502 0.000605483 0.00796907 0.0008 3.43146e-06 1.07015e-12 -9.0628e-14 -2.71886e-13 -5.03247e-10 -6.65251e-10 -2.59388e-10 -4.78803e-16 -7.76277e-16 1.0588e-15 0 0 0 0 0 0 0 0
210 1 0.00559168 0.00453655 0.00539776 0.0008 3.43146e-06 -9.04596e-13 -1.4968e-13 7.0522e-13 -2.52969e-10 9.37052e-10 -5.57062e-10 1.15003e-16 2.58937e-16 -3.64364e-17 1 -0.000438467 -0.000645938 -3.17263e-05 0.00621255 0.00504026 0.00539776 0.0008
211 1 -0.00151452 0.00404212 0.00552865 0.0008 3.43146e-06 -5.41477e-13 5.43848e-13 -7.75737e-13 -2.17642e-09 -6.54851e-10 9.57526e-10 5.99143e-16 2.00628e-15 -1.9434e-15 0 0 0 0 0 0 0 0
212 1 -0.00581816 -0.00424172 0.00576266 0.0008 3.43146e-06 8.60008e-13 -6.21181e-13 -1.16524e-13 -7.16806e-10 -2.39223e-10 -1.29018e-09 -3.70427e-16 2.84732e-16 4.05352e-17 1 0.000155377 0.000167765 4.9905e-05 -0.00646442 -0.00471288 0.00576266 0.0008
213 1 -0.000173037 7.07349e-05 0.00619875 0.0008 3.43146e-06 8.35354e-15 -1.66976e-13 3.85897e-13 2.28276e-10 -1.9668e-09 -1.0227e-09 -1.3665e-15 6.13893e-16 1.97973e-15 0 0 0 0 0 0 0 0
214 1 0.00622018 0.00362807 0.00807474 0.0008 3.43146e-06 -1.24525e-12 -2.3795e-13 -1.74801e-12 -2.21959e-09 -3.85078e-09 -5.19563e-10 -1.52362e-16 2.22408e-16 -2.42841e-16 1 -0.0016682 -0.00101402 -3.94333e-05 0.00691041 0.00403066 0.00807474 0.0008
215 1 -0.00422671 0.00582947 0.0101802 0.0008 3.43146e-06 -7.2984e-13 2.14606e-13 1.19022e-12 -3.98384e-10 -2.01695e-09 -5.75533e-10 -1.07002e-15 -7.05783e-16 3.15903e-18 1 0.000407212 -0.000753844 0.000177153 -0.004696 0.0064767 0.0101802 0.0008
216 1 -0.00520135 0.00279961 0.00729667 0.0008 3.43146e-06 -9.8327e-14 -1.07754e-12 -2.01092e-12 2.6275e-09 -1.61594e-09 -1.72437e-09 5.30529e-15 8.0395e-15 7.85223e-15 0 0 0 0 0 0 0 0
217 1 0.00408283 -0.00593119 0.00707342 0.0008 3.43146e-06 -1.09847e-13 -1.74837e-12 -7.76812e-13 -1.63316e-09 6.69021e-10 1.35305e-09 3.55162e-17 4.69671e-16 -5.79441e-16 1 -0.000542906 0.000811252 0.000102673 0.0045361 -0.00658967 0.00707342 0.0008
218 1 0.00297142 -0.00460991 0.00604475 0.0008 3.43146e-06 7.02683e-13 3.27643e-13 2.1805e-13 -3.23263e-09 9.32954e-10 1.5397e-09 -1.99038e-16 5.02922e-16 2.86688e-16 0 0 0 0 0 0 0 0
219 1 -0.00302623 0.00477018 0.00423543 0.0008 3.43146e-06 7.12436e-14 -1.10495e-12 -6.95726e-14 -1.83702e-10 -1.46907e-09 1.52962e-09 2.34788e-16 1.4414e-15 -2.22732e-16 0 0 0 0 0 0 0 0
220 1 0.00190023 0.00180765 0.00589734 0.0008 3.43146e-06 1.09725e-13 4.81925e-13 9.12312e-13 -2.42752e-10 -1.44458e-09 -6.90191e-10 -1.51682e-16 -1.24249e-15 1.7936e-15 0 0 0 0 0 0 0 0
221 1 -0.00665304 -0.00275199 0.00484502 0.0008 3.43146e-06 1.8021e-12 -7.30112e-13 -1.80495e-13 -2.37647e-09 2.42185e-11 2.14688e-09 4.64428e-16 -1.68533e-15 9.72009e-16 0 0 0 0 0 0 0 0
222 1 0.00426797 0.00510145 0.00469989 0.0008 3.43146e-06 -1.11826e-12 -1.13279e-12 1.47716e-12 -1.49506e-09 6.28769e-10 8.49213e-10 -2.02187e-16 1.16802e-16 3.36275e-16 0 0 0 0 0 0 0 0
223 1 0.00373076 -0.00450972 0.00888191 0.0008 3.43146e-06 -5.78008e-13 -8.84452e-13 3.0375e-12 1.84738e-09 1.59264e-09 -6.53242e-10 3.57743e-16 2.40781e-16 1.79444e-15 0 0 0 0 0 0 0 0
224 1 0.00218748 0.00535211 0.00562407 0.0008 3.43146e-06 -1.01635e-12 -1.00823e-12 -1.48824e-12 1.13162e-09 2.81261e-09 -1.65861e-09 1.2059e-15 9.41156e-16 9.75887e-16 0 0 0 0 0 0 0 0
225 1 0.00373488 0.000675473 0.00322778 0.0008 3.43146e-06 1.01326e-12 -1.19593e-13 3.3596e-13 -9.1692e-10 -9.86735e-11 -7.25737e-10 -5.78378e-16 -1.56642e-17 7.02777e-16 0 0 0 0 0 0 0 0
226 1 0.000960996 0.00263834 0.00458546 0.0008 3.43146e-06 -2.7098e-13 -3.50717e-13 -2.36548e-13 -1.94303e-09 -1.43495e-10 -8.6241e-10 -2.45978e-16 -1.27258e-15 1.38366e-15 0 0 0 0 0 0 0 0
227 1 -0.0040268 -0.00164796 0.00343495 0.0008 3.43146e-06 -4.82256e-13 -6.41859e-13 -1.0838e-12 3.39977e-09 -5.86266e-10 1.39261e-09 -1.53859e-15 -7.62678e-17 -7.44905e-16 0 0 0 0 0 0 0 0
228 1 -0.00327032 -0.000685235 0.00474915 0.0008 3.43146e-06 -1.4196e-13 -2.70942e-13 2.28493e-13 1.63307e-09 -1.8754e-10 -4.89275e-10 5.44007e-18 6.44504e-16 4.70823e-16 0 0 0 0 0 0 0 0
229 1 0.00205849 -0.00326183 0.00365975 0.0008 3.43146e-06 -4.15341e-14 -8.17848e-13 4.80315e-13 1.53044e-10 -1.07618e-10 1.0031e-09 -4.13049e-16 1.0135e-15 2.56441e-16 0 0 0 0 0 0 0 0
230 1 -0.000828532 0.00459941 0.00315195 0.0008 3.43146e-06 9.36877e-14 1.9648e-13 -4.12023e-13 1.03839e-09 4.65099e-10 1.56603e-09 -7.37047e-16 7.61749e-16 3.31705e-16 0 0 0 0 0 0 0 0
231 1 -0.00396398 -0.00601134 0.00572266 0.0008 3.43146e-06 1.27337e-13 -4.68063e-13 3.149e-13 -2.01415e-09 -3.80598e-09 -4.61784e-10 6.5158e-16 -7.50858e-16 -4.65085e-16 1 0.000440663 0.00104585 0.000129459 -0.00440402 -0.00667867 0.00572266 0.0008
232 1 0.000912571 0.00357199 0.00880397 0.0008 3.43146e-06 5.81834e-14 -1.08315e-12 -2.24493e-13 -1.2679e-09 1.27102e-10 7.80616e-10 -2.31486e-15 3.14216e-16 8.51815e-16 0 0 0 0 0 0 0 0
233 1 0.00052778 -0.00410609 0.00855156 0.0008 3.43146e-06 -2.70699e-13 3.57075e-13 -8.95918e-13 -8.09392e-10 -1.73102e-09 -1.46842e-09 2.78464e-16 1.29169e-15 1.9433e-16 0 0 0 0 0 0 0 0
234 1 -0.00101996 0.0064983 0.00924241 0.0008 3.43146e-06 -5.17508e-13 4.96439e-13 -2.03022e-12 2.55749e-10 9.10702e-10 -8.92257e-10 -3.04491e-16 -1.59973e-15 8.89106e-16 0 0 0 0 0 0 0 0
235 1 0.00639901 0.00330192 0.00601655 0.0008 3.43146e-06 3.54275e-13 -8.36047e-13 -2.42339e-14 1.02503e-09 4.93583e-10 1.13715e-09 -4.11542e-16 -3.18121e-17 -1.44191e-16 1 -0.00108535 -0.000572709 0.000155809 0.00710932 0.00366845 0.00601655 0.0008
236 1 0.000962633 -0.000609529 0.00530098 0.0008 3.43146e-06 2.70737e-13 2.69763e-13 7.98567e-13 1.69438e-09 2.80365e-10 1.89476e-10 6.38291e-16 -3.42994e-16 1.56148e-15 0 0 0 0 0 0 0 0
237 1 0.0037584 0.00123517 0.00472543 0.0008 3.43146e-06 9.22222e-13 -9.14816e-15 -6.88572e-13 3.16225e-10 -4.01857e-10 -3.37825e-10 -4.49673e-16 -1.91829e-16 6.30983e-16 0 0 0 0 0 0 0 0
238 1 -0.00695231 0.00114414 0.00847032 0.0008 3.43146e-06 -8.33511e-13 -5.40418e-13 1.38522e-12 2.97962e-09 2.90425e-09 1.29725e-09 -2.1654e-15 4.37501e-16 5.93721e-16 0 0 0 0 0 0 0 0
239 1 0.00126316 -0.0070888 0.0078231 0.0008 3.43146e-06 -4.94443e-13 6.86585e-14 -1.27524e-13 -1.96791e-10 2.23901e-10 6.02701e-10 -6.88757e-16 6.67366e-16 3.08189e-16 1 1.29322e-05 0.000671502 -6.42074e-05 0.00140342 -0.00787594 0.0078231 0.0008
240 1 0.0015931 -0.00641373 0.00337657 0.0008 3.43146e-06 4.76005e-13 -5.58049e-13 6.40635e-13 -2.81653e-10 1.05908e-09 1.20133e-09 7.71824e-16 -3.28129e-16 2.70932e-16 0 0 0 0 0 0 0 0
241 1 -0.000321459 0.00474339 0.00658281 0.0008 3.43146e-06 -1.10693e-13 4.02001e-13 1.35059e-12 8.84165e-10 1.48618e-09 9.49253e-11 -6.65648e-16 2.0401e-15 -2.7154e-15 0 0 0 0 0 0 0 0
242 1 -0.00276167 0.00131513 0.00875901 0.0008 3.43146e-06 -1.08404e-12 -5.43607e-13 1.85167e-12 2.5228e-09 -1.25664e-09 -1.7969e-09 -2.04289e-16 -3.32557e-15 1.93407e-15 0 0 0 0 0 0 0 0
243 1 0.0005309 -0.00552743 0.00418037 0.0008 3.43146e-06 7.8025e-14 -9.15308e-13 -7.61457e-13 -1.25425e-09 -1.76084e-09 -2.87056e-12 -6.59115e-16 1.22205e-15 -1.08831e-15 0 0 0 0 0 0 0 0
244 1 0.00521435 -0.00253149 0.00691199 0.0008 3.43146e-06 8.85065e-13 -1.08401e-12 5.80005e-13 8.29408e-10 1.07051e-09 -2.88297e-10 1.30053e-15 7.87823e-16 -1.02254e-15 0 0 0 0 0 0 0 0
245 1 0.00285378 0.00434883 0.00269087 0.0008 3.43146e-06 -1.13254e-13 9.61904e-13 1.08379e-12 -4.50953e-10 1.75932e-09 -7.40009e-12 7.18153e-16 4.70828e-16 2.13206e-16 0 0 0 0 0 0 0 0
246 1 0.00212403 -0.00688013 0.0048108 0.0008 3.43146e-06 7.79436e-13 -8.01329e-13 4.58331e-13 8.36028e-10 -8.23985e-10 -6.43221e-10 2.53756e-16 -2.20366e-16 -4.71722e-16 1 -0.000309321 0.00077393 0.000173024 0.00235986 -0.00764402 0.0048108 0.0008
247 1 0.00144279 0.00212069 0.00839105 0.0008 3.43146e-06 2.74686e-13 2.85623e-13 1.81703e-13 1.22937e-09 -3.31928e-10 7.21973e-11 8.06564e-16 -2.1102e-15 -3.01045e-16 0 0 0 0 0 0 0 0
248 1 0.00504727 -0.00513552 0.00307298 0.0008 3.43146e-06 6.55708e-13 -5.7459e-13 1.97228e-13 2.50615e-10 9.78512e-11 -7.99812e-11 -1.92329e-16 -1.12884e-16 8.92035e-17 1 -0.00061364 0.000756679 -0.000323427 0.00560762 -0.00570567 0.00307298 0.0008
249 1 -0.00580022 -0.00022468 0.00699016 0.0008 3.43146e-06 1.87089e-12 6.79925e-14 1.49679e-12 -2.99717e-10 9.86528e-10 -2.18084e-09 8.03644e-16 -6.37301e-16 1.72887e-16 0 0 0 0 0 0 0 0
250 1 0.00559473 -0.0020379 0.00370527 0.0008 3.43146e-06 -8.86184e-14 -1.07988e-12 1.91728e-13 -3.68617e-10 -1.62731e-10 5.27026e-10 -3.92475e-16 3.03798e-16 -1.07919e-16 0 0 0 0 0 0 0 0
251 1 0.00205737 -0.00333 0.006339 0.0008 3.43146e-06 1.084e-12 -1.08414e-12 5.55811e-13 2.89831e-11 -1.23928e-09 -2.49173e-09 1.37382e-18 -7.80492e-16 -8.5174e-16 0 0 0 0 0 0 0 0
252 1 -0.00172508 0.00210796 0.00297315 0.0008 3.43146e-06 1.27918e-13 -8.70077e-13 -7.02187e-13 -2.4363e-10 1.52512e-10 7.54128e-10 9.17868e-17 7.57372e-16 1.72776e-16 0 0 0 0 0 0 0 0
253 1 0.00711354 0.00111847 0.00675439 0.0008 3.43146e-06 9.62144e-13 -5.35658e-13 -6.69876e-13 2.0047e-09 -5.2805e-10 8.45079e-10 -7.7771e-16 -1.02686e-17 -1.6246e-16 1 -0.00192258 -3.22199e-05 0.000574605 0.00790291 0.00124259 0.00675439 0.0008
254 1 -4.45552e-05 0.00586898 0.00372772 0.0008 3.43146e-06 1.6312e-14 -2.41192e-13 7.91223e-13 2.00322e-09 1.42112e-09 -5.28126e-10 -1.24003e-16 -5.54862e-16 4.9851e-16 0 0 0 0 0 0 0 0
255 1 -0.00483705 0.00102739 0.00616287 0.0008 3.43146e-06 -8.52756e-13 3.10072e-13 -2.16824e-12 -8.77167e-10 5.83825e-10 2.13778e-09 -3.27815e-15 1.96112e-15 1.00957e-15 0 0 0 0 0 0 0 0
256 1 0.00360043 0.00326577 0.00714614 0.0008 3.43146e-06 5.37595e-14 1.08405e-12 -5.18831e-13 -1.81393e-09 3.39725e-09 -3.83232e-10 -9.47801e-16 -4.23005e-16 3.51279e-17 0 0 0 0 0 0 0 0
257 1 0.00678809 -0.00240232 0.00219212 0.0008 3.43146e-06 2.37916e-13 -5.5719e-13 -7.15799e-14 -2.20937e-10 -1.78792e-11 5.54071e-10 -3.26908e-16 -1.11311e-16 6.48398e-17 1 -0.00108188 0.000208146 -2.29851e-05 0.00754165 -0.002669 0.00219212 0.0008
258 1 -0.0069949 0.00170648 0.00397829 0.0008 3.43146e-06 -1.0169e-13 5.42016e-13 -6.12992e-13 1.27301e-09 4.55257e-10 8.12208e-10 2.17146e-15 3.6041e-16 1.03589e-15 1 2.31071e-05 -6.92336e-06 3.66737e-06 -0.00777206 0.00189608 0.00397829 0.0008
259 1 -0.00188296 0.00505528 0.00673686 0.0008 3.43146e-06 -4.24753e-13 -1.77557e-12 2.70676e-13 -8.40455e-10 -2.85455e-09 2.60673e-09 9.7083e-16 1.12127e-15 -3.12992e-15 0 0 0 0 0 0 0 0
260 1 -0.00708734 0.00127215 0.00244158 0.0008 3.43146e-06 -5.63907e-13 5.41236e-13 -2.72709e-13 -1.2448e-09 5.63245e-10 5.52959e-10 6.87228e-16 9.64115e-17 1.66448e-16 1 0.000976793 -0.000204913 0.000152403 -0.00787416 0.00141339 0.00244158 0.0008
261 1 -0.00314579 0.00305826 0.00695115 0.0008 3.43146e-06 -8.93034e-13 -8.85282e-13 -1.29896e-12 1.07917e-09 2.19517e-10 -2.30902e-09 3.05354e-16 4.40713e-15 1.95576e-15 0 0 0 0 0 0 0 0
262 1 0.00136743 0.00041024 0.0064648 0.0008 3.43146e-06 1.8309e-13 1.35189e-13 1.42592e-12 -5.33297e-10 7.10418e-10 1.28775e-09 -1.77135e-15 1.52119e-16 1.13098e-15 0 0 0 0 0 0 0 0
263 1 -0.0057816 -0.000597399 0.00854512 0.0008 3.43146e-06 -7.50468e-13 2.70897e-13 -1.44524e-12 9.49059e-10 -4.82544e-09 4.3321e-09 4.08257e-15 -4.24118e-16 2.68517e-15 0 0 0 0 0 0 0 0
264 1 -0.00220899 0.00543573 0.00303206 0.0008 3.43146e-06 -4.04658e-13 4.06065e-13 6.74148e-13 3.01118e-10 1.02647e-10 2.14632e-09 -3.40368e-16 6.59125e-16 -1.98928e-15 0 0 0 0 0 0 0 0
265 1 -0.00354354 -0.00455575 0.00623418 0.0008 3.43146e-06 -1.90875e-13 9.40457e-14 -2.9252e-13 -9.81392e-11 -2.92402e-10 -4.49287e-10 3.21953e-16 -1.93318e-15 -8.694e-16 0 0 0 0 0 0 0 0
266 1 -0.00260637 -0.00671202 0.00626094 0.0008 3.43146e-06 9.69534e-13 5.83341e-13 5.30421e-13 2.06498e-09 3.48842e-09 -8.63966e-10 1.10213e-15 3.57984e-16 -2.91333e-16 1 0.000161421 0.000310163 -1.29897e-05 -0.00289584 -0.00745749 0.00626094 0.0008
267 1 0.00616277 -0.00372388 0.00740032 0.0008 3.43146e-06 6.61686e-13 -7.65798e-13 -2.86211e-13 -7.7904e-11 -3.66921e-10 3.85157e-10 7.52058e-16 7.95934e-17 -4.82825e-16 1 -0.000671759 0.000276621 -3.44716e-05 0.00684706 -0.00413737 0.00740032 0.0008
268 1 -0.00655269 -0.00298444 0.00642481 0.0008 3.43146e-06 2.06336e-12 2.40716e-13 3.45795e-13 1.24215e-09 1.25951e-10 -8.78248e-10 -1.27378e-15 6.78292e-16 -4.74401e-16 1 0.000380064 0.000119757 4.69527e-05 -0.00728044 -0.00331589 0.00642481 0.0008
269 1 0.00565191 -0.000875239 0.00480212 0.0008 3.43146e-06 -1.03112e-12 -2.70685e-13 -1.31301e-12 -1.80384e-09 -2.85885e-09 -1.78531e-09 -9.72508e-16 -8.30699e-17 3.14526e-16 0 0 0 0 0 0 0 0
270 1 -0.00189288 -0.00694781 0.00812616 0.0008 3.43146e-06 1.72697e-13 1.00161e-13 -1.18203e-12 -1.81928e-09 -1.08611e-09 -1.76557e-10 -3.90793e-16 -7.52338e-17 8.59713e-16 1 0.00057869 0.00221067 0.000312274 -0.00210289 -0.00771867 0.00812616 0.0008
271 1 0.000663035 -0.00206434 0.00347889 0.0008 3.43146e-06 2.71031e-13 3.57307e-13 -5.51006e-13 -2.36056e-10 6.11228e-10 6.0989e-10 3.51129e-16 -2.85866e-17 3.11532e-16 0 0 0 0 0 0 0 0
272 1 0.00299555 0.000729466 0.00640608 0.0008 3.43146e-06 -5.40352e-14 1.84706e-13 7.71842e-13 2.12223e-10 -8.0805e-10 4.96859e-10 7.41995e-16 -7.10728e-16 5.27337e-16 0 0 0 0 0 0 0 0
273 1 0.00281232 -0.00285571 0.00501076 0.0008 3.43146e-06 4.18315e-13 2.3477e-13 -1.87897e-12 3.28807e-10 3.24287e-09 3.52226e-09 5.77404e-16 -2.49296e-17 -2.66128e-15 0 0 0 0 0 0 0 0
274 1 -0.0019474 -0.0040875 0.00480123 0.0008 3.43146e-06 5.41794e-13 -2.96881e-13 -3.21489e-13 -1.8589e-10 8.60614e-10 9.44225e-10 2.16004e-16 -8.57265e-16 -2.29937e-17 0 0 0 0 0 0 0 0
275 1 0.00032026 -0.00434404 0.00532101 0.0008 3.43146e-06 1.35859e-13 -5.93842e-13 -1.50354e-12 1.42012e-09 6.61941e-10 -1.09044e-09 4.32233e-16 9.84685e-16 1.16191e-16 0 0 0 0 0 0 0 0
276 1 -0.000159539 0.00719896 0.00636461 0.0008 3.43146e-06 -6.76099e-14 1.39644e-12 3.67834e-14 -8.82413e-11 1.8599e-09 -6.25234e-11 -4.56729e-16 2.19079e-17 2.25269e-16 1 -4.47245e-05 -0.00132551 2.01579e-06 -0.000177248 0.00799804 0.00636461 0.0008
277 1 0.00186925 -0.0032466 0.00840688 0.0008 3.43146e-06 -7.96333e-14 -1.96363e-13 1.25317e-12 3.35865e-10 -1.61031e-09 1.02355e-09 6.31479e-16 -8.92129e-16 -1.78778e-16 0 0 0 0 0 0 0 0
278 1 -0.000715385 -0.00591275 0.00325408 0.0008 3.43146e-06 2.70972e-13 -1.5591e-12 1.81162e-13 -8.90411e-10 2.13052e-09 -3.14664e-10 2.00971e-17 8.4005e-16 -6.53505e-16 0 0 0 0 0 0 0 0
279 1 -0.0027737 0.00609266 0.00584818 0.0008 3.43146e-06 2.5075e-13 -2.12765e-12 5.47594e-13 -1.44862e-10 -2.6186e-10 1.97741e-09 5.51045e-16 5.92497e-16 -8.86134e-16 0 0 0 0 0 0 0 0
280 1 -0.00427189 -0.000457654 0.00597588 0.0008 3.43146e-06 1.41022e-12 -1.35583e-13 -4.24539e-13 -2.35159e-09 1.20843e-09 6.91817e-10 1.57957e-15 -1.64506e-16 1.93018e-15 0 0 0 0 0 0 0 0
281 1 -0.00579629 -0.00067475 0.00545588 0.0008 3.43146e-06 -4.83806e-13 2.49403e-13 2.16546e-12 2.75265e-10 1.70814e-09 7.46163e-10 1.90962e-15 -1.0067e-15 -7.16344e-16 0 0 0 0 0 0 0 0
282 1 -0.00351145 0.00188796 0.00591405 0.0008 3.43146e-06 -2.63915e-13 1.7197e-13 -1.81416e-12 1.60847e-09 -9.84451e-10 -2.85679e-09 -2.12194e-15 2.53772e-15 6.22782e-16 0 0 0 0 0 0 0 0
283 1 -0.00570146 0.00143856 0.00488094 0.0008 3.43146e-06 -1.314e-12 -3.68058e-13 -2.16732e-12 -4.49731e-10 3.37038e-10 -2.37068e-09 -6.6601e-16 -9.58425e-16 -1.53413e-15 0 0 0 0 0 0 0 0
284 1 -0.00212827 -0.00522666 0.0059089 0.0008 3.43146e-06 7.13165e-13 -5.89524e-13 1.13016e-12 -9.91824e-10 -1.465e-09 2.23713e-10 1.50682e-15 -2.51771e-16 -1.68351e-16 0 0 0 0 0 0 0 0
285 1 0.00407553 -0.000659011 0.00636484 0.0008 3.43146e-06 9.83621e-14 -1.37345e-13 1.72541e-12 8.92338e-11 -2.57229e-09 -5.82694e-10 4.06658e-16 -6.02991e-16 -2.74567e-17 0 0 0 0 0 0 0 0
286 1 0.00215531 0.00345371 0.00780472 0.0008 3.43146e-06 -4.58297e-13 6.61485e-13 1.49805e-12 2.36505e-09 -1.38402e-09 9.22324e-10 -9.36887e-16 -1.17055e-15 5.24525e-16 0 0 0 0 0 0 0 0
287 1 -0.00356948 0.00625341 0.00283363 0.0008 3.43146e-06 -6.05478e-13 -5.18077e-13 4.08487e-13 -2.74767e-10 -5.72257e-10 -9.77918e-10 -4.27962e-17 1.09756e-15 -6.768e-16 1 0.000341573 -0.000516379 0.000132847 -0.00396584 0.00694781 0.00283363 0.0008
288 1 -0.000782264 0.0013336 0.00400691 0.0008 3.43146e-06 -1.16387e-13 4.46881e-13 -7.08296e-13 -7.00034e-10 -4.35253e-10 1.95848e-10 5.79471e-16 1.33562e-15 -2.88195e-16 0 0 0 0 0 0 0 0
289 1 0.00270514 0.00497979 0.00415707 0.0008 3.43146e-06 -1.06979e-12 -2.16548e-12 -8.65292e-13 -3.01656e-09 -2.73733e-09 2.2022e-09 -1.77209e-16 -3.65535e-16 1.50763e-15 0 0 0 0 0 0 0 0
290 1 -0.00355187 -0.0047471 0.00368059 0.0008 3.43146e-06 2.03332e-13 3.15102e-13 -1.08267e-12 1.17289e-09 -1.99788e-09 -2.18414e-09 -8.62396e-16 6.52877e-16 6.17076e-16 0 0 0 0 0 0 0 0
291 1 0.00241012 -0.00215714 0.00736762 0.0008 3.43146e-06 1.03505e-12 1.53401e-13 4.92038e-13 -1.92242e-09 -1.60499e-09 5.2721e-10 3.11774e-16 -1.23251e-15 3.3019e-15 0 0 0 0 0 0 0 0
292 1 0.00220903 0.000367345 0.00506093 0.0008 3.43146e-06 -1.17402e-13 -1.72696e-14 2.02816e-13 -7.80381e-11 6.00869e-10 -7.42628e-11 1.98306e-16 -9.14611e-18 8.47465e-16 0 0 0 0 0 0 0 0
293 1 -0.00605899 -0.00389029 0.00389049 0.0008 3.43146e-06 8.13567e-13 -1.0836e-12 -1.08304e-12 1.94546e-09 2.90261e-09 -1.68395e-09 1.42107e-15 1.20886e-15 -4.09063e-17 1 0.000422455 0.000336417 -4.11269e-05 -0.00673184 -0.0043223 0.00389049 0.0008
294 1 -0.00424344 -0.00311825 0.00627391 0.0008 3.43146e-06 5.7158e-13 1.00188e-12 -1.40184e-12 -6.31614e-10 -1.38713e-09 -9.63127e-10 -9.25059e-17 -2.02608e-15 2.27536e-16 0 0 0 0 0 0 0 0
295 1 0.0021514 -0.00467283 0.00907447 0.0008 3.43146e-06 -4.6536e-13 -6.81852e-13 2.11676e-12 -3.08687e-10 -2.57634e-09 2.39429e-10 -1.29193e-15 5.63629e-18 2.33786e-15 0 0 0 0 0 0 0 0
296 1 -0.00254417 -0.00343358 0.0034692 0.0008 3.43146e-06 2.34934e-13 3.87799e-13 1.16144e-13 9.8205e-10 -7.21542e-11 -1.63135e-09 -1.12285e-15 5.43141e-16 4.9252e-16 0 0 0 0 0 0 0 0
297 1 0.00580158 0.00182694 0.00617626 0.0008 3.43146e-06 1.15981e-12 -5.00227e-13 -2.3226e-13 -5.20646e-10 2.1997e-10 -4.47202e-10 -3.84532e-16 -1.65136e-16 3.87789e-17 0 0 0 0 0 0 0 0
298 1 -0.000835807 0.00566521 0.00778433 0.0008 3.43146e-06 -2.70639e-13 1.41044e-13 -1.1998e-12 -1.9956e-09 -3.50203e-09 -9.4164e-10 1.35916e-16 4.44338e-16 -2.13242e-15 0 0 0 0 0 0 0 0
299 1 -0.0017105 -0.00405916 0.00225642 0.0008 3.43146e-06 5.38799e-13 -4.49698e-13 -8.9335e-13 -4.18714e-10 -2.09586e-10 1.43947e-11 -1.97734e-16 3.64928e-16 -9.47417e-17 0 0 0 0 0 0 0 0
300 1 0.00136295 -0.00187568 0.00619217 0.0008 3.43146e-06 5.41612e-13 -3.9222e-13 -1.41699e-12 8.66422e-10 6.05282e-10 -1.26372e-10 -7.62438e-16 -7.82166e-16 1.22147e-15 0 0 0 0 0 0 0 0
301 1 -0.0041302 0.0058985 0.00667397 0.0008 3.43146e-06 -4.63874e-13 -2.16398e-12 1.5966e-13 1.83623e-10 -6.17987e-10 -2.00903e-09 9.83614e-16 3.30854e-16 -9.57621e-16 1 0.00080111 -0.00112864 0.00020783 -0.00458863 0.0065532 0.00667397 0.0008
302 1 0.00147299 -0.00560132 0.00551842 0.0008 3.43146e-06 5.40509e-13 -1.08801e-12 6.27755e-13 -6.34318e-10 1.08877e-09 1.11026e-09 -1.97865e-16 1.14863e-15 -9.54244e-17 0 0 0 0 0 0 0 0
303 1 0.000677811 0.00589338 0.00825875 0.0008 3.43146e-06 -1.00604e-13 -5.53518e-13 -1.54882e-12 -1.83355e-09 -1.78986e-09 3.29531e-09 5.71153e-16 -1.18559e-17 3.21411e-16 0 0 0 0 0 0 0 0
304 1 0.00554062 -0.00459874 0.00455419 0.0008 3.43146e-06 1.16787e-12 -2.16672e-12 6.41193e-13 5.6477e-10 5.83665e-10 1.16385e-09 -7.97633e-16 -5.43049e-16 3.0034e-16 1 -0.000652988 0.000312373 6.08446e-05 0.00615584 -0.00510937 0.00455419 0.0008
305 1 -0.00307561 -0.00172617 0.00594803 0.0008 3.43146e-06 3.84834e-13 -5.41365e-13 -8.11733e-13 -4.02596e-10 4.53722e-10 1.37598e-09 -3.23931e-16 -6.23622e-16 -9.22518e-16 0 0 0 0 0 0 0 0
306 1 -0.000128126 0.00208572 0.0058586 0.0008 3.43146e-06 -6.70432e-14 4.97009e-13 8.71378e-13 -7.27477e-10 -2.03406e-09 -3.25853e-10 1.77693e-16 2.22494e-15 -1.40341e-15 0 0 0 0 0 0 0 0
307 1 -0.00319529 0.0050465 0.00765163 0.0008 3.43146e-06 -4.11847e-13 -2.1669e-12 -4.14018e-14 -1.96197e-09 2.53593e-09 5.34076e-11 1.43129e-15 1.23035e-16 -1.10196e-15 0 0 0 0 0 0 0 0
308 1 0.00433619 -0.00517751 0.00543295 0.0008 3.43146e-06 1.6416e-12 -1.42888e-12 8.30051e-13 -1.75571e-09 -3.79814e-10 -1.23709e-09 -4.62229e-16 -3.27382e-16 -9.79373e-16 0 0 0 0 0 0 0 0
309 1 0.00195138 -0.00684742 0.00640012 0.0008 3.43146e-06 -3.7916e-13 -1.05154e-12 8.95459e-13 -1.20932e-10 -6.39114e-10 -2.78197e-09 -8.63288e-16 4.74894e-16 -2.11936e-16 0 0 0 0 0 0 0 0
310 1 0.00539536 0.00179017 0.00843516 0.0008 3.43146e-06 2.93899e-13 -5.42075e-13 3.13484e-12 8.85619e-10 1.79904e-09 -2.34563e-09 -1.99587e-16 2.73043e-16 5.95163e-16 0 0 0 0 0 0 0 0
311 1 0.000834906 0.00595332 0.00623086 0.0008 3.43146e-06 -2.70533e-13 2.60323e-13 -4.1546e-13 1.14747e-09 -2.3798e-09 -1.09668e-09 1.09246e-16 -4.64258e-16 -1.46282e-16 0 0 0 0 0 0 0 0
312 1 0.00392973 -0.00168221 0.0075857 0.0008 3.43146e-06 -3.02232e-13 2.28038e-13 1.79484e-12 -4.86101e-10 2.08628e-09 3.82497e-10 -2.91391e-17 -1.27571e-16 5.56855e-16 0 0 0 0 0 0 0 0
313 1 -0.0010402 0.00116979 0.00863282 0.0008 3.43146e-06 1.33544e-13 4.68252e-13 -1.30875e-13 -2.30904e-11 6.80178e-10 2.23224e-10 2.25841e-15 -7.5953e-16 -1.00095e-15 0 0 0 0 0 0 0 0
314 1 0.00374724 0.00378244 0.00395967 0.0008 3.43146e-06 -9.93925e-13 -2.56033e-13 1.25235e-12 2.44002e-09 -2.58586e-10 -7.7287e-10 -6.4885e-16 -3.20139e-16 4.86818e-16 0 0 0 0 0 0 0 0
315 1 -0.00134574 -0.00576916 0.00719388 0.0008 3.43146e-06 -1.3431e-13 -1.18901e-13 -1.48499e-12 1.69088e-09 2.13984e-09 -1.92811e-10 -9.69931e-17 3.38605e-16 1.97039e-16 0 0 0 0 0 0 0 0
316 1 0.00224377 0.006821 0.00426496 0.0008 3.43146e-06 -1.39251e-13 -7.76296e-13 -2.14617e-12 1.91369e-10 8.16905e-10 -1.46823e-09 -7.4545e-16 -1.98053e-16 4.81148e-17 0 0 0 0 0 0 0 0
317 1 0.00373074 0.00225338 0.00349006 0.0008 3.43146e-06 -2.46757e-14 7.34697e-13 -3.66397e-13 -1.1933e-10 4.95653e-10 2.09886e-09 -2.44699e-16 6.14505e-16 5.66416e-16 0 0 0 0 0 0 0 0
318 1 0.000874358 -0.0071471 0.00215097 0.0008 3.43146e-06 2.70976e-13 -5.73498e-13 6.39113e-13 8.41134e-10 -2.69872e-10 -3.03528e-10 7.27464e-17 -5.03526e-16 1.5712e-16 1 3.04548e-05 0.000522526 0.000167907 0.000971456 -0.0079408 0.00215097 0.0008
319 1 -0.00274543 0.000466815 0.00572645 0.0008 3.43146e-06 4.04249e-13 -9.63319e-14 1.0752e-12 -1.47549e-09 -4.91731e-10 -4.758e-10 -4.97854e-16 -7.49915e-16 -2.15547e-15 0 0 0 0 0 0 0 0
320 1 -0.000880952 -0.00531444 0.00490304 0.0008 3.43146e-06 2.70926e-13 1.0279e-12 -8.47429e-13 -7.84403e-10 3.82196e-10 -1.37861e-10 -2.66218e-16 2.03523e-15 1.4809e-15 0 0 0 0 0 0 0 0
321 1 0.00455232 0.000835871 0.00605515 0.0008 3.43146e-06 1.33597e-12 2.26067e-13 1.03265e-12 -1.6115e-09 2.30259e-11 -2.23118e-10 1.77721e-17 -2.02142e-16 3.12583e-16 0 0 0 0 0 0 0 0
322 1 0.00346367 0.0044206 0.00590333 0.0008 3.43146e-06 -1.08419e-12 1.35799e-12 5.02196e-13 -1.27206e-09 -2.0136e-09 -9.78231e-10 -3.26376e-16 -7.77394e-17 -2.40819e-16 0 0 0 0 0 0 0 0
323 1 -0.00167785 -0.00126052 0.00480163 0.0008 3.43146e-06 2.71238e-13 -9.73456e-14 -5.15105e-13 3.13343e-10 -2.82301e-10 4.22196e-10 3.84442e-16 2.35965e-15 -3.1162e-16 0 0 0 0 0 0 0 0
324 1 0.000585728 -0.00717621 0.0051356 0.0008 3.43146e-06 -2.19364e-13 -8.1417e-13 -5.42359e-14 -7.35077e-11 8.00432e-11 3.23745e-10 8.90752e-17 3.76117e-16 -5.74113e-16 1 -6.31406e-06 4.36961e-05 -3.43911e-06 0.000650802 -0.00797348 0.0051356 0.0008
325 1 -0.00404875 7.1331e-05 0.00902519 0.0008 3.43146e-06 3.55989e-13 1.01189e-13 3.12111e-12 4.09256e-09 6.53963e-10 4.84265e-09 7.24712e-16 -4.01659e-16 -2.45304e-15 0 0 0 0 0 0 0 0
326 1 0.00531449 -0.00485878 0.00665764 0.0008 3.43146e-06 1.04882e-12 -9.84295e-13 -1.27603e-13 -3.15562e-10 7.57815e-11 1.10446e-12 4.15812e-16 -1.4558e-16 -3.00728e-16 1 -0.00120527 0.000964515 0.000302238 0.00590433 -0.00539804 0.00665764 0.0008
327 1 -0.00718407 -0.000488449 0.00623352 0.0008 3.43146e-06 -2.09711e-12 4.16784e-13 1.41313e-13 6.00113e-11 -2.79382e-10 6.60857e-10 5.78014e-16 -1.50724e-15 -1.19059e-16 1 0.00112778 0.000142625 0.000248833 -0.00798157 -0.000542672 0.00623352 0.0008
328 1 -0.00127217 0.00262241 0.00481818 0.0008 3.43146e-06 -2.72912e-13 -7.60302e-13 -2.16812e-12 -3.4751e-10 5.24335e-10 8.00371e-10 -7.26312e-16 6.83965e-16 2.27441e-16 0 0 0 0 0 0 0 0
329 1 0.00357045 0.00443152 0.00897151 0.0008 3.43146e-06 1.07942e-12 2.05554e-12 -3.16051e-13 4.17025e-10 -3.04353e-09 1.25092e-10 3.32722e-16 -5.5705e-16 -1.2005e-15 0 0 0 0 0 0 0 0
330 1 0.00393682 -0.00435392 0.0072941 0.0008 3.43146e-06 5.37732e-13 3.94928e-13 2.57493e-14 2.32578e-09 -1.14537e-09 -2.49532e-09 1.07663e-15 -3.32556e-16 -8.40954e-16 0 0 0 0 0 0 0 0
331 1 -0.00379606 -6.45737e-05 0.00337191 0.0008 3.43146e-06 7.80301e-13 3.26058e-13 1.0835e-12 -4.50465e-10 -5.25558e-10 -2.88439e-11 2.18879e-15 -3.80114e-16 1.34608e-16 0 0 0 0 0 0 0 0
332 1 0.00716316 -0.000729602 0.00664784 0.0008 3.43146e-06 -1.87295e-12 -2.57127e-13 -1.54895e-12 1.69321e-10 -1.9683e-09 5.40379e-10 5.98286e-16 2.38081e-16 5.98488e-16 1 -0.000217526 4.10074e-05 7.54916e-05 0.00795882 -0.000810644 0.00664784 0.0008
333 1 0.00686507 0.00217144 0.00793218 0.0008 3.43146e-06 8.45036e-15 -1.08395e-12 9.73325e-13 -4.34722e-10 1.15154e-09 1.3566e-09 -8.79935e-16 -1.54584e-16 3.36267e-16 1 -0.000339497 -7.32611e-05 0.00010545 0.00762754 0.00241261 0.00793218 0.0008
334 1 0.0020288 0.00481094 0.00864242 0.0008 3.43146e-06 -1.0842e-12 -2.16727e-12 4.27693e-12 2.64967e-09 -7.96004e-10 -1.16725e-09 -7.65551e-17 2.28833e-16 1.55049e-15 0 0 0 0 0 0 0 0
335 1 0.00111877 0.0071129 0.0073225 0.0008 3.43146e-06 -4.3377e-13 2.86126e-13 -1.37164e-12 1.62093e-09 -7.6942e-10 -5.9571e-10 3.07809e-16 -1.2989e-16 -5.67469e-16 1 -8.07298e-05 -0.000429645 2.86617e-05 0.00124302 0.00790284 0.0073225 0.0008
336 1 -0.00300591 -0.00271501 0.00720353 0.0008 3.43146e-06 9.98056e-13 9.48469e-13 -5.18203e-13 -1.18856e-09 1.58063e-10 -8.08633e-10 7.5307e-16 -3.10643e-15 -4.62167e-17 0 0 0 0 0 0 0 0
337 1 -0.00192325 -0.0069388 0.00347017 0.0008 3.43146e-06 4.21582e-13 -5.55902e-13 9.69763e-13 1.12238e-09 -4.85702e-10 -6.96124e-10 -1.45414e-16 1.03603e-15 -3.47683e-17 1 0.000287908 0.000488196 -1.95319e-05 -0.00213682 -0.00770934 0.00347017 0.0008
338 1 -0.000937748 -0.006904 0.00472997 0.0008 3.43146e-06 -1.24856e-13 -1.14336e-12 2.90439e-13 -9.01e-10 4.6231e-10 -1.89721e-10 -4.53036e-16 2.45146e-16 1.8862e-16 0 0 0 0 0 0 0 0
339 1 -0.0030767 0.00452211 0.00581498 0.0008 3.43146e-06 5.15735e-13 -2.02389e-12 -1.08763e-13 1.30405e-09 2.03102e-09 -1.64547e-09 -1.13045e-16 2.23136e-15 -2.84886e-15 0 0 0 0 0 0 0 0
340 1 -0.00588938 -0.00109844 0.00264572 0.0008 3.43146e-06 8.46296e-13 -5.40933e-13 8.38969e-13 -8.33241e-10 -1.02688e-10 -4.73987e-10 3.39697e-16 -1.5223e-16 3.26754e-15 0 0 0 0 0 0 0 0
341 1 -0.000182848 -0.00152092 0.00640184 0.0008 3.43146e-06 1.38179e-13 8.43733e-14 -1.30086e-13 5.62215e-10 5.14697e-10 -5.38008e-10 2.10852e-16 -1.0886e-15 -1.41684e-15 0 0 0 0 0 0 0 0
342 1 -0.00185065 -0.00266995 0.00553881 0.0008 3.43146e-06 5.42132e-13 3.32198e-13 -5.81379e-13 -6.45144e-10 9.45948e-11 -8.56588e-11 6.86012e-17 8.93682e-16 -1.13467e-16 0 0 0 0 0 0 0 0
343 1 0.000754879 0.0014163 0.00357357 0.0008 3.43146e-06 -2.70895e-13 -9.23966e-14 1.08362e-12 5.33091e-10 -1.63249e-09 -8.00343e-10 -1.67912e-16 5.43115e-16 -7.01262e-16 0 0 0 0 0 0 0 0
344 1 -0.0017615 0.00233357 0.00779876 0.0008 3.43146e-06 3.5196e-13 7.38142e-13 -1.20885e-12 1.56295e-09 -8.3429e-10 -1.20001e-09 -1.28813e-15 -1.54642e-15 1.56582e-15 0 0 0 0 0 0 0 0
345 1 0.00381867 -0.00610411 0.00864545 0.0008 3.43146e-06 1.08149e-12 -1.24685e-12 -2.08002e-14 -1.37947e-10 1.64237e-10 -3.31422e-10 1.37199e-16 4.13983e-16 3.30328e-17 1 -5.65255e-05 0.000143298 5.52902e-06 0.00424287 -0.00678219 0.00864545 0.0008
346 1 -0.00500973 -0.00318724 0.00487163 0.0008 3.43146e-06 2.16636e-12 -1.08418e-12 -2.10474e-12 -2.33587e-09 -9.09706e-10 1.09703e-09 -9.05424e-16 -5.32463e-16 -1.04919e-16 0 0 0 0 0 0 0 0
347 1 0.00187168 -0.00414949 0.00497821 0.0008 3.43146e-06 5.40703e-13 -1.90913e-12 -3.64863e-13 -7.7658e-10 -5.29931e-10 -1.47593e-09 4.66798e-16 5.15029e-16 3.68352e-16 0 0 0 0 0 0 0 0
348 1 0.00448485 0.00266725 0.00483875 0.0008 3.43146e-06 1.45886e-12 7.82237e-13 -5.17e-13 -3.90599e-10 9.33744e-10 -3.27935e-09 6.18228e-17 2.82171e-16 2.79242e-16 0 0 0 0 0 0 0 0
349 1 -0.00684326 0.0022395 0.0059621 0.0008 3.43146e-06 5.16296e-13 1.08411e-12 -1.10502e-12 -3.62161e-10 1.4933e-09 1.4969e-09 7.37041e-16 -1.36335e-16 2.91789e-15 1 0.000518856 -6.63299e-05 7.46982e-06 -0.00760321 0.0024882 0.0059621 0.0008
350 1 -0.0014365 0.00705526 0.00318804 0.0008 3.43146e-06 -1.84802e-13 3.59316e-13 6.44216e-14 1.07552e-10 -1.00055e-09 -1.486e-10 1.32518e-15 -3.06792e-16 -1.1647e-15 1 2.66704e-07 -2.36758e-06 -2.79779e-07 -0.00159611 0.00783916 0.00318804 0.0008
351 1 -0.00719359 -0.000310095 0.00784929 0.0008 3.43146e-06 -2.16542e-12 4.0682e-13 -3.4862e-12 3.97339e-09 4.63141e-09 3.48187e-10 -5.28306e-16 1.51773e-15 1.01363e-15 1 0.00030495 4.38499e-05 7.97479e-05 -0.00799258 -0.000344537 0.00784929 0.0008
352 1 -0.00286887 0.00660386 0.00781795 0.0008 3.43146e-06 2.20392e-13 -1.43589e-12 -8.4539e-13 1.29596e-09 -3.12626e-10 -4.44954e-10 5.07992e-16 3.58883e-16 -5.54063e-16 1 2.00619e-05 -5.62977e-05 -1.30435e-06 -0.00318759 0.00733752 0.00781795 0.0008
353 1 0.00344361 0.00632284 0.00533219 0.0008 3.43146e-06 -1.08385e-12 -5.15128e-14 2.22468e-13 -1.31352e-09 2.38334e-09 -1.25357e-09 -1.7782e-16 3.63621e-16 -1.31177e-16 0 0 0 0 0 0 0 0
354 1 -0.000622658 -0.00297206 0.00804355 0.0008 3.43146e-06 2.70917e-13 -6.27232e-13 5.24119e-13 -3.28365e-10 -8.21297e-10 -5.02956e-10 3.61431e-16 1.16022e-15 -2.11502e-16 0 0 0 0 0 0 0 0
355 1 -0.00647765 0.00024001 0.00350041 0.0008 3.43146e-06 1.7114e-12 -6.75702e-14 6.38914e-13 3.3597e-10 2.04696e-09 -1.4796e-10 8.80351e-16 -9.69155e-17 1.48344e-15 0 0 0 0 0 0 0 0
356 1 0.00641705 -0.00326674 0.00431519 0.0008 3.43146e-06 1.00786e-12 -1.0695e-12 3.97461e-13 2.61499e-10 4.26057e-10 5.9717e-10 -3.98329e-16 -2.55089e-16 5.80709e-16 1 -0.00120939 0.000380817 2.41049e-05 0.00712936 -0.00362936 0.00431519 0.0008
357 1 -0.000167063 0.00719844 0.00222478 0.0008 3.43146e-06 6.77448e-14 5.77653e-13 -2.97037e-13 3.43241e-10 1.19721e-09 1.04446e-10 1.44235e-16 1.2142e-15 -9.46648e-16 1 7.89204e-05 -0.000497025 2.04737e-05 -0.000185616 0.00799785 0.00222478 0.0008
358 1 0.00613631 0.00021589 0.0058665 0.0008 3.43146e-06 -3.04853e-13 -6.69008e-14 -2.07578e-12 -4.05217e-10 5.9732e-10 -1.82636e-09 -6.44489e-16 6.43531e-16 3.40239e-16 0 0 0 0 0 0 0 0
359 1 0.00573649 0.00435121 0.00220535 0.0008 3.43146e-06 -3.0268e-13 -7.56538e-13 -2.81925e-13 1.06322e-09 3.71268e-10 5.02956e-10 7.64454e-17 8.66478e-16 2.50508e-16 1 -6.48316e-06 -3.34167e-06 3.28641e-07 0.00637385 0.00483467 0.00220535 0.0008
360 1 0.00713554 -0.000962528 0.00823022 0.0008 3.43146e-06 -1.58659e-12 -8.88917e-14 1.71074e-12 -1.00525e-09 2.27792e-09 3.81525e-10 1.21532e-15 1.12048e-15 2.04846e-16 1 -0.000146662 -9.06113e-06 1.77576e-05 0.00792819 -0.00106945 0.00823022 0.0008
361 1 -0.00507524 0.00456125 0.00913278 0.0008 3.43146e-06 1.04159e-12 7.55286e-14 2.1338e-12 -1.88704e-09 -5.09905e-12 7.08026e-11 8.91408e-15 -3.29913e-15 -6.67796e-15 0 0 0 0 0 0 0 0
362 1 -0.00447031 -0.00146178 0.00884927 0.0008 3.43146e-06 1.90515e-12 -5.7927e-14 1.49643e-12 -1.37159e-09 1.36163e-09 -2.58628e-09 1.47765e-15 -7.57246e-16 -1.19545e-15 0 0 0 0 0 0 0 0
363 1 0.00341789 0.00633766 0.00702107 0.0008 3.43146e-06 -8.42877e-13 4.5107e-13 -2.18918e-13 6.04981e-10 5.25226e-10 -1.17981e-09 -1.15025e-16 -4.19793e-17 3.16472e-17 1 -0.000505645 -0.000717217 0.000179973 0.00379737 0.00704131 0.00702107 0.0008
364 1 -0.00451447 -0.00166872 0.00495894 0.0008 3.43146e-06 7.14273e-13 -5.41701e-13 -1.41954e-12 3.52865e-09 1.79999e-09 8.72133e-10 1.74719e-16 5.5155e-16 9.52598e-16 0 0 0 0 0 0 0 0
365 1 -0.00421039 0.00384299 0.00799448 0.0008 3.43146e-06 2.16879e-12 -1.08646e-12 3.03982e-12 5.90372e-10 -1.8419e-09 -6.6786e-10 -1.00694e-14 -3.12495e-15 -4.04715e-15 0 0 0 0 0 0 0 0
366 1 -0.00125959 0.00101342 0.00549878 0.0008 3.43146e-06 3.66969e-13 1.12886e-13 3.89642e-13 6.03043e-10 1.15159e-09 8.79191e-10 -1.67735e-15 -2.90197e-16 -3.36402e-15 0 0 0 0 0 0 0 0
367 1 0.00334901 -0.00476317 0.0030612 0.0008 3.43146e-06 -1.63695e-15 -2.16427e-12 4.45815e-13 1.28723e-09 -5.72873e-10 2.79058e-10 -7.87871e-16 -2.65394e-16 1.0448e-15 0 0 0 0 0 0 0 0
368 1 0.00381157 -0.00221096 0.00608066 0.0008 3.43146e-06 1.20283e-13 7.76455e-13 -6.42134e-13 2.12531e-09 -2.94822e-09 -5.42193e-10 1.56796e-15 -1.14359e-15 -3.03694e-15 0 0 0 0 0 0 0 0
369 1 0.00550388 -0.00239048 0.00529397 0.0008 3.43146e-06 -2.16835e-12 -1.08284e-12 5.58574e-13 -5.9753e-10 -2.29592e-09 2.12094e-09 4.28926e-17 1.97539e-16 7.41537e-16 0 0 0 0 0 0 0 0
370 1 -0.000978327 0.00595819 0.0057753 0.0008 3.43146e-06 -5.41403e-13 -1.92645e-12 9.90608e-13 -2.66812e-09 -1.45305e-09 1.52307e-09 7.40272e-17 1.4403e-15 -1.00321e-15 0 0 0 0 0 0 0 0
371 1 -0.00600378 0.00397543 0.00652524 0.0008 3.43146e-06 1.8937e-12 -1.1005e-12 -1.89433e-13 5.95251e-09 -3.6608e-09 1.52762e-10 -4.39011e-16 9.60514e-16 7.54487e-16 1 0.000937326 -0.000617838 -0.00017842 -0.00667026 0.00441675 0.00652524 0.0008
372 1 0.00345122 0.00219771 0.00596515 0.0008 3.43146e-06 -8.34575e-13 1.0561e-12 1.46743e-12 3.31512e-10 -9.33957e-10 1.22264e-09 4.15715e-16 -5.5123e-17 3.12033e-16 0 0 0 0 0 0 0 0
373 1 -0.00207303 0.00689538 0.00465483 0.0008 3.43146e-06 3.40678e-13 -7.97896e-13 -6.15652e-14 1.99309e-10 -4.26272e-10 9.43198e-11 -4.05482e-16 2.14634e-16 4.15308e-16 1 3.8008e-05 -0.000285535 3.56342e-06 -0.00230328 0.00766126 0.00465483 0.0008
374 1 -0.00590818 -0.00411524 0.00735496 0.0008 3.43146e-06 1.24469e-12 9.30986e-13 -8.32635e-13 -1.09312e-09 5.03385e-10 5.91778e-11 -1.74852e-16 1.53892e-16 2.38786e-16 1 8.05245e-05 5.07298e-05 2.11922e-05 -0.00656453 -0.0045724 0.00735496 0.0008
375 1 -0.00466908 0.0054814 0.00522737 0.0008 3.43146e-06 -7.94325e-13 4.14721e-14 -1.29791e-12 2.17579e-09 -9.89339e-11 -7.2755e-10 -5.95533e-16 -1.54147e-16 7.76161e-17 1 0.000420953 -0.000407509 0.00020919 -0.00518756 0.00609009 0.00522737 0.0008
376 1 0.00674694 -0.00251396 0.00826879 0.0008 3.43146e-06 -2.57321e-13 -1.08374e-12 1.18207e-12 2.44303e-09 6.52116e-10 1.43316e-09 -1.929e-16 5.61478e-17 -9.85712e-16 1 -4.7402e-05 2.34174e-05 -1.02876e-05 0.00749651 -0.00279326 0.00826879 0.0008
377 1 -0.00255701 0.00108705 0.00718877 0.0008 3.43146e-06 -7.60094e-14 4.82599e-13 -2.16751e-12 -5.79434e-10 6.5379e-10 1.13061e-09 6.85084e-16 -1.37312e-15 -7.56062e-16 0 0 0 0 0 0 0 0
378 1 -0.00508274 -0.000216747 0.000799687 0.0008 3.43146e-06 -1.41743e-12 -1.42131e-13 -2.68447e-13 1.80534e-10 -1.76901e-09 -3.0197e-09 -3.35837e-15 1.53089e-15 -9.1284e-18 1 6.38777e-05 -5.63139e-05 0.000363647 -0.00508274 -0.000216747 0 0.0008
379 1 -0.00497613 -0.00520407 0.00829236 0.0008 3.43146e-06 1.42521e-12 7.71036e-13 7.72953e-13 -6.33737e-11 -1.40997e-09 -6.16712e-10 8.03527e-17 -3.87009e-16 -3.31812e-16 1 0.000237028 0.000240894 8.65147e-05 -0.00552881 -0.00578207 0.00829236 0.0008
380 1 0.00357389 -0.00318212 0.00315569 0.0008 3.43146e-06 2.47735e-13 -6.92438e-13 4.46755e-13 -1.52818e-09 -5.91248e-11 -3.74338e-10 2.77396e-16 7.24552e-16 5.62459e-16 0 0 0 0 0 0 0 0
381 1 0.00502765 -0.00515439 0.00820309 0.0008 3.43146e-06 9.29487e-13 -1.30612e-12 2.29368e-13 5.59302e-10 -1.68747e-10 3.21461e-10 -1.28966e-16 -2.97148e-17 -1.72804e-16 1 -0.000368339 0.000260248 9.05536e-05 0.00558601 -0.00572683 0.00820309 0.0008
382 1 0.00531593 0.00485647 0.00855776 0.0008 3.43146e-06 -1.1788e-12 5.65033e-13 -2.24679e-12 4.07687e-09 -7.78178e-11 -1.51632e-09 -8.60828e-17 6.62171e-17 -1.42023e-16 1 -0.000239988 -0.000258617 3.92014e-06 0.00590634 0.00539585 0.00855776 0.0008
383 1 -0.00152364 -0.00214362 0.00701344 0.0008 3.43146e-06 5.42049e-13 3.84075e-13 -4.90588e-13 5.69018e-10 -2.4394e-10 -5.78342e-12 -6.26616e-16 -4.06682e-16 -4.83256e-16 0 0 0 0 0 0 0 0
384 1 0.00556786 0.000694458 0.00728279 0.0008 3.43146e-06 -1.1303e-12 -2.7092e-13 -1.32015e-13 2.38007e-09 -1.48588e-09 -2.98087e-10 6.12943e-17 -1.43668e-16 -6.3186e-16 0 0 0 0 0 0 0 0
385 1 -0.00106494 -0.00712135 0.00638712 0.0008 3.43146e-06 -3.0313e-13 6.61793e-13 -1.15079e-12 -1.68346e-09 -1.54584e-09 5.13028e-10 -2.59836e-16 3.29708e-16 3.79269e-16 1 6.08871e-05 0.000828541 0.000172055 -0.00118318 -0.00791202 0.00638712 0.0008
386 1 -0.000786304 -0.00030901 0.00918645 0.0008 3.43146e-06 2.70996e-13 -1.33478e-13 2.41282e-13 -1.8886e-10 -2.52684e-10 -2.12309e-10 7.59714e-16 -1.8898e-15 -4.72751e-15 0 0 0 0 0 0 0 0
387 1 -0.00672285 0.00257829 0.00913975 0.0008 3.43146e-06 1.89259e-13 -1.08305e-12 2.70736e-13 -3.42161e-09 9.29288e-10 -1.0727e-09 -2.32039e-15 -5.771e-16 -6.44834e-16 1 0.000360597 -4.54175e-05 3.94055e-05 -0.00746952 0.00286465 0.00913975 0.0008
388 1 0.00719322 0.000317992 0.00327119 0.0008 3.43146e-06 1.62017e-13 1.35398e-13 3.61404e-13 -2.90148e-10 4.1541e-10 -1.71706e-10 -3.70274e-16 1.37737e-16 7.24993e-16 1 -0.000258203 -5.48304e-05 2.50814e-05 0.00799219 0.000353312 0.00327119 0.0008
389 1 -0.00413394 -0.00158384 0.00729011 0.0008 3.43146e-06 2.16773e-12 -5.42207e-13 -8.62763e-13 1.3486e-09 -1.14385e-09 1.24049e-09 -1.81344e-15 -1.32916e-15 3.55535e-16 0 0 0 0 0 0 0 0
390 1 0.000756401 -0.00319097 0.00725926 0.0008 3.43146e-06 2.71046e-13 -5.33247e-13 5.52854e-13 1.02347e-09 6.25471e-10 9.80706e-10 -7.28331e-16 1.6331e-15 -2.24574e-15 0 0 0 0 0 0 0 0
391 1 0.00242135 -0.000313945 0.00915335 0.0008 3.43146e-06 1.07637e-12 -1.35746e-13 -1.18532e-12 -1.95209e-10 4.4022e-10 2.71313e-10 -3.18365e-16 -1.04508e-16 -8.10725e-16 0 0 0 0 0 0 0 0
392 1 0.00423149 0.00178157 0.00730489 0.0008 3.43146e-06 1.94007e-12 5.38586e-13 -1.50511e-12 -7.58087e-10 3.86635e-10 2.53449e-10 1.14111e-16 4.88796e-17 9.88078e-16 0 0 0 0 0 0 0 0
393 1 0.000747312 -0.00716135 0.00933499 0.0008 3.43146e-06 7.70084e-14 1.33654e-13 1.26942e-14 -4.49595e-11 4.80008e-10 -1.06135e-10 2.5274e-16 4.2475e-16 4.18653e-16 1 -4.54668e-05 0.000240604 4.36597e-05 0.00083032 -0.00795679 0.00933499 0.0008
394 1 0.00708568 -0.00127815 0.00329089 0.0008 3.43146e-06 1.31434e-13 -1.53134e-13 3.35161e-13 3.64105e-10 3.66551e-10 1.56122e-10 -1.36222e-16 -2.46404e-16 4.63486e-16 1 -1.37429e-05 5.92418e-06 -1.76872e-06 0.00787294 -0.00142016 0.00329089 0.0008
395 1 -0.00397588 0.00178178 0.00744112 0.0008 3.43146e-06 -1.70023e-12 -5.41206e-13 -2.10258e-12 -1.23967e-10 -5.91318e-10 1.1331e-09 -1.10644e-15 -9.47932e-16 1.30803e-15 0 0 0 0 0 0 0 0
396 1 -0.00344724 -0.00632121 0.00886018 0.0008 3.43146e-06 1.03243e-12 1.83257e-12 8.73135e-13 -2.20599e-09 -6.23279e-09 -2.53171e-11 -3.87487e-16 7.60331e-17 -3.33467e-16 1 2.40233e-05 4.53667e-05 7.68263e-06 -0.00383022 -0.00702349 0.00886018 0.0008
397 1 0.00415407 -0.000314555 0.00476449 0.0008 3.43146e-06 1.19076e-12 -8.0364e-14 -9.50198e-13 -9.60775e-10 4.31904e-09 5.21337e-10 -1.01326e-15 -3.97517e-16 4.32984e-16 0 0 0 0 0 0 0 0
398 1 0.00095658 0.00713646 0.00516094 0.0008 3.43146e-06 2.70158e-13 3.02203e-13 4.62452e-13 -2.84869e-10 2.11604e-09 2.80526e-10 -2.60624e-17 9.06213e-17 1.58041e-15 1 -6.30801e-05 -0.000320761 -4.55167e-06 0.00106282 0.00792909 0.00516094 0.0008
399 1 -0.00191362 0.000229041 0.00426804 0.0008 3.43146e-06 5.41398e-13 -6.80055e-14 -4.60756e-13 -3.38209e-11 -1.41927e-09 -2.07802e-10 -4.50677e-16 3.85989e-16 -3.00094e-15 0 0 0 0 0 0 0 0
400 1 0.00628716 -0.00136786 0.00952438 0.0008 3.43146e-06 5.60643e-13 -3.65129e-13 1.91675e-12 1.34281e-10 -4.94854e-10 2.17386e-09 5.87582e-16 1.43043e-15 2.82041e-16 0 0 0 0 0 0 0 0
401 1 0.00218089 0.00686194 0.00615301 0.0008 3.43146e-06 4.79776e-13 9.12672e-13 -1.09709e-13 -2.81591e-10 -1.34222e-09 1.90405e-10 -8.81741e-17 6.6538e-16 -6.17209e-16 1 -5.36608e-05 -0.000143472 1.32204e-05 0.00242316 0.00762419 0.00615301 0.0008
402 1 0.000900553 -0.00288035 0.00503772 0.0008 3.43146e-06 2.70835e-13 -6.20347e-13 -1.36969e-12 -7.81385e-10 3.28918e-10 7.61351e-10 -1.07748e-15 5.98571e-16 7.10439e-16 0 0 0 0 0 0 0 0
403 1 -0.00327419 -0.00641276 0.00279356 0.0008 3.43146e-06 3.74609e-13 5.08568e-13 -3.48496e-14 -4.36523e-10 -7.63232e-10 -1.21219e-10 -1.52908e-16 2.64019e-16 -6.17599e-16 1 0.000135718 0.000260182 4.54084e-05 -0.00363785 -0.00712503 0.00279356 0.0008
404 1 0.00510732 -0.00353771 0.0034386 0.0008 3.43146e-06 -7.01699e-14 -1.0833e-12 3.91031e-13 1.84604e-10 3.92636e-10 -4.80468e-10 -2.20028e-16 7.74241e-17 6.53394e-16 0 0 0 0 0 0 0 0
405 1 0.00717206 0.000636604 0.00827812 0.0008 3.43146e-06 -8.71144e-13 -2.68433e-13 -1.62001e-12 -1.87962e-09 -2.16687e-09 2.21602e-10 -9.14531e-16 2.67178e-17 8.12491e-16 1 -0.000275359 -6.5143e-05 7.18865e-05 0.00796867 0.000707312 0.00827812 0.0008
406 1 -0.00441204 0.00387073 0.00640803 0.0008 3.43146e-06 2.16675e-12 -6.35456e-13 1.30321e-12 -5.12541e-11 1.48813e-09 -8.7337e-11 -7.38815e-16 2.64815e-15 3.39079e-15 0 0 0 0 0 0 0 0
407 1 0.000765936 -0.000653171 0.0090133 0.0008 3.43146e-06 2.70993e-13 -2.70352e-13 5.82462e-13 -3.86935e-10 -3.61514e-11 -4.05902e-12 -7.84446e-16 -1.00364e-15 -6.27246e-16 0 0 0 0 0 0 0 0
408 1 -0.00156414 -0.000712402 0.00629989 0.0008 3.43146e-06 4.94926e-14 2.70736e-13 -5.44365e-13 -6.90137e-10 3.95168e-10 5.76307e-10 -6.8569e-16 -2.98703e-16 3.68355e-15 0 0 0 0 0 0 0 0
409 1 0.00262144 -0.00188537 0.0089297 0.0008 3.43146e-06 7.87645e-13 -1.52672e-15 -2.39215e-12 1.49079e-09 1.81034e-09 -3.44701e-10 -3.87194e-17 -3.14814e-15 1.42263e-16 0 0 0 0 0 0 0 0
410 1 -0.000124958 0.00229018 0.00795049 0.0008 3.43146e-06 -2.56093e-14 1.08156e-12 -1.94608e-13 -1.45263e-10 -1.15714e-09 6.87077e-10 4.42106e-15 -3.20417e-16 -1.40623e-15 0 0 0 0 0 0 0 0
411 1 -0.000203273 0.00370304 0.00431951 0.0008 3.43146e-06 -6.77633e-14 2.64417e-13 -1.7833e-12 7.81728e-10 -1.27626e-09 8.45155e-11 -9.92011e-18 7.12846e-16 2.26396e-15 0 0 0 0 0 0 0 0
412 1 0.000859216 -0.00479677 0.00675761 0.0008 3.43146e-06 2.71089e-13 2.29291e-13 -9.2813e-13 -2.76775e-09 -5.51719e-10 8.0602e-10 -9.19462e-17 1.19407e-15 1.36554e-15 0 0 0 0 0 0 0 0
413 1 -0.00347137 -0.00362094 0.00493849 0.0008 3.43146e-06 1.00173e-12 -4.96945e-13 -2.70215e-13 -4.72434e-10 -5.9612e-10 -8.34088e-10 1.9308e-16 -1.27846e-15 1.40856e-15 0 0 0 0 0 0 0 0
414 1 0.00411913 0.0059052 0.00839246 0.0008 3.43146e-06 -1.32065e-12 6.78305e-13 -8.49123e-13 -2.50958e-10 -9.2855e-10 1.89395e-09 -8.28563e-17 -1.07804e-16 3.14021e-16 0 0 0 0 0 0 0 0
415 1 0.00397152 -0.0060061 0.00227008 0.0008 3.43146e-06 2.56145e-13 -9.82152e-13 1.00881e-13 -9.13995e-11 3.5445e-10 4.02886e-10 -2.09767e-16 -4.57276e-16 2.1773e-16 1 -0.000326567 0.00049948 8.85541e-05 0.00441253 -0.00667305 0.00227008 0.0008
416 1 0.00712857 0.00101301 0.0108894 0.0008 3.43146e-06 4.71118e-13 5.41901e-13 4.92541e-13 -1.06448e-09 4.45416e-10 -6.25489e-10 -3.29098e-16 -4.65416e-16 1.75782e-16 1 -0.000170045 -1.00802e-05 3.12887e-05 0.00792043 0.00112554 0.0108894 0.0008
417 1 -0.00576022 -0.00151778 0.00985275 0.0008 3.43146e-06 3.13737e-13 -5.39686e-13 -7.08348e-15 -1.09464e-09 3.87208e-09 -6.25871e-10 3.62505e-15 4.19355e-16 -2.44781e-15 0 0 0 0 0 0 0 0
418 1 -0.00530948 0.00486369 0.0108532 0.0008 3.43146e-06 -6.47249e-13 1.61668e-12 1.59354e-12 -3.14075e-09 1.72805e-10 9.81186e-10 8.18834e-16 3.7642e-16 -3.23421e-16 1 0.000413992 -0.000410466 5.43658e-05 -0.00589908 0.00540378 0.0108532 0.0008
419 1 0.00119101 -0.00292839 0.0125062 0.0008 3.43146e-06 4.9049e-13 -4.37777e-13 5.68047e-13 -3.14634e-10 -1.1925e-10 3.50294e-10 1.54225e-15 -3.13889e-15 -2.27326e-15 0 0 0 0 0 0 0 0
420 1 0.000557767 -0.0058924 0.0137843 0.0008 3.43146e-06 2.70643e-13 -1.07465e-12 1.70224e-13 -1.9283e-09 6.31916e-10 -3.00905e-10 5.36382e-16 1.34923e-15 3.32626e-17 0 0 0 0 0 0 0 0
421 1 0.00469946 0.00338141 0.0085037 0.0008 3.43146e-06 -2.07114e-12 9.39794e-13 -2.37542e-12 -3.09245e-09 2.01259e-09 3.79116e-10 -4.3179e-16 4.75094e-16 -5.34591e-16 0 0 0 0 0 0 0 0
422 1 0.0067883 -0.00239981 0.00627274 0.0008 3.43146e-06 1.26667e-13 -1.08361e-12 6.7446e-13 1.76504e-09 2.83159e-10 1.30784e-09 1.99428e-16 1.57891e-16 7.98939e-16 1 -1.41536e-06 2.65471e-07 3.51708e-07 0.00754255 -0.00266645 0.00627274 0.0008
423 1 -0.00338087 -0.00635706 0.0129909 0.0008 3.43146e-06 -1.05906e-12 -2.78836e-13 1.5571e-12 3.53272e-09 2.49363e-09 9.95351e-10 7.5926e-17 5.10771e-16 1.57848e-16 1 0.000107543 0.000110363 3.80769e-06 -0.00375643 -0.00706323 0.0129909 0.0008
424 1 0.00264226 -0.00669779 0.0118668 0.0008 3.43146e-06 3.15799e-13 -8.80143e-14 8.44788e-14 1.04551e-10 -4.6152e-12 -3.22967e-10 -3.90468e-16 2.94607e-16 -5.03303e-17 1 -3.96323e-05 9.6363e-05 -1.45041e-06 0.00293579 -0.00744185 0.0118668 0.0008
425 1 0.00542532 0.0047337 0.0113645 0.0008 3.43146e-06 9.53212e-13 -5.4409e-13 -6.68764e-13 -3.45192e-09 -4.11567e-09 1.27984e-09 5.77699e-16 1.05626e-15 -6.42545e-16 1 -8.27588e-05 -6.78004e-05 1.44695e-05 0.00602802 0.00525956 0.0113645 0.0008
426 1 -0.0019816 0.00225456 0.00620402 0.0008 3.43146e-06 -1.08382e-12 -9.36475e-13 -3.26524e-13 -1.38279e-09 -1.1543e-09 1.779e-09 -3.79473e-16 2.11011e-16 -2.16384e-15 0 0 0 0 0 0 0 0
427 1 0.000683753 -0.00215835 0.00847872 0.0008 3.43146e-06 1.59374e-13 -1.08339e-12 9.14985e-13 -2.95941e-10 -2.77908e-10 -2.31237e-10 8.06242e-16 -1.08445e-16 9.53522e-16 0 0 0 0 0 0 0 0
428 1 0.00554318 0.00459518 0.00699555 0.0008 3.43146e-06 5.03255e-13 -2.16465e-12 -8.3426e-13 2.6607e-09 8.49363e-10 2.47259e-09 1.78828e-16 -5.95682e-17 -2.50528e-16 1 -0.000123714 -9.81742e-05 2.74987e-05 0.00615894 0.00510563 0.00699555 0.0008
429 1 -0.00702308 -0.0015865 0.00885342 0.0008 3.43146e-06 -4.24028e-13 -5.41365e-13 -4.33622e-12 6.25898e-09 6.92945e-09 -4.74288e-10 -4.05199e-16 -8.79785e-16 -8.85539e-16 1 1.94714e-05 5.96892e-06 -3.89553e-06 -0.00780338 -0.00176276 0.00885342 0.0008
430 1 0.000127484 0.00483144 0.0124632 0.0008 3.43146e-06 -5.59296e-14 -9.30249e-13 -3.33372e-12 -3.532e-09 -1.87474e-09 -8.93819e-10 4.18765e-16 -1.55586e-15 3.95936e-16 0 0 0 0 0 0 0 0
431 1 0.00242174 5.2815e-06 0.011608 0.0008 3.43146e-06 -1.11568e-13 -2.51619e-14 2.99476e-15 -2.19269e-10 2.53582e-10 1.98947e-10 -2.25932e-16 -7.10772e-16 -1.24962e-15 0 0 0 0 0 0 0 0
432 1 -0.00199586 0.00120327 0.0120907 0.0008 3.43146e-06 1.08398e-12 -9.616e-14 1.10176e-13 2.79413e-10 4.52312e-10 -6.04967e-10 1.37061e-16 2.06033e-15 2.68199e-15 0 0 0 0 0 0 0 0
433 1 -0.00274296 -0.00486824 0.00758273 0.0008 3.43146e-06 -1.80006e-13 3.62962e-13 5.82912e-13 -3.48256e-10 -2.69355e-10 6.8867e-10 9.73845e-16 -3.80405e-16 4.21549e-16 0 0 0 0 0 0 0 0
434 1 0.00595857 0.000684659 0.0126142 0.0008 3.43146e-06 1.42064e-12 2.71033e-13 -9.47919e-13 -8.26077e-11 -8.46968e-10 6.95616e-10 2.3544e-16 8.73523e-17 1.9908e-16 0 0 0 0 0 0 0 0
435 1 0.00435484 0.000853319 0.00920938 0.0008 3.43146e-06 -1.88156e-12 2.70177e-13 1.919e-12 -3.8014e-10 -4.0633e-09 1.55411e-11 -2.76686e-15 2.12533e-17 1.14744e-15 0 0 0 0 0 0 0 0
436 1 -0.00457629 0.00115614 0.0125798 0.0008 3.43146e-06 1.57497e-12 -5.41945e-13 -8.97723e-13 2.05935e-10 -9.4678e-10 -3.00987e-10 5.3349e-15 -5.34366e-16 5.54017e-15 0 0 0 0 0 0 0 0
437 1 -0.00116381 -0.00710546 0.0118599 0.0008 3.43146e-06 4.15278e-13 -3.092e-13 2.67999e-13 3.89308e-10 4.60369e-10 -5.86051e-10 -6.30267e-18 -3.06891e-16 7.58071e-17 1 2.22478e-05 0.000107742 -1.602e-06 -0.00129309 -0.0078948 0.0118599 0.0008
438 1 -0.000173084 -0.00289165 0.00961318 0.0008 3.43146e-06 2.93151e-14 -3.8851e-13 -4.53287e-13 3.67248e-10 -7.79006e-10 -1.49611e-10 1.37055e-15 -2.39155e-16 -9.21384e-16 0 0 0 0 0 0 0 0
439 1 -0.00319436 0.000494794 0.010309 0.0008 3.43146e-06 -1.08698e-13 -2.71049e-13 1.74266e-12 -6.73874e-10 1.47678e-09 1.9971e-10 1.19916e-15 4.76018e-16 -2.16549e-16 0 0 0 0 0 0 0 0
440 1 -0.00495933 -0.00521987 0.00669284 0.0008 3.43146e-06 3.70091e-13 4.13166e-13 -1.70481e-12 -3.16382e-10 2.73964e-09 3.32831e-11 5.10673e-16 -1.91065e-16 6.14775e-16 1 8.71078e-05 6.40222e-05 1.05866e-05 -0.00551026 -0.00579975 0.00669284 0.0008
441 1 -0.00695869 0.0018487 0.0127724 0.0008 3.43146e-06 -2.16815e-12 -5.50701e-13 -6.92502e-13 3.96937e-09 -7.82065e-11 -1.66272e-09 -4.9716e-16 8.8446e-17 3.51286e-16 1 3.7955e-05 -9.3996e-06 -1.04229e-06 -0.0077318 0.00205409 0.0127724 0.0008
442 1 0.00104566 0.00471318 0.00991648 0.0008 3.43146e-06 1.14921e-13 2.27089e-13 -5.98209e-13 -1.24073e-10 7.72245e-10 1.36665e-10 -7.87264e-16 -6.38996e-16 -1.84853e-15 0 0 0 0 0 0 0 0
443 1 -0.00490833 -0.00526816 0.00988946 0.0008 3.43146e-06 -7.28999e-13 1.88505e-12 4.18107e-14 -1.17687e-09 -1.32544e-09 2.28667e-09 -1.13362e-16 -4.44604e-16 -1.12107e-16 1 0.000263646 0.000373591 8.39324e-05 -0.00545343 -0.00585322 0.00988946 0.0008
444 1 -0.00100592 -0.0014504 0.0132955 0.0008 3.43146e-06 5.42078e-13 -9.80787e-14 -4.81774e-13 -1.74586e-09 -1.29349e-11 9.5649e-10 6.64431e-16 3.06805e-15 7.34748e-16 0 0 0 0 0 0 0 0
445 1 0.00624031 0.00359217 0.00967356 0.0008 3.43146e-06 -5.974e-13 1.08367e-12 3.11448e-12 4.1199e-10 4.6839e-09 -1.58802e-09 -4.7103e-16 1.99924e-16 -3.57042e-17 1 -0.000411928 -0.000179847 1.3075e-05 0.00693333 0.0039911 0.00967356 0.0008
446 1 0.00431707 -0.00576286 0.0124898 0.0008 3.43146e-06 1.61671e-12 -7.48753e-13 3.33065e-13 3.99528e-11 6.27466e-10 -1.055e-09 -7.00108e-17 -9.7685e-17 -4.26558e-16 1 -0.000524705 0.000628562 8.22117e-05 0.00479639 -0.0064027 0.0124898 0.0008
447 1 -0.00288313 0.00331485 0.010089 0.0008 3.43146e-06 -1.68344e-13 3.2274e-13 -2.63998e-12 -1.62158e-09 -3.94789e-09 2.19184e-09 -1.07344e-14 -1.30701e-14 -5.56813e-15 0 0 0 0 0 0 0 0
448 1 0.000795165 0.00395563 0.0113031 0.0008 3.43146e-06 1.56737e-13 -1.41814e-12 -1.40218e-12 2.5394e-09 -3.61837e-10 -6.0432e-10 1.68113e-15 -1.92034e-15 -1.18668e-15 0 0 0 0 0 0 0 0
449 1 -0.0046652 0.000932615 0.010759 0.0008 3.43146e-06 -7.67941e-13 6.83721e-14 1.08802e-13 -1.0299e-09 -3.25369e-09 -3.87034e-11 4.36505e-15 3.20845e-15 7.06959e-16 0 0 0 0 0 0 0 0
450 1 0.00494309 -0.0035721 0.00842338 0.0008 3.43146e-06 1.86855e-12 1.99359e-14 5.87056e-13 -3.98129e-10 2.13765e-09 -1.33825e-09 2.20345e-18 8.61297e-16 7.36064e-16 0 0 0 0 0 0 0 0
451 1 0.00234336 0.00368931 0.0110009 0.0008 3.43146e-06 -1.08385e-12 -1.08335e-12 -4.92706e-13 -3.74112e-09 -3.26681e-10 9.65321e-10 4.11613e-17 1.41671e-15 -8.55379e-16 0 0 0 0 0 0 0 0
452 1 -0.00374153 -0.00291503 0.0132908 0.0008 3.43146e-06 -2.75265e-13 -8.05951e-13 3.91805e-13 -4.89483e-10 3.96271e-11 -2.75085e-09 6.59784e-16 1.71878e-16 -2.30699e-16 0 0 0 0 0 0 0 0
453 1 0.00113483 0.00711082 0.0133314 0.0008 3.43146e-06 -5.41918e-13 2.16795e-12 1.55268e-12 -2.16697e-09 -1.41364e-09 -1.17003e-09 -6.14319e-16 1.28913e-15 -5.02909e-16 1 -0.000131068 -0.00152347 0.000104534 0.00126078 0.00790003 0.0133314 0.0008
454 1 -0.00311449 0.00621377 0.0126851 0.0008 3.43146e-06 -8.39677e-13 -2.16814e-12 -8.73045e-13 1.36115e-09 8.08299e-10 2.02547e-09 -8.35464e-16 -2.64272e-16 -3.15121e-16 0 0 0 0 0 0 0 0
455 1 -0.00563316 0.00207781 0.0102013 0.0008 3.43146e-06 -4.35322e-13 -5.11813e-13 -2.74616e-12 1.92362e-10 -1.20359e-09 1.26945e-09 -1.05902e-14 6.08048e-15 2.5936e-15 0 0 0 0 0 0 0 0
456 1 0.00499181 -0.00321619 0.0115003 0.0008 3.43146e-06 1.74832e-12 -5.9754e-13 1.62344e-12 1.35975e-09 -1.13781e-10 1.19307e-11 1.76695e-15 1.77425e-15 -3.88523e-16 0 0 0 0 0 0 0 0
457 1 0.00181237 -0.00696864 0.0105127 0.0008 3.43146e-06 1.94295e-13 -1.08019e-13 6.2453e-14 1.94636e-10 -4.276e-10 -1.99167e-10 6.36966e-16 -4.36809e-16 -2.49849e-16 1 -0.000183245 0.000644864 1.9413e-06 0.00201361 -0.00774244 0.0105127 0.0008
458 1 -0.00104496 -0.0041816 0.00924588 0.0008 3.43146e-06 -4.2222e-13 -1.04303e-15 -1.79009e-12 1.85088e-09 1.2626e-09 -1.38897e-10 1.72584e-15 -6.7991e-16 -3.03831e-16 0 0 0 0 0 0 0 0
459 1 -0.00490706 0.00249904 0.00883974 0.0008 3.43146e-06 -8.31584e-13 -6.09162e-14 -4.22962e-12 -2.88537e-09 8.51771e-10 4.05172e-09 -1.655e-14 6.93749e-15 2.13518e-15 0 0 0 0 0 0 0 0
460 1 0.00641589 -0.00326815 0.0123569 0.0008 3.43146e-06 1.70081e-12 -8.38829e-13 -4.84744e-13 -1.16668e-10 -5.93319e-10 -3.49125e-11 -7.78738e-16 1.18874e-16 4.53926e-17 1 -0.000354641 9.40386e-05 8.59262e-05 0.00712846 -0.00363112 0.0123569 0.0008
461 1 -0.00592149 -0.00409636 0.00895451 0.0008 3.43146e-06 1.47329e-12 6.83041e-13 7.80516e-13 1.46052e-09 -1.81367e-10 -3.2585e-10 3.92441e-16 4.62307e-16 -2.14177e-16 1 0.000206396 0.000281624 -6.84906e-06 -0.00657917 -0.00455133 0.00895451 0.0008
462 1 0.00481668 0.00426259 0.00995995 0.0008 3.43146e-06 -2.16465e-12 2.09222e-12 4.2884e-12 9.79341e-10 -4.23413e-09 1.11274e-09 2.10137e-16 -4.83761e-16 -6.06335e-16 0 0 0 0 0 0 0 0
463 1 -0.000544469 -0.00128469 0.00794216 0.0008 3.43146e-06 2.7107e-13 -3.59461e-13 8.50429e-14 2.31839e-10 -4.76117e-10 -5.57441e-10 2.34476e-16 3.21167e-15 -1.84301e-15 0 0 0 0 0 0 0 0
464 1 -0.0009902 0.00416767 0.0112579 0.0008 3.43146e-06 5.40535e-13 3.08339e-14 -1.60267e-12 -4.16545e-09 2.43311e-10 3.29786e-09 2.11661e-16 3.1839e-15 1.90379e-15 0 0 0 0 0 0 0 0
465 1 0.0056834 -0.00284426 0.00963981 0.0008 3.43146e-06 2.15836e-12 -7.2435e-13 5.24332e-13 6.25776e-10 -2.24523e-09 2.05427e-11 7.733e-17 1.63224e-16 -2.6047e-17 0 0 0 0 0 0 0 0
466 1 0.00720012 -6.82935e-05 0.0097134 0.0008 3.43146e-06 -1.14444e-12 3.49599e-14 1.33811e-12 -1.1934e-10 1.64197e-09 -3.90514e-11 -7.05081e-16 4.49836e-17 5.78816e-16 1 -0.000622557 -7.9197e-06 0.000189807 0.00799964 -7.5877e-05 0.0097134 0.0008
467 1 -0.0049266 -0.00306719 0.0122268 0.0008 3.43146e-06 -1.53931e-12 1.08401e-12 -1.93735e-13 -4.65747e-09 -3.95909e-10 -5.29395e-09 1.06105e-18 -9.77298e-17 -1.12837e-16 0 0 0 0 0 0 0 0
468 1 0.00366641 -0.000375819 0.0125373 0.0008 3.43146e-06 4.1595e-13 1.35528e-13 -1.3757e-12 6.87736e-10 1.38807e-09 2.83955e-10 1.37694e-19 1.6393e-16 -1.32667e-15 0 0 0 0 0 0 0 0
469 1 -0.000959803 0.00713612 0.0107083 0.0008 3.43146e-06 -1.07089e-13 8.95619e-13 -9.05817e-14 2.38233e-10 -8.1711e-10 3.4276e-11 6.29012e-16 -7.55289e-16 1.00738e-15 1 7.70485e-05 -0.000488285 2.54949e-05 -0.00106639 0.00792861 0.0107083 0.0008
470 1 -0.00176739 0.00697987 0.0067202 0.0008 3.43146e-06 -5.21429e-13 -1.46342e-12 -5.91533e-13 4.41064e-10 1.30471e-09 -1.07352e-09 2.09303e-16 -2.72912e-16 -1.21618e-16 1 4.13681e-05 -0.000125026 -1.60496e-05 -0.00196373 0.00775524 0.0067202 0.0008
471 1 0.00190676 0.00392868 0.00629771 0.0008 3.43146e-06 -5.41903e-13 1.27665e-12 -9.37072e-13 -2.3429e-09 6.34515e-10 2.23377e-10 3.25365e-16 4.79407e-16 5.2423e-16 0 0 0 0 0 0 0 0
472 1 -0.00496164 -0.00288904 0.00937878 0.0008 3.43146e-06 1.36844e-12 9.37861e-13 2.17765e-12 6.78127e-10 2.29973e-10 1.01679e-09 2.87497e-15 1.41734e-15 4.10146e-16 0 0 0 0 0 0 0 0
473 1 -0.00574594 0.000595522 0.00961034 0.0008 3.43146e-06 -2.16817e-12 1.72677e-13 -1.63697e-12 -1.03024e-09 4.12572e-09 -2.57181e-09 1.65407e-16 5.28193e-15 9.11411e-15 0 0 0 0 0 0 0 0
474 1 -0.00163095 0.00397957 0.00934737 0.0008 3.43146e-06 2.87093e-13 -2.4554e-13 -2.14383e-13 -5.77657e-10 -1.6003e-10 -1.04913e-09 -3.13647e-15 1.08771e-15 -1.6481e-15 0 0 0 0 0 0 0 0
475 1 0.00257899 -0.000572378 0.0072359 0.0008 3.43146e-06 6.40573e-13 1.98816e-13 -2.68332e-13 9.39208e-10 1.28991e-09 -4.47526e-11 -6.94019e-17 3.02289e-16 1.59917e-15 0 0 0 0 0 0 0 0
476 1 0.000381985 -0.00221032 0.0136851 0.0008 3.43146e-06 2.16569e-13 -1.07933e-12 7.91593e-13 7.49316e-10 5.14252e-11 5.23164e-10 8.50529e-16 5.60342e-16 -2.50062e-15 0 0 0 0 0 0 0 0
477 1 -0.00467088 0.00548044 0.0136242 0.0008 3.43146e-06 1.86888e-12 -2.1675e-12 -1.12241e-12 1.16063e-09 7.98789e-10 6.06324e-11 -3.27287e-16 -5.03276e-17 -1.18487e-15 1 0.00119739 -0.00120232 0.000160571 -0.00518925 0.00608865 0.0136242 0.0008
478 1 -0.000319442 -0.0068584 0.00777806 0.0008 3.43146e-06 4.96542e-14 1.0392e-12 6.11228e-13 8.19998e-10 6.12757e-10 -1.90472e-09 2.53554e-16 3.28052e-16 8.37582e-16 0 0 0 0 0 0 0 0
479 1 -0.000330125 0.00505635 0.00917597 0.0008 3.43146e-06 -4.30261e-16 -1.12108e-12 -9.58839e-13 -1.9275e-09 -8.21373e-10 6.68909e-10 -9.54642e-16 6.98847e-17 -2.97621e-16 0 0 0 0 0 0 0 0
480 1 0.000624078 0.000747122 0.0139514 0.0008 3.43146e-06 -2.14954e-13 -8.00569e-14 -4.56503e-13 -2.62456e-10 -8.97261e-10 1.62381e-10 -2.15636e-15 4.66987e-16 8.90868e-16 0 0 0 0 0 0 0 0
481 1 -0.00150592 0.00530694 0.0102309 0.0008 3.43146e-06 -5.10508e-13 -6.88025e-13 -2.67496e-12 -1.71564e-09 -5.11364e-10 1.67795e-09 -2.23706e-15 -1.43987e-16 -5.56696e-16 0 0 0 0 0 0 0 0
482 1 0.0053963 -0.00163232 0.00822254 0.0008 3.43146e-06 2.16801e-12 -5.42132e-13 2.00265e-12 -6.07633e-10 -1.14049e-09 -2.07177e-09 -5.30206e-16 -9.27108e-17 -4.93951e-16 0 0 0 0 0 0 0 0
483 1 0.00143468 0.00558565 0.011199 0.0008 3.43146e-06 1.95045e-13 2.16695e-12 -2.53122e-13 -1.4394e-09 -5.36231e-10 8.03762e-10 1.03081e-15 2.10468e-16 -7.02169e-16 0 0 0 0 0 0 0 0
484 1 0.00277824 0.00532642 0.0120262 0.0008 3.43146e-06 -1.08068e-12 2.06132e-12 -1.70969e-12 1.78387e-09 1.2276e-09 -1.20411e-09 1.085e-16 1.02921e-15 -2.24616e-15 0 0 0 0 0 0 0 0
485 1 0.00344084 -0.00309709 0.00814905 0.0008 3.43146e-06 1.08314e-12 1.01992e-12 2.19002e-12 2.19067e-10 2.17191e-10 2.66244e-10 -1.05874e-15 6.37667e-16 1.31878e-15 0 0 0 0 0 0 0 0
486 1 0.00558827 -0.000982221 0.00677359 0.0008 3.43146e-06 5.72437e-13 -5.41613e-13 2.80408e-13 1.15324e-10 4.4357e-09 2.67982e-10 -1.37425e-16 -8.46626e-17 -2.88869e-16 0 0 0 0 0 0 0 0
487 1 0.000432519 0.00358224 0.00578189 0.0008 3.43146e-06 -1.35388e-13 1.77744e-13 3.15672e-13 -6.70257e-10 9.93361e-11 3.79186e-10 1.08026e-16 1.48767e-15 -7.67015e-16 0 0 0 0 0 0 0 0
488 1 0.00104799 -0.000970271 0.00747169 0.0008 3.43146e-06 4.51384e-13 -2.70763e-13 4.26377e-13 3.20398e-10 -1.09377e-10 3.93705e-10 -6.44169e-17 1.8352e-16 3.13605e-16 0 0 0 0 0 0 0 0
489 1 -0.00508056 0.0043655 0.0123558 0.0008 3.43146e-06 3.18634e-13 -1.53876e-13 -1.48968e-12 6.93043e-09 3.77174e-10 2.49076e-09 -2.59602e-17 -9.20403e-16 -2.6277e-15 0 0 0 0 0 0 0 0
490 1 -0.00416858 -0.00400814 0.00760139 0.0008 3.43146e-06 1.00102e-12 3.06895e-13 5.76358e-13 -5.68631e-11 2.2444e-09 4.52864e-10 -1.82207e-16 -1.44731e-15 -1.62762e-15 0 0 0 0 0 0 0 0
491 1 0.00314374 -0.00444311 0.0107221 0.0008 3.43146e-06 9.46439e-13 6.01322e-13 1.40863e-12 -2.73399e-10 -1.34586e-09 -4.67232e-10 8.99353e-16 6.02832e-16 5.45586e-16 0 0 0 0 0 0 0 0
492 1 -0.00054204 0.00381771 0.0081866 0.0008 3.43146e-06 2.70884e-13 -9.49728e-13 -1.49449e-13 1.14519e-09 -1.08653e-10 -1.10273e-09 -1.23299e-16 6.42495e-17 -8.74623e-16 0 0 0 0 0 0 0 0
493 1 0.00394694 -0.000637813 0.00879703 0.0008 3.43146e-06 -6.86149e-13 2.12144e-13 1.01318e-12 -1.84199e-10 -2.62355e-09 -2.94563e-10 -7.17275e-16 7.34656e-16 3.85523e-16 0 0 0 0 0 0 0 0
494 1 0.00387649 -0.000861599 0.0110282 0.0008 3.43146e-06 3.21895e-13 2.70552e-13 3.39082e-12 -2.31911e-09 -2.09252e-09 -3.86843e-10 4.98749e-16 -1.10881e-16 -4.28321e-16 0 0 0 0 0 0 0 0
495 1 -0.00532809 -0.00177649 0.0113707 0.0008 3.43146e-06 2.04088e-12 4.06471e-13 -3.30301e-12 3.40914e-10 -5.46397e-10 3.41131e-10 1.64171e-15 -6.19086e-16 -1.18622e-15 0 0 0 0 0 0 0 0
496 1 -0.00326168 -0.0036428 0.0115632 0.0008 3.43146e-06 -8.58958e-13 -4.33119e-13 5.97152e-13 1.98543e-09 3.25678e-09 -6.39045e-10 8.53483e-16 -5.92743e-16 2.03347e-15 0 0 0 0 0 0 0 0
497 1 -0.00359354 -0.00471091 0.00892806 0.0008 3.43146e-06 -3.661e-13 7.21099e-13 6.18749e-13 -1.06814e-09 2.97058e-10 7.45351e-10 9.76713e-16 -2.408e-16 -1.35001e-16 0 0 0 0 0 0 0 0
498 1 -0.00265098 -0.00669475 0.0114372 0.0008 3.43146e-06 6.90215e-13 9.18427e-13 1.59339e-12 2.32965e-09 4.67752e-10 -3.81517e-10 -1.07993e-16 -7.44142e-16 1.04854e-17 1 0.000275727 0.000740296 0.000106173 -0.00294532 -0.00743808 0.0114372 0.0008
499 1 0.00699118 0.00172274 0.00946235 0.0008 3.43146e-06 7.02517e-13 -2.63999e-14 -4.57647e-13 -2.16248e-10 -5.91749e-10 2.38764e-10 -1.01079e-16 3.02662e-16 -5.01285e-16 1 -0.000366936 -5.40178e-05 0.000126128 0.00776765 0.00191407 0.00946235 0.0008
500 1 0.000559178 0.00241247 0.0109535 0.0008 3.43146e-06 -2.04855e-13 -7.04548e-13 -1.81637e-12 -1.79383e-09 5.0045e-10 3.66498e-11 8.60491e-16 -1.63677e-15 -5.05696e-16 0 0 0 0 0 0 0 0
501 1 -0.00209646 0.00389705 0.00781915 0.0008 3.43146e-06 4.95176e-13 -9.50296e-13 -2.37065e-13 -1.16455e-10 -8.51498e-11 1.44182e-09 -2.33046e-16 2.87934e-16 -6.5447e-16 0 0 0 0 0 0 0 0
502 1 0.00300435 -0.0048798 0.0122545 0.0008 3.43146e-06 6.45527e-13 2.78004e-13 1.46446e-12 6.22524e-10 9.22142e-10 6.08831e-10 4.04357e-16 2.1087e-16 -8.34926e-16 0 0 0 0 0 0 0 0
503 1 -0.00159886 -0.00233984 0.00914224 0.0008 3.43146e-06 2.06623e-13 -9.48972e-13 -7.40322e-13 2.08622e-10 1.1368e-11 8.90912e-10 1.26357e-15 -1.88247e-15 3.31828e-16 0 0 0 0 0 0 0 0
504 1 -0.000105792 0.000647312 0.0105142 0.0008 3.43146e-06 3.37441e-14 -2.60814e-13 -1.56568e-13 -3.33039e-11 3.30516e-10 5.75435e-10 6.22341e-17 2.44682e-16 -3.82085e-15 0 0 0 0 0 0 0 0
505 1 -0.00248209 -0.00245052 0.0108358 0.0008 3.43146e-06 -6.27843e-13 3.77111e-13 -7.68477e-13 -9.00841e-10 3.8562e-10 -8.55158e-10 1.50641e-16 9.6387e-16 3.04888e-15 0 0 0 0 0 0 0 0
506 1 0.00258633 -0.00604181 0.00762751 0.0008 3.43146e-06 5.84584e-13 -1.42586e-12 -3.25725e-15 -1.41307e-09 3.15084e-10 -6.2479e-10 2.03359e-17 4.23943e-16 5.45742e-16 0 0 0 0 0 0 0 0
507 1 -0.00406227 -0.00237563 0.0105982 0.0008 3.43146e-06 -4.98438e-13 1.06615e-12 -6.01595e-13 -1.92678e-09 -1.82779e-10 -3.75358e-10 2.74261e-15 -4.68346e-16 -7.53203e-16 0 0 0 0 0 0 0 0
508 1 -0.00336668 0.0045416 0.00915951 0.0008 3.43146e-06 -6.66408e-13 -6.47677e-13 4.23381e-12 -1.63913e-09 -2.61625e-09 7.37264e-10 1.19397e-14 1.59794e-15 6.6991e-15 0 0 0 0 0 0 0 0
509 1 0.00442804 0.000955473 0.0129922 0.0008 3.43146e-06 1.2296e-12 1.70843e-13 -1.15964e-12 4.53609e-10 4.57142e-10 -5.86058e-10 3.52023e-16 3.67412e-17 8.24737e-16 0 0 0 0 0 0 0 0
510 1 -0.00662892 0.00281233 0.0112148 0.0008 3.43146e-06 -2.95304e-14 -1.01665e-12 -1.83429e-12 8.77061e-10 2.09117e-09 -1.2006e-09 -4.81185e-17 7.67017e-16 1.66997e-15 1 0.00143128 -0.000685494 0.000231525 -0.00736463 0.00312446 0.0112148 0.0008
511 1 -0.00608794 0.00384504 0.00812064 0.0008 3.43146e-06 -2.16805e-12 -1.08286e-12 9.5078e-13 6.34964e-09 -5.39855e-09 -2.61319e-09 1.76555e-15 -1.18451e-15 -4.80181e-16 1 0.000605832 -0.000496072 -0.000208231 -0.0067639 0.00427197 0.00812064 0.0008
512 1 0.00442063 -0.00371765 0.0100882 0.0008 3.43146e-06 6.18039e-13 -1.07962e-12 9.9831e-13 -2.79779e-09 7.72362e-10 -1.21465e-11 5.91851e-16 2.1412e-17 5.75662e-16 0 0 0 0 0 0 0 0
513 1 -0.00259292 -0.00369567 0.00974187 0.0008 3.43146e-06 -1.08376e-12 -1.08388e-12 -1.89058e-12 3.33938e-09 -2.29001e-09 1.25463e-09 -5.91638e-17 9.34213e-17 1.10695e-15 0 0 0 0 0 0 0 0
514 1 0.000874632 0.000919633 0.00928041 0.0008 3.43146e-06 4.71639e-14 -2.71081e-13 -2.40073e-13 -6.83246e-10 -5.21336e-10 3.07129e-10 4.41649e-16 6.37255e-16 -2.1116e-15 0 0 0 0 0 0 0 0
515 1 0.00343229 0.00632952 0.00977373 0.0008 3.43146e-06 -9.88512e-13 -3.8039e-14 1.47289e-16 1.02542e-09 1.91003e-09 -1.06218e-09 -1.82069e-16 -9.96464e-17 2.48846e-16 1 -0.000166712 -0.000202109 1.06648e-05 0.00381353 0.00703257 0.00977373 0.0008
516 1 0.00486793 0.00234849 0.00983797 0.0008 3.43146e-06 1.90351e-12 5.53442e-13 2.41623e-12 -2.21007e-09 -5.23905e-10 6.75927e-10 5.99306e-16 -5.55253e-16 -8.31807e-16 0 0 0 0 0 0 0 0
517 1 -0.00350628 -0.00287718 0.00871442 0.0008 3.43146e-06 1.08341e-12 9.6107e-13 1.25594e-12 1.99992e-09 1.0409e-09 -2.18813e-09 6.12192e-16 -9.34352e-16 -4.81476e-16 0 0 0 0 0 0 0 0
518 1 0.00143304 -0.00407253 0.0103715 0.0008 3.43146e-06 -5.41794e-13 -1.57328e-12 -2.65024e-14 3.31873e-10 1.21083e-09 5.01406e-11 9.3077e-16 -1.04035e-15 -1.85517e-15 0 0 0 0 0 0 0 0
519 1 -0.000852175 -0.0071497 0.00932403 0.0008 3.43146e-06 2.70738e-13 4.56655e-13 4.00247e-13 5.11069e-10 1.97373e-11 -2.93574e-10 -1.4041e-16 6.27705e-16 -4.08195e-16 1 0.000119308 0.0003538 1.61402e-05 -0.000946821 -0.00794377 0.00932403 0.0008
520 1 -0.000628643 0.0071727 0.0130044 0.0008 3.43146e-06 -2.26483e-13 -2.16604e-12 -2.11306e-12 2.43038e-09 2.00192e-09 -4.8803e-10 -1.86374e-16 2.35931e-16 1.14553e-16 1 1.16253e-05 -0.000186926 4.636e-06 -0.000698473 0.00796945 0.0130044 0.0008
521 1 -0.00433922 0.000224354 0.0074602 0.0008 3.43146e-06 2.23628e-13 -2.03394e-13 4.95119e-13 -3.72797e-09 -1.62028e-09 1.17085e-09 -8.41048e-16 -1.94086e-17 -1.95336e-15 0 0 0 0 0 0 0 0
522 1 -0.00307343 0.00287193 0.00856342 0.0008 3.43146e-06 1.08807e-12 -1.08525e-12 2.72942e-12 -1.91291e-09 3.12241e-09 -1.04638e-09 5.04641e-15 5.46794e-17 -5.94207e-15 0 0 0 0 0 0 0 0
523 1 0.000919395 -0.00436528 0.011858 0.0008 3.43146e-06 1.18625e-13 -1.28001e-12 9.67521e-13 -6.36724e-10 8.20299e-11 -7.27483e-10 1.31294e-15 -1.45329e-15 -6.52383e-17 0 0 0 0 0 0 0 0
524 1 0.00500384 -0.000429766 0.0099793 0.0008 3.43146e-06 4.26147e-13 1.35469e-13 2.07427e-12 1.12906e-09 2.92567e-09 8.51687e-10 -5.24836e-16 -7.06479e-16 -2.46986e-16 0 0 0 0 0 0 0 0
525 1 -0.00158704 -5.16377e-05 0.00775633 0.0008 3.43146e-06 -5.42106e-13 1.41551e-13 -1.47041e-12 3.52547e-10 -1.8346e-09 -1.71627e-09 -4.16656e-16 -5.99839e-16 4.68054e-15 0 0 0 0 0 0 0 0
526 1 0.00261645 0.0049988 0.0101237 0.0008 3.43146e-06 -1.08292e-12 -1.37101e-13 -2.06402e-12 2.41019e-09 -1.18394e-09 4.78938e-10 -4.07461e-16 -5.28466e-16 -2.01249e-16 0 0 0 0 0 0 0 0
527 1 0.00581236 -0.00012732 0.00863298 0.0008 3.43146e-06 -1.70299e-12 -6.74054e-14 -6.33577e-13 -2.29502e-09 9.53295e-10 1.07211e-11 2.54752e-16 -9.83531e-17 2.5589e-16 0 0 0 0 0 0 0 0
528 1 0.0035733 0.00326078 0.0100618 0.0008 3.43146e-06 7.21706e-15 1.00502e-12 1.1106e-12 -7.99253e-10 2.94992e-10 5.70775e-10 9.84149e-17 -4.79306e-16 5.04797e-17 0 0 0 0 0 0 0 0
529 1 -0.000895555 0.00122283 0.00704129 0.0008 3.43146e-06 2.70556e-13 -7.5647e-14 -1.31093e-12 -6.07271e-10 -7.43309e-10 -6.40991e-10 -3.60467e-16 -1.05484e-15 -1.78884e-15 0 0 0 0 0 0 0 0
530 1 -0.000452311 0.00151748 0.0118112 0.0008 3.43146e-06 1.34807e-13 -3.6889e-13 -3.22223e-13 -2.11008e-10 3.76597e-10 4.53821e-10 3.98332e-16 7.23286e-16 -3.31882e-16 0 0 0 0 0 0 0 0
531 1 -0.00306682 -0.00161844 0.00960106 0.0008 3.43146e-06 -9.17278e-13 -5.41208e-13 -1.33471e-12 -7.55469e-10 4.56775e-10 2.62639e-10 6.84654e-16 1.64244e-16 -3.08232e-16 0 0 0 0 0 0 0 0
532 1 -0.00312562 -0.000960453 0.0110578 0.0008 3.43146e-06 8.71779e-13 2.19416e-13 -5.78557e-13 1.38844e-10 2.27234e-09 4.17206e-10 2.03528e-15 3.43245e-16 2.31178e-15 0 0 0 0 0 0 0 0
533 1 -0.00198557 -0.00381474 0.00664751 0.0008 3.43146e-06 2.95121e-14 2.15678e-13 5.81589e-13 -2.6447e-10 -5.34657e-10 -3.59083e-10 4.76062e-16 -8.58622e-16 -2.11899e-16 0 0 0 0 0 0 0 0
534 1 -0.0042475 0.00581397 0.00858054 0.0008 3.43146e-06 7.11313e-13 -8.3278e-13 4.32521e-13 -8.70101e-10 2.33097e-10 9.76027e-11 -8.66262e-16 -7.32897e-17 -7.88645e-16 1 0.00013223 -0.000219013 3.9999e-05 -0.00471929 0.00645975 0.00858054 0.0008
535 1 -0.00707332 0.00134488 0.0100966 0.0008 3.43146e-06 4.49276e-13 4.75004e-13 4.15656e-13 2.04442e-09 -9.1756e-10 8.88579e-10 -3.23879e-15 2.11393e-16 8.31217e-16 1 1.58489e-05 -2.72814e-06 -2.51794e-06 -0.0078592 0.0014943 0.0100966 0.0008
536 1 0.000777034 0.00183171 0.0127855 0.0008 3.43146e-06 2.70809e-13 -6.78676e-14 -8.84058e-14 5.35677e-10 -3.58165e-10 1.25711e-10 -8.37425e-16 1.00248e-15 -6.90635e-16 0 0 0 0 0 0 0 0
537 1 0.00474342 -0.00541683 0.00975523 0.0008 3.43146e-06 8.06425e-13 -1.02679e-12 -6.35478e-13 -8.21442e-10 -2.67724e-10 9.77023e-11 8.08235e-16 7.60579e-16 -8.5842e-17 1 -7.88064e-05 8.27123e-05 3.36966e-06 0.00527036 -0.00601858 0.00975523 0.0008
538 1 0.000976054 0.00448551 0.00748233 0.0008 3.43146e-06 -2.71058e-13 1.94261e-14 1.28627e-12 6.84248e-10 -1.81874e-09 4.27838e-10 -6.02128e-16 1.34818e-15 1.0276e-15 0 0 0 0 0 0 0 0
539 1 -0.00517228 -0.0027342 0.00768794 0.0008 3.43146e-06 2.16643e-12 4.21511e-13 -2.16809e-12 -1.29948e-09 -1.38015e-09 -1.79554e-09 5.18906e-16 -1.27113e-15 -7.56472e-17 0 0 0 0 0 0 0 0
540 1 -0.00677086 0.00244926 0.00754621 0.0008 3.43146e-06 5.38691e-13 -1.08278e-12 2.85412e-13 3.31957e-09 -1.52528e-09 -1.01689e-09 -2.67324e-15 -3.06095e-16 1.21075e-15 1 0.000248541 -5.34339e-05 8.62343e-05 -0.00752293 0.00272131 0.00754621 0.0008
541 1 0.00268732 0.00668005 0.00840211 0.0008 3.43146e-06 -1.0776e-12 1.58547e-12 -3.33395e-14 -4.49598e-10 -1.29608e-09 -1.97724e-09 -8.58913e-17 3.41609e-16 -8.37675e-16 1 -0.000176278 -0.000371672 0.000143031 0.00298577 0.00742194 0.00840211 0.0008
542 1 0.00197195 0.00572872 0.00733313 0.0008 3.43146e-06 -1.0588e-12 6.67132e-13 1.00004e-12 -2.07667e-09 5.14498e-10 1.00874e-09 2.1396e-17 -1.06681e-15 9.74612e-16 0 0 0 0 0 0 0 0
543 1 -0.000139329 0.00212869 0.00954247 0.0008 3.43146e-06 6.9959e-14 -5.79155e-13 -1.53172e-13 1.4163e-09 -8.02972e-12 -2.80144e-10 9.5057e-17 -1.71317e-16 -1.87169e-15 0 0 0 0 0 0 0 0
544 1 -0.00195274 -0.00550724 0.00881731 0.0008 3.43146e-06 5.41299e-13 1.15214e-13 -1.19751e-12 1.78604e-09 1.81699e-09 6.13563e-12 -2.12319e-16 -4.96058e-16 1.24205e-15 0 0 0 0 0 0 0 0
545 1 0.00348675 0.00303546 0.0119105 0.0008 3.43146e-06 -4.33096e-13 6.58907e-13 1.48584e-12 -1.07966e-09 2.30321e-09 -8.94115e-10 7.82387e-16 1.36659e-15 -1.32659e-15 0 0 0 0 0 0 0 0
546 1 -0.00652562 -0.00166943 0.0073351 0.0008 3.43146e-06 -1.12069e-12 8.29407e-13 -2.16865e-12 -4.49633e-09 -7.00712e-09 7.37382e-10 -8.40689e-16 1.11124e-15 -7.04453e-16 0 0 0 0 0 0 0 0
547 1 0.000530854 -0.00292131 0.0110492 0.0008 3.43146e-06 3.34098e-15 -7.28903e-13 1.14673e-13 1.83888e-10 3.86258e-10 2.17979e-10 6.36708e-16 -2.07473e-15 -4.76998e-16 0 0 0 0 0 0 0 0
548 1 1.32748e-05 -0.00599047 0.00604443 0.0008 3.43146e-06 3.10814e-14 -9.31067e-13 4.96375e-13 1.45944e-09 -1.25045e-09 -1.75759e-09 -4.21059e-16 7.96513e-16 1.16974e-15 0 0 0 0 0 0 0 0
549 1 0.000590435 -0.000440709 0.0127697 0.0008 3.43146e-06 1.36471e-13 -1.10347e-13 8.17928e-13 -9.3431e-11 7.46064e-10 -2.43061e-12 -1.11848e-15 1.49282e-16 -1.15291e-15 0 0 0 0 0 0 0 0
550 1 -0.00304902 0.00652254 0.0110124 0.0008 3.43146e-06 -1.08421e-12 2.16799e-12 4.33165e-12 -3.88061e-09 -4.00614e-09 -4.87028e-10 2.29169e-16 -1.9102e-17 1.16544e-16 1 2.54718e-08 -8.30628e-08 -7.58053e-09 -0.00338779 0.00724726 0.0110124 0.0008
551 1 -0.00613527 0.00376852 0.0100313 0.0008 3.43146e-06 3.55579e-13 -3.56112e-14 5.82279e-13 2.27104e-09 -2.38405e-09 2.38682e-10 4.58813e-17 -3.69092e-16 -1.211e-15 1 0.000182396 -0.000132935 7.27849e-05 -0.00681675 0.00418711 0.0100313 0.0008
552 1 0.0028287 -0.00166096 0.0119355 0.0008 3.43146e-06 -6.4239e-13 -5.42311e-13 4.73616e-13 -1.79544e-10 -1.10591e-12 -4.55534e-10 -1.79029e-16 1.12507e-15 -2.34322e-15 0 0 0 0 0 0 0 0
553 1 -0.000160582 0.00366527 0.0099862 0.0008 3.43146e-06 -4.00176e-15 -7.36617e-13 6.18627e-13 -4.76354e-10 6.80565e-10 6.15782e-10 -1.49729e-15 6.57086e-16 1.16862e-15 0 0 0 0 0 0 0 0
554 1 0.00317169 -0.00646423 0.0133585 0.0008 3.43146e-06 6.88321e-13 -1.07843e-12 9.2027e-13 1.2234e-09 9.88419e-11 -1.85373e-10 6.69688e-17 1.94549e-16 3.14494e-16 1 -0.000258866 0.00049642 0.000111142 0.00352389 -0.00718207 0.0133585 0.0008
555 1 -0.00530603 -0.00486695 0.0113862 0.0008 3.43146e-06 -3.46186e-13 -9.8413e-13 1.07415e-12 4.57676e-09 2.33828e-09 -6.15016e-10 7.29125e-17 1.87296e-17 -4.05983e-16 1 3.2587e-05 3.21462e-05 1.61389e-06 -0.00589552 -0.00540766 0.0113862 0.0008
556 1 -0.00471904 -0.000423042 0.0121203 0.0008 3.43146e-06 2.07677e-12 -2.62805e-14 -1.87922e-12 1.05797e-09 -1.63318e-09 3.38454e-10 -9.88594e-16 -2.29257e-15 4.95182e-16 0 0 0 0 0 0 0 0
557 1 0.00246925 -0.00131352 0.0104159 0.0008 3.43146e-06 7.19996e-13 -4.41929e-13 9.21225e-13 4.94857e-10 -1.55389e-09 2.98732e-10 1.7239e-15 -6.45273e-16 6.81222e-16 0 0 0 0 0 0 0 0
558 1 -0.00567433 0.00128546 0.00750155 0.0008 3.43146e-06 2.1005e-12 2.45669e-13 -1.46949e-12 -2.85423e-09 4.2107e-09 3.58053e-09 -1.54078e-16 -1.20232e-16 -2.06086e-15 0 0 0 0 0 0 0 0
559 1 0.00171564 -0.00153294 0.0130857 0.0008 3.43146e-06 4.43383e-13 8.99303e-14 6.30428e-14 -2.83256e-10 8.88207e-10 1.59885e-10 6.44694e-16 1.26106e-15 -3.36257e-16 0 0 0 0 0 0 0 0
560 1 -0.000682112 0.00158433 0.013393 0.0008 3.43146e-06 1.15921e-13 5.41708e-13 -9.02355e-13 -9.69684e-10 -6.16224e-10 -7.43248e-10 1.88742e-15 -3.01883e-17 -3.08646e-15 0 0 0 0 0 0 0 0
561 1 0.007107 -0.00115683 0.0108816 0.0008 3.43146e-06 5.3638e-13 -6.41727e-14 1.08052e-12 5.68854e-10 1.27741e-09 1.96767e-12 -1.26159e-16 9.26899e-17 5.98784e-17 1 -0.000851457 -2.9365e-05 5.84654e-05 0.00789608 -0.00128527 0.0108816 0.0008
562 1 0.00116487 -0.00552576 0.00814847 0.0008 3.43146e-06 2.25576e-13 5.11791e-13 8.30221e-13 1.23838e-09 3.81055e-10 -1.4505e-09 -2.0215e-16 3.11361e-16 1.62305e-15 0 0 0 0 0 0 0 0
563 1 0.00175542 0.00144058 0.0105248 0.0008 3.43146e-06 5.40852e-13 -5.25685e-13 -1.15391e-13 -9.93695e-10 -1.04099e-09 1.29036e-09 -5.04009e-17 -2.11848e-16 2.78853e-16 0 0 0 0 0 0 0 0
564 1 0.0044534 0.000576938 0.0114248 0.0008 3.43146e-06 1.52798e-12 2.55801e-13 -8.62071e-13 -5.61807e-10 9.09234e-09 3.17424e-10 1.53345e-15 1.05967e-15 2.61263e-16 0 0 0 0 0 0 0 0
565 1 -0.000140478 -0.00428897 0.0105611 0.0008 3.43146e-06 -6.84533e-14 -1.2576e-12 -5.62871e-13 -1.8697e-10 -1.78932e-09 -3.54927e-10 -1.24001e-15 4.61338e-17 1.9804e-16 0 0 0 0 0 0 0 0
566 1 -0.00434175 0.00574376 0.0117736 0.0008 3.43146e-06 -2.05501e-12 -6.3104e-13 -1.37937e-12 1.87634e-09 3.15826e-10 -2.50676e-09 4.27027e-16 -1.48586e-16 -2.4038e-17 1 5.19158e-05 -5.72531e-05 1.50429e-06 -0.0048241 0.00638186 0.0117736 0.0008
567 1 0.000405957 -0.00150345 0.0103187 0.0008 3.43146e-06 9.21266e-15 -1.64613e-13 3.66085e-13 4.23986e-10 -2.16488e-10 -2.9572e-10 1.59698e-15 -2.063e-15 7.57906e-17 0 0 0 0 0 0 0 0
568 1 0.00347747 -0.00329963 0.0120085 0.0008 3.43146e-06 1.08113e-12 -9.94274e-13 1.63198e-12 -1.64724e-10 -8.7877e-11 4.30283e-11 1.43138e-15 -2.79911e-16 5.53104e-17 0 0 0 0 0 0 0 0
569 1 0.00261866 0.00199074 0.00731488 0.0008 3.43146e-06 -6.68435e-13 7.95986e-13 8.0835e-13 -6.24604e-10 5.24143e-10 5.24496e-11 4.38789e-16 4.6855e-17 2.75437e-16 0 0 0 0 0 0 0 0
570 1 -0.000505026 -0.00574075 0.00999683 0.0008 3.43146e-06 2.70358e-13 -5.40751e-13 -1.26909e-13 -9.59518e-10 -1.57839e-09 -7.67501e-10 -8.73381e-20 1.71286e-16 5.6813e-16 0 0 0 0 0 0 0 0
571 1 0.00123828 0.00709338 0.0107022 0.0008 3.43146e-06 1.15271e-15 6.30662e-13 -4.53213e-13 6.07682e-10 6.24917e-11 -1.41984e-10 -1.20489e-16 -6.47531e-16 -2.02162e-16 1 -0.000326087 -0.00107036 0.000279006 0.00137575 0.00788082 0.0107022 0.0008
572 1 0.00271145 0.00667015 0.0111607 0.0008 3.43146e-06 -9.52143e-14 3.38844e-13 3.31878e-13 -8.55828e-10 -9.75509e-10 -2.6907e-10 -6.29127e-18 -4.64135e-16 -1.98024e-16 1 -4.69391e-05 -0.000189818 2.69468e-05 0.00301264 0.00741107 0.0111607 0.0008
573 1 0.00207718 0.0028681 0.00965453 0.0008 3.43146e-06 1.18314e-13 -1.08393e-12 1.86899e-12 2.79374e-09 1.31678e-09 2.69139e-09 1.27831e-15 2.08149e-17 2.70846e-15 0 0 0 0 0 0 0 0
574 1 -0.00335494 0.000382219 0.0118962 0.0008 3.43146e-06 1.08369e-12 1.34747e-13 8.51381e-14 2.8993e-10 -2.39575e-10 3.7164e-10 -7.47174e-17 1.70799e-16 2.18864e-15 0 0 0 0 0 0 0 0
575 1 0.00166584 -0.00700465 0.0133739 0.0008 3.43146e-06 2.5646e-13 -1.10055e-12 3.93321e-13 5.25002e-10 -1.64918e-10 1.29851e-11 -5.3023e-16 -7.48215e-16 5.03361e-16 1 -2.97431e-07 1.98849e-06 2.78461e-07 0.00185094 -0.00778293 0.0133739 0.0008
576 1 0.00259087 0.00132042 0.00916617 0.0008 3.43146e-06 1.08231e-12 -2.30995e-13 -3.87135e-13 3.40654e-10 7.79597e-10 5.88594e-10 -2.56608e-16 2.90324e-17 -3.98698e-16 0 0 0 0 0 0 0 0
577 1 -0.0020896 0.00541723 0.00874603 0.0008 3.43146e-06 -1.08314e-12 -1.37978e-12 -3.38701e-12 2.56286e-09 5.45559e-10 3.05155e-09 1.52994e-16 -6.95398e-17 1.44642e-15 0 0 0 0 0 0 0 0
578 1 -0.00409796 -0.00393197 0.0102308 0.0008 3.43146e-06 -1.68987e-12 2.16499e-12 9.21662e-13 3.03096e-10 -2.32628e-09 -1.82938e-09 2.11269e-15 3.23605e-16 -1.90939e-16 0 0 0 0 0 0 0 0
579 1 -0.00535479 0.0027652 0.00570533 0.0008 3.43146e-06 2.1682e-12 9.19922e-13 -1.59107e-12 -4.57497e-10 -1.30028e-09 -2.43215e-09 -9.44779e-16 1.45127e-15 1.82849e-15 0 0 0 0 0 0 0 0
580 1 0.00515617 -0.000624228 0.0130634 0.0008 3.43146e-06 1.33105e-12 2.74274e-14 -1.47084e-12 -2.25352e-10 -9.60691e-10 -1.00338e-10 6.67562e-16 8.67436e-16 -1.04014e-15 0 0 0 0 0 0 0 0
581 1 -0.00163439 0.00073498 0.0100526 0.0008 3.43146e-06 5.41546e-13 -2.70906e-13 4.09e-13 9.13965e-10 1.31285e-10 -3.54661e-10 1.53944e-15 -3.28748e-16 -5.06715e-16 0 0 0 0 0 0 0 0
582 1 -0.00533717 -0.00195174 0.00630218 0.0008 3.43146e-06 2.16516e-12 -8.83167e-14 -1.6967e-13 1.55994e-09 2.78634e-09 4.34353e-10 -2.47668e-15 6.26782e-16 6.51581e-16 0 0 0 0 0 0 0 0
583 1 0.0034023 -0.00196425 0.0133978 0.0008 3.43146e-06 1.08411e-12 -9.92889e-13 3.95726e-12 -1.29517e-09 1.02246e-09 -2.25863e-09 3.29684e-16 -1.49262e-15 -1.99235e-15 0 0 0 0 0 0 0 0
584 1 0.00177588 0.000588563 0.00800088 0.0008 3.43146e-06 5.03472e-13 -8.3672e-16 -4.79706e-13 8.2023e-10 4.14255e-10 1.42605e-10 -5.37315e-16 -1.18185e-15 8.5051e-16 0 0 0 0 0 0 0 0
585 1 0.00107165 -0.0056481 0.00974098 0.0008 3.43146e-06 5.42005e-13 -1.79847e-12 9.48666e-13 1.81164e-09 2.15092e-10 -8.56756e-10 1.0281e-16 -1.43318e-15 9.8232e-16 0 0 0 0 0 0 0 0
586 1 0.0037602 0.00441659 0.0111509 0.0008 3.43146e-06 -1.08368e-12 1.30262e-12 -2.41624e-12 -2.52963e-09 -4.91926e-11 1.17433e-09 -3.86455e-16 6.78788e-16 -1.51157e-15 0 0 0 0 0 0 0 0
587 1 0.000116306 0.00599592 0.0103912 0.0008 3.43146e-06 3.22215e-14 1.05646e-12 -3.55738e-13 3.07375e-10 6.94857e-10 1.29695e-10 -1.02078e-16 -7.70545e-16 6.81847e-16 0 0 0 0 0 0 0 0
588 1 0.00104123 -0.00712445 0.0119058 0.0008 3.43146e-06 2.18951e-14 -5.06353e-13 3.30736e-13 3.48365e-10 4.31919e-10 8.34748e-11 8.16162e-17 -2.97503e-16 5.54773e-17 1 -2.52549e-05 0.000104018 1.09696e-05 0.0011569 -0.00791591 0.0119058 0.0008
589 1 0.00461227 -0.00481875 0.0112329 0.0008 3.43146e-06 1.24976e-12 -6.60731e-13 1.71735e-12 1.53012e-09 9.00358e-10 -6.2256e-10 3.07913e-16 5.78973e-16 8.53746e-16 0 0 0 0 0 0 0 0
590 1 0.00267369 -0.00108673 0.00572411 0.0008 3.43146e-06 8.60746e-13 -3.34987e-13 -1.04438e-12 -1.24445e-09 -1.44743e-09 1.66626e-10 7.33776e-16 -1.07901e-15 7.88045e-16 0 0 0 0 0 0 0 0
591 1 0.00596058 -9.2428e-05 0.0112161 0.0008 3.43146e-06 2.14102e-12 3.94289e-14 9.34627e-13 -1.28323e-09 -4.69627e-10 -1.31159e-09 2.63344e-16 -2.1437e-16 -2.05533e-16 0 0 0 0 0 0 0 0
592 1 -0.00301518 0.00653853 0.00941293 0.0008 3.43146e-06 -7.39199e-13 -1.91245e-12 -3.45108e-13 -1.23152e-09 3.75748e-09 -1.81111e-09 1.13348e-16 -1.55244e-16 -8.0871e-16 1 9.79567e-05 -0.000255872 4.20312e-06 -0.00335008 0.00726478 0.00941293 0.0008
593 1 0.00328015 0.00265277 0.00861187 0.0008 3.43146e-06 -4.21717e-13 6.08431e-13 1.70824e-13 1.14617e-09 6.80958e-10 9.71339e-10 -3.15468e-16 -2.32225e-16 -6.86514e-16 0 0 0 0 0 0 0 0
594 1 -0.000382162 0.00719022 0.00794875 0.0008 3.43146e-06 6.86454e-14 7.23653e-13 -6.90962e-13 9.49134e-10 -1.85334e-09 1.60182e-10 -3.24404e-16 -2.09063e-16 -6.84775e-16 1 -2.99174e-05 -0.000487444 0.000123102 -0.000424603 0.00798872 0.00794875 0.0008
595 1 -0.0014134 0.00578511 0.0131385 0.0008 3.43146e-06 -5.41965e-13 -1.4234e-12 -3.16123e-12 -9.31793e-10 -1.9449e-09 -4.27661e-10 -6.87792e-17 2.35335e-15 2.60657e-15 0 0 0 0 0 0 0 0
596 1 -0.00174482 0.00238497 0.00939725 0.0008 3.43146e-06 2.39721e-13 -6.61848e-13 1.218e-13 2.42091e-10 6.68921e-10 1.01182e-09 -1.44205e-15 4.745e-16 -1.89273e-15 0 0 0 0 0 0 0 0
597 1 0.00371471 -0.00241729 0.0106958 0.0008 3.43146e-06 1.97366e-13 8.1263e-13 2.8435e-12 3.03808e-09 1.37382e-09 2.1409e-11 5.37229e-16 1.22046e-15 3.64753e-16 0 0 0 0 0 0 0 0
598 1 -0.00247379 -0.000226132 0.00907613 0.0008 3.43146e-06 -9.88208e-13 -2.46074e-13 -4.20352e-13 1.65827e-10 2.11478e-09 2.00318e-09 -4.22128e-16 3.58598e-15 2.56548e-15 0 0 0 0 0 0 0 0
599 1 0.00147432 -0.00257688 0.00980462 0.0008 3.43146e-06 -5.17638e-13 -1.00152e-12 -1.19177e-13 -5.31647e-11 5.1571e-10 -9.49293e-10 7.19605e-16 -2.13572e-15 3.96159e-16 0 0 0 0 0 0 0 0
600 1 0.00289456 -0.00329346 0.00963884 0.0008 3.43146e-06 9.16783e-13 2.37451e-13 5.93763e-13 -1.86787e-10 -1.50089e-09 3.1278e-09 -1.0364e-16 -8.81706e-16 1.55143e-16 0 0 0 0 0 0 0 0
601 1 -0.0029995 -0.000501203 0.00697378 0.0008 3.43146e-06 8.59053e-13 -2.72006e-13 9.63624e-13 1.93651e-09 1.65284e-09 -3.20024e-10 -2.33149e-15 8.12925e-16 4.13738e-20 0 0 0 0 0 0 0 0
602 1 -3.8428e-05 -0.00720028 0.0107275 0.0008 3.43146e-06 1.50988e-14 -1.37793e-13 4.27888e-13 5.23108e-10 -3.02407e-10 -3.62078e-11 -3.84424e-17 -2.75976e-17 5.90093e-16 1 -5.19662e-05 0.00050345 3.77657e-05 -4.26955e-05 -0.00799989 0.0107275 0.0008
603 1 0.00333851 -0.00637922 0.0101466 0.0008 3.43146e-06 8.25579e-13 -5.02139e-13 -5.19939e-13 -4.39649e-10 -5.41876e-10 -6.19405e-10 1.4225e-16 3.7344e-16 1.55317e-16 1 -4.07883e-07 8.71946e-07 5.59882e-08 0.00370945 -0.00708802 0.0101466 0.0008
604 1 -0.00378866 0.00192021 0.00982603 0.0008 3.43146e-06 1.08374e-12 9.72454e-13 -8.26995e-13 -1.53937e-09 -1.26568e-09 -4.08194e-09 1.28276e-16 2.49094e-15 1.02423e-14 0 0 0 0 0 0 0 0
605 1 -0.00453505 -0.000632793 0.0103765 0.0008 3.43146e-06 1.27586e-12 -2.70083e-13 -1.73269e-12 -2.30131e-09 -3.35758e-09 -7.26326e-10 3.14615e-15 1.31382e-16 -1.82597e-15 0 0 0 0 0 0 0 0
606 1 0.00192416 0.0023756 0.0118117 0.0008 3.43146e-06 -3.75333e-13 2.75136e-13 9.85493e-13 1.05072e-09 2.7776e-10 -1.08906e-10 -1.23151e-15 -6.77467e-16 1.85388e-15 0 0 0 0 0 0 0 0
607 1 -0.00392926 -0.00181399 0.0121459 0.0008 3.43146e-06 1.9675e-12 5.38196e-13 -1.32602e-12 9.40104e-11 -1.76361e-09 5.40513e-11 -1.43138e-16 -1.66953e-16 3.17619e-16 0 0 0 0 0 0 0 0
608 1 -0.00338133 -0.00556133 0.0102665 0.0008 3.43146e-06 5.46715e-13 4.21889e-14 -1.50106e-12 2.56343e-09 3.46394e-09 -4.1076e-09 5.38046e-16 -8.13219e-16 3.93074e-16 0 0 0 0 0 0 0 0
609 1 0.00660675 0.00286256 0.0134344 0.0008 3.43146e-06 8.00154e-13 2.71189e-13 -4.00625e-13 -5.31829e-10 -8.19614e-10 9.74807e-11 2.66111e-16 -5.3419e-17 3.39063e-16 1 -0.000255647 -4.03241e-05 2.30391e-05 0.00734059 0.00318052 0.0134344 0.0008
610 1 -0.0071441 -0.000899358 0.0122162 0.0008 3.43146e-06 -2.00235e-13 -2.70975e-13 -7.84692e-13 -5.21696e-10 9.51466e-10 -3.06924e-10 2.32282e-16 -3.28117e-16 -4.91136e-16 1 0.000717077 0.000107407 0.000252978 -0.00793735 -0.000999219 0.0122162 0.0008
611 1 -0.00188373 -0.00500246 0.0103328 0.0008 3.43146e-06 5.40501e-13 -1.88277e-12 -2.57981e-12 1.2361e-10 -1.04787e-09 2.00363e-09 -2.57782e-16 3.40168e-16 3.56118e-16 0 0 0 0 0 0 0 0
612 1 -0.000403811 -0.0054012 0.00843328 0.0008 3.43146e-06 1.34955e-13 8.81674e-13 -7.60539e-13 -2.21344e-09 -2.26762e-09 1.12784e-09 3.09239e-16 -1.56559e-16 1.35266e-15 0 0 0 0 0 0 0 0
613 1 -0.000902057 -0.00221174 0.0109057 0.0008 3.43146e-06 -1.58749e-13 -1.26146e-13 -4.82426e-13 3.64641e-11 -7.28216e-10 1.05467e-10 1.14216e-15 2.68136e-16 3.30135e-15 0 0 0 0 0 0 0 0
614 1 -0.00104398 0.00262127 0.0108157 0.0008 3.43146e-06 4.26874e-13 -9.71098e-13 5.47698e-13 6.83226e-10 -4.83451e-10 -1.23689e-10 -1.24939e-16 2.05043e-15 -9.78489e-17 0 0 0 0 0 0 0 0
615 1 0.0069378 -0.00192714 0.0133164 0.0008 3.43146e-06 -1.56215e-13 3.84845e-14 -7.82775e-13 -2.23648e-11 -1.02021e-09 1.12909e-11 1.33185e-16 4.91037e-16 6.71774e-17 1 -0.000655448 0.000289944 0.000151197 0.00770815 -0.00214113 0.0133164 0.0008
616 1 0.00326024 0.000429427 0.0103133 0.0008 3.43146e-06 1.08339e-12 1.35412e-13 -1.03044e-14 -3.36976e-10 -1.78661e-09 6.59075e-10 4.11574e-17 8.25646e-17 3.96895e-16 0 0 0 0 0 0 0 0
617 1 -0.000828567 0.00323289 0.00672582 0.0008 3.43146e-06 -2.71104e-13 1.08273e-12 4.79929e-13 7.33272e-10 4.00092e-10 -7.60935e-10 -2.88751e-16 6.32042e-16 -3.52636e-15 0 0 0 0 0 0 0 0
618 1 0.00105546 0.00267542 0.00694219 0.0008 3.43146e-06 9.20679e-14 1.08353e-12 1.85312e-13 -3.15148e-10 5.28083e-10 -2.15922e-10 1.42761e-15 2.75834e-16 -4.19075e-16 0 0 0 0 0 0 0 0
619 1 -0.00210299 -0.00355053 0.00822573 0.0008 3.43146e-06 3.20167e-13 8.46379e-13 2.40363e-13 -5.14953e-10 5.20559e-11 -1.24683e-09 1.07784e-15 -3.65714e-16 -7.54419e-16 0 0 0 0 0 0 0 0
620 1 0.00423132 -0.00216469 0.00918129 0.0008 3.43146e-06 -1.32286e-12 -3.87653e-13 1.63817e-12 4.57232e-10 -1.88235e-09 5.34305e-10 7.31686e-16 1.83494e-15 1.11897e-15 0 0 0 0 0 0 0 0
621 1 -0.0022593 0.00326766 0.0116311 0.0008 3.43146e-06 1.08412e-12 -6.9709e-13 2.25469e-13 4.15614e-10 -1.8031e-10 -1.44423e-09 -9.01026e-16 2.14523e-15 5.82346e-15 0 0 0 0 0 0 0 0
622 1 0.0049348 0.00322267 0.011176 0.0008 3.43146e-06 1.82855e-12 -9.91279e-14 1.25198e-13 1.31753e-09 4.1427e-10 -9.11761e-10 5.91881e-16 -4.07549e-16 -4.17194e-16 0 0 0 0 0 0 0 0
623 1 0.00455855 0.00557339 0.00620059 0.0008 3.43146e-06 -1.48623e-12 -5.83801e-13 -4.29476e-13 7.62171e-11 -7.48271e-10 -9.91455e-10 1.17532e-16 3.39592e-16 -1.62741e-16 1 -0.000177972 -0.000120625 4.29137e-05 0.0050649 0.00619247 0.00620059 0.0008
624 1 0.00134769 -0.00117954 0.0115699 0.0008 3.43146e-06 -1.48011e-13 -4.1134e-13 4.45448e-13 -2.26178e-10 -3.18223e-11 3.93908e-11 2.6011e-15 -7.63286e-17 1.48568e-16 0 0 0 0 0 0 0 0
625 1 0.00231328 -0.0068183 0.00899947 0.0008 3.43146e-06 7.71753e-13 1.85116e-13 1.05501e-13 -9.0779e-11 6.93605e-10 -9.98397e-10 1.42447e-16 5.9309e-16 4.78362e-17 1 -3.94842e-06 1.2611e-05 -1.47899e-07 0.0025703 -0.00757585 0.00899947 0.0008
626 1 -0.0071329 0.000969375 0.00689075 0.0008 3.43146e-06 -1.32088e-12 8.13209e-13 -1.93641e-13 -6.83998e-10 -2.78538e-09 -3.04885e-09 -3.20668e-16 1.80328e-16 5.78572e-16 0 0 0 0 0 0 0 0
627 1 0.00146608 0.00558886 0.012903 0.0008 3.43146e-06 -4.51777e-13 4.31835e-13 -1.94198e-12 1.0027e-09 -1.32749e-09 1.63655e-09 -5.21181e-16 2.73607e-17 -1.25104e-15 0 0 0 0 0 0 0 0
628 1 -0.00585077 0.00149301 0.0116744 0.0008 3.43146e-06 -6.81014e-13 -1.36781e-13 -3.29683e-12 -6.69702e-10 2.38711e-10 4.1393e-10 3.59385e-15 3.37645e-15 2.22622e-15 0 0 0 0 0 0 0 0
629 1 -0.00367854 0.00218987 0.0117534 0.0008 3.43146e-06 1.08405e-12 -8.59121e-13 1.07751e-12 1.69396e-09 4.70838e-10 -4.70153e-11 6.49985e-16 -2.07603e-15 3.65939e-16 0 0 0 0 0 0 0 0
630 1 -0.00719925 -0.000106826 0.00943599 0.0008 3.43146e-06 1.5248e-12 -1.69441e-13 1.46839e-13 -2.11813e-09 -8.9236e-11 3.18925e-11 -1.71074e-15 8.58606e-16 2.10891e-15 1 2.10821e-05 1.28036e-06 7.74867e-07 -0.00799912 -0.000118695 0.00943599 0.0008
631 1 -0.000600865 -0.00435455 0.00723944 0.0008 3.43146e-06 -8.21245e-14 -1.57084e-13 -4.68468e-13 1.65425e-09 1.41046e-09 2.88987e-10 1.03911e-15 7.73814e-16 4.87727e-16 0 0 0 0 0 0 0 0
632 1 -0.00249283 -0.00150306 0.00811283 0.0008 3.43146e-06 1.20657e-13 -5.42099e-13 -1.65342e-12 6.02155e-10 -1.60561e-09 3.05265e-11 -2.27318e-15 -1.49712e-15 8.36934e-16 0 0 0 0 0 0 0 0
633 1 0.00327098 0.00480223 0.0074447 0.0008 3.43146e-06 2.70699e-13 2.16141e-12 -6.97582e-13 -1.75649e-10 3.6721e-09 1.21558e-09 -8.80576e-16 3.18837e-16 2.00542e-17 0 0 0 0 0 0 0 0
634 1 0.00225694 -0.00448417 0.00747044 0.0008 3.43146e-06 1.08409e-12 9.31292e-13 2.26886e-13 1.94378e-09 -3.78057e-10 -6.1447e-10 2.46758e-16 1.23826e-15 8.5828e-16 0 0 0 0 0 0 0 0
635 1 -0.000486289 -0.00309757 0.00625669 0.0008 3.43146e-06 1.35584e-13 -2.16068e-13 3.20482e-13 -8.49598e-10 -7.40667e-10 -1.2952e-09 7.63276e-16 1.27672e-15 1.13066e-16 0 0 0 0 0 0 0 0
636 1 -0.000361518 -0.00349014 0.0122482 0.0008 3.43146e-06 -5.78045e-14 -7.81184e-13 -3.05772e-14 -6.15793e-10 -8.56487e-10 5.05652e-10 9.28465e-16 -2.3442e-15 2.19478e-16 0 0 0 0 0 0 0 0
637 1 -0.00231617 -0.00681731 0.00987713 0.0008 3.43146e-06 1.98683e-13 -4.97913e-13 3.41921e-12 5.30969e-09 2.34761e-09 -3.74023e-10 -5.67942e-16 8.0469e-16 -9.69949e-16 1 1.73758e-06 9.58651e-06 -2.25324e-06 -0.00257351 -0.00757476 0.00987713 0.0008
638 1 0.000451723 0.00656757 0.0119915 0.0008 3.43146e-06 -1.35108e-13 -1.47691e-13 -3.07495e-12 9.30251e-10 -2.03919e-09 1.06263e-09 -6.42381e-16 -7.5069e-16 -6.67865e-17 0 0 0 0 0 0 0 0
639 1 0.00203775 0.0026087 0.0133902 0.0008 3.43146e-06 1.08418e-12 2.46186e-13 -1.08654e-12 -1.42928e-09 1.67754e-09 -3.87093e-10 3.45464e-16 1.77422e-15 2.66399e-16 0 0 0 0 0 0 0 0
640 1 -0.00637727 0.00333775 0.0127044 0.0008 3.43146e-06 5.56642e-13 -1.08406e-12 4.33201e-12 1.41329e-09 -3.30843e-09 -1.10889e-09 -2.47727e-15 -7.36703e-16 6.14359e-16 0 0 0 0 0 0 0 0
641 1 -0.00518991 0.0049905 0.00745639 0.0008 3.43146e-06 9.99837e-13 8.71627e-13 2.16657e-12 -5.3902e-09 1.53739e-09 1.87088e-09 -1.22103e-15 -1.72054e-15 4.63161e-18 1 3.77232e-06 -2.34263e-06 5.72577e-07 -0.00576655 0.00554499 0.00745639 0.0008
642 1 0.000207009 0.000349384 0.00780214 0.0008 3.43146e-06 6.85568e-14 -1.35402e-13 -3.13448e-14 -1.05924e-09 1.54024e-10 -6.28739e-11 5.31083e-17 -4.18997e-16 -2.32677e-15 0 0 0 0 0 0 0 0
643 1 0.00197705 -0.00547932 0.0110717 0.0008 3.43146e-06 1.6444e-13 6.6101e-14 8.89813e-13 7.28675e-10 5.67858e-10 3.56491e-10 1.98534e-16 -5.29629e-16 -5.662e-17 0 0 0 0 0 0 0 0
644 1 0.000475679 0.0071844 0.00929892 0.0008 3.43146e-06 -1.3158e-13 6.16674e-13 6.00906e-13 -7.28558e-10 7.67231e-10 -1.52635e-10 1.30432e-16 -6.45429e-16 -1.00336e-16 1 -1.08814e-05 -9.38355e-05 5.95239e-06 0.000528523 0.00798252 0.00929892 0.0008
645 1 -0.00186602 0.00695446 0.0120139 0.0008 3.43146e-06 -5.41741e-13 2.21454e-13 -9.46478e-13 1.23238e-09 -9.27703e-11 -5.92817e-10 -2.18525e-16 8.07159e-16 6.54782e-16 1 7.62034e-05 -0.000652528 -1.96867e-06 -0.00207322 0.00772669 0.0120139 0.0008
646 1 0.00189933 0.000604842 0.0129962 0.0008 3.43146e-06 3.96262e-13 -2.3927e-13 -3.11684e-13 3.00532e-10 3.30661e-10 -2.97489e-10 3.25674e-16 -5.90938e-16 1.02696e-16 0 0 0 0 0 0 0 0
647 1 -0.00194192 0.00211247 0.0147914 0.0008 3.43146e-06 2.57859e-13 -1.90379e-13 8.38517e-13 2.7283e-09 5.34657e-09 -2.27672e-10 -2.24152e-15 -1.08581e-15 -1.9254e-15 0 0 0 0 0 0 0 0
648 1 -0.00620832 0.00233731 0.0172161 0.0008 3.43146e-06 -5.67426e-13 -5.17851e-13 1.54321e-13 1.084e-09 3.59704e-10 -1.89335e-10 -2.95077e-18 2.36364e-15 3.75582e-16 0 0 0 0 0 0 0 0
649 1 0.00519432 -0.00181262 0.0107603 0.0008 3.43146e-06 2.04e-12 5.41207e-13 1.17662e-12 -9.23544e-10 1.80656e-09 -1.08113e-09 -4.56701e-16 1.95875e-16 -8.4404e-16 0 0 0 0 0 0 0 0
650 1 -0.00389686 0.00077453 0.0162805 0.0008 3.43146e-06 -9.33818e-13 -2.70923e-13 8.20562e-13 2.61042e-09 1.57282e-10 1.72118e-09 -1.15267e-15 1.51941e-16 -7.2331e-16 0 0 0 0 0 0 0 0
651 1 0.00249004 0.00482012 0.013862 0.0008 3.43146e-06 -5.99251e-13 2.16817e-12 -1.86445e-12 -8.76742e-10 1.45047e-11 1.017e-09 1.3429e-15 -1.35518e-16 -2.69158e-15 0 0 0 0 0 0 0 0
652 1 -0.00322729 -0.00180553 0.0147454 0.0008 3.43146e-06 6.88917e-13 4.89443e-13 -1.14209e-12 2.37882e-09 -5.88048e-10 -5.45343e-10 2.95638e-15 -1.52382e-15 2.52196e-15 0 0 0 0 0 0 0 0
653 1 -0.00208533 -0.00538711 0.0136013 0.0008 3.43146e-06 5.27159e-13 -1.70656e-12 6.24268e-13 1.86574e-09 1.39389e-09 -7.41631e-10 5.36895e-16 7.68979e-16 1.32219e-15 0 0 0 0 0 0 0 0
654 1 0.000674635 0.00341613 0.0129806 0.0008 3.43146e-06 -2.70741e-13 -1.50994e-13 -1.62731e-12 -2.35171e-09 -8.44346e-10 4.98453e-10 -2.95932e-16 4.65051e-16 1.28488e-15 0 0 0 0 0 0 0 0
655 1 -0.00191646 -0.00694091 0.0132615 0.0008 3.43146e-06 -1.23147e-13 -4.64427e-14 -1.03796e-13 -5.11987e-10 -1.3227e-09 1.29103e-10 7.03801e-16 6.55636e-16 2.12665e-16 1 0.000478513 0.000967232 9.27678e-05 -0.00212921 -0.00771145 0.0132615 0.0008
656 1 0.00541426 -0.00241143 0.013263 0.0008 3.43146e-06 7.02041e-13 -1.02908e-12 -1.46884e-12 -1.10631e-09 -2.78854e-10 1.51556e-09 -7.18856e-16 1.11652e-16 2.7402e-16 0 0 0 0 0 0 0 0
657 1 0.00344956 0.00281402 0.0157235 0.0008 3.43146e-06 -1.08367e-12 8.9561e-13 2.72603e-12 8.76682e-10 -2.92871e-09 1.04689e-09 -8.2864e-16 8.93384e-16 4.22739e-16 0 0 0 0 0 0 0 0
658 1 0.00140891 -0.000116114 0.010376 0.0008 3.43146e-06 6.26839e-14 -9.99993e-14 4.19955e-13 1.74246e-10 -9.68607e-11 6.59124e-11 -4.20882e-16 8.70929e-17 -1.6161e-15 0 0 0 0 0 0 0 0
659 1 0.00606694 -0.00146847 0.0120557 0.0008 3.43146e-06 1.99729e-12 -1.40503e-14 -4.68079e-13 3.36757e-10 -1.01832e-09 -3.60662e-10 2.78544e-16 9.16996e-16 2.43397e-16 0 0 0 0 0 0 0 0
660 1 0.003781 -0.00612745 0.0163612 0.0008 3.43146e-06 3.42348e-13 1.34011e-12 -2.91925e-13 2.77824e-11 -7.64514e-10 -1.26309e-09 -7.45104e-17 4.48501e-16 4.38873e-16 1 -5.37234e-05 6.27988e-05 1.82832e-05 0.00420105 -0.00680817 0.0163612 0.0008
661 1 0.00207379 -0.00574488 0.0142723 0.0008 3.43146e-06 3.30949e-13 -1.27904e-12 7.0374e-13 1.48955e-10 -1.42882e-09 -5.54889e-10 -8.68281e-16 2.0193e-15 1.01529e-15 0 0 0 0 0 0 0 0
662 1 0.00211357 0.00397258 0.0125583 0.0008 3.43146e-06 -6.32653e-13 8.60162e-13 -2.35236e-12 5.71553e-10 1.0862e-09 1.30929e-09 -2.33906e-16 1.16452e-15 -2.2303e-15 0 0 0 0 0 0 0 0
663 1 0.00322726 -0.00255137 0.0172608 0.0008 3.43146e-06 -7.42891e-13 1.08405e-12 2.52209e-13 -1.60351e-08 6.78377e-09 -1.02409e-08 3.66299e-15 6.11834e-17 4.93213e-15 0 0 0 0 0 0 0 0
664 1 -0.00174021 -0.00101214 0.0102605 0.0008 3.43146e-06 1.962e-13 4.73891e-13 -1.25888e-12 2.72566e-10 -1.08791e-09 -1.72819e-10 -1.53431e-15 -1.44059e-15 6.97473e-17 0 0 0 0 0 0 0 0
665 1 0.00341828 0.00360015 0.0134057 0.0008 3.43146e-06 1.07631e-12 4.27428e-13 -1.48302e-12 9.81104e-11 -1.08206e-09 -7.73408e-10 -4.81429e-16 1.72062e-15 -1.69736e-15 0 0 0 0 0 0 0 0
666 1 0.00338789 -0.00180188 0.0154292 0.0008 3.43146e-06 6.17021e-13 -5.41514e-13 1.64533e-12 -1.81479e-09 -2.64715e-09 8.00981e-10 -4.72008e-16 5.01217e-17 -1.47172e-16 0 0 0 0 0 0 0 0
667 1 -0.00717598 0.000598134 0.0116546 0.0008 3.43146e-06 -5.2397e-13 -1.80484e-13 -1.46834e-12 -2.92753e-10 1.86461e-09 -2.74852e-10 1.76252e-15 -2.36079e-15 -2.11084e-15 1 0.00171803 -0.000100316 -5.4145e-05 -0.00797235 0.000664513 0.0116546 0.0008
668 1 -0.000561064 -0.000676399 0.0112884 0.0008 3.43146e-06 2.7439e-13 2.67143e-13 5.57613e-14 -5.19607e-10 -1.25072e-10 -5.8177e-10 1.13258e-15 6.94183e-17 -5.43493e-16 0 0 0 0 0 0 0 0
669 1 0.00416803 -0.000882995 0.0142944 0.0008 3.43146e-06 6.47798e-13 -1.13844e-13 2.10551e-13 -2.46229e-09 9.42193e-10 3.18371e-09 -2.1987e-15 -5.07798e-16 -1.76066e-15 0 0 0 0 0 0 0 0
670 1 -0.00462064 -0.00406504 0.0139742 0.0008 3.43146e-06 -1.35462e-12 -6.04133e-13 1.77808e-12 -4.7994e-09 2.21308e-09 7.78316e-11 8.68537e-17 -4.17193e-16 9.16841e-16 0 0 0 0 0 0 0 0
671 1 0.00439939 -0.00187724 0.012148 0.0008 3.43146e-06 -7.14401e-13 3.12712e-13 -4.61204e-13 6.64733e-09 2.3787e-10 2.36307e-09 1.00349e-15 -5.13302e-16 -2.52357e-17 0 0 0 0 0 0 0 0
672 1 0.00371314 0.00566938 0.0132776 0.0008 3.43146e-06 -2.53952e-13 3.73077e-13 -2.82623e-12 -1.88943e-09 -1.52269e-10 -2.29311e-09 8.39331e-17 1.5363e-16 -1.73115e-15 0 0 0 0 0 0 0 0
673 1 0.00339848 -0.00324357 0.0143583 0.0008 3.43146e-06 4.53429e-13 -2.06303e-13 3.26348e-12 1.41444e-09 -1.42372e-09 1.56172e-09 -1.13639e-15 5.81522e-16 -1.09405e-15 0 0 0 0 0 0 0 0
674 1 0.00422473 0.0014454 0.0181778 0.0008 3.43146e-06 -5.08288e-13 4.88756e-13 8.76582e-13 4.73501e-10 2.23924e-09 -4.23144e-10 -5.77927e-16 2.01645e-15 1.36114e-15 0 0 0 0 0 0 0 0
675 1 -0.0035518 0.00462198 0.0143777 0.0008 3.43146e-06 -3.65166e-13 -2.16723e-12 -3.15072e-12 -1.85467e-10 -6.28111e-11 -1.77156e-09 -2.404e-15 -1.29175e-16 -8.76422e-16 0 0 0 0 0 0 0 0
676 1 -0.006982 -0.000220508 0.0152466 0.0008 3.43146e-06 5.27518e-14 -6.7931e-14 -1.96874e-13 -2.53111e-10 -1.0307e-09 8.31543e-10 -4.09313e-17 -8.22121e-16 -6.6974e-16 0 0 0 0 0 0 0 0
677 1 -0.00204899 0.00247033 0.0130658 0.0008 3.43146e-06 6.14833e-13 3.1284e-13 1.92881e-12 1.01369e-09 4.17877e-09 4.84046e-09 -2.4218e-15 7.0132e-16 -1.76546e-15 0 0 0 0 0 0 0 0
678 1 -0.00657096 -0.00294342 0.0129042 0.0008 3.43146e-06 -1.10944e-12 -3.10102e-13 -1.37711e-12 1.36385e-09 2.43911e-09 2.50519e-10 5.81224e-16 -1.9751e-16 6.00959e-17 1 5.45974e-05 1.52428e-05 4.6029e-06 -0.00730098 -0.00327042 0.0129042 0.0008
679 1 -0.00100071 -0.00301381 0.0136347 0.0008 3.43146e-06 -5.24204e-13 -1.93218e-14 5.23254e-13 7.53605e-10 9.47787e-11 -2.33247e-09 -1.51571e-15 1.90682e-15 2.05684e-15 0 0 0 0 0 0 0 0
680 1 0.00679457 -0.002383 0.0162967 0.0008 3.43146e-06 -2.91735e-13 5.73291e-13 -1.21085e-12 1.93274e-11 -1.59675e-09 -5.80929e-10 -2.61793e-16 1.30271e-16 -1.45067e-16 1 -0.000416838 7.55501e-05 0.000124462 0.00754917 -0.00264765 0.0162967 0.0008
681 1 -0.0024749 0.00191058 0.0107385 0.0008 3.43146e-06 1.08385e-12 -5.4207e-13 3.8496e-13 -8.76443e-10 8.69923e-11 1.58232e-11 2.80768e-16 -5.81286e-17 -2.02096e-16 0 0 0 0 0 0 0 0
682 1 -0.00394785 -0.00447527 0.0158913 0.0008 3.43146e-06 8.82105e-13 -8.81031e-13 -1.75582e-12 5.23556e-10 -1.20794e-09 2.98404e-09 -1.02273e-15 -1.06772e-15 -1.15754e-15 0 0 0 0 0 0 0 0
683 1 0.00384057 -0.0060899 0.0147628 0.0008 3.43146e-06 1.08416e-12 -7.72338e-13 8.76604e-13 -2.51668e-09 -1.5482e-10 -1.73627e-09 2.71771e-17 2.79086e-16 -8.71152e-17 0 0 0 0 0 0 0 0
684 1 0.002546 -0.000988965 0.0143394 0.0008 3.43146e-06 1.0834e-12 -5.40628e-13 -6.78355e-13 7.93104e-10 3.23768e-10 -5.57163e-10 2.60972e-17 2.40444e-16 1.26561e-15 0 0 0 0 0 0 0 0
685 1 0.00429379 0.00578084 0.0117919 0.0008 3.43146e-06 -8.95452e-13 5.87071e-13 -1.98487e-12 3.66617e-09 7.89285e-10 -1.3565e-09 8.05296e-16 1.71614e-15 -1.04621e-15 1 -0.00140726 -0.00169498 0.000506296 0.0047702 0.00642224 0.0117919 0.0008
686 1 -0.00469357 -0.00546002 0.0131672 0.0008 3.43146e-06 -2.16372e-12 -1.78609e-12 4.33594e-12 4.1037e-09 -3.53963e-09 5.95731e-10 -6.30527e-18 -9.31679e-18 -2.93351e-17 1 3.47136e-05 5.09932e-05 -6.19771e-06 -0.00521501 -0.00606661 0.0131672 0.0008
687 1 0.00162191 0.000170974 0.0168424 0.0008 3.43146e-06 4.31046e-14 2.03442e-13 -1.6682e-12 -1.59059e-09 8.72984e-10 -7.99708e-11 -1.3381e-15 -3.45558e-16 6.7736e-16 0 0 0 0 0 0 0 0
688 1 -0.00347441 -0.00444973 0.0129275 0.0008 3.43146e-06 7.66425e-13 -2.15085e-12 1.53392e-12 -9.65218e-10 -2.19159e-09 3.3443e-09 8.39144e-16 -5.73319e-16 -3.78242e-16 0 0 0 0 0 0 0 0
689 1 0.00710744 -0.00115409 0.0153215 0.0008 3.43146e-06 1.20117e-12 -2.20842e-13 -8.77559e-13 -6.1812e-10 -1.01565e-09 4.7968e-11 1.15098e-16 -4.30257e-16 -5.54408e-17 1 -0.000811582 4.41481e-05 5.09836e-05 0.00789658 -0.00128222 0.0153215 0.0008
690 1 0.000164478 0.00719857 0.0146 0.0008 3.43146e-06 -1.84448e-13 2.13898e-12 -2.65888e-12 3.22424e-09 -1.6215e-09 -3.66535e-10 3.25903e-16 1.47417e-16 -2.18481e-15 1 -4.66183e-05 -0.000634805 0.000136293 0.000182742 0.00799791 0.0146 0.0008
691 1 0.000422488 -0.00577943 0.0112996 0.0008 3.43146e-06 -1.3545e-13 -5.56412e-13 1.27029e-12 5.98315e-10 1.05632e-10 1.30904e-10 -1.98067e-16 -9.86519e-16 3.07037e-17 0 0 0 0 0 0 0 0
692 1 0.00627695 0.00352765 0.0119918 0.0008 3.43146e-06 1.70986e-12 -4.35778e-13 -9.84712e-14 4.31638e-10 1.05528e-10 1.52191e-09 -2.57208e-16 -3.849e-16 -5.83261e-16 1 -0.000325995 -0.000164295 2.83457e-05 0.00697409 0.00391944 0.0119918 0.0008
693 1 0.00259594 0.00671624 0.0127968 0.0008 3.43146e-06 2.30783e-13 2.1046e-12 -2.20496e-13 -9.79888e-11 -1.01902e-09 -6.79125e-10 -3.35241e-16 7.28283e-16 -8.96928e-16 1 -0.000210765 -0.000653309 -8.66703e-05 0.00288419 0.007462 0.0127968 0.0008
694 1 0.00503626 0.00140285 0.0150651 0.0008 3.43146e-06 1.91907e-12 3.64066e-13 -9.85616e-13 -2.49286e-10 4.37296e-10 -3.6759e-11 3.32905e-16 1.65263e-15 5.75858e-16 0 0 0 0 0 0 0 0
695 1 -0.00447981 0.00341658 0.0100788 0.0008 3.43146e-06 1.09926e-12 -5.84845e-13 -2.70182e-12 6.00886e-09 3.63541e-09 -1.29087e-09 -8.15488e-15 7.44981e-15 8.55299e-15 0 0 0 0 0 0 0 0
696 1 -0.00300121 0.00313516 0.0141658 0.0008 3.43146e-06 -9.9057e-13 -1.08249e-12 1.11806e-12 -3.92434e-09 -3.5626e-09 1.28465e-09 -2.61562e-15 3.81456e-16 -2.90438e-15 0 0 0 0 0 0 0 0
697 1 -0.00504708 -0.00261179 0.016342 0.0008 3.43146e-06 -6.94532e-13 1.01612e-12 -1.15092e-12 1.20825e-09 5.70931e-10 5.28422e-10 -1.32954e-15 -1.20494e-15 9.02203e-16 0 0 0 0 0 0 0 0
698 1 0.00243726 -0.0036888 0.0131593 0.0008 3.43146e-06 1.04034e-12 -5.37787e-13 1.37721e-12 -3.46221e-10 -2.2282e-10 -2.44064e-10 2.52895e-16 -5.58688e-16 -1.62981e-15 0 0 0 0 0 0 0 0
699 1 0.00191303 -0.00211013 0.0164627 0.0008 3.43146e-06 -5.41759e-13 3.66941e-14 7.50754e-14 -2.49067e-09 -1.1146e-09 4.41333e-10 -3.97734e-16 1.81153e-15 9.55571e-16 0 0 0 0 0 0 0 0
700 1 0.00561693 -0.000956062 0.0158676 0.0008 3.43146e-06 1.9303e-12 -6.74893e-14 -1.2504e-12 1.4949e-10 9.41446e-10 -2.79264e-10 1.09082e-15 -7.07741e-16 -1.33978e-16 0 0 0 0 0 0 0 0
701 1 0.00396166 -9.77049e-05 0.0156726 0.0008 3.43146e-06 1.137e-12 -2.94699e-14 -2.14098e-12 5.2938e-10 6.9303e-10 -9.19607e-10 3.14432e-17 -1.38639e-16 -1.58187e-15 0 0 0 0 0 0 0 0
702 1 0.00128362 -0.00347973 0.015794 0.0008 3.43146e-06 -2.78844e-13 -9.75034e-13 5.74981e-13 -1.42621e-09 -2.52516e-09 1.49838e-09 2.79659e-17 2.32201e-15 1.00643e-15 0 0 0 0 0 0 0 0
703 1 -0.00381165 0.00610847 0.0166301 0.0008 3.43146e-06 -2.48401e-13 -2.07881e-12 7.37097e-15 -1.05535e-09 1.77183e-09 -1.61015e-09 -1.22616e-15 -1.13189e-15 1.62672e-15 1 6.46488e-05 -9.89194e-05 2.22109e-05 -0.00423508 0.00678705 0.0166301 0.0008
704 1 -0.00376659 0.0037798 0.0114714 0.0008 3.43146e-06 1.08412e-12 -1.08421e-12 -1.46971e-12 8.45386e-10 -2.47498e-09 2.12753e-09 6.24814e-16 -3.4245e-17 5.19079e-16 0 0 0 0 0 0 0 0
705 1 -0.00265607 -0.00172963 0.0132534 0.0008 3.43146e-06 1.14621e-13 -5.15483e-13 -3.77774e-13 -3.56973e-09 9.20653e-10 3.59402e-10 5.20452e-15 -6.60552e-15 5.17481e-15 0 0 0 0 0 0 0 0
706 1 -0.00178229 0.00168467 0.0166792 0.0008 3.43146e-06 -5.42105e-13 5.41539e-13 -6.66507e-13 4.62281e-11 -1.44426e-09 -3.2959e-10 7.18166e-17 -2.11672e-16 6.16136e-17 0 0 0 0 0 0 0 0
707 1 -0.00075681 -0.000709048 0.0156631 0.0008 3.43146e-06 2.70907e-13 -1.95681e-13 1.60589e-13 -1.983e-09 -4.92969e-10 -1.6714e-09 4.71164e-16 2.65646e-15 3.47125e-15 0 0 0 0 0 0 0 0
708 1 0.000593315 -0.00099697 0.0164717 0.0008 3.43146e-06 -1.01309e-14 -7.00115e-14 2.75305e-13 -1.10777e-10 5.27879e-10 5.01554e-10 -2.28897e-15 2.66876e-15 2.53158e-15 0 0 0 0 0 0 0 0
709 1 -0.00111952 -0.00552159 0.011639 0.0008 3.43146e-06 5.41692e-13 -1.11598e-12 6.98923e-14 -8.17305e-10 -1.32724e-09 4.81852e-10 1.21716e-16 -4.99844e-16 8.96621e-16 0 0 0 0 0 0 0 0
710 1 -0.0066036 -0.00287041 0.00972304 0.0008 3.43146e-06 4.74121e-13 4.40809e-13 1.46026e-12 3.21014e-10 -1.85509e-09 2.6599e-10 1.08957e-15 6.30531e-16 -7.25211e-16 1 0.000575198 0.000408639 1.8409e-05 -0.00733685 -0.00318914 0.00972304 0.0008
711 1 0.00253914 -0.00673786 0.0171636 0.0008 3.43146e-06 -1.08075e-12 7.78296e-13 5.08963e-13 3.20237e-10 8.33182e-10 8.96482e-10 -3.29642e-16 6.99933e-16 3.2622e-17 1 -0.000174342 0.000534748 3.99532e-05 0.0028211 -0.00748608 0.0171636 0.0008
712 1 0.00487365 0.00346228 0.0127566 0.0008 3.43146e-06 2.06119e-12 -9.15179e-13 -5.97633e-13 -3.94288e-10 -4.48466e-10 -8.29663e-10 -2.16751e-16 -3.88536e-16 -1.60097e-15 0 0 0 0 0 0 0 0
713 1 -0.00443873 0.00566959 0.0152258 0.0008 3.43146e-06 -2.02015e-12 -1.04905e-12 5.24006e-14 6.17835e-10 -8.73121e-10 -2.83381e-09 -5.80775e-16 -5.63364e-16 3.21375e-16 1 0.000481494 -0.000463942 9.91246e-05 -0.00493161 0.00629914 0.0152258 0.0008
714 1 -0.00101897 -0.00445011 0.0143393 0.0008 3.43146e-06 -5.34832e-13 -2.16796e-12 6.05074e-13 2.70275e-10 -3.35178e-10 2.42925e-09 2.46727e-16 7.05561e-17 3.48131e-15 0 0 0 0 0 0 0 0
715 1 -0.00171563 -0.00253871 0.0122437 0.0008 3.43146e-06 -4.50978e-13 -1.08379e-12 3.89394e-13 4.19305e-10 8.49191e-10 1.13801e-09 9.26223e-16 1.15614e-16 1.36275e-14 0 0 0 0 0 0 0 0
716 1 0.00484001 0.00334359 0.0163112 0.0008 3.43146e-06 -1.93402e-12 -7.43498e-13 3.19483e-12 2.86473e-09 3.06776e-09 -1.32241e-09 -3.08888e-15 -1.33262e-15 -6.8009e-16 0 0 0 0 0 0 0 0
717 1 -0.00118724 0.00519675 0.0146087 0.0008 3.43146e-06 -5.41887e-13 -2.08585e-12 6.73196e-13 5.10036e-10 -6.14254e-11 3.74767e-09 8.01115e-16 3.16773e-15 3.23511e-15 0 0 0 0 0 0 0 0
718 1 -0.00299779 0.00492883 0.0106664 0.0008 3.43146e-06 -7.80403e-13 -1.25109e-12 7.93759e-14 1.03306e-09 3.61133e-09 -1.13421e-09 -2.48218e-15 5.71848e-16 2.35549e-17 0 0 0 0 0 0 0 0
719 1 -0.00191906 -0.000893912 0.0121057 0.0008 3.43146e-06 5.42032e-13 -2.71176e-13 -1.70753e-12 2.15019e-09 -1.45835e-09 6.92705e-10 -4.8713e-18 4.86382e-16 5.51932e-16 0 0 0 0 0 0 0 0
720 1 0.00102635 0.00712717 0.0170709 0.0008 3.43146e-06 -5.42066e-13 1.54571e-12 2.14626e-13 -2.22632e-10 3.31097e-10 -1.02836e-09 -1.39771e-16 -9.42422e-16 9.35623e-17 1 -0.000166983 -0.00121206 2.44217e-05 0.00114027 0.00791832 0.0170709 0.0008
721 1 -0.00668423 0.00267751 0.0141289 0.0008 3.43146e-06 -1.18279e-13 5.59972e-13 -5.1791e-13 -9.13743e-10 1.16753e-09 6.21376e-10 -9.49044e-18 -5.48163e-16 -2.44482e-15 1 0.00084314 -0.000229663 0.000146562 -0.00742635 0.00297478 0.0141289 0.0008
722 1 -0.000446434 0.00121594 0.0150438 0.0008 3.43146e-06 1.29385e-13 -3.29385e-13 -1.58573e-12 -1.03174e-09 6.74337e-10 9.85551e-10 -4.58854e-16 1.35723e-15 -1.88898e-15 0 0 0 0 0 0 0 0
723 1 -0.00235642 -0.00295298 0.0154414 0.0008 3.43146e-06 -7.24309e-13 3.99247e-13 -3.13635e-12 -8.93033e-10 1.47639e-09 -9.77292e-10 -1.27092e-16 3.73757e-16 1.77307e-15 0 0 0 0 0 0 0 0
724 1 -0.00477361 -0.00162126 0.0151106 0.0008 3.43146e-06 8.8151e-13 -2.83422e-14 -1.8558e-12 1.88516e-09 -7.42457e-10 1.17807e-10 6.2156e-16 -1.06637e-15 2.19332e-16 0 0 0 0 0 0 0 0
725 1 -0.00176596 -0.00414438 0.0126462 0.0008 3.43146e-06 -1.36304e-13 -1.21941e-12 5.91157e-13 -1.17168e-09 5.84387e-10 3.81955e-10 2.93619e-15 -1.01513e-15 2.86401e-16 0 0 0 0 0 0 0 0
726 1 -0.00436836 0.00331755 0.0171122 0.0008 3.43146e-06 -2.7346e-13 -1.08335e-12 3.91431e-12 -5.13343e-10 -5.47338e-09 -2.15243e-09 1.81926e-15 7.81505e-18 -1.23618e-15 0 0 0 0 0 0 0 0
727 1 0.0067282 0.00256398 0.0107973 0.0008 3.43146e-06 9.56521e-13 9.97989e-13 6.81728e-13 2.32922e-11 9.35702e-10 -7.98932e-10 -6.00026e-17 6.08198e-17 5.46663e-17 1 -0.00015145 -7.54405e-05 3.81805e-05 0.00747559 0.00284879 0.0107973 0.0008
728 1 0.000486245 0.00370274 0.015303 0.0008 3.43146e-06 -1.35351e-13 2.39153e-13 -1.95669e-13 -5.78459e-10 -6.70153e-10 2.05303e-09 -3.95497e-17 -9.12969e-16 2.69053e-15 0 0 0 0 0 0 0 0
729 1 0.00479012 -0.00393515 0.0147666 0.0008 3.43146e-06 2.10767e-12 4.5648e-13 2.90635e-12 -7.43181e-10 -2.18348e-09 -1.93137e-09 -5.23798e-16 9.97854e-17 1.54175e-15 0 0 0 0 0 0 0 0
730 1 0.00169429 -0.00561697 0.015821 0.0008 3.43146e-06 -5.42075e-13 -5.0771e-13 7.49418e-13 -1.14215e-09 4.08827e-10 7.18512e-10 3.94664e-16 2.07016e-15 -6.05448e-16 0 0 0 0 0 0 0 0
731 1 0.000744497 0.00499356 0.0165986 0.0008 3.43146e-06 -9.55124e-14 2.07044e-12 -1.24948e-12 2.90819e-09 2.21086e-09 -5.12379e-10 2.50922e-16 -2.4108e-15 6.45589e-16 0 0 0 0 0 0 0 0
732 1 -0.00245742 -0.00358029 0.0139736 0.0008 3.43146e-06 -1.04037e-12 -8.78816e-14 7.97006e-13 -1.47339e-09 -1.57006e-10 2.34668e-09 1.60882e-16 1.69128e-15 6.66217e-16 0 0 0 0 0 0 0 0
733 1 -0.00013374 0.000377995 0.016846 0.0008 3.43146e-06 6.7807e-14 1.36696e-13 -5.61501e-13 -1.51112e-09 2.59955e-10 -5.1367e-10 -2.814e-16 5.59059e-16 9.49053e-16 0 0 0 0 0 0 0 0
734 1 -0.000731714 0.00300972 0.0123357 0.0008 3.43146e-06 -1.28477e-13 3.05912e-13 -1.44852e-12 -3.71572e-09 -8.17094e-10 -3.82247e-09 -1.92213e-15 5.77105e-16 9.71938e-16 0 0 0 0 0 0 0 0
735 1 -0.0051 0.00291901 0.0116727 0.0008 3.43146e-06 2.14621e-12 -9.24549e-13 -1.783e-12 -7.01275e-09 -1.81104e-09 -6.68511e-10 4.55754e-16 -1.45388e-15 1.40396e-15 0 0 0 0 0 0 0 0
736 1 -0.00719706 -0.000216139 0.0136615 0.0008 3.43146e-06 7.38937e-13 -7.07054e-15 -2.24416e-13 4.45169e-10 2.30396e-10 -3.15904e-11 -4.3078e-16 -1.91487e-16 1.10358e-16 1 0.000364025 -2.24054e-06 0.000127689 -0.00799639 -0.000240145 0.0136615 0.0008
737 1 0.00648278 0.00202971 0.0147945 0.0008 3.43146e-06 3.75409e-13 -7.43038e-14 -8.20803e-13 1.13271e-09 5.17484e-11 1.31888e-10 4.65663e-16 -1.75826e-16 7.38732e-16 0 0 0 0 0 0 0 0
738 1 0.000677274 -0.00477245 0.0149201 0.0008 3.43146e-06 7.67697e-14 -5.49587e-13 1.88254e-13 1.39946e-09 -1.85564e-09 -5.32943e-10 -1.62431e-15 1.65828e-15 -3.10317e-16 0 0 0 0 0 0 0 0
739 1 9.35136e-05 0.00590519 0.0136614 0.0008 3.43146e-06 -3.44002e-14 8.82476e-14 -2.8592e-12 -4.50164e-09 1.37985e-09 5.08752e-10 3.10233e-16 1.60031e-16 3.83821e-16 0 0 0 0 0 0 0 0
740 1 0.00159738 0.00261687 0.0171515 0.0008 3.43146e-06 4.49123e-13 1.08404e-12 3.75854e-13 1.31302e-09 -4.83525e-09 3.91451e-10 -7.58206e-16 -1.55581e-16 -3.78388e-16 0 0 0 0 0 0 0 0
741 1 0.00143887 0.00242464 0.0154409 0.0008 3.43146e-06 5.41982e-13 1.08361e-12 -1.84893e-12 -3.31615e-09 -5.8163e-10 1.5996e-09 -1.87501e-16 -1.71845e-15 3.84582e-16 0 0 0 0 0 0 0 0
742 1 -0.00576027 -0.00431981 0.0128194 0.0008 3.43146e-06 -8.974e-13 -1.48819e-12 6.72242e-13 -3.62274e-09 -3.77811e-09 -7.84454e-10 2.75958e-17 3.65288e-16 -1.35828e-16 1 6.24085e-05 3.24231e-05 -7.37612e-06 -0.00640021 -0.00479972 0.0128194 0.0008
743 1 -0.00169148 0.0037016 0.0148967 0.0008 3.43146e-06 -4.9257e-13 -1.02498e-12 2.82778e-13 1.85342e-09 6.79007e-10 1.60271e-09 1.37757e-15 -2.96404e-15 1.09266e-15 0 0 0 0 0 0 0 0
744 1 -0.000683771 -0.000147851 0.0141666 0.0008 3.43146e-06 2.7016e-13 -1.66235e-13 -8.69242e-13 1.62736e-09 1.27045e-09 1.63451e-10 -2.60956e-16 1.96128e-15 1.28711e-15 0 0 0 0 0 0 0 0
745 1 0.00234914 0.000175897 0.0154176 0.0008 3.43146e-06 -2.26085e-13 -1.00276e-13 9.43708e-13 4.74065e-10 -2.0162e-09 9.72851e-10 -1.69206e-15 2.86168e-17 2.66036e-15 0 0 0 0 0 0 0 0
746 1 0.00320051 0.00470433 0.0153069 0.0008 3.43146e-06 -1.08316e-12 2.16833e-12 -2.25094e-13 8.38318e-11 2.42408e-09 3.15683e-10 -7.80905e-16 -6.29071e-16 -1.38819e-15 0 0 0 0 0 0 0 0
747 1 0.00287499 0.00660134 0.0161186 0.0008 3.43146e-06 -9.51845e-13 2.23723e-13 1.76326e-13 2.93563e-10 9.38374e-10 -1.09568e-09 -6.6131e-16 -6.39462e-16 7.27997e-16 1 -0.000119811 -0.000190415 5.31838e-05 0.00319433 0.00733459 0.0161186 0.0008
748 1 0.0033753 -0.00481017 0.0138093 0.0008 3.43146e-06 1.06501e-12 -1.56556e-12 9.55476e-13 1.86233e-09 -2.1608e-10 -4.50005e-11 -2.71929e-16 1.43703e-16 1.42683e-16 0 0 0 0 0 0 0 0
749 1 0.00452014 0.00489964 0.0144239 0.0008 3.43146e-06 -2.16465e-12 7.25653e-13 -1.37571e-12 -1.35404e-09 -5.1951e-10 -1.52385e-09 6.09613e-16 2.75552e-16 -1.28384e-15 0 0 0 0 0 0 0 0
750 1 -0.00575914 0.00432161 0.0138037 0.0008 3.43146e-06 -3.97427e-13 -2.1454e-12 1.71131e-12 -4.4063e-09 5.77251e-10 -2.26214e-09 -9.9109e-16 -1.02008e-15 -1.37654e-17 1 0.000273454 -0.000158338 0.00010198 -0.00639879 0.00480161 0.0138037 0.0008
751 1 0.0032198 0.000384167 0.0138716 0.0008 3.43146e-06 1.01985e-12 -1.1978e-13 -5.09123e-13 -2.70758e-10 2.08875e-10 6.12687e-10 3.95899e-16 4.96173e-16 -1.19129e-16 0 0 0 0 0 0 0 0
752 1 -0.00217359 0.00491039 0.0120362 0.0008 3.43146e-06 5.85424e-13 -2.16193e-12 -3.71003e-12 3.92755e-10 2.74984e-10 1.2476e-09 -2.67934e-15 6.21393e-17 9.95601e-16 0 0 0 0 0 0 0 0
753 1 0.00554141 -0.00459802 0.0125161 0.0008 3.43146e-06 1.46863e-12 -1.55436e-12 5.87506e-14 -6.14923e-10 5.92817e-10 3.25739e-10 -1.97744e-16 -1.20212e-16 9.67867e-16 1 -0.000726779 0.000773757 0.000116532 0.00615659 -0.00510847 0.0125161 0.0008
754 1 -0.00128124 -0.00194531 0.0147917 0.0008 3.43146e-06 7.4572e-13 5.42154e-13 1.73565e-12 -1.10732e-10 2.54014e-10 -2.93797e-11 1.55153e-15 -8.44317e-17 -9.14143e-16 0 0 0 0 0 0 0 0
755 1 -0.005809 -0.00149015 0.0128689 0.0008 3.43146e-06 1.14789e-12 -2.45307e-13 -1.34799e-12 5.80137e-10 3.90173e-10 8.44084e-10 -1.77101e-16 -5.74597e-16 -3.8155e-16 0 0 0 0 0 0 0 0
756 1 0.00214719 0.00632357 0.0142864 0.0008 3.43146e-06 -9.78242e-13 2.16811e-12 -1.03079e-13 2.32974e-09 3.00866e-09 2.26171e-10 8.02482e-16 1.28896e-16 2.37026e-16 0 0 0 0 0 0 0 0
757 1 -0.00518446 -0.00255886 0.0138815 0.0008 3.43146e-06 2.12979e-12 8.4202e-13 -8.63988e-13 -1.71766e-09 -5.84396e-11 6.83751e-10 6.244e-16 -1.99787e-15 -4.91224e-16 0 0 0 0 0 0 0 0
758 1 -0.00215971 -0.000630698 0.0145489 0.0008 3.43146e-06 1.05352e-12 6.82298e-14 -4.49577e-13 -2.65207e-09 -8.6243e-10 -1.90764e-11 6.60429e-16 -3.53927e-16 2.40201e-15 0 0 0 0 0 0 0 0
759 1 0.000960536 -0.000780248 0.0142881 0.0008 3.43146e-06 1.44596e-13 -2.44547e-13 -6.53859e-13 7.74117e-10 -3.89695e-10 4.4268e-10 -1.1647e-15 -1.01291e-15 1.71944e-15 0 0 0 0 0 0 0 0
760 1 -8.61072e-05 -0.00719949 0.0130387 0.0008 3.43146e-06 -3.37658e-14 -8.27365e-13 6.80458e-14 7.08936e-11 -7.01925e-10 6.03924e-11 -1.69419e-16 -5.07757e-16 8.12278e-17 1 3.33751e-07 2.05386e-06 2.88251e-07 -9.56745e-05 -0.00799943 0.0130387 0.0008
761 1 -0.000404519 -0.0049308 0.0129425 0.0008 3.43146e-06 -9.40437e-14 -1.07025e-12 1.35232e-14 6.48045e-10 5.96855e-10 -4.07801e-10 7.22971e-17 -3.28106e-16 1.08095e-15 0 0 0 0 0 0 0 0
762 1 0.00626511 0.00354802 0.0174174 0.0008 3.43146e-06 -3.74239e-13 -1.0837e-12 -1.59563e-12 -1.58741e-09 -3.23024e-09 1.08925e-09 -7.09963e-16 2.88216e-16 -1.04954e-16 1 -7.10658e-07 -4.19789e-07 1.55558e-07 0.00696123 0.00394224 0.0174174 0.0008
763 1 0.00552212 0.00176614 0.0114817 0.0008 3.43146e-06 7.12632e-13 3.71431e-13 -2.41178e-12 3.06159e-09 -3.4429e-09 7.43995e-10 2.18523e-15 5.75591e-16 -9.67977e-16 0 0 0 0 0 0 0 0
764 1 -0.00356452 0.0017171 0.0136848 0.0008 3.43146e-06 1.08413e-12 -5.42365e-13 2.76065e-12 -4.42823e-10 -3.41603e-09 -1.55159e-09 -6.91314e-16 3.02165e-16 8.96444e-16 0 0 0 0 0 0 0 0
765 1 -0.00552991 -0.00340213 0.0107834 0.0008 3.43146e-06 9.52511e-14 -7.51974e-14 4.24309e-12 -6.53421e-10 -9.41859e-10 -4.67724e-10 1.11792e-15 -3.17654e-16 5.43486e-16 0 0 0 0 0 0 0 0
766 1 0.00237414 0.00522104 0.0167534 0.0008 3.43146e-06 1.08293e-12 2.16431e-12 -6.83109e-13 1.44143e-09 4.27634e-09 2.82885e-10 1.09084e-16 -1.38466e-16 -1.55268e-15 0 0 0 0 0 0 0 0
767 1 0.00240658 0.00345726 0.0146951 0.0008 3.43146e-06 -1.91357e-13 1.08386e-12 -1.16246e-12 5.67893e-10 -2.97179e-09 1.4919e-09 2.20258e-15 4.11838e-16 -3.03634e-15 0 0 0 0 0 0 0 0
768 1 -0.00589869 -0.000166967 0.0110705 0.0008 3.43146e-06 2.38049e-13 -6.8242e-14 -3.79374e-12 2.03789e-10 1.01543e-09 1.53984e-09 -4.73935e-15 6.17682e-17 -1.3483e-15 0 0 0 0 0 0 0 0
769 1 0.004441 -0.00368056 0.0132267 0.0008 3.43146e-06 2.13368e-12 -3.79794e-13 9.23408e-13 -1.26955e-09 2.05542e-09 -6.0193e-10 -2.6236e-16 -4.59431e-16 6.87963e-16 0 0 0 0 0 0 0 0
770 1 -0.00310218 -0.0060557 0.0165533 0.0008 3.43146e-06 -7.36267e-13 -4.65314e-13 1.78177e-12 3.05429e-10 5.66703e-10 -5.95569e-10 5.44574e-16 -6.45343e-16 -1.96666e-16 0 0 0 0 0 0 0 0
771 1 -0.000867658 0.000198398 0.0126158 0.0008 3.43146e-06 6.05492e-14 2.83825e-14 4.18632e-13 -9.64904e-10 -8.39898e-10 -2.29551e-10 -2.54053e-15 2.19343e-15 3.92169e-17 0 0 0 0 0 0 0 0
772 1 0.00719859 -0.000145084 0.0165595 0.0008 3.43146e-06 4.43925e-14 -4.64818e-14 -5.98576e-13 6.26361e-10 -7.68079e-10 7.14097e-11 4.71698e-16 -2.42884e-16 8.85692e-16 1 -2.18073e-05 -4.90696e-07 -6.48647e-07 0.00799838 -0.000161203 0.0165595 0.0008
773 1 -0.0055762 0.00455544 0.0153752 0.0008 3.43146e-06 6.53867e-13 2.05208e-12 -1.48889e-14 -1.13202e-09 9.38864e-10 2.48025e-09 7.08696e-16 7.01637e-16 3.89118e-16 1 0.000406839 -0.000430879 9.55414e-05 -0.00619542 0.00506131 0.0153752 0.0008
774 1 -0.00267637 0.00668431 0.0156612 0.0008 3.43146e-06 -1.70691e-13 -2.11966e-12 -2.74742e-12 2.87773e-09 2.1401e-09 -1.15815e-09 1.42191e-15 -1.21027e-15 -1.72828e-16 1 0.000103711 -0.00017769 -6.09268e-06 -0.00297366 0.0074268 0.0156612 0.0008
775 1 -0.00331118 -0.00483833 0.01447 0.0008 3.43146e-06 -4.23744e-14 -1.94543e-15 2.98732e-12 -1.80187e-09 3.89388e-10 -7.89681e-10 -2.32109e-17 5.36189e-16 -5.07137e-16 0 0 0 0 0 0 0 0
776 1 0.00184257 0.00383442 0.0161437 0.0008 3.43146e-06 2.18838e-13 1.0801e-12 1.61232e-12 -1.29725e-10 4.99133e-09 -3.7865e-10 -1.95515e-16 -8.58782e-17 -8.62991e-16 0 0 0 0 0 0 0 0
777 1 -0.00697718 -0.00177914 0.0139233 0.0008 3.43146e-06 3.76297e-13 -5.41577e-13 -1.26817e-13 -3.6362e-10 6.96436e-11 -7.52506e-10 4.60392e-17 1.77113e-16 -2.06375e-17 1 0.000585181 0.000201769 8.93242e-05 -0.00775195 -0.0019767 0.0139233 0.0008
778 1 -0.000878112 0.00575624 0.0116313 0.0008 3.43146e-06 -2.70254e-13 -7.07061e-13 -4.31779e-12 1.99659e-09 2.15715e-09 4.69556e-11 7.88576e-16 -1.23775e-15 1.16133e-15 0 0 0 0 0 0 0 0
779 1 -0.00559149 0.0006489 0.0168123 0.0008 3.43146e-06 -7.88685e-13 -1.42783e-13 -1.23015e-15 8.50868e-10 1.01815e-09 9.21608e-10 -4.93138e-16 -4.69517e-16 9.48892e-16 0 0 0 0 0 0 0 0
780 1 -0.0057849 0.00297041 0.0154187 0.0008 3.43146e-06 1.72478e-12 8.87255e-13 4.86752e-13 6.63521e-10 -7.42276e-11 -9.68846e-10 1.11733e-15 -6.40342e-16 -6.97257e-16 0 0 0 0 0 0 0 0
781 1 0.00349415 0.00203308 0.0137172 0.0008 3.43146e-06 5.9037e-13 8.44055e-13 -1.0796e-12 -5.96926e-10 -1.026e-09 5.09433e-10 -8.70575e-16 1.33834e-15 1.14644e-15 0 0 0 0 0 0 0 0
782 1 0.00719466 -0.000279725 0.0122168 0.0008 3.43146e-06 2.16242e-12 1.35484e-13 7.44629e-13 -8.99122e-10 9.75783e-10 -2.87125e-10 -2.14743e-16 4.09258e-17 3.4185e-16 1 -6.40121e-05 4.95374e-06 -9.58488e-06 0.00799396 -0.000310801 0.0122168 0.0008
783 1 -0.00407046 0.00317363 0.012952 0.0008 3.43146e-06 -2.16774e-12 -9.34999e-13 -1.20009e-12 -2.87011e-09 -5.44442e-09 1.08038e-09 1.68561e-16 7.25133e-16 2.14833e-16 0 0 0 0 0 0 0 0
784 1 -0.00466538 0.000318621 0.0139391 0.0008 3.43146e-06 1.48739e-12 -1.35924e-13 -2.03614e-12 1.71204e-10 1.30386e-09 -6.7488e-10 1.71601e-15 7.64867e-17 -2.91289e-16 0 0 0 0 0 0 0 0
785 1 6.94407e-06 -0.00332255 0.0148378 0.0008 3.43146e-06 -5.01089e-14 -6.95268e-13 1.81948e-13 -9.85311e-10 9.08331e-10 8.2839e-10 1.69416e-16 1.51369e-15 1.33121e-15 0 0 0 0 0 0 0 0
786 1 0.00581753 0.000326655 0.0141672 0.0008 3.43146e-06 1.94438e-13 -1.35514e-13 -8.80918e-13 4.28689e-10 -8.86261e-10 7.28552e-11 1.01357e-15 6.80784e-17 -3.12757e-16 0 0 0 0 0 0 0 0
787 1 -0.00188869 0.00694833 0.0141281 0.0008 3.43146e-06 -5.40292e-13 -5.75562e-13 -1.78178e-12 1.95198e-09 1.36998e-09 -8.30259e-10 5.37185e-16 1.9645e-15 -2.99643e-16 1 4.91939e-05 -0.000637862 4.44983e-05 -0.00209842 0.00771989 0.0141281 0.0008
788 1 0.00558718 0.00454197 0.0155602 0.0008 3.43146e-06 -6.88249e-13 5.22041e-13 1.29194e-12 -1.9397e-09 5.03652e-10 -1.07718e-09 -3.2537e-16 2.10607e-16 -6.78787e-16 1 -0.00051698 -0.000284184 0.000159044 0.00620762 0.00504634 0.0155602 0.0008
789 1 -0.00266614 -0.0051211 0.0117223 0.0008 3.43146e-06 1.08405e-12 -2.12374e-12 1.62143e-12 -1.66286e-09 4.00088e-09 7.23017e-10 1.98592e-16 -1.35287e-15 5.1061e-16 0 0 0 0 0 0 0 0
790 1 0.00371553 0.00186996 0.0108389 0.0008 3.43146e-06 -5.79038e-13 3.94768e-13 1.56087e-12 9.15251e-10 -2.9536e-09 1.64913e-11 7.82614e-16 1.85601e-15 9.34914e-16 0 0 0 0 0 0 0 0
791 1 0.00167686 0.0051919 0.015314 0.0008 3.43146e-06 -5.42099e-13 2.16675e-12 -4.24044e-13 -1.68281e-09 -2.15287e-09 -5.62311e-10 7.21255e-17 -1.54164e-17 -2.13673e-15 0 0 0 0 0 0 0 0
792 1 0.00589163 -0.00413994 0.0105541 0.0008 3.43146e-06 1.42302e-12 -6.69902e-13 4.80295e-13 -5.40052e-10 1.11102e-09 -3.3637e-10 4.24082e-16 9.73112e-16 6.29932e-16 1 -0.00106056 0.000775153 6.2052e-05 0.0065456 -0.00459947 0.0105541 0.0008
793 1 -0.00040789 -0.00718847 0.0157522 0.0008 3.43146e-06 1.35585e-13 6.86598e-13 2.05304e-12 2.61328e-09 7.32179e-10 -1.56859e-10 -2.62031e-17 -6.2345e-16 -5.24081e-16 1 -8.57326e-07 1.5762e-05 -2.33164e-06 -0.000453209 -0.00798715 0.0157522 0.0008
794 1 -0.00581699 -0.000737555 0.0142801 0.0008 3.43146e-06 1.43715e-12 -1.34163e-13 -7.09476e-13 -3.10586e-10 6.96645e-10 2.49189e-10 -1.4322e-15 -7.32436e-16 -8.84146e-16 0 0 0 0 0 0 0 0
795 1 -0.00710461 0.00116906 0.0144561 0.0008 3.43146e-06 5.29903e-13 -1.4127e-14 3.35129e-13 2.04328e-10 -4.55698e-10 2.01457e-10 -8.62614e-17 -1.69888e-17 1.43927e-16 1 0.000120902 -2.49962e-05 3.67081e-05 -0.00789385 0.00129892 0.0144561 0.0008
796 1 -0.000490667 0.00272068 0.0145025 0.0008 3.43146e-06 2.70858e-13 -5.45344e-13 -1.44502e-12 1.12409e-09 -6.2845e-10 -1.14318e-09 1.20646e-16 6.48192e-16 1.23277e-15 0 0 0 0 0 0 0 0
797 1 -0.0015001 -0.00367637 0.01114 0.0008 3.43146e-06 -5.42078e-13 -8.95618e-13 -1.14363e-12 9.2511e-10 4.00838e-10 -2.59713e-10 -1.50553e-16 -1.0211e-15 3.77957e-15 0 0 0 0 0 0 0 0
798 1 0.00718605 -0.000448394 0.0138732 0.0008 3.43146e-06 -3.53546e-13 1.3545e-13 -2.8891e-13 3.47133e-10 -3.11818e-10 -1.8644e-10 2.91693e-16 -1.63523e-16 1.71831e-16 1 -9.77121e-06 3.80752e-06 1.11677e-06 0.00798447 -0.000498213 0.0138732 0.0008
799 1 0.00517556 0.00219132 0.0136801 0.0008 3.43146e-06 1.45521e-12 1.65998e-13 -9.54841e-13 -1.57588e-12 -6.22724e-11 5.44668e-10 1.83647e-16 -5.75613e-16 1.49673e-15 0 0 0 0 0 0 0 0
800 1 -0.00439042 -0.00120947 0.0135534 0.0008 3.43146e-06 8.787e-13 3.32754e-13 -2.09795e-12 -1.96057e-10 3.72233e-10 4.90576e-10 -5.54438e-16 -1.28804e-15 -1.0029e-15 0 0 0 0 0 0 0 0
801 1 -0.000679422 -0.00493535 0.0175044 0.0008 3.43146e-06 -8.22789e-14 -1.1213e-12 -2.68372e-14 -5.68516e-10 3.98837e-11 -5.0483e-10 1.35479e-15 4.25232e-16 -7.54705e-16 0 0 0 0 0 0 0 0
802 1 0.001893 -0.00263441 0.0142325 0.0008 3.43146e-06 -1.72548e-13 -6.31004e-13 7.5206e-13 5.08159e-10 -2.27466e-09 4.63081e-11 1.58737e-15 1.25179e-16 -1.06123e-15 0 0 0 0 0 0 0 0
803 1 -0.00219821 0.00440605 0.0135535 0.0008 3.43146e-06 -4.83057e-13 -2.16822e-12 -1.00364e-13 -1.84989e-09 -2.8893e-09 2.68816e-09 -1.66328e-15 3.29385e-16 -2.90058e-15 0 0 0 0 0 0 0 0
804 1 0.00669494 -0.00264952 0.0147227 0.0008 3.43146e-06 -1.29832e-13 1.79913e-13 7.51281e-13 -9.70206e-10 1.40456e-09 -1.57477e-10 -3.89236e-17 -5.43173e-16 -1.97106e-16 1 -0.000111533 5.26534e-05 3.50592e-05 0.00743867 -0.00294385 0.0147227 0.0008
805 1 0.00214105 -0.00291494 0.0112186 0.0008 3.43146e-06 -4.55286e-13 -1.08388e-12 2.06031e-13 -2.27147e-11 -5.54028e-10 7.03319e-10 -1.55001e-15 -8.22989e-16 -3.15848e-15 0 0 0 0 0 0 0 0
806 1 0.000973445 0.000679081 0.011694 0.0008 3.43146e-06 2.70702e-13 3.00368e-14 -1.16033e-13 -4.25033e-10 -8.45798e-11 -5.00373e-10 5.86511e-16 5.9536e-16 -2.19687e-15 0 0 0 0 0 0 0 0
807 1 -0.000755409 0.00473139 0.0160772 0.0008 3.43146e-06 -2.7002e-13 2.46436e-13 3.64596e-12 -2.23304e-09 -2.81179e-09 4.27044e-09 -2.08221e-16 -4.19232e-16 1.23255e-15 0 0 0 0 0 0 0 0
808 1 0.0014563 0.00705144 0.0155321 0.0008 3.43146e-06 2.21201e-13 6.15685e-13 3.21985e-13 -6.84775e-10 -1.32183e-09 1.17948e-10 -2.1321e-16 -9.3836e-16 2.57435e-16 1 -2.43192e-05 -0.00026186 7.09223e-05 0.00161805 0.00783466 0.0155321 0.0008
809 1 0.000842135 -0.00203139 0.0152774 0.0008 3.43146e-06 -2.6977e-13 -1.0823e-12 -9.78514e-13 1.84253e-10 7.78874e-11 -7.88766e-10 3.2917e-16 -3.04034e-16 8.36005e-16 0 0 0 0 0 0 0 0
810 1 0.00446572 0.00330818 0.0145793 0.0008 3.43146e-06 -2.16837e-12 9.05626e-13 -5.57177e-13 2.70856e-10 -2.93142e-09 1.71994e-09 -7.27921e-17 -3.48699e-16 -7.77933e-16 0 0 0 0 0 0 0 0
811 1 0.00587126 -0.00416701 0.0171998 0.0008 3.43146e-06 -2.95028e-13 -9.05049e-13 4.11259e-12 -1.99444e-09 -3.26723e-09 -2.81917e-09 1.35697e-15 1.76425e-15 -2.02451e-16 0 0 0 0 0 0 0 0
812 1 -0.00673977 -0.0025335 0.0113672 0.0008 3.43146e-06 -8.39346e-13 4.09905e-14 1.91725e-12 1.78881e-10 -2.52202e-09 4.10252e-10 9.5123e-16 -1.622e-16 -3.95733e-16 1 0.000188 0.000110745 -1.16596e-05 -0.00748841 -0.00281492 0.0113672 0.0008
813 1 -0.0071066 -0.00115774 0.0106381 0.0008 3.43146e-06 4.6657e-13 1.47773e-13 1.67651e-12 6.13728e-10 -1.93533e-09 1.14375e-10 -6.07443e-16 1.46666e-15 1.4194e-16 1 0.000304519 0.000135753 7.07539e-05 -0.00789591 -0.00128633 0.0106381 0.0008
814 1 -0.000528487 -0.00559412 0.0155758 0.0008 3.43146e-06 -2.7093e-13 7.84782e-13 -2.60691e-12 -5.71758e-10 -1.0797e-09 -8.5306e-10 -1.00081e-17 4.64861e-16 1.51919e-15 0 0 0 0 0 0 0 0
815 1 -0.00610477 -0.00381864 0.0173033 0.0008 3.43146e-06 -8.97142e-13 6.54795e-13 2.27525e-12 -7.36613e-10 -3.80144e-09 1.29052e-09 -2.9324e-16 2.06313e-17 2.51412e-16 1 0.000898153 0.000958898 -1.49373e-05 -0.00678241 -0.00424251 0.0173033 0.0008
816 1 0.00237936 0.00148722 0.0163331 0.0008 3.43146e-06 6.53177e-13 1.53376e-13 1.54759e-12 -8.08653e-11 -2.3562e-10 -3.77521e-09 -2.86872e-15 8.85542e-18 3.20792e-15 0 0 0 0 0 0 0 0
817 1 0.00570246 0.00100552 0.0100814 0.0008 3.43146e-06 1.60484e-12 5.41877e-13 1.39678e-12 1.35556e-09 4.23313e-09 -1.51425e-09 6.03144e-16 2.04592e-16 -5.89468e-16 0 0 0 0 0 0 0 0
818 1 -0.00315294 -0.000213101 0.0133667 0.0008 3.43146e-06 6.62832e-13 -6.86479e-14 -2.14093e-12 8.85478e-10 3.0596e-10 -9.31896e-10 -1.37399e-15 -4.97288e-17 3.02994e-16 0 0 0 0 0 0 0 0
819 1 0.00589073 -0.000584195 0.0173992 0.0008 3.43146e-06 1.63826e-12 9.2906e-14 -3.65888e-13 -4.53028e-10 -1.92403e-09 -1.36868e-09 -3.00117e-16 -5.98183e-16 -1.47804e-17 0 0 0 0 0 0 0 0
820 1 0.00667607 -0.00269722 0.0108854 0.0008 3.43146e-06 9.58108e-13 -1.03505e-12 8.30775e-13 4.00268e-10 9.67576e-10 7.8269e-10 -4.28097e-16 1.92886e-16 -5.44835e-16 1 -0.000365512 0.000239638 0.000111301 0.00741751 -0.00299677 0.0108854 0.0008
821 1 -0.00411766 -0.00590646 0.0116442 0.0008 3.43146e-06 -1.27173e-12 1.6451e-13 3.87944e-13 -2.06141e-09 -3.80458e-09 1.41313e-09 1.06167e-16 1.98479e-16 1.44699e-16 1 2.78495e-05 5.92531e-05 -7.29629e-06 -0.00457511 -0.00656265 0.0116442 0.0008
822 1 -0.000792433 -0.00141545 0.0171531 0.0008 3.43146e-06 2.67938e-13 3.8348e-13 2.10968e-12 -1.28346e-09 1.59105e-09 -6.31236e-10 -2.45953e-16 4.00568e-15 -1.41743e-16 0 0 0 0 0 0 0 0
823 1 -0.00357119 0.00468333 0.0127796 0.0008 3.43146e-06 -9.82864e-13 -1.99453e-12 -1.8686e-12 4.25213e-10 1.03043e-09 -2.39861e-09 -9.78516e-16 1.70004e-15 -4.48943e-16 0 0 0 0 0 0 0 0
824 1 0.000917456 0.00458795 0.0140421 0.0008 3.43146e-06 -2.51147e-13 1.7394e-12 -1.49337e-12 8.51061e-10 5.10044e-10 -4.7216e-10 1.05999e-15 1.50209e-16 4.44851e-16 0 0 0 0 0 0 0 0
825 1 0.00161663 -0.00558299 0.0126265 0.0008 3.43146e-06 -2.51791e-13 -1.57924e-12 1.08013e-12 1.12127e-09 -1.07542e-09 6.42566e-10 -1.15466e-15 1.56598e-15 -2.84591e-16 0 0 0 0 0 0 0 0
826 1 0.0049052 -0.00527075 0.0138937 0.0008 3.43146e-06 2.10974e-12 -2.14829e-12 6.88986e-13 1.50713e-09 -3.60341e-10 -9.64132e-11 -1.2174e-16 -6.39959e-17 3.53672e-16 1 -6.95898e-05 6.37656e-05 1.94697e-06 0.00545013 -0.00585629 0.0138937 0.0008
827 1 0.00308586 0.0013317 0.0122072 0.0008 3.43146e-06 -8.25664e-13 1.63711e-13 -8.78589e-13 -2.08253e-10 1.03973e-09 1.23269e-09 1.00188e-15 2.24064e-15 1.35347e-15 0 0 0 0 0 0 0 0
828 1 -0.00337112 0.00636157 0.0142568 0.0008 3.43146e-06 -6.68405e-13 -1.83742e-12 -6.45399e-13 -2.45251e-09 -1.31653e-10 2.23277e-09 -1.20802e-15 -5.74668e-16 -6.19438e-16 0 0 0 0 0 0 0 0
829 1 -0.00459587 0.00341193 0.0144441 0.0008 3.43146e-06 -1.93977e-12 -2.33093e-14 -1.13873e-12 1.81875e-09 5.75841e-09 -1.67454e-09 2.45072e-15 8.86091e-16 -5.72481e-16 0 0 0 0 0 0 0 0
830 1 0.00608982 -0.00384111 0.0138147 0.0008 3.43146e-06 8.91873e-13 -1.08418e-12 -3.87606e-13 1.17188e-10 -6.84506e-10 6.45111e-10 1.43448e-16 3.04726e-17 5.93569e-16 1 -7.88803e-07 4.2292e-07 1.19062e-07 0.00676646 -0.0042679 0.0138147 0.0008
831 1 0.00344103 0.00132106 0.0151485 0.0008 3.43146e-06 9.92603e-13 -5.42039e-13 7.73864e-14 1.47591e-09 9.16962e-10 1.04388e-09 3.79409e-16 -5.67719e-16 1.89523e-15 0 0 0 0 0 0 0 0
832 1 0.0054448 0.000556293 0.0163598 0.0008 3.43146e-06 9.59961e-13 -2.63605e-13 -4.17228e-13 1.09213e-09 -2.73852e-09 9.50817e-10 1.08694e-15 1.02637e-16 1.65796e-15 0 0 0 0 0 0 0 0
833 1 -0.00717805 0.0005669 0.016625 0.0008 3.43146e-06 -1.18684e-12 -2.70837e-13 3.30017e-13 8.18479e-10 -5.0662e-10 -5.49463e-10 5.69676e-16 4.34191e-16 -2.22234e-16 1 0.000543716 3.63797e-05 -1.63356e-05 -0.00797517 0.000629854 0.016625 0.0008
834 1 -0.00216374 -0.00230833 0.0172596 0.0008 3.43146e-06 -4.9173e-14 -2.83854e-13 -2.13968e-12 -1.43079e-10 -1.2606e-09 1.47249e-10 2.7562e-16 5.092e-16 1.99573e-15 0 0 0 0 0 0 0 0
835 1 0.00611122 -0.0038074 0.0156595 0.0008 3.43146e-06 1.22172e-12 -1.07072e-12 2.20755e-12 1.57871e-09 2.26875e-09 3.28321e-10 6.73055e-16 2.90141e-16 5.58982e-16 1 -0.000200353 0.0001266 -5.7908e-05 0.00679003 -0.00423031 0.0156595 0.0008
836 1 3.48394e-05 -0.00187912 0.0121588 0.0008 3.43146e-06 3.41516e-14 -2.3365e-13 4.18041e-13 3.06887e-10 1.46717e-10 -1.81015e-10 2.69594e-16 1.46126e-16 -1.53402e-15 0 0 0 0 0 0 0 0
837 1 -0.00179773 0.00579716 0.0166894 0.0008 3.43146e-06 -5.42014e-13 2.18374e-13 -2.66242e-12 -2.7513e-09 -4.4906e-10 -1.06538e-11 1.31541e-15 -2.87075e-15 1.57478e-15 0 0 0 0 0 0 0 0
838 1 -0.00527529 0.00226967 0.0134909 0.0008 3.43146e-06 4.80717e-13 7.46282e-13 -1.93527e-12 -3.15726e-09 1.39084e-09 1.88841e-09 4.26752e-15 -1.22304e-16 9.74971e-16 0 0 0 0 0 0 0 0
839 1 0.00695168 0.00187621 0.0122239 0.0008 3.43146e-06 1.19397e-12 5.41707e-13 -1.1422e-13 7.09535e-10 -7.72656e-12 -2.29439e-10 -6.9303e-17 2.45159e-16 4.69927e-16 1 -0.000572564 -5.66035e-05 9.07305e-05 0.00772364 0.00208456 0.0122239 0.0008
840 1 -0.00209498 -0.00533307 0.0153836 0.0008 3.43146e-06 7.89469e-13 1.85321e-12 1.52511e-13 -3.97109e-09 5.16791e-09 -1.30166e-09 -1.57142e-15 -1.24959e-15 6.01525e-18 0 0 0 0 0 0 0 0
841 1 0.00690299 0.00204917 0.017809 0.0008 3.43146e-06 -5.6754e-13 -1.21443e-13 -1.60775e-13 4.00727e-10 -1.06372e-10 -8.72267e-11 3.26689e-17 -1.16247e-16 -4.3616e-16 1 -0.00128612 -0.000202381 7.57067e-05 0.00766922 0.00227662 0.017809 0.0008
842 1 -0.000639562 0.00405436 0.0136321 0.0008 3.43146e-06 -2.70637e-13 2.48345e-13 -2.27118e-13 4.79423e-10 3.40287e-09 2.21245e-10 1.12144e-16 -2.57787e-16 -9.59565e-17 0 0 0 0 0 0 0 0
843 1 0.000889878 0.00129607 0.017712 0.0008 3.43146e-06 1.77657e-13 5.40784e-13 -2.25317e-12 6.39678e-11 2.29829e-10 7.37595e-10 6.92901e-16 1.18525e-16 9.10076e-16 0 0 0 0 0 0 0 0
844 1 -0.000787721 -0.00656286 0.0143295 0.0008 3.43146e-06 2.70537e-13 1.34151e-12 1.50562e-12 -2.45518e-09 -5.25638e-10 -1.18731e-09 -5.23304e-16 -9.69345e-16 -5.29541e-16 0 0 0 0 0 0 0 0
845 1 -0.00333764 0.000415554 0.0148257 0.0008 3.43146e-06 1.06769e-12 1.02698e-13 -3.3946e-12 -1.54951e-09 -2.62154e-10 3.20528e-10 -1.34886e-15 -1.22737e-15 6.89617e-16 0 0 0 0 0 0 0 0
846 1 0.00202987 0.00136606 0.0143972 0.0008 3.43146e-06 9.79616e-13 -2.31422e-14 6.97373e-13 -8.1797e-11 -2.81195e-10 -9.81872e-10 -8.43041e-16 2.28872e-16 3.55518e-15 0 0 0 0 0 0 0 0
847 1 -0.00214054 0.000987963 0.0136701 0.0008 3.43146e-06 1.08431e-12 -5.4287e-13 8.24231e-14 6.3478e-09 4.14458e-09 1.52298e-09 8.16919e-16 -6.49453e-17 2.08622e-15 0 0 0 0 0 0 0 0
848 1 -0.0059997 0.000308899 0.0127397 0.0008 3.43146e-06 4.3723e-13 1.33985e-13 -1.57895e-12 -1.08846e-09 1.16034e-09 4.26252e-10 3.14425e-15 -1.94996e-16 -2.49977e-15 0 0 0 0 0 0 0 0
849 1 -0.00697272 -0.00179608 0.0155229 0.0008 3.43146e-06 2.08523e-13 -2.79388e-13 1.69838e-13 -6.6004e-11 -2.64628e-10 -4.02189e-10 1.25914e-16 4.32835e-16 3.32905e-16 1 0.000376974 0.00013285 3.40468e-05 -0.00774711 -0.00199555 0.0155229 0.0008
850 1 0.00588116 0.00415412 0.0140366 0.0008 3.43146e-06 -1.76626e-15 -8.9017e-13 -9.69624e-13 9.89711e-10 -7.83921e-10 9.39143e-10 3.44955e-16 -6.0858e-17 -1.07833e-16 1 -0.000289662 -0.000301428 7.24994e-05 0.00653432 0.00461548 0.0140366 0.0008
851 1 0.000921997 -0.00419311 0.0134486 0.0008 3.43146e-06 1.54099e-13 -2.13767e-12 4.73994e-13 1.63838e-09 -1.38246e-10 -2.83089e-10 4.73649e-16 -8.49044e-16 -4.32163e-17 0 0 0 0 0 0 0 0
852 1 0.00515187 0.00502993 0.012914 0.0008 3.43146e-06 4.1945e-13 -2.16355e-12 -9.24647e-13 -2.33512e-10 -1.78387e-09 2.34834e-09 7.78715e-16 1.12098e-15 -1.44896e-15 1 -7.39921e-05 -7.75893e-05 1.36447e-05 0.00572419 0.0055887 0.012914 0.0008
853 1 0.00586451 -0.00130389 0.014326 0.0008 3.43146e-06 5.94814e-13 -4.62948e-14 -1.72593e-12 1.67975e-10 5.88303e-10 -7.92882e-10 1.81919e-16 2.20797e-16 2.23402e-16 0 0 0 0 0 0 0 0
854 1 0.00711099 0.00113089 0.0136301 0.0008 3.43146e-06 3.29474e-13 5.10106e-13 -4.8347e-13 -4.79569e-10 -7.0159e-10 -5.69097e-10 2.74907e-16 -1.38657e-16 -1.52522e-16 1 -0.000460485 8.49579e-06 6.7146e-06 0.00790071 0.00125648 0.0136301 0.0008
855 1 0.00492416 -0.00525352 0.0156623 0.0008 3.43146e-06 -1.19991e-13 3.58082e-13 1.57031e-12 2.21367e-09 5.04314e-10 -2.01685e-10 -2.04658e-16 5.6624e-16 5.86793e-16 1 -0.000521135 0.000442975 -4.62529e-05 0.00547093 -0.00583686 0.0156623 0.0008
856 1 -0.00296079 -0.000914382 0.0173017 0.0008 3.43146e-06 -7.32609e-13 -2.43257e-13 1.92738e-12 -2.51737e-10 5.03039e-10 -3.60412e-10 -7.2134e-16 1.89588e-15 8.73554e-17 0 0 0 0 0 0 0 0
857 1 -0.00458382 -0.00555285 0.0168877 0.0008 3.43146e-06 4.67795e-13 2.66789e-13 -1.18218e-12 -4.23052e-09 -2.80041e-09 -2.27178e-10 -9.45514e-16 -2.6133e-16 -1.60273e-15 1 0.000359594 0.000360978 9.89359e-05 -0.00509287 -0.0061695 0.0168877 0.0008
858 1 0.00246945 0.00676365 0.0176571 0.0008 3.43146e-06 -2.92022e-13 4.22429e-13 2.8117e-13 -2.07749e-10 -7.87007e-11 -5.39998e-10 1.60621e-16 -8.81577e-17 -6.63055e-16 1 -0.00019767 -0.000405806 2.22061e-05 0.0027437 0.00751479 0.0176571 0.0008
859 1 -0.00188789 0.000658478 0.0154565 0.0008 3.43146e-06 5.41057e-13 -1.86262e-14 -2.20845e-12 5.05484e-10 -1.50673e-09 -9.79522e-10 1.26784e-17 9.78752e-16 -2.70836e-16 0 0 0 0 0 0 0 0
860 1 -0.00431962 0.000607418 0.0210385 0.0008 3.43146e-06 -1.35026e-12 -2.70896e-13 5.46453e-13 1.84772e-09 1.60118e-10 1.26597e-09 -2.84281e-15 3.60539e-18 9.08561e-16 0 0 0 0 0 0 0 0
861 1 0.00428879 0.00578379 0.0196595 0.0008 3.43146e-06 -3.82718e-13 -4.50642e-14 2.58851e-12 -1.59079e-09 3.26722e-09 -4.59544e-10 1.54526e-15 -2.40847e-15 -1.40905e-15 1 -0.000361064 -0.000436184 5.30125e-05 0.00476505 0.00642607 0.0196595 0.0008
862 1 -0.0021985 -0.00144458 0.0186057 0.0008 3.43146e-06 -8.59953e-13 5.40138e-13 1.24641e-13 7.45484e-10 1.27722e-09 1.60977e-09 3.15037e-16 -8.64298e-17 3.26671e-16 0 0 0 0 0 0 0 0
863 1 0.00455535 -0.00196554 0.0165099 0.0008 3.43146e-06 -2.46639e-13 1.08395e-12 2.52663e-12 -3.18158e-09 1.60025e-09 -2.6719e-09 -1.06806e-15 4.92081e-16 -5.36271e-16 0 0 0 0 0 0 0 0
864 1 0.0021543 -0.00141145 0.0178814 0.0008 3.43146e-06 -2.69939e-13 4.73452e-13 -1.78121e-12 8.05698e-10 1.37292e-09 -1.26352e-09 -3.65649e-17 -1.98102e-16 -4.7575e-17 0 0 0 0 0 0 0 0
865 1 0.00290306 0.00449919 0.0214557 0.0008 3.43146e-06 1.08414e-12 2.00125e-12 -6.4824e-12 4.9112e-11 4.29661e-09 2.0593e-09 9.9756e-17 -2.7008e-15 -8.06759e-16 0 0 0 0 0 0 0 0
866 1 -0.00475006 0.0031514 0.0186565 0.0008 3.43146e-06 -2.16837e-12 -3.93456e-13 -1.10416e-13 5.05766e-10 2.04471e-09 2.40957e-10 -2.85469e-16 -3.86392e-15 -7.74824e-16 0 0 0 0 0 0 0 0
867 1 -0.00196523 -0.00692724 0.0153486 0.0008 3.43146e-06 1.11759e-13 1.98236e-12 1.4239e-12 1.94966e-09 3.29923e-10 5.51483e-10 -1.09873e-16 1.05016e-15 -1.64632e-15 1 0.000322304 0.000960797 -2.92888e-06 -0.0021834 -0.00769628 0.0153486 0.0008
868 1 0.00216374 0.00534712 0.0183341 0.0008 3.43146e-06 -1.08346e-12 1.40185e-12 -3.58245e-13 -9.20509e-10 -6.82674e-09 2.50476e-09 -1.13878e-15 -2.37314e-15 7.01942e-17 0 0 0 0 0 0 0 0
869 1 -0.000259052 0.00622927 0.0167558 0.0008 3.43146e-06 -1.35875e-13 1.22583e-12 -7.39653e-13 -1.35477e-09 -2.99989e-09 1.07783e-09 -1.26468e-15 -2.89963e-15 -1.22649e-15 0 0 0 0 0 0 0 0
870 1 -0.00247573 -0.00676132 0.0178451 0.0008 3.43146e-06 1.92925e-13 -2.09835e-12 5.19687e-13 1.34285e-09 1.78426e-09 -1.12787e-09 -3.62932e-16 2.28716e-17 -1.48367e-16 1 0.000111075 0.0003854 -6.10192e-05 -0.00275068 -0.00751224 0.0178451 0.0008
871 1 -0.00358342 0.00372327 0.0213278 0.0008 3.43146e-06 -1.05537e-12 -2.7929e-13 -4.92065e-12 -1.57379e-09 4.22834e-10 1.01693e-09 -3.28621e-16 1.82208e-15 1.96336e-15 0 0 0 0 0 0 0 0
872 1 0.00102798 -0.00275997 0.0209348 0.0008 3.43146e-06 -3.77312e-13 8.57273e-14 -1.80365e-12 1.96044e-10 -1.38926e-09 1.77345e-10 -3.27788e-15 -1.79325e-15 1.7918e-15 0 0 0 0 0 0 0 0
873 1 0.000752923 0.000255703 0.0154895 0.0008 3.43146e-06 2.45003e-13 -3.45782e-14 -8.72075e-13 -9.86408e-10 -1.56958e-10 -1.12345e-09 -1.57506e-15 1.85733e-16 -6.75561e-16 0 0 0 0 0 0 0 0
874 1 0.00438769 -0.00183461 0.0180969 0.0008 3.43146e-06 1.60944e-12 5.42051e-13 -5.13458e-12 4.90305e-09 -5.6021e-09 2.31111e-09 2.89473e-16 2.75941e-16 7.04787e-15 0 0 0 0 0 0 0 0
875 1 -0.000998796 0.00306415 0.0186441 0.0008 3.43146e-06 1.61907e-13 -5.63908e-13 -1.94747e-12 -2.60419e-09 2.34051e-09 2.27239e-09 -9.12535e-17 9.02919e-16 4.77505e-16 0 0 0 0 0 0 0 0
876 1 -0.00710316 0.00118031 0.0196444 0.0008 3.43146e-06 -1.47602e-12 2.38657e-13 -1.27119e-13 5.15847e-11 1.04904e-10 1.16151e-10 -7.42035e-16 -1.20846e-16 -6.86959e-16 1 0.000895009 -7.09234e-05 6.19834e-05 -0.00789179 0.00131136 0.0196444 0.0008
877 1 0.00367439 0.00483279 0.018443 0.0008 3.43146e-06 -1.08393e-12 6.33905e-13 1.81832e-12 1.40423e-08 -2.93429e-10 -2.29176e-09 3.56256e-16 -1.74541e-15 1.04133e-15 0 0 0 0 0 0 0 0
878 1 0.00309976 -0.00649873 0.0202142 0.0008 3.43146e-06 -1.08279e-12 -2.12561e-14 5.22854e-14 1.33744e-09 -2.72461e-09 1.26445e-09 8.38741e-17 -5.82593e-16 7.99552e-16 1 -2.88773e-05 0.000109776 1.81016e-05 0.00344411 -0.00722067 0.0202142 0.0008
879 1 0.00286509 -0.00324893 0.0158662 0.0008 3.43146e-06 -1.03223e-12 -9.98479e-13 2.74861e-12 -3.90314e-10 -5.4148e-10 -1.54126e-09 7.159e-17 1.66703e-15 -1.32039e-15 0 0 0 0 0 0 0 0
880 1 -0.00450673 -0.00382286 0.0172404 0.0008 3.43146e-06 1.23733e-12 4.39786e-13 1.8354e-12 -1.03416e-09 4.24568e-09 -1.49026e-09 1.39275e-16 -6.67865e-16 -1.00894e-15 0 0 0 0 0 0 0 0
881 1 -0.00382812 0.00221661 0.0151817 0.0008 3.43146e-06 -3.23192e-13 -6.63205e-13 1.98568e-12 2.35106e-10 1.67065e-09 2.25332e-09 -9.95112e-16 -7.71837e-16 -1.00554e-14 0 0 0 0 0 0 0 0
882 1 -0.00577385 -0.000594236 0.017802 0.0008 3.43146e-06 -9.84769e-13 -1.51665e-13 -7.36292e-13 -2.67382e-11 -7.4226e-10 -1.5414e-09 -8.15584e-16 -1.13721e-15 -7.87471e-16 0 0 0 0 0 0 0 0
883 1 0.00569763 -0.00258343 0.0174432 0.0008 3.43146e-06 -2.13259e-12 1.08031e-12 6.60743e-14 5.29487e-10 1.28027e-09 -1.37687e-09 -1.28578e-15 -2.98905e-16 2.68447e-17 0 0 0 0 0 0 0 0
884 1 0.0045099 -0.00117069 0.021312 0.0008 3.43146e-06 -2.16841e-12 5.18707e-13 -8.41278e-13 -2.78803e-09 1.02283e-09 -2.20148e-09 2.60003e-16 6.57649e-15 -3.49178e-15 0 0 0 0 0 0 0 0
885 1 0.00492751 -0.00525028 0.0179037 0.0008 3.43146e-06 -2.01764e-12 1.59911e-12 3.7395e-13 2.41439e-09 -1.89058e-09 4.92659e-10 5.60771e-16 1.11694e-15 2.64534e-16 1 -0.000406575 0.000358031 5.55331e-05 0.0054747 -0.00583332 0.0179037 0.0008
886 1 0.00463233 0.00365395 0.0179417 0.0008 3.43146e-06 -1.51894e-12 2.02778e-13 -3.85236e-12 -4.41363e-09 -8.9845e-10 -7.05128e-10 -9.18136e-16 -3.7138e-16 1.18322e-15 0 0 0 0 0 0 0 0
887 1 -0.00617895 0.0023634 0.0188153 0.0008 3.43146e-06 -1.91824e-12 -1.53549e-13 -6.16735e-12 -1.64696e-09 -1.87063e-09 2.17284e-09 9.7201e-17 1.16953e-15 6.12013e-16 0 0 0 0 0 0 0 0
888 1 -0.000775785 0.00168027 0.0209901 0.0008 3.43146e-06 2.70924e-13 -1.51977e-13 -3.31704e-13 -3.95629e-10 5.23235e-10 2.70988e-10 -6.31796e-17 1.16022e-15 -4.24579e-15 0 0 0 0 0 0 0 0
889 1 -0.00218615 -0.00135724 0.0159737 0.0008 3.43146e-06 5.20744e-13 5.4209e-13 -5.92809e-13 2.15493e-09 -3.76548e-10 9.76863e-10 1.30343e-15 -1.16302e-16 2.30615e-15 0 0 0 0 0 0 0 0
890 1 -0.00424145 -0.00305606 0.0208528 0.0008 3.43146e-06 -9.99339e-13 -4.21745e-13 -6.90947e-13 -1.04471e-09 3.31483e-10 -4.08054e-10 5.97339e-16 9.45521e-16 -1.17808e-15 0 0 0 0 0 0 0 0
891 1 0.00260311 -0.00513411 0.0195429 0.0008 3.43146e-06 -8.67575e-13 2.16656e-12 -8.90045e-13 1.36966e-10 -1.30266e-09 -6.87555e-10 2.33874e-16 -2.64315e-18 2.38427e-15 0 0 0 0 0 0 0 0
892 1 0.00559152 0.00205728 0.0168933 0.0008 3.43146e-06 -1.20998e-12 -9.02734e-13 -3.80426e-14 -5.00344e-10 8.01232e-10 1.18309e-09 -1.32648e-15 -1.53623e-15 3.4681e-16 0 0 0 0 0 0 0 0
893 1 -0.00577537 0.00430025 0.0182241 0.0008 3.43146e-06 -2.16748e-12 3.01661e-13 5.17793e-13 -1.15179e-09 4.3337e-11 -1.38219e-09 -5.66525e-16 -1.16407e-15 -4.98485e-16 1 0.000584665 -0.000436105 -6.58993e-05 -0.00641664 0.00477773 0.0182241 0.0008
894 1 0.000281727 -0.00322724 0.0170147 0.0008 3.43146e-06 1.35068e-13 -3.67472e-13 -2.96514e-12 -2.80143e-09 8.82636e-10 1.55361e-09 7.90705e-17 1.2649e-15 5.2134e-15 0 0 0 0 0 0 0 0
895 1 0.000688888 0.00586349 0.0179914 0.0008 3.43146e-06 -7.87235e-15 4.23e-14 -1.65923e-12 4.08607e-09 3.3879e-09 -6.47164e-10 1.80045e-15 -2.06035e-15 1.0305e-15 0 0 0 0 0 0 0 0
896 1 -0.00614604 -0.0037523 0.014338 0.0008 3.43146e-06 1.00112e-12 2.91695e-13 5.91539e-13 -1.50558e-09 -1.78958e-09 -3.44999e-10 1.07892e-16 -1.22539e-15 1.37769e-16 1 0.00177538 0.000829406 5.07323e-06 -0.00682804 -0.00416867 0.014338 0.0008
897 1 0.00167893 0.00392125 0.0191045 0.0008 3.43146e-06 -5.42112e-13 1.40343e-12 -2.02135e-12 -8.75889e-10 -3.08039e-09 3.3148e-09 -2.40033e-16 9.91945e-16 -2.23155e-15 0 0 0 0 0 0 0 0
898 1 0.00579503 -0.0014401 0.0187475 0.0008 3.43146e-06 -6.01684e-13 5.42034e-13 -5.6244e-14 -2.58349e-10 -2.84295e-10 -2.72469e-10 -4.05286e-16 -2.76851e-16 2.69083e-15 0 0 0 0 0 0 0 0
899 1 -0.00405574 0.00424674 0.0158486 0.0008 3.43146e-06 5.82468e-13 -2.03509e-12 2.08585e-12 -2.59223e-09 2.46833e-09 4.96328e-09 -1.08037e-15 1.38612e-15 6.63004e-16 0 0 0 0 0 0 0 0
900 1 0.0031883 -0.00378577 0.0201745 0.0008 3.43146e-06 -7.65989e-13 -8.23582e-13 -1.59746e-12 -6.43658e-11 2.18931e-10 -1.48892e-09 -1.89365e-15 9.45313e-16 1.49328e-15 0 0 0 0 0 0 0 0
901 1 0.000389878 0.00431232 0.0182413 0.0008 3.43146e-06 -4.14473e-13 -4.33191e-13 -4.90164e-12 5.98345e-10 -8.22039e-10 -2.97886e-10 -7.96296e-17 -3.00628e-15 -8.24195e-16 0 0 0 0 0 0 0 0
902 1 -0.00347967 -0.00226723 0.0163506 0.0008 3.43146e-06 8.42214e-13 1.31173e-13 -1.74745e-12 1.90439e-09 8.66628e-10 3.30298e-10 1.06157e-15 5.76817e-16 2.36334e-15 0 0 0 0 0 0 0 0
903 1 0.00370002 0.00327359 0.0207718 0.0008 3.43146e-06 1.08399e-12 1.08415e-12 8.38837e-12 -9.38796e-09 -4.4456e-09 7.68097e-09 -9.23111e-16 -1.3923e-16 -5.1993e-15 0 0 0 0 0 0 0 0
904 1 -0.000761382 0.00716026 0.0198964 0.0008 3.43146e-06 -1.70577e-13 -9.44302e-13 -3.46167e-12 4.41964e-09 -1.82718e-10 -3.08282e-10 2.70443e-16 -1.40677e-15 -9.58412e-16 1 2.24801e-05 -0.00105021 4.50959e-05 -0.000845907 0.00795515 0.0198964 0.0008
905 1 -0.000965546 -0.00267353 0.0161804 0.0008 3.43146e-06 -2.6444e-13 -1.08336e-12 -2.60194e-12 4.80684e-09 -1.22878e-09 8.20971e-10 2.75748e-16 3.26439e-16 1.23286e-15 0 0 0 0 0 0 0 0
906 1 -0.0046882 0.00173721 0.0179109 0.0008 3.43146e-06 -2.16822e-12 5.40918e-13 2.16566e-12 -2.50718e-09 -8.35176e-12 8.65486e-10 -1.80875e-17 3.1848e-16 -4.74913e-16 0 0 0 0 0 0 0 0
907 1 0.00148244 0.00704587 0.0188838 0.0008 3.43146e-06 5.41101e-13 2.16535e-12 2.09283e-12 -2.30346e-09 2.36226e-09 3.5937e-10 -5.38731e-16 -1.31566e-15 1.71217e-16 1 -2.375e-05 -0.000101171 1.82626e-05 0.00164713 0.0078286 0.0188838 0.0008
908 1 -0.00156774 0.000372747 0.0183658 0.0008 3.43146e-06 -3.5305e-13 2.89634e-13 -1.45699e-12 1.05506e-09 4.31359e-10 3.39869e-10 -2.22325e-15 2.23276e-15 -1.03303e-15 0 0 0 0 0 0 0 0
909 1 -0.000122325 -0.00378001 0.0184602 0.0008 3.43146e-06 -6.76833e-14 4.29064e-13 6.05237e-13 -3.28068e-10 -9.7638e-10 6.58295e-10 3.45516e-16 2.28222e-15 2.18049e-16 0 0 0 0 0 0 0 0
910 1 -0.00366378 -0.000753232 0.0158684 0.0008 3.43146e-06 5.21814e-13 -2.69817e-13 -6.80871e-13 -8.51487e-10 -3.23864e-10 1.70734e-11 -1.86978e-16 -4.0844e-16 7.30131e-16 0 0 0 0 0 0 0 0
911 1 -0.00476017 -0.00540222 0.0148462 0.0008 3.43146e-06 -1.01912e-12 1.22879e-12 -4.17607e-13 -8.66108e-09 -9.04283e-09 1.9737e-09 -2.76433e-16 5.26698e-16 5.80317e-17 1 0.000170482 0.000152372 7.38378e-06 -0.00528892 -0.00600228 0.0148462 0.0008
912 1 0.00390768 -5.11711e-05 0.0186454 0.0008 3.43146e-06 1.82848e-13 -2.68903e-15 -6.29823e-13 1.52558e-09 -1.93236e-09 1.17974e-09 2.53759e-16 -2.56723e-16 1.19594e-15 0 0 0 0 0 0 0 0
913 1 -0.00136215 0.00707053 0.0175534 0.0008 3.43146e-06 -4.05182e-13 1.48341e-12 -1.92577e-12 2.45384e-09 -2.64801e-10 -1.1833e-10 5.03674e-16 -1.41738e-15 -1.33506e-15 1 0.000280066 -0.000828546 5.93273e-05 -0.00151339 0.00785555 0.0175534 0.0008
914 1 -0.00339044 -0.00313788 0.0195004 0.0008 3.43146e-06 -4.58934e-13 -1.0082e-12 -9.55611e-13 2.79261e-10 -7.65895e-10 2.44326e-10 -7.19671e-16 1.21754e-15 -1.94497e-15 0 0 0 0 0 0 0 0
915 1 0.00216855 -0.00641277 0.0186855 0.0008 3.43146e-06 -9.54455e-14 1.57991e-12 4.89884e-13 -1.97786e-09 1.03894e-09 1.58892e-09 8.3648e-16 3.62198e-16 2.89441e-16 0 0 0 0 0 0 0 0
916 1 0.00460342 -0.00100686 0.0197233 0.0008 3.43146e-06 -1.38172e-12 -4.78573e-13 -1.38011e-12 1.57955e-09 -1.88213e-09 6.89453e-10 -1.49522e-15 2.27195e-15 3.08209e-15 0 0 0 0 0 0 0 0
917 1 0.000283981 0.00348691 0.0168753 0.0008 3.43146e-06 1.02073e-13 1.07808e-12 -2.38067e-12 -5.34415e-10 3.46778e-10 4.82983e-10 5.44516e-16 -4.20754e-16 -4.45366e-16 0 0 0 0 0 0 0 0
918 1 0.00524908 0.00492852 0.0187088 0.0008 3.43146e-06 -1.83475e-12 -2.16788e-12 1.55732e-12 -1.87816e-09 9.80127e-10 5.67924e-10 -5.75546e-16 2.4657e-15 6.41138e-16 1 -0.000147957 -0.00015677 3.94892e-05 0.00583214 0.00547597 0.0187088 0.0008
919 1 0.00449913 0.00562149 0.0160193 0.0008 3.43146e-06 6.23306e-13 -1.40598e-12 -2.22994e-13 3.94265e-10 1.6447e-11 1.7082e-09 2.05416e-16 -6.13934e-16 -8.85156e-16 1 -0.000105128 -0.00021757 4.6726e-05 0.00499887 0.0062459 0.0160193 0.0008
920 1 -0.00380513 -0.00108599 0.021323 0.0008 3.43146e-06 1.41722e-13 -2.33968e-13 8.95723e-13 -4.96182e-11 1.35699e-09 -5.34704e-10 -2.82891e-17 -1.47991e-15 1.54461e-15 0 0 0 0 0 0 0 0
921 1 -0.0012366 -0.00422969 0.0207983 0.0008 3.43146e-06 -5.42137e-13 -6.85531e-13 -7.44915e-13 -2.65593e-11 -9.87443e-10 9.05544e-10 8.63057e-16 7.22873e-16 9.46373e-16 0 0 0 0 0 0 0 0
922 1 0.00703539 -0.00153177 0.0216007 0.0008 3.43146e-06 7.10545e-13 2.13621e-13 2.72433e-13 -5.66409e-10 3.07143e-10 -6.29607e-10 1.71802e-15 1.28402e-15 -6.40052e-16 1 -0.000210865 1.83904e-05 2.8891e-05 0.00781687 -0.00170192 0.0216007 0.0008
923 1 -0.00719571 -0.000248866 0.0184749 0.0008 3.43146e-06 -2.1185e-12 -1.35623e-13 3.60794e-13 4.73991e-10 -4.394e-10 -1.05399e-10 4.40487e-16 -2.03463e-17 -1.99269e-16 1 2.05461e-06 2.18713e-07 2.73286e-07 -0.00799522 -0.000276518 0.0184749 0.0008
924 1 0.00232346 -0.0024109 0.0200639 0.0008 3.43146e-06 -1.08282e-12 -5.22647e-13 -9.57059e-13 6.8903e-11 1.08975e-09 -9.28916e-10 7.09631e-17 3.72809e-15 4.46932e-15 0 0 0 0 0 0 0 0
925 1 0.00116543 -0.00300831 0.0191357 0.0008 3.43146e-06 -5.40625e-13 -3.96192e-13 -8.24441e-13 -9.40281e-10 -1.98796e-09 3.67924e-10 1.51186e-16 2.1653e-15 1.52288e-15 0 0 0 0 0 0 0 0
926 1 -0.00165838 -0.000106771 0.0168423 0.0008 3.43146e-06 -2.59539e-13 -2.13681e-14 4.59784e-13 -2.10358e-09 -9.83045e-11 7.86647e-10 1.50956e-15 8.30881e-16 -7.60776e-17 0 0 0 0 0 0 0 0
927 1 0.00127181 -0.00453536 0.0186716 0.0008 3.43146e-06 -4.73565e-13 9.54415e-13 1.12441e-12 -7.93616e-10 6.54211e-10 -4.61385e-10 3.57373e-16 3.08787e-15 1.89935e-15 0 0 0 0 0 0 0 0
928 1 0.000256318 0.00184838 0.016351 0.0008 3.43146e-06 1.36029e-13 5.41959e-13 -1.11015e-12 1.02832e-09 -1.53292e-10 5.22497e-10 7.28766e-16 -1.50742e-16 7.80921e-16 0 0 0 0 0 0 0 0
929 1 -0.00152928 -0.00108245 0.0200131 0.0008 3.43146e-06 -2.80288e-13 1.53653e-13 -1.7909e-12 1.08672e-11 7.50093e-10 -1.38203e-10 -2.0945e-15 -7.44769e-16 1.39725e-15 0 0 0 0 0 0 0 0
930 1 0.000534686 0.00272277 0.0183421 0.0008 3.43146e-06 -2.70953e-13 1.01018e-12 -3.655e-12 -2.28601e-09 9.63258e-10 5.85313e-10 1.22548e-16 -8.61277e-16 -3.19121e-16 0 0 0 0 0 0 0 0
931 1 -0.00693333 0.00194233 0.0158459 0.0008 3.43146e-06 -2.77122e-13 1.37133e-13 5.18167e-13 -4.01598e-10 -5.46526e-10 1.36518e-11 1.33357e-16 -2.09256e-16 -1.11255e-15 1 0.000265398 -9.28386e-05 4.14482e-05 -0.00770343 0.00215806 0.0158459 0.0008
932 1 3.05297e-05 0.00163549 0.022371 0.0008 3.43146e-06 9.82761e-14 5.42263e-13 -7.18525e-13 2.68599e-10 -3.94734e-10 1.29722e-09 -6.77931e-17 -2.05457e-15 -5.38908e-15 0 0 0 0 0 0 0 0
933 1 -0.00268675 0.00346706 0.016127 0.0008 3.43146e-06 -1.75343e-13 -1.08364e-12 3.29824e-13 1.10754e-09 3.87371e-10 -4.89489e-09 -4.31597e-16 -5.04603e-16 7.35444e-16 0 0 0 0 0 0 0 0
934 1 -0.00620471 -0.00222592 0.0174083 0.0008 3.43146e-06 -1.74183e-12 -1.08238e-12 1.0528e-12 -3.86406e-10 -8.62257e-10 -3.92862e-10 -2.30632e-16 4.88875e-16 -9.80104e-16 0 0 0 0 0 0 0 0
935 1 0.00313325 0.000535551 0.0173745 0.0008 3.43146e-06 -5.59349e-13 2.70892e-13 -3.91483e-13 5.62661e-10 1.57166e-09 1.65617e-09 -3.26691e-15 8.99588e-16 2.64697e-15 0 0 0 0 0 0 0 0
936 1 -0.00101079 -0.0063499 0.0200799 0.0008 3.43146e-06 3.28998e-13 -8.94465e-13 -1.33881e-12 1.50312e-09 5.4051e-10 2.69932e-09 -1.15629e-15 2.05114e-15 1.27376e-15 0 0 0 0 0 0 0 0
937 1 -0.00266438 -0.00520796 0.0192836 0.0008 3.43146e-06 6.69219e-13 -6.51599e-13 6.40715e-13 -2.36004e-09 1.83595e-09 1.30963e-09 1.74152e-16 1.39749e-15 8.69805e-16 0 0 0 0 0 0 0 0
938 1 0.00325431 -0.0028596 0.018838 0.0008 3.43146e-06 -6.438e-13 9.33439e-13 -5.27001e-13 -4.07497e-10 -3.39098e-09 -1.38822e-09 -1.56789e-15 3.13565e-15 6.03964e-15 0 0 0 0 0 0 0 0
939 1 0.00277979 -0.0042558 0.0182174 0.0008 3.43146e-06 -3.07734e-13 6.34834e-13 -5.3091e-14 -1.26354e-09 3.49525e-10 5.58344e-10 3.96349e-16 2.06796e-15 2.06098e-15 0 0 0 0 0 0 0 0
940 1 0.00111238 6.65333e-05 0.0197927 0.0008 3.43146e-06 5.41803e-13 1.22115e-13 -7.12847e-13 9.1103e-11 -6.41782e-11 -5.19447e-10 1.37422e-16 -1.81416e-15 -6.82208e-16 0 0 0 0 0 0 0 0
941 1 0.00224325 0.00274073 0.0200253 0.0008 3.43146e-06 -1.08385e-12 1.08402e-12 -9.53027e-13 2.46126e-09 -2.49015e-09 -2.07968e-10 6.44969e-16 4.24097e-16 6.20835e-15 0 0 0 0 0 0 0 0
942 1 -0.0064181 -0.00326337 0.0158364 0.0008 3.43146e-06 2.37019e-13 8.69213e-13 -4.33769e-13 3.80013e-10 8.0208e-10 8.6078e-10 3.00535e-17 -1.30189e-16 -3.41073e-16 1 6.93131e-05 4.61242e-05 1.17515e-05 -0.00713111 -0.00362591 0.0158364 0.0008
943 1 9.36014e-05 -0.00620624 0.0169162 0.0008 3.43146e-06 -3.36444e-14 -5.95635e-13 -2.33344e-13 1.06092e-09 -3.0128e-11 7.80994e-10 -8.07696e-17 8.93722e-16 -5.36418e-16 0 0 0 0 0 0 0 0
944 1 0.00391439 -0.0023614 0.0202218 0.0008 3.43146e-06 -1.19465e-13 -5.17046e-13 -2.5936e-12 -6.48004e-10 1.08992e-09 9.21301e-10 2.94083e-16 5.54603e-15 1.35234e-15 0 0 0 0 0 0 0 0
945 1 0.0034502 -0.00467592 0.0154328 0.0008 3.43146e-06 8.21336e-13 -1.46517e-13 1.69686e-12 -2.98945e-09 -2.36175e-10 2.41999e-10 -1.36229e-16 1.87236e-15 7.3351e-16 0 0 0 0 0 0 0 0
946 1 -0.00283253 0.00077752 0.0174742 0.0008 3.43146e-06 -1.08173e-12 -2.0027e-13 -4.32037e-13 -3.52301e-10 7.62297e-10 9.7522e-10 -2.84232e-17 9.61534e-16 5.89885e-16 0 0 0 0 0 0 0 0
947 1 -0.00621629 0.00363384 0.0212851 0.0008 3.43146e-06 -1.96208e-12 7.03877e-13 -6.36135e-13 4.99043e-10 6.19859e-10 -5.50291e-10 1.0835e-15 6.44497e-16 -3.28826e-15 1 0.000619344 -0.000375173 6.11133e-05 -0.00690652 0.00403732 0.0212851 0.0008
948 1 0.00125994 -0.00708945 0.01627 0.0008 3.43146e-06 1.32489e-15 9.29279e-13 3.38809e-13 7.217e-10 -1.57551e-09 -1.81146e-10 -2.63907e-16 1.24841e-16 -2.91587e-16 1 -0.000140832 0.00083061 0.000147404 0.00139983 -0.00787658 0.01627 0.0008
949 1 0.00157241 -0.00702666 0.0200369 0.0008 3.43146e-06 2.95949e-13 1.34638e-12 1.19263e-12 1.62388e-09 -5.33588e-10 -7.1476e-10 5.76435e-16 5.9034e-16 6.77874e-16 1 -7.18597e-05 0.00062659 0.00013158 0.00174702 -0.00780692 0.0200369 0.0008
950 1 0.0068463 -0.00223084 0.0201746 0.0008 3.43146e-06 -1.40128e-13 1.38415e-13 4.36986e-13 4.04026e-10 4.80161e-10 -9.9112e-11 1.52842e-15 6.95426e-16 -4.75896e-16 1 -0.000905184 0.000339412 1.31471e-05 0.00760638 -0.0024785 0.0201746 0.0008
951 1 -0.00364987 -0.00264184 0.017896 0.0008 3.43146e-06 1.02655e-12 -8.94269e-13 -1.72684e-12 -8.08969e-10 -9.84017e-10 1.3897e-09 2.15106e-16 -6.16793e-16 -9.02605e-16 0 0 0 0 0 0 0 0
952 1 -0.0022471 0.00469543 0.0184383 0.0008 3.43146e-06 -1.08368e-12 -2.02217e-12 -2.45035e-12 1.09502e-09 9.79323e-10 2.53381e-10 2.54595e-16 -8.46423e-16 -4.62567e-16 0 0 0 0 0 0 0 0
953 1 -0.000327768 -0.000470545 0.0208742 0.0008 3.43146e-06 1.35409e-13 1.07767e-13 -1.7554e-12 5.19061e-10 -2.8422e-10 1.53958e-10 7.75381e-17 3.31283e-15 5.57652e-16 0 0 0 0 0 0 0 0
954 1 0.00366164 0.00620003 0.0147854 0.0008 3.43146e-06 -3.46889e-13 6.32865e-13 -1.83866e-12 2.09111e-09 -1.00998e-09 -7.6407e-10 -1.23518e-16 -4.03603e-16 -5.30772e-16 1 -0.000672537 -0.000613082 -4.17063e-06 0.00406817 0.00688839 0.0147854 0.0008
955 1 0.000215748 -0.00586552 0.0184744 0.0008 3.43146e-06 -6.74268e-14 -4.14479e-13 -6.53805e-14 -1.02301e-09 2.88304e-10 7.95306e-10 -2.58026e-18 1.78178e-15 7.37889e-16 0 0 0 0 0 0 0 0
956 1 0.00643916 0.00322158 0.0158608 0.0008 3.43146e-06 6.70694e-13 -7.22547e-13 1.06644e-12 1.11367e-09 2.03105e-09 1.1867e-09 2.03088e-16 -5.99038e-16 -6.53316e-17 1 -4.9094e-05 -3.55616e-05 -1.27802e-05 0.00715453 0.00357949 0.0158608 0.0008
957 1 0.00214303 -0.00419178 0.0146485 0.0008 3.43146e-06 1.08059e-12 -8.90358e-13 1.64681e-12 8.35017e-10 6.43241e-10 -5.9285e-10 -9.1327e-17 1.84459e-15 -8.25919e-16 0 0 0 0 0 0 0 0
958 1 -7.46656e-05 -0.00174157 0.0199183 0.0008 3.43146e-06 6.32189e-15 5.42353e-13 -2.25617e-12 5.59138e-10 -4.42725e-10 6.63119e-10 -1.3848e-15 2.95179e-16 2.16477e-15 0 0 0 0 0 0 0 0
959 1 -0.00528497 -0.00488974 0.0181637 0.0008 3.43146e-06 -3.46637e-13 7.84032e-13 2.96758e-13 4.06666e-09 3.18509e-09 1.07142e-09 -5.66236e-16 -1.8669e-17 -2.75434e-16 1 1.00645e-05 1.12702e-05 2.72633e-06 -0.00587216 -0.00543302 0.0181637 0.0008
960 1 -0.00368756 -0.00577681 0.0181935 0.0008 3.43146e-06 9.03358e-13 2.85648e-13 3.62974e-12 1.73423e-09 2.75228e-10 -2.06488e-09 -9.9624e-16 1.75186e-15 -3.91359e-16 0 0 0 0 0 0 0 0
961 1 0.00465711 -0.00354991 0.0163132 0.0008 3.43146e-06 -1.67666e-12 1.08381e-12 4.5803e-12 6.74399e-10 -2.77179e-09 7.39991e-10 -1.69564e-15 2.80407e-16 1.5806e-15 0 0 0 0 0 0 0 0
962 1 -0.00447798 -0.00142105 0.0172707 0.0008 3.43146e-06 -1.41888e-12 -4.5753e-13 6.57594e-13 1.41619e-09 -1.76773e-09 3.80819e-10 4.30701e-16 -8.23063e-17 6.79057e-16 0 0 0 0 0 0 0 0
963 1 0.000824269 -0.007153 0.0147322 0.0008 3.43146e-06 2.45172e-13 1.51489e-12 -2.41761e-14 -1.63388e-10 1.16418e-09 -5.25379e-10 9.56432e-16 7.89561e-18 -2.54321e-16 1 -1.63192e-05 0.000411486 8.93091e-05 0.000915811 -0.00794741 0.0147322 0.0008
964 1 -0.0060829 0.0038526 0.0167196 0.0008 3.43146e-06 -1.35947e-13 5.67228e-13 1.48562e-12 7.78576e-10 -2.69195e-09 5.00664e-10 -2.41838e-16 -1.49579e-16 -2.27387e-16 1 0.000279808 -0.000183971 0.000102807 -0.00675851 0.00428049 0.0167196 0.0008
965 1 0.00596955 0.00402581 0.0216676 0.0008 3.43146e-06 2.16444e-12 -1.53308e-13 -2.38942e-12 1.58328e-09 -2.58834e-09 1.65576e-09 -9.79005e-16 -1.16797e-15 7.37202e-16 1 -0.000157023 -6.47091e-05 3.01171e-05 0.00663266 0.00447301 0.0216676 0.0008
966 1 -0.000676108 -0.000920373 0.0186697 0.0008 3.43146e-06 2.51308e-13 2.70944e-13 -1.68912e-12 5.06786e-12 -1.37062e-09 4.74586e-10 -1.63204e-15 -3.57246e-16 -7.17184e-16 0 0 0 0 0 0 0 0
967 1 0.00186946 0.00695312 0.0204329 0.0008 3.43146e-06 1.62583e-12 2.59716e-13 -5.56154e-12 6.08145e-09 1.03565e-09 2.07716e-09 -4.04061e-17 7.36108e-16 4.82924e-16 1 -8.27381e-06 -2.3246e-05 7.63739e-07 0.00207716 0.00772563 0.0204329 0.0008
968 1 -0.00157744 0.00622064 0.0188916 0.0008 3.43146e-06 3.7718e-13 2.02218e-12 -7.33377e-13 -3.58314e-09 2.11033e-09 -6.24916e-10 -6.74394e-16 -7.95959e-16 -5.12782e-16 0 0 0 0 0 0 0 0
969 1 -0.00330373 0.00216059 0.0168139 0.0008 3.43146e-06 -1.08419e-12 6.63402e-13 1.17516e-12 -7.56065e-10 4.05705e-09 6.08912e-10 4.11285e-16 3.21603e-15 1.13357e-15 0 0 0 0 0 0 0 0
970 1 -0.00506134 0.00512091 0.0167803 0.0008 3.43146e-06 -1.06392e-12 -3.80059e-13 -1.33491e-12 3.91454e-09 -1.61226e-09 -1.11406e-09 -2.4721e-16 1.63981e-16 -6.94717e-16 1 2.7609e-05 -2.17829e-05 8.71976e-06 -0.00562366 0.00568985 0.0167803 0.0008
971 1 0.00719592 0.000125896 0.018136 0.0008 3.43146e-06 -1.53815e-12 -6.74562e-14 4.46606e-12 4.72568e-10 -1.06082e-09 9.04419e-10 4.5469e-16 -2.34636e-17 2.30163e-15 0 0 0 0 0 0 0 0
972 1 0.0014595 -0.00705094 0.0216322 0.0008 3.43146e-06 5.41455e-13 8.29352e-13 -5.11917e-13 -8.07845e-10 7.27127e-10 -8.82044e-10 1.24383e-16 -1.6531e-16 7.58048e-17 1 -0.000138137 0.000550039 5.04254e-05 0.00162157 -0.00783393 0.0216322 0.0008
973 1 -0.00281272 0.00614121 0.0178786 0.0008 3.43146e-06 1.07423e-12 -6.64802e-13 9.13664e-13 -2.14968e-09 -1.24236e-09 3.74787e-10 -1.83934e-16 -1.40782e-15 3.80168e-15 0 0 0 0 0 0 0 0
974 1 -0.0029948 0.00479046 0.0170243 0.0008 3.43146e-06 -1.08283e-12 -1.25022e-12 -1.50743e-12 1.47798e-09 6.68846e-10 1.02809e-09 -1.37242e-15 -4.95517e-15 8.06333e-15 0 0 0 0 0 0 0 0
975 1 -0.00281986 -0.00194478 0.0204006 0.0008 3.43146e-06 -6.72747e-13 -5.41478e-13 -4.94537e-13 -1.6733e-11 9.0732e-10 4.37697e-10 2.69939e-16 -9.85229e-18 1.28423e-15 0 0 0 0 0 0 0 0
976 1 -0.00397287 0.00600501 0.0208018 0.0008 3.43146e-06 5.20937e-13 2.16789e-12 -7.42689e-13 -5.87463e-10 2.644e-09 2.01936e-09 1.20312e-15 -1.02256e-16 -2.07642e-17 1 0.000162595 -0.00024421 1.04095e-05 -0.00441413 0.00667199 0.0208018 0.0008
977 1 0.00284936 -0.000817378 0.016569 0.0008 3.43146e-06 -7.64041e-13 -1.97711e-13 -9.79477e-13 -1.41339e-10 -4.21588e-10 -7.09903e-10 -2.53871e-15 8.17003e-16 9.42718e-16 0 0 0 0 0 0 0 0
978 1 0.00430818 -0.000530941 0.0171729 0.0008 3.43146e-06 2.12745e-12 2.70996e-13 -1.53268e-12 -1.18906e-09 4.20738e-10 8.71438e-10 1.78762e-15 -7.44657e-16 -9.02173e-16 0 0 0 0 0 0 0 0
979 1 0.00618468 0.00368715 0.0190856 0.0008 3.43146e-06 -1.03222e-12 -1.08094e-12 3.98431e-13 1.57031e-09 1.41576e-09 5.24972e-10 1.12359e-15 -6.83649e-16 -1.98185e-16 1 -0.000441532 -0.000182551 -1.53347e-05 0.00687151 0.00409662 0.0190856 0.0008
980 1 -0.00695065 -0.00188012 0.0194109 0.0008 3.43146e-06 -3.28305e-13 3.79425e-13 -8.91752e-13 3.14174e-09 1.98905e-09 5.61114e-10 -1.46797e-16 -4.88898e-16 4.82962e-16 1 0.000584865 0.000195492 0.000146311 -0.00772247 -0.00208889 0.0194109 0.0008
981 1 0.00580045 0.000903052 0.0179811 0.0008 3.43146e-06 1.00908e-12 -2.70561e-13 -5.49062e-13 4.92873e-10 4.41838e-10 1.68644e-09 -6.85236e-16 -5.59639e-16 -1.37486e-16 0 0 0 0 0 0 0 0
982 1 -0.00573024 -0.00116544 0.0163086 0.0008 3.43146e-06 -7.93584e-13 -5.22715e-13 -4.2956e-13 -5.47719e-10 2.97622e-11 3.84621e-10 -5.3096e-16 -7.33181e-16 3.48605e-16 0 0 0 0 0 0 0 0
983 1 -5.28392e-05 0.00720011 0.0184628 0.0008 3.43146e-06 -1.68509e-14 1.09609e-12 1.19971e-12 -1.34576e-09 -2.64713e-09 -2.76712e-12 3.25514e-16 -1.08841e-15 8.67539e-16 1 8.42641e-05 -0.000361811 0.000104772 -5.87078e-05 0.00799978 0.0184628 0.0008
984 1 -0.00333511 -0.00416376 0.0182745 0.0008 3.43146e-06 2.40952e-13 -6.02182e-13 -1.14435e-12 4.25758e-10 -1.63974e-09 -1.7248e-09 1.4678e-16 1.73283e-15 -1.48333e-15 0 0 0 0 0 0 0 0
985 1 -0.0050308 -2.01666e-06 0.0154629 0.0008 3.43146e-06 4.86206e-13 -4.96625e-14 -8.99138e-13 -3.59843e-10 -1.94224e-09 -3.2756e-10 -2.14155e-16 1.72391e-16 -1.12591e-15 0 0 0 0 0 0 0 0
986 1 0.0057359 5.37569e-05 0.0193351 0.0008 3.43146e-06 -3.65279e-13 -3.84357e-14 1.24096e-12 -2.05024e-09 -3.36388e-09 -2.03097e-10 -1.87716e-15 1.01914e-15 1.38791e-15 0 0 0 0 0 0 0 0
987 1 -0.00571543 0.000677538 0.0202605 0.0008 3.43146e-06 -1.88012e-12 1.13139e-14 -3.764e-14 3.1541e-10 -5.66544e-10 -4.34403e-10 1.34015e-15 -2.66776e-15 3.72195e-16 0 0 0 0 0 0 0 0
988 1 -0.00490214 0.00201633 0.0163503 0.0008 3.43146e-06 -3.4925e-13 -1.08372e-12 1.41503e-12 2.20192e-10 -2.24817e-09 -1.79316e-09 3.9713e-16 2.60808e-16 -1.38202e-15 0 0 0 0 0 0 0 0
989 1 0.00495133 0.00142205 0.0196026 0.0008 3.43146e-06 -6.01058e-13 -5.41012e-13 -1.46032e-12 8.44098e-10 -1.08568e-09 1.71301e-10 3.9312e-16 -2.56149e-16 1.76494e-16 0 0 0 0 0 0 0 0
990 1 0.00376209 0.00442618 0.016786 0.0008 3.43146e-06 -4.46438e-13 1.67042e-12 9.694e-13 -5.9122e-09 -4.11861e-09 -1.84084e-09 -1.9663e-15 -1.88299e-16 -1.78562e-15 0 0 0 0 0 0 0 0
991 1 0.00205633 -0.00559299 0.0210209 0.0008 3.43146e-06 -1.08413e-12 1.73248e-12 6.09223e-14 -1.33625e-09 1.69889e-09 -3.42534e-09 5.56987e-16 3.28531e-15 3.49564e-15 0 0 0 0 0 0 0 0
992 1 -0.00119294 -0.00425672 0.0161498 0.0008 3.43146e-06 2.67315e-13 1.53437e-13 -5.85044e-12 -1.26971e-09 -2.67655e-09 -4.37321e-10 -8.41079e-16 -7.59874e-16 4.64206e-15 0 0 0 0 0 0 0 0
993 1 0.0038884 0.00605976 0.0174316 0.0008 3.43146e-06 -4.5794e-13 -3.95924e-13 1.09062e-12 -1.72682e-09 -1.08293e-10 -2.36077e-10 -4.7065e-16 -9.38491e-17 -2.70012e-17 1 -3.92093e-06 -3.43452e-06 8.42747e-08 0.00432043 0.00673305 0.0174316 0.0008
994 1 0.00408341 0.0016045 0.0209333 0.0008 3.43146e-06 5.12164e-13 4.73174e-13 -1.53401e-12 -4.21872e-10 1.88196e-09 -3.34744e-09 -4.39868e-16 2.2982e-15 -6.5668e-16 0 0 0 0 0 0 0 0
995 1 -0.000452543 0.00326035 0.0203963 0.0008 3.43146e-06 -1.36204e-13 9.94815e-13 1.99765e-12 2.4476e-09 -2.68997e-10 -7.14511e-10 4.86306e-16 6.15709e-16 -1.02573e-15 0 0 0 0 0 0 0 0
996 1 -0.000858454 0.00523543 0.0178564 0.0008 3.43146e-06 -2.71726e-13 2.44052e-13 -3.10691e-12 3.30496e-09 7.96426e-10 3.48545e-10 2.83643e-17 -1.40098e-15 -1.90879e-15 0 0 0 0 0 0 0 0
997 1 0.00542473 0.00449726 0.0202393 0.0008 3.43146e-06 2.16814e-12 -1.52762e-12 2.51752e-12 1.20082e-09 2.48377e-09 5.48438e-09 5.80142e-17 -1.64674e-15 -6.63833e-16 0 0 0 0 0 0 0 0
998 1 0.00700616 0.00166188 0.0162605 0.0008 3.43146e-06 1.5163e-13 -3.68416e-13 -3.84872e-13 -6.45467e-10 -6.72965e-10 4.98358e-10 6.81672e-17 -5.50502e-16 -5.88806e-16 1 -0.000914116 -7.33336e-05 8.88003e-05 0.00778401 0.00184639 0.0162605 0.0008
999 1 -0.0016035 -0.00367915 0.0178643 0.0008 3.43146e-06 -5.41625e-13 -1.91968e-13 -8.62114e-13 -8.96741e-10 -4.4469e-10 -2.31252e-10 -2.19764e-16 6.13071e-16 7.11195e-16 0 0 0 0 0 0 0 0
1000 1 -0.00411563 -0.00307944 0.0151282 0.0008 3.43146e-06 -2.7991e-13 9.05722e-13 -2.7468e-12 -3.25217e-10 -2.92029e-12 -9.64885e-10 4.4898e-16 -1.17001e-15 1.19833e-15 0 0 0 0 0 0 0 0
1001 1 -0.000929591 0.00287357 0.0160332 0.0008 3.43146e-06 1.30769e-13 3.86761e-14 -1.15368e-12 -1.5069e-09 4.08553e-10 -8.32053e-11 -2.77742e-16 -1.06803e-15 1.85678e-16 0 0 0 0 0 0 0 0
1002 1 -0.00489033 0.0019013 0.0196441 0.0008 3.43146e-06 -1.07783e-12 -2.92515e-13 -1.0409e-13 -3.16299e-10 5.6992e-10 -6.09938e-10 -2.27291e-16 -4.14729e-15 5.97188e-16 0 0 0 0 0 0 0 0
1003 1 0.00717883 0.000553326 0.0151204 0.0008 3.43146e-06 1.39967e-13 2.09685e-13 5.94859e-13 2.9209e-10 7.38252e-10 -2.55366e-10 2.38499e-16 -1.20347e-16 -3.54729e-16 1 -9.52498e-05 -1.09037e-06 2.5846e-05 0.00797634 0.000614796 0.0151204 0.0008
1004 1 -0.00317045 -0.000178367 0.018711 0.0008 3.43146e-06 -7.79216e-13 -6.74056e-14 8.85045e-13 -6.28251e-10 1.85644e-10 -1.1737e-09 3.5223e-16 -2.48407e-16 6.39491e-16 0 0 0 0 0 0 0 0
1005 1 -0.00130959 0.00381769 0.0172676 0.0008 3.43146e-06 -5.41484e-13 -9.4989e-13 4.46555e-13 3.95767e-09 -1.60255e-09 -3.44317e-10 4.08734e-16 1.40457e-15 -3.04049e-17 0 0 0 0 0 0 0 0
1006 1 -0.000109807 -0.00340692 0.0200153 0.0008 3.43146e-06 -3.43407e-14 2.44153e-13 -1.66446e-12 -1.13135e-10 1.22145e-09 -2.34075e-10 -3.51892e-16 3.17717e-17 2.54015e-15 0 0 0 0 0 0 0 0
1007 1 -0.00137899 -0.00586947 0.0185989 0.0008 3.43146e-06 -5.09419e-13 -5.39815e-13 4.23376e-13 8.80959e-11 2.78802e-10 -5.19108e-10 1.12323e-16 1.35894e-15 7.67387e-16 0 0 0 0 0 0 0 0
1008 1 -0.00320242 0.00200352 0.0184408 0.0008 3.43146e-06 -1.0833e-12 9.95264e-13 -1.00756e-12 -1.2363e-09 3.62135e-09 -1.58367e-09 -5.87165e-16 -8.27724e-16 3.60982e-15 0 0 0 0 0 0 0 0
1009 1 -0.00434781 0.000122719 0.0176703 0.0008 3.43146e-06 -7.13763e-13 6.42127e-14 1.31138e-14 -2.57345e-09 -2.54836e-10 -1.74914e-09 -7.61957e-16 -3.15577e-16 3.15675e-16 0 0 0 0 0 0 0 0
1010 1 0.000775574 -0.000610368 0.0180131 0.0008 3.43146e-06 1.28815e-13 2.7101e-13 -8.05224e-13 -5.49865e-10 1.86538e-10 7.66552e-10 -1.11817e-15 4.29852e-16 6.86422e-16 0 0 0 0 0 0 0 0
1011 1 0.0072 -4.43481e-05 0.0210349 0.0008 3.43146e-06 6.55994e-13 -7.84522e-14 1.36945e-12 1.79773e-09 1.77079e-09 4.35133e-11 2.10621e-15 5.2421e-16 1.40828e-15 1 -0.000111642 -1.93211e-05 6.09731e-06 0.00799985 -4.92747e-05 0.0210349 0.0008
1012 1 -0.00277483 -0.00379183 0.0167379 0.0008 3.43146e-06 -1.08405e-12 8.24145e-14 -9.61504e-13 1.89702e-10 -3.08722e-10 -4.20931e-10 1.0779e-16 -6.39622e-16 1.35413e-15 0 0 0 0 0 0 0 0
1013 1 -3.11784e-05 0.000539362 0.0187785 0.0008 3.43146e-06 1.21634e-14 2.71042e-13 -1.60176e-12 -6.2061e-10 -1.23052e-10 -2.35515e-10 5.69115e-16 7.38373e-16 6.8485e-16 0 0 0 0 0 0 0 0
1014 1 -0.00709586 0.00122092 0.0212437 0.0008 3.43146e-06 -1.48514e-12 -8.05781e-14 5.16675e-14 2.24976e-10 -9.2944e-11 -5.06173e-10 1.49416e-16 -4.3246e-15 -8.17051e-16 1 0.00010218 -2.03763e-05 1.59537e-06 -0.00788415 0.00135656 0.0212437 0.0008
1015 1 -0.00480419 -0.00339433 0.0187528 0.0008 3.43146e-06 1.97928e-12 1.32382e-13 1.2587e-12 3.93619e-10 -2.36468e-09 5.28886e-09 7.6292e-17 -3.90361e-16 3.33819e-16 0 0 0 0 0 0 0 0
1016 1 0.0044119 -0.00342393 0.0178888 0.0008 3.43146e-06 -2.16679e-12 1.0701e-12 2.52054e-12 -1.08238e-09 1.89494e-09 1.0002e-09 -2.71495e-16 1.72003e-15 1.9172e-15 0 0 0 0 0 0 0 0
1017 1 -7.20689e-05 0.00450537 0.0213687 0.0008 3.43146e-06 3.73439e-14 -5.16329e-13 -1.80392e-13 4.08521e-09 -2.52824e-09 -1.31437e-09 1.22454e-16 2.41454e-16 1.45117e-15 0 0 0 0 0 0 0 0
1018 1 -0.0055484 0.00135733 0.0147765 0.0008 3.43146e-06 2.16833e-12 -1.10699e-13 6.0875e-13 2.13162e-09 7.12577e-10 -1.30159e-10 -1.87735e-16 -3.03166e-15 1.8781e-15 0 0 0 0 0 0 0 0
1019 1 -0.00372634 -0.00162004 0.0191239 0.0008 3.43146e-06 -1.08259e-12 -1.87139e-13 1.31484e-13 1.58553e-09 -4.45001e-10 8.05875e-10 -3.54419e-16 -6.25257e-16 7.49043e-16 0 0 0 0 0 0 0 0
1020 1 -0.00149165 -0.00622359 0.0167045 0.0008 3.43146e-06 -5.41966e-13 -1.12485e-12 -1.05915e-13 1.01981e-09 3.088e-10 1.52618e-10 -2.48377e-16 1.63362e-15 -4.75232e-16 0 0 0 0 0 0 0 0
1021 1 0.00307709 -0.00130774 0.019184 0.0008 3.43146e-06 1.17982e-13 -2.34723e-13 -2.27253e-12 -9.16359e-10 -7.91818e-10 -3.07476e-10 -7.09645e-17 3.95843e-15 2.46382e-15 0 0 0 0 0 0 0 0
1022 1 0.00374098 -0.00466371 0.0170056 0.0008 3.43146e-06 -1.47922e-13 1.56133e-12 7.54302e-13 1.0817e-09 -7.26824e-10 1.24132e-09 -2.57597e-16 1.68413e-15 8.5413e-16 0 0 0 0 0 0 0 0
1023 1 -0.00440439 -0.000302265 0.0197254 0.0008 3.43146e-06 -1.11333e-12 -1.36157e-13 -5.01168e-15 -1.30305e-09 -5.11725e-10 -1.25293e-09 1.77704e-15 -8.54361e-16 -4.48339e-16 0 0 0 0 0 0 0 0
1024 1 -0.00108738 0.00677633 0.0155017 0.0008 3.43146e-06 -5.41648e-13 -6.59635e-13 -4.27296e-12 -3.7773e-10 -4.21209e-11 2.76083e-09 -5.54127e-17 -1.90646e-15 -2.94839e-15 0 0 0 0 0 0 0 0
1025 1 -0.00197239 0.00314751 0.0199107 0.0008 3.43146e-06 -1.08345e-12 1.36455e-13 -6.63312e-13 -1.67596e-09 -2.33522e-09 2.00537e-09 -6.22932e-16 -6.59145e-16 4.39948e-16 0 0 0 0 0 0 0 0
1026 1 -0.00713435 -0.000974597 0.0170504 0.0008 3.43146e-06 -1.82416e-12 -2.70965e-13 -1.82493e-14 -3.64866e-10 -3.96755e-11 -6.52518e-11 -2.66232e-17 1.40443e-16 -4.07473e-16 1 0.00103735 -9.78583e-05 -1.20201e-06 -0.00792638 -0.00108279 0.0170504 0.0008
1027 1 -0.00341409 -0.00633984 0.0150104 0.0008 3.43146e-06 -3.20656e-14 1.55408e-12 2.02781e-12 2.21688e-09 -1.22938e-09 9.50037e-10 -3.90326e-16 -2.17593e-16 -7.21366e-16 1 0.000529667 0.0010289 0.000104337 -0.00379308 -0.00704362 0.0150104 0.0008
1028 1 0.00250293 0.00177467 0.0181661 0.0008 3.43146e-06 2.52735e-13 -3.76914e-14 1.44673e-12 -1.73048e-10 3.07068e-09 -2.85122e-10 -1.28619e-15 -3.69918e-15 3.0698e-15 0 0 0 0 0 0 0 0
1029 1 -0.00522453 -0.00185663 0.0186168 0.0008 3.43146e-06 -1.88145e-12 -5.41645e-13 2.732e-13 -1.27151e-09 1.00539e-09 -3.29557e-10 -1.16286e-15 2.12493e-16 3.15546e-16 0 0 0 0 0 0 0 0
1030 1 0.00548087 0.00239806 0.0184521 0.0008 3.43146e-06 -6.79656e-13 -5.57006e-13 -3.03299e-14 4.94765e-12 1.10648e-10 4.86397e-10 7.65391e-16 -5.80268e-17 -7.0833e-16 0 0 0 0 0 0 0 0
1031 1 0.00699917 -0.00169052 0.0177243 0.0008 3.43146e-06 -8.76297e-13 4.58873e-13 1.89117e-13 6.32941e-10 1.10553e-10 -2.90574e-10 -3.23287e-16 -2.79906e-16 5.46036e-16 1 -0.000564598 0.000216373 -8.06291e-06 0.00777639 -0.00187824 0.0177243 0.0008
1032 1 -0.000823359 -0.0071531 0.0178228 0.0008 3.43146e-06 -2.70797e-13 -1.88255e-12 -2.10157e-13 -2.67098e-10 -2.33166e-10 8.743e-11 -2.12519e-17 -3.72778e-16 2.72667e-17 1 1.72379e-05 0.000410312 4.6319e-05 -0.000914801 -0.00794752 0.0178228 0.0008
1033 1 0.00201324 0.000284701 0.0184888 0.0008 3.43146e-06 1.08371e-12 -2.10219e-13 -5.61874e-13 9.2351e-10 -1.28178e-10 -1.89032e-09 -3.29866e-16 -1.83702e-15 3.23887e-15 0 0 0 0 0 0 0 0
1034 1 0.000393339 0.00718942 0.0210033 0.0008 3.43146e-06 1.35111e-13 -2.16713e-12 1.42625e-12 -1.99141e-09 -3.7051e-09 2.05714e-10 -1.3593e-16 7.25535e-16 -2.48711e-16 1 3.11544e-06 -0.000153319 2.23441e-05 0.000437032 0.00798805 0.0210033 0.0008
1035 1 0.00580739 -0.00425632 0.0187959 0.0008 3.43146e-06 -7.08187e-13 1.38424e-12 1.63434e-12 -4.94108e-10 2.78421e-09 -9.00296e-10 -8.66617e-17 -7.82995e-16 1.53809e-15 1 -9.63406e-05 5.97865e-05 2.54388e-05 0.00645253 -0.00472915 0.0187959 0.0008
1036 1 0.000258537 -0.00211659 0.0181656 0.0008 3.43146e-06 1.34849e-13 1.08406e-12 -2.0904e-12 2.18473e-09 -2.78198e-10 -9.22593e-10 -1.42872e-16 -1.28641e-16 9.66018e-16 0 0 0 0 0 0 0 0
1037 1 -0.00178311 0.00175791 0.0191369 0.0008 3.43146e-06 -5.41887e-13 5.42137e-13 -2.22832e-12 -1.92032e-09 -1.34033e-09 -6.28913e-10 5.96177e-16 -2.99627e-16 5.09996e-16 0 0 0 0 0 0 0 0
1038 1 -0.00616459 0.00371997 0.0196634 0.0008 3.43146e-06 -2.13006e-12 -1.08389e-12 -2.92147e-12 5.60874e-09 7.73625e-10 -2.57181e-09 1.27046e-15 -3.20268e-16 1.26015e-15 1 6.41038e-06 -3.97366e-06 1.46527e-07 -0.00684952 0.00413328 0.0196634 0.0008
1039 1 0.000135362 -0.00719883 0.019355 0.0008 3.43146e-06 6.74017e-14 2.16816e-12 -4.08236e-13 -4.83339e-10 -1.15111e-09 -1.14394e-10 1.71349e-16 -8.99237e-16 5.3564e-16 1 8.668e-06 6.62998e-05 1.46286e-05 0.0001504 -0.00799859 0.019355 0.0008
1040 1 -0.00421718 0.00461175 0.0180403 0.0008 3.43146e-06 -2.16825e-12 -1.07169e-12 7.87693e-14 -3.86063e-09 -4.0876e-10 3.26335e-10 9.88559e-16 -2.59376e-15 2.67864e-15 0 0 0 0 0 0 0 0
1041 1 -0.00206537 -0.00108731 0.0215204 0.0008 3.43146e-06 6.32237e-13 -3.04385e-13 -4.64575e-13 5.91477e-10 9.87048e-10 -3.37515e-11 -4.58962e-16 -1.7872e-15 4.64558e-16 0 0 0 0 0 0 0 0
1042 1 -0.00708389 0.00128927 0.0180489 0.0008 3.43146e-06 -1.27016e-12 -4.23651e-13 2.28027e-13 -8.03328e-10 -2.53441e-10 -8.10401e-10 -4.26844e-16 5.83395e-16 1.07625e-15 1 0.000266231 -6.17458e-05 6.78881e-05 -0.00787071 0.00143247 0.0180489 0.0008
1043 1 -0.00551614 -0.00264693 0.0199767 0.0008 3.43146e-06 1.32164e-14 -1.08354e-12 2.31056e-12 9.02369e-10 2.21783e-09 3.10138e-10 -1.50039e-15 -4.9679e-16 2.16479e-15 0 0 0 0 0 0 0 0
1044 1 0.00349506 0.00028166 0.0201547 0.0008 3.43146e-06 -1.08404e-12 -2.13077e-13 4.14565e-13 -5.61893e-10 2.77513e-10 -2.62503e-09 -7.40187e-16 -1.12692e-15 1.333e-15 0 0 0 0 0 0 0 0
1045 1 -0.000640453 0.00175469 0.0177976 0.0008 3.43146e-06 -2.70811e-13 6.8417e-15 -6.77095e-13 5.90414e-10 1.6499e-09 4.67914e-11 -2.97091e-16 -9.18284e-16 1.18542e-15 0 0 0 0 0 0 0 0
1046 1 -0.00107398 -0.00252961 0.0189487 0.0008 3.43146e-06 3.57431e-14 1.08413e-12 -1.70898e-12 -1.2166e-11 1.29698e-09 -5.51129e-10 -5.33294e-16 3.57333e-17 3.474e-16 0 0 0 0 0 0 0 0
1047 1 -0.0057097 -0.00438667 0.0196217 0.0008 3.43146e-06 1.30261e-12 -1.24613e-12 3.72408e-13 -1.41907e-09 -1.67422e-09 -2.21505e-09 -2.10306e-16 -2.50043e-16 -5.06952e-16 1 0.000226651 0.00013559 -3.42368e-05 -0.00634389 -0.00487392 0.0196217 0.0008
1048 1 0.00470216 -0.00233972 0.0146934 0.0008 3.43146e-06 2.10766e-12 -3.7346e-13 1.28331e-12 -1.40544e-09 3.57711e-09 1.93786e-09 -7.37678e-16 5.91246e-16 1.23488e-15 0 0 0 0 0 0 0 0
1049 1 0.000174387 0.00573748 0.0152512 0.0008 3.43146e-06 -6.63878e-14 2.14995e-12 -1.70439e-12 -4.34832e-09 2.59263e-09 1.6069e-10 -2.83339e-16 -5.60953e-16 -1.40137e-15 0 0 0 0 0 0 0 0
1050 1 -0.0024132 -0.00678356 0.0194435 0.0008 3.43146e-06 8.67372e-13 -1.6137e-12 -1.30204e-12 -2.03439e-09 -8.24314e-10 -1.7468e-09 -1.28065e-15 2.32672e-16 1.64032e-16 1 1.20692e-06 4.73446e-06 3.36747e-07 -0.00268132 -0.00753727 0.0194435 0.0008
1051 1 0.00618508 -0.00368606 0.0202419 0.0008 3.43146e-06 -1.174e-13 1.81809e-13 -6.99791e-13 7.76462e-10 -1.47907e-09 -6.42754e-11 1.0664e-15 3.64244e-16 4.43767e-16 1 -0.000108221 7.03704e-05 -1.66976e-06 0.00687216 -0.00409553 0.0202419 0.0008
1052 1 -0.00247919 0.00494756 0.0155183 0.0008 3.43146e-06 8.77582e-14 -2.16818e-12 -1.27676e-12 -2.46834e-09 -2.01968e-09 -1.80662e-09 4.77026e-16 -5.83089e-16 6.21761e-15 0 0 0 0 0 0 0 0
1053 1 0.00145762 -0.00560813 0.0174996 0.0008 3.43146e-06 -5.42054e-13 -5.78084e-13 4.90201e-13 -5.27579e-12 -6.71031e-10 -1.4878e-10 -2.57135e-18 9.69756e-17 2.50766e-16 0 0 0 0 0 0 0 0
1054 1 -0.00554331 -0.00459478 0.0159838 0.0008 3.43146e-06 1.70576e-12 2.06221e-12 -6.49912e-12 7.54924e-10 1.11758e-08 6.31173e-10 -1.43889e-16 2.98869e-16 -3.87238e-17 1 5.71084e-06 5.96695e-06 -6.7127e-07 -0.00615922 -0.0051053 0.0159838 0.0008
1055 1 0.00218492 -0.004403 0.0167399 0.0008 3.43146e-06 -6.11595e-13 4.11461e-13 1.08774e-12 1.32256e-09 6.48843e-10 6.26339e-10 -1.1303e-16 1.20238e-15 -5.64434e-16 0 0 0 0 0 0 0 0
1056 1 -0.000506434 -0.00490513 0.0195308 0.0008 3.43146e-06 2.6707e-13 -1.51885e-12 7.07314e-13 1.85609e-09 1.20726e-09 3.57482e-10 1.42587e-16 1.71363e-15 3.02211e-16 0 0 0 0 0 0 0 0
1057 1 -0.00277611 0.00336731 0.0177211 0.0008 3.43146e-06 -9.23875e-13 -1.08309e-12 -2.30895e-12 -6.37684e-10 -1.07491e-09 -4.3832e-10 -6.87344e-16 -6.61402e-16 1.77408e-15 0 0 0 0 0 0 0 0
1058 1 0.00411877 0.00151644 0.0165835 0.0008 3.43146e-06 -3.69904e-13 -5.41994e-13 -3.94183e-13 -1.96993e-09 -2.3916e-09 -1.82745e-09 -1.21454e-15 -4.57939e-16 7.87148e-16 0 0 0 0 0 0 0 0
1059 1 0.00345224 0.00276874 0.0173227 0.0008 3.43146e-06 -2.04458e-13 -1.08208e-12 -1.6656e-13 1.75512e-09 4.00839e-09 2.86399e-09 -2.78446e-15 -1.95385e-16 1.18584e-16 0 0 0 0 0 0 0 0
1060 1 0.00534648 0.00482286 0.0171161 0.0008 3.43146e-06 -8.79896e-13 -1.25704e-12 -2.82264e-12 3.36285e-09 -1.73472e-09 4.45781e-10 -1.42667e-15 -3.77213e-16 -1.48654e-15 1 -0.000332545 -0.000231476 0.000109376 0.00594026 0.00535848 0.0171161 0.0008
1061 1 0.00683656 0.00225894 0.0193934 0.0008 3.43146e-06 -1.26533e-12 -1.16663e-13 -6.36088e-13 -5.08988e-10 -8.85131e-10 -3.83682e-10 5.2537e-16 -1.86597e-16 -6.67663e-17 1 -5.89269e-05 -2.40282e-05 8.35221e-06 0.00759608 0.0025099 0.0193934 0.0008
1062 1 -0.00618407 -0.0036881 0.020991 0.0008 3.43146e-06 1.50023e-12 -8.20515e-13 4.43864e-13 2.12515e-09 6.32679e-10 -1.83764e-09 -1.18331e-15 -1.21941e-15 1.8765e-15 1 0.000354803 0.000191509 1.38498e-05 -0.00687087 -0.0040977 0.020991 0.0008
1063 1 0.000559511 -0.00472154 0.0165149 0.0008 3.43146e-06 2.08496e-13 -1.90819e-12 -1.94287e-12 3.59291e-10 1.75319e-09 -8.46237e-10 -1.2289e-15 -9.15107e-16 7.52333e-16 0 0 0 0 0 0 0 0
1064 1 -0.00227141 -0.00509197 0.0175228 0.0008 3.43146e-06 -7.18626e-13 -9.58701e-13 3.64773e-13 -1.03049e-09 3.27159e-10 2.37253e-10 7.29595e-16 8.26729e-16 8.97567e-16 0 0 0 0 0 0 0 0
1065 1 -0.00116249 0.000493573 0.0199086 0.0008 3.43146e-06 -3.10993e-13 -2.70123e-13 -1.39926e-12 2.53044e-10 -1.08215e-10 1.42814e-09 5.68442e-16 -6.41065e-16 2.34227e-15 0 0 0 0 0 0 0 0
1066 1 0.00324587 -0.00642686 0.0218058 0.0008 3.43146e-06 9.86677e-13 -7.15642e-13 1.73047e-12 -2.66803e-10 5.19406e-09 -6.55244e-10 -4.31146e-16 -2.58429e-15 -9.89432e-16 1 -1.87048e-06 3.40198e-06 1.7948e-08 0.00360652 -0.00714094 0.0218058 0.0008
1067 1 -0.00337105 0.00249305 0.0203281 0.0008 3.43146e-06 -1.0819e-12 -3.50212e-13 -1.07516e-12 -2.17097e-09 4.87457e-11 -3.23334e-10 1.31263e-15 -1.37406e-15 5.81146e-16 0 0 0 0 0 0 0 0
1068 1 0.00714717 -0.000871406 0.0193862 0.0008 3.43146e-06 -1.23588e-12 -2.71062e-13 4.73324e-13 2.80494e-09 2.27421e-10 5.80062e-10 3.31886e-16 -2.69278e-16 3.30566e-16 1 -6.81316e-05 7.15769e-06 -4.49035e-06 0.00794119 -0.000968216 0.0193862 0.0008
1069 1 -0.00342171 0.0017309 0.0217405 0.0008 3.43146e-06 -1.08425e-12 -5.41477e-13 3.98703e-13 -1.08466e-09 2.81963e-09 7.76559e-10 -2.1518e-17 5.47332e-16 2.82399e-15 0 0 0 0 0 0 0 0
1070 1 0.00699596 -0.00170343 0.0245134 0.0008 3.43146e-06 -1.95155e-12 -5.41269e-13 -6.3194e-13 8.61087e-10 -8.92713e-10 1.21514e-09 -2.44488e-15 -2.49674e-16 7.69539e-16 1 -0.000441826 0.000137645 9.36501e-05 0.0077729 -0.00189261 0.0245134 0.0008
1071 1 0.00342534 -0.000646028 0.0239317 0.0008 3.43146e-06 4.47038e-13 -2.70883e-13 6.11722e-13 7.1049e-10 1.10134e-09 6.73561e-10 9.42418e-16 9.26706e-16 -3.54094e-15 0 0 0 0 0 0 0 0
1072 1 0.0071339 -0.000973728 0.0230965 0.0008 3.43146e-06 -2.89325e-13 2.71103e-13 -1.53416e-12 -4.96044e-10 -1.83711e-09 -2.54803e-10 -9.74535e-17 3.77858e-16 -2.68522e-15 1 -2.4678e-05 -2.39242e-06 4.00528e-06 0.0079265 -0.00108191 0.0230965 0.0008
1073 1 -0.00684171 -0.00224449 0.0224959 0.0008 3.43146e-06 -2.03618e-12 8.68553e-13 -7.48219e-13 3.73027e-09 2.22395e-09 1.81944e-09 1.2642e-15 -1.24976e-15 -2.3319e-15 1 0.000650594 0.000224278 6.19355e-05 -0.00760141 -0.00249371 0.0224959 0.0008
1074 1 0.0059698 -0.000949706 0.0205592 0.0008 3.43146e-06 -1.69805e-13 -2.5698e-13 2.99406e-12 1.03678e-09 2.9585e-09 9.59382e-10 -3.49138e-17 1.12308e-15 1.02774e-15 0 0 0 0 0 0 0 0
1075 1 -0.00284933 0.00499793 0.023575 0.0008 3.43146e-06 -1.04873e-12 2.16812e-12 3.68604e-12 -3.36921e-09 -5.89192e-09 3.91903e-09 9.40835e-16 9.6456e-16 8.353e-16 0 0 0 0 0 0 0 0
1076 1 0.00293739 0.000134617 0.025695 0.0008 3.43146e-06 1.08386e-12 4.61847e-13 -2.51394e-12 -1.38306e-09 2.12035e-09 -8.40705e-11 -7.13989e-16 -2.40794e-15 6.77482e-16 0 0 0 0 0 0 0 0
1077 1 -0.00396813 -0.00600826 0.0197514 0.0008 3.43146e-06 -2.48976e-13 -1.51456e-12 1.60218e-12 1.35851e-09 -1.6399e-09 -7.72062e-10 2.17328e-17 3.83825e-16 8.89651e-16 1 0.000232614 0.000411737 0.000145857 -0.00440881 -0.00667551 0.0197514 0.0008
1078 1 -0.00354076 0.00104306 0.019675 0.0008 3.43146e-06 -6.12889e-13 -5.28437e-13 1.7428e-13 5.25352e-10 -1.07478e-09 5.65809e-10 -1.26917e-15 -3.32039e-15 1.01792e-15 0 0 0 0 0 0 0 0
1079 1 0.00352378 -0.00497775 0.0211871 0.0008 3.43146e-06 -1.07332e-12 1.13523e-12 -1.16168e-12 -1.69509e-09 -1.34018e-09 2.39561e-09 -1.42244e-15 -1.23025e-15 2.68301e-15 0 0 0 0 0 0 0 0
1080 1 -0.00432513 0.00268206 0.0252206 0.0008 3.43146e-06 -2.05638e-12 8.16739e-13 -6.68424e-14 5.7414e-10 -2.70041e-09 2.3129e-09 -4.53138e-15 1.27181e-15 2.38108e-15 0 0 0 0 0 0 0 0
1081 1 -9.86781e-05 0.00572041 0.0224149 0.0008 3.43146e-06 1.6931e-13 -1.74029e-12 -2.15245e-12 9.25611e-10 -4.24258e-09 9.21397e-10 -4.30244e-16 -1.50342e-15 -4.60869e-16 0 0 0 0 0 0 0 0
1082 1 0.00205213 -0.00357999 0.0234342 0.0008 3.43146e-06 6.32746e-13 7.2299e-13 -2.8086e-12 -1.02053e-09 -2.42289e-09 -1.48318e-09 -2.36023e-15 -1.47413e-15 -6.50468e-15 0 0 0 0 0 0 0 0
1083 1 -0.00161166 0.00423441 0.0210279 0.0008 3.43146e-06 -5.41809e-13 2.16721e-12 -2.5677e-13 5.94739e-10 3.20595e-09 -1.20159e-09 -1.3538e-16 -6.62026e-16 1.74845e-15 0 0 0 0 0 0 0 0
1084 1 -0.00289033 -0.000286285 0.0202822 0.0008 3.43146e-06 -3.51519e-13 1.02875e-13 -5.34386e-13 3.42242e-10 7.76306e-10 3.10043e-10 -1.88224e-15 -7.77568e-16 8.30524e-16 0 0 0 0 0 0 0 0
1085 1 0.00175514 -0.00316266 0.0176568 0.0008 3.43146e-06 -5.37321e-13 2.04019e-13 1.06131e-12 1.51274e-09 1.11845e-09 -3.02705e-10 1.69998e-16 3.06635e-15 1.65246e-15 0 0 0 0 0 0 0 0
1086 1 0.00238532 0.00390925 0.017669 0.0008 3.43146e-06 7.7363e-13 -6.22816e-13 1.79792e-12 -1.82423e-09 -2.47389e-10 -3.49351e-09 -2.22948e-15 -5.25381e-15 -1.21164e-15 0 0 0 0 0 0 0 0
1087 1 -0.00699633 -0.00170065 0.0209997 0.0008 3.43146e-06 -1.68294e-12 3.88402e-13 2.12439e-12 -2.7572e-09 -3.38128e-09 1.04042e-09 -5.04238e-16 -1.15241e-15 2.99931e-16 1 2.87286e-05 6.16221e-06 2.49398e-06 -0.00777364 -0.00188959 0.0209997 0.0008
1088 1 -0.00624942 0.00229406 0.0204119 0.0008 3.43146e-06 -2.16785e-12 8.42167e-13 -1.04551e-12 -1.01725e-11 1.65836e-09 1.82985e-09 7.88099e-16 -7.29132e-16 -2.65749e-16 0 0 0 0 0 0 0 0
1089 1 0.00467092 0.00329497 0.0195004 0.0008 3.43146e-06 2.16717e-12 -1.98668e-13 4.55946e-12 2.40959e-09 5.90321e-09 -1.81518e-09 1.72857e-16 -1.22796e-15 -5.89027e-15 0 0 0 0 0 0 0 0
1090 1 0.00138469 -0.00218084 0.0238283 0.0008 3.43146e-06 -5.40805e-13 -2.98775e-13 -3.58873e-12 3.33639e-09 -4.26923e-09 1.68881e-09 9.81229e-17 1.86861e-15 1.04069e-15 0 0 0 0 0 0 0 0
1091 1 0.000986427 0.00511684 0.0252741 0.0008 3.43146e-06 1.06703e-13 1.16047e-12 3.89087e-12 -2.75336e-10 3.62544e-10 -6.44397e-10 5.13957e-16 -1.0996e-15 4.54214e-15 0 0 0 0 0 0 0 0
1092 1 0.00302954 0.0058708 0.0206417 0.0008 3.43146e-06 7.29255e-13 -8.27854e-13 -2.31021e-12 2.92368e-09 -7.3468e-09 2.57559e-10 -1.16725e-16 -5.09366e-15 1.60708e-16 0 0 0 0 0 0 0 0
1093 1 0.000729656 -0.000435331 0.0220757 0.0008 3.43146e-06 -2.71038e-13 9.58229e-14 -5.5041e-13 -5.94448e-11 5.87309e-11 2.39412e-10 -2.05384e-16 3.23698e-15 -4.90153e-15 0 0 0 0 0 0 0 0
1094 1 -0.00219838 -0.00685626 0.021027 0.0008 3.43146e-06 9.71039e-13 -6.71576e-13 5.83272e-14 3.61053e-10 8.93605e-10 -1.37857e-09 -1.2123e-15 -4.09925e-17 1.63716e-16 1 1.53157e-05 5.08815e-05 -5.25848e-06 -0.00244261 -0.00761798 0.021027 0.0008
1095 1 0.00306397 0.0044284 0.0198654 0.0008 3.43146e-06 -1.08399e-12 -2.16844e-12 -6.2562e-12 -5.58698e-09 -1.6258e-09 -3.46315e-09 1.94093e-16 -2.26281e-16 1.20834e-15 0 0 0 0 0 0 0 0
1096 1 0.00589217 0.00295783 0.0204791 0.0008 3.43146e-06 2.16723e-12 4.84513e-13 -2.13512e-12 -1.22894e-09 2.88055e-09 -1.43864e-09 -4.04598e-16 -6.18256e-16 4.97127e-16 0 0 0 0 0 0 0 0
1097 1 0.00527122 -0.00208614 0.0223809 0.0008 3.43146e-06 -2.16725e-12 -1.08423e-12 1.71404e-12 1.73665e-09 2.2051e-09 1.74016e-09 -6.22476e-16 -2.34713e-16 -3.99846e-15 0 0 0 0 0 0 0 0
1098 1 0.00557483 0.00111905 0.0221268 0.0008 3.43146e-06 2.16832e-12 5.36269e-13 -4.06888e-12 3.06754e-09 -3.47096e-09 -3.7869e-10 -9.17542e-16 2.37432e-15 -5.5696e-16 0 0 0 0 0 0 0 0
1099 1 -0.00591775 -0.00260181 0.0251629 0.0008 3.43146e-06 1.77539e-13 -5.12164e-13 -1.24796e-12 1.18595e-09 4.83692e-09 -2.04695e-10 -7.19748e-16 5.44697e-16 2.71105e-16 0 0 0 0 0 0 0 0
1100 1 6.49676e-05 -0.00266653 0.022894 0.0008 3.43146e-06 -1.39515e-13 -1.54472e-13 -2.81356e-12 -5.08158e-10 3.95239e-10 -1.72671e-09 2.68925e-16 -2.39171e-15 1.72926e-15 0 0 0 0 0 0 0 0
1101 1 -0.00135883 -0.00257378 0.0205662 0.0008 3.43146e-06 5.36655e-13 2.31305e-14 -1.09992e-12 -8.60619e-10 4.66039e-10 6.89417e-10 -4.21389e-19 1.36869e-15 3.68951e-15 0 0 0 0 0 0 0 0
1102 1 0.0050767 -0.00279574 0.0192014 0.0008 3.43146e-06 -2.05855e-12 1.0841e-12 4.03907e-14 -3.01136e-10 -6.86227e-10 -1.33086e-09 -4.17255e-17 1.4739e-16 1.03384e-15 0 0 0 0 0 0 0 0
1103 1 0.000959268 -0.00377629 0.0221681 0.0008 3.43146e-06 -2.70729e-13 5.47896e-13 -6.36007e-13 -1.76104e-09 -7.65616e-10 2.72003e-09 -5.24806e-16 -2.03648e-15 -7.72101e-16 0 0 0 0 0 0 0 0
1104 1 0.00175612 -0.000730128 0.0232669 0.0008 3.43146e-06 -5.41956e-13 2.70958e-13 2.15637e-14 -5.96794e-11 -8.43473e-10 6.13594e-11 1.28688e-15 7.53946e-16 -2.09513e-15 0 0 0 0 0 0 0 0
1105 1 0.00411929 -0.00446615 0.0190659 0.0008 3.43146e-06 -1.66644e-12 1.06949e-12 1.09825e-12 1.98299e-09 -2.6365e-09 4.01373e-10 6.13288e-16 9.21771e-16 7.5141e-16 0 0 0 0 0 0 0 0
1106 1 0.0037348 0.000265677 0.0217364 0.0008 3.43146e-06 8.39433e-13 1.36219e-13 -1.44571e-13 1.0462e-10 2.30695e-09 1.6854e-09 -3.17782e-15 -5.02631e-16 -1.6353e-15 0 0 0 0 0 0 0 0
1107 1 0.00654829 0.00299334 0.0231813 0.0008 3.43146e-06 -4.83833e-13 -6.16344e-13 -5.26978e-13 2.69616e-09 5.83087e-10 5.3737e-10 5.84024e-16 5.72262e-16 2.12838e-15 1 -5.03708e-06 -2.58717e-06 -8.64671e-08 0.00727586 0.00332593 0.0231813 0.0008
1108 1 0.00537262 -0.00479333 0.0210625 0.0008 3.43146e-06 -1.32106e-12 2.16835e-12 -2.08135e-12 -2.03947e-09 -1.68904e-09 -1.02725e-09 4.61913e-16 -8.04905e-17 2.10377e-15 1 -2.56408e-05 3.59832e-05 1.07384e-05 0.00596952 -0.00532587 0.0210625 0.0008
1109 1 -0.00337564 0.00636025 0.0193598 0.0008 3.43146e-06 -7.44333e-13 9.41583e-13 4.22326e-13 2.183e-11 -1.09356e-09 -3.09975e-10 3.17197e-16 1.02519e-15 1.55005e-15 1 0.000433549 -0.000712726 0.000163719 -0.00375043 0.00706642 0.0193598 0.0008
1110 1 -0.00341234 -0.00356891 0.0228773 0.0008 3.43146e-06 -1.08404e-12 -1.08403e-12 1.67051e-12 -2.53686e-09 -1.15676e-09 -9.47455e-10 -7.00017e-16 -1.06185e-15 4.01152e-15 0 0 0 0 0 0 0 0
1111 1 -0.00193251 -0.00379245 0.0194258 0.0008 3.43146e-06 -5.4156e-13 -3.16739e-13 -1.12818e-12 1.03996e-09 3.7111e-10 3.74815e-10 4.96774e-17 2.29701e-15 -6.30801e-16 0 0 0 0 0 0 0 0
1112 1 -0.00527931 -0.00125223 0.0207239 0.0008 3.43146e-06 5.78749e-13 -2.98882e-13 2.75467e-12 -5.18592e-10 6.13297e-10 5.94739e-10 1.60793e-15 -5.3848e-15 2.95541e-16 0 0 0 0 0 0 0 0
1113 1 0.00377638 -0.00452297 0.0246435 0.0008 3.43146e-06 1.08394e-12 2.16835e-12 1.32958e-12 -9.43244e-10 1.39153e-09 2.04819e-09 3.74216e-16 3.84104e-16 -2.82773e-15 0 0 0 0 0 0 0 0
1114 1 -0.00124714 -0.00561938 0.0215908 0.0008 3.43146e-06 -5.41933e-13 -4.06388e-14 -1.87055e-12 7.83002e-10 -1.1365e-09 3.93778e-10 -2.93903e-16 -1.21757e-15 -4.78059e-16 0 0 0 0 0 0 0 0
1115 1 0.00716534 0.000710545 0.0196248 0.0008 3.43146e-06 -1.53962e-12 -1.21828e-13 1.20337e-12 -1.92454e-09 1.31453e-09 -5.06634e-11 2.62948e-16 1.0417e-15 8.88551e-16 1 -0.000708995 -2.77974e-05 -1.50259e-05 0.00796095 0.000789442 0.0196248 0.0008
1116 1 0.000827525 -0.00715267 0.0231982 0.0008 3.43146e-06 -6.02298e-14 3.70671e-13 -2.8266e-13 -3.38528e-10 -2.18452e-10 -5.81333e-11 -4.64905e-16 1.56755e-17 -4.40798e-16 1 -0.000107396 0.000488374 0.00016288 0.000919423 -0.00794699 0.0231982 0.0008
1117 1 -0.00488345 0.0021291 0.0212276 0.0008 3.43146e-06 -2.16819e-12 6.14154e-13 -2.08172e-13 -9.70528e-10 -2.44171e-09 -2.65154e-09 -1.12713e-15 -2.51213e-16 2.5388e-15 0 0 0 0 0 0 0 0
1118 1 -0.00384295 0.00577441 0.0225904 0.0008 3.43146e-06 -1.08345e-12 1.52437e-12 -4.91762e-13 2.84289e-09 7.91087e-10 -8.69192e-10 -8.86459e-16 -2.11928e-16 1.07514e-15 0 0 0 0 0 0 0 0
1119 1 -0.00224055 0.004001 0.0224814 0.0008 3.43146e-06 -1.08406e-12 -2.04177e-12 2.09856e-13 1.45268e-09 6.00605e-10 3.15101e-09 -2.89586e-16 3.51508e-15 -4.34153e-16 0 0 0 0 0 0 0 0
1120 1 -0.000114367 -0.00597615 0.0226623 0.0008 3.43146e-06 -1.69592e-13 2.6489e-13 -1.13866e-12 -1.56517e-09 9.15955e-10 -2.51451e-10 3.91815e-17 -2.35566e-16 9.55884e-16 0 0 0 0 0 0 0 0
1121 1 0.00615179 0.00138945 0.0206595 0.0008 3.43146e-06 1.95724e-12 5.28019e-13 -3.38316e-13 -2.1362e-09 2.12554e-09 4.34583e-10 -5.42766e-16 2.2996e-16 2.35165e-16 0 0 0 0 0 0 0 0
1122 1 0.00221983 0.00119813 0.0204603 0.0008 3.43146e-06 8.87721e-13 4.24663e-13 3.62992e-13 -8.1942e-10 1.03793e-09 9.81972e-10 3.39521e-15 -7.31272e-16 -2.64068e-15 0 0 0 0 0 0 0 0
1123 1 0.00140472 -0.00120759 0.0208481 0.0008 3.43146e-06 -4.46681e-13 -5.34276e-14 -1.20996e-12 2.79674e-10 6.17661e-10 -1.26956e-10 -2.14568e-15 1.43231e-15 -6.03438e-16 0 0 0 0 0 0 0 0
1124 1 0.00131804 0.00454054 0.0222537 0.0008 3.43146e-06 5.42176e-13 -1.93876e-12 -3.25631e-12 1.04469e-08 -3.33565e-09 3.40495e-09 -1.30833e-16 -4.7164e-15 -7.31971e-15 0 0 0 0 0 0 0 0
1125 1 0.00473314 -0.0035438 0.0256364 0.0008 3.43146e-06 -1.698e-12 -1.08406e-12 -1.23903e-12 4.87075e-09 1.32906e-09 -6.2102e-09 7.21503e-15 3.10005e-16 1.5824e-16 0 0 0 0 0 0 0 0
1126 1 0.00366508 -0.0061975 0.0181633 0.0008 3.43146e-06 -1.06348e-12 1.79829e-12 -9.79122e-13 -1.71355e-09 5.42792e-10 4.55149e-11 -5.74121e-16 5.25047e-16 2.12419e-16 1 -5.35639e-05 8.41999e-05 2.43098e-05 0.00407224 -0.00688599 0.0181633 0.0008
1127 1 -0.00135752 -0.00305021 0.0220931 0.0008 3.43146e-06 -5.42001e-13 -1.01787e-12 1.01597e-12 1.35953e-09 -1.77616e-09 -1.13158e-09 -5.24642e-17 -1.46431e-15 5.96983e-15 0 0 0 0 0 0 0 0
1128 1 -0.00254306 0.00512826 0.0199493 0.0008 3.43146e-06 1.08378e-12 1.92515e-12 2.6508e-12 -4.69034e-09 3.70233e-09 1.14388e-09 5.24262e-16 2.58076e-16 2.21737e-15 0 0 0 0 0 0 0 0
1129 1 -0.00482305 -0.00421718 0.0232637 0.0008 3.43146e-06 -2.1654e-12 1.27745e-12 8.88531e-13 2.35909e-09 4.83492e-11 -2.27585e-09 8.07604e-16 1.03173e-15 3.31481e-15 0 0 0 0 0 0 0 0
1130 1 -0.00177085 0.00118981 0.0221421 0.0008 3.43146e-06 8.30611e-14 1.5522e-13 4.2701e-13 -2.92778e-10 -8.19068e-11 -6.29755e-10 2.43425e-16 -1.16575e-15 1.25692e-15 0 0 0 0 0 0 0 0
1131 1 -0.00582546 0.000645785 0.0234504 0.0008 3.43146e-06 -1.7325e-12 2.70277e-13 -1.62776e-12 -2.1736e-10 -4.97511e-10 1.65386e-09 -2.73577e-15 3.46518e-16 -5.94522e-15 0 0 0 0 0 0 0 0
1132 1 -0.00517154 0.00500963 0.022133 0.0008 3.43146e-06 -1.62578e-12 2.13316e-12 1.09562e-14 -1.1063e-09 9.91499e-10 5.30794e-10 -1.27764e-15 -1.53204e-15 9.29782e-16 1 3.7585e-05 -4.22553e-05 5.76079e-06 -0.00574609 0.00556619 0.022133 0.0008
1133 1 0.00552669 0.001626 0.0244377 0.0008 3.43146e-06 2.21741e-13 -2.71326e-13 -1.7451e-12 1.423e-09 -6.69161e-10 1.62484e-09 2.42187e-15 -1.78465e-15 7.42363e-16 0 0 0 0 0 0 0 0
1134 1 -0.000556474 -0.00223325 0.0243025 0.0008 3.43146e-06 2.70886e-13 1.08192e-12 -5.56613e-13 5.26295e-10 6.59919e-10 -7.07707e-10 -4.42489e-16 -3.33926e-17 -2.27647e-15 0 0 0 0 0 0 0 0
1135 1 -0.0003324 0.0071926 0.0239458 0.0008 3.43146e-06 -4.25605e-14 -1.36658e-12 1.69326e-12 -1.90686e-09 -1.37553e-09 5.70089e-11 -3.24954e-15 7.24815e-16 2.74558e-15 1 -1.00697e-05 -0.000315352 2.96594e-05 -0.000369319 0.00799147 0.0239458 0.0008
1136 1 0.00216688 1.76997e-05 0.0215388 0.0008 3.43146e-06 6.43438e-13 -6.99432e-14 4.85715e-13 1.10648e-09 -1.34359e-09 -1.12869e-09 -1.5669e-15 6.03284e-17 -2.77599e-15 0 0 0 0 0 0 0 0
1137 1 -0.00118817 -0.00156117 0.022771 0.0008 3.43146e-06 3.96408e-13 -5.42069e-13 -1.25254e-12 8.10966e-10 -1.17544e-09 1.10504e-09 -1.35472e-15 6.09726e-16 -3.9732e-15 0 0 0 0 0 0 0 0
1138 1 -0.00171096 0.00551922 0.0225791 0.0008 3.43146e-06 -5.41154e-13 1.05498e-12 -5.71331e-13 -3.85853e-09 7.10838e-09 -1.07886e-09 -2.29918e-16 1.56551e-15 -3.0801e-16 0 0 0 0 0 0 0 0
1139 1 -0.000999321 0.00643007 0.0212996 0.0008 3.43146e-06 5.42e-13 -1.78857e-12 -4.90555e-12 -2.48815e-09 1.72761e-09 -8.6851e-10 7.49695e-16 -9.23189e-16 -1.02058e-16 0 0 0 0 0 0 0 0
1140 1 0.000998149 0.00308765 0.0241309 0.0008 3.43146e-06 5.35655e-13 7.26614e-13 -6.93698e-13 2.13669e-09 -3.15816e-09 -1.98176e-10 2.12345e-16 -1.00333e-17 4.60902e-15 0 0 0 0 0 0 0 0
1141 1 -0.00569275 -0.00247493 0.0235843 0.0008 3.43146e-06 -1.49181e-12 2.87339e-13 7.60738e-14 -9.63486e-11 -3.13328e-09 8.44022e-10 -1.40064e-16 -5.94272e-17 1.35403e-15 0 0 0 0 0 0 0 0
1142 1 0.00202723 0.000421711 0.0244112 0.0008 3.43146e-06 4.99004e-13 -1.35373e-13 -1.22042e-12 9.91165e-10 -4.97213e-10 5.86023e-10 -4.23354e-16 -2.22134e-16 -3.74374e-16 0 0 0 0 0 0 0 0
1143 1 -0.00229954 -0.00253637 0.0233812 0.0008 3.43146e-06 -1.0511e-13 -1.08022e-12 -4.94706e-13 -1.41781e-09 1.36815e-09 -8.68721e-10 -3.73906e-15 2.79618e-16 3.5803e-16 0 0 0 0 0 0 0 0
1144 1 -0.00592999 -0.000648893 0.0193929 0.0008 3.43146e-06 -1.61891e-12 1.25419e-13 -1.41628e-13 -2.33699e-10 6.71213e-11 4.52063e-10 -1.03659e-16 -2.45356e-15 -1.05192e-15 0 0 0 0 0 0 0 0
1145 1 -0.0023352 0.00322791 0.0254563 0.0008 3.43146e-06 -1.0842e-12 1.08401e-12 3.60531e-12 4.55637e-10 8.69438e-10 1.12121e-09 -4.60751e-16 1.71758e-15 4.77317e-15 0 0 0 0 0 0 0 0
1146 1 0.000589143 -0.00137502 0.0250158 0.0008 3.43146e-06 -2.70752e-13 5.42123e-13 -1.00105e-12 -1.5068e-10 -3.30734e-10 8.69866e-10 4.87958e-16 2.43271e-16 5.80869e-16 0 0 0 0 0 0 0 0
1147 1 -0.00704684 0.00147719 0.0228222 0.0008 3.43146e-06 8.39421e-13 -3.7925e-13 -2.35052e-12 -2.95663e-10 3.02703e-09 -2.21083e-10 9.50749e-16 -1.97202e-15 1.14163e-15 1 1.22683e-06 -1.0883e-07 -3.04413e-07 -0.00782982 0.00164133 0.0228222 0.0008
1148 1 0.00597711 -0.000428296 0.0220716 0.0008 3.43146e-06 2.16816e-12 4.89474e-13 -2.51235e-12 -4.32783e-09 5.61904e-10 2.3857e-10 9.23324e-16 2.64594e-15 -4.0594e-16 0 0 0 0 0 0 0 0
1149 1 -0.00093506 0.00103691 0.0234976 0.0008 3.43146e-06 2.71238e-13 2.93364e-13 1.50339e-13 -8.26703e-10 6.69267e-10 -3.95925e-10 4.44023e-16 2.13754e-15 -7.56114e-15 0 0 0 0 0 0 0 0
1150 1 0.00465958 0.00548918 0.0228137 0.0008 3.43146e-06 1.26636e-13 -3.37433e-13 3.84211e-13 3.92871e-10 1.10559e-09 3.87453e-10 -2.64279e-17 -1.81928e-16 5.46717e-16 1 -0.000149829 -0.000102509 -3.67952e-06 0.00517717 0.00609893 0.0228137 0.0008
1151 1 0.00674596 -0.00251675 0.0228276 0.0008 3.43146e-06 1.7647e-13 -5.97051e-13 -2.37968e-15 1.66867e-09 -7.37776e-10 4.67277e-10 -1.39852e-15 2.49792e-15 3.41812e-16 1 -0.000100044 3.80693e-05 2.00073e-05 0.00749536 -0.00279634 0.0228276 0.0008
1152 1 -0.00411312 0.004961 0.0195977 0.0008 3.43146e-06 -1.29658e-12 2.16634e-12 3.74839e-13 -7.48766e-11 1.27355e-09 -1.05036e-09 -8.68619e-16 -1.5195e-15 2.24936e-15 0 0 0 0 0 0 0 0
1153 1 -0.000969154 0.00537 0.020102 0.0008 3.43146e-06 6.24789e-14 2.16703e-12 1.18684e-12 1.3891e-09 -2.55388e-09 -8.45669e-10 -3.14867e-16 -1.35814e-16 1.11514e-15 0 0 0 0 0 0 0 0
1154 1 -0.00401179 -0.00597928 0.0213502 0.0008 3.43146e-06 -3.3704e-13 -9.14778e-13 -2.08226e-12 -2.20485e-09 1.39603e-09 -2.84394e-10 -3.23816e-16 1.17502e-15 -9.28101e-16 1 0.00026895 0.000555937 4.68103e-06 -0.00445728 -0.00664324 0.0213502 0.0008
1155 1 -0.00654819 0.00299356 0.0227133 0.0008 3.43146e-06 6.07198e-13 -4.93297e-14 -2.59311e-12 1.80431e-09 2.61363e-09 2.22289e-10 2.33842e-15 -2.13442e-15 -6.32145e-16 1 2.44596e-06 -5.66638e-07 -1.41749e-07 -0.00727575 0.00332617 0.0227133 0.0008
1156 1 0.00498448 0.000296997 0.0207388 0.0008 3.43146e-06 -1.84333e-12 -1.35472e-13 1.6746e-12 -3.92375e-09 -2.15266e-09 8.83333e-10 -1.38768e-15 6.66866e-16 -2.51795e-16 0 0 0 0 0 0 0 0
1157 1 0.000374899 0.00609171 0.0195432 0.0008 3.43146e-06 1.35482e-13 -3.5984e-13 -2.03209e-12 -3.45922e-09 -3.12208e-09 4.62487e-10 -9.81073e-16 -1.28429e-15 -1.58968e-16 0 0 0 0 0 0 0 0
1158 1 -0.00719916 0.000130718 0.024088 0.0008 3.43146e-06 -7.85643e-14 1.63534e-13 -8.99429e-13 -2.39679e-09 1.17904e-09 2.14145e-10 -9.2311e-16 -2.53736e-15 -3.20004e-15 1 0.000433969 8.03862e-05 -5.79305e-05 -0.00799868 0.000145235 0.024088 0.0008
1159 1 0.00321501 0.00320706 0.018843 0.0008 3.43146e-06 -1.08398e-12 2.87315e-13 5.35479e-12 -2.32938e-09 -2.95049e-09 1.1447e-09 4.6949e-17 -5.34804e-15 -1.49053e-15 0 0 0 0 0 0 0 0
1160 1 -0.00306079 -0.00501473 0.0234646 0.0008 3.43146e-06 8.43006e-13 -1.53223e-12 1.54366e-12 2.49249e-09 3.60911e-09 2.43651e-09 1.27758e-15 -3.92084e-16 2.98956e-15 0 0 0 0 0 0 0 0
1161 1 0.00160227 -0.0020031 0.0222222 0.0008 3.43146e-06 -5.04297e-13 -3.07853e-13 -1.24133e-12 -2.25101e-10 2.30862e-10 -1.67857e-09 -5.11145e-15 -7.26571e-16 5.1302e-16 0 0 0 0 0 0 0 0
1162 1 -0.00570513 0.000755057 0.0186597 0.0008 3.43146e-06 -2.1678e-12 -2.71063e-13 1.59609e-12 1.55875e-09 -2.2178e-09 1.18513e-09 -2.08009e-16 6.2288e-16 -1.86586e-15 0 0 0 0 0 0 0 0
1163 1 -0.00646889 0.00316134 0.024318 0.0008 3.43146e-06 -1.33779e-12 1.08258e-12 -2.87692e-13 -2.06999e-09 1.45116e-09 6.01537e-10 1.6987e-15 -2.39048e-16 6.05452e-16 1 1.64732e-05 -1.15529e-05 -5.47065e-07 -0.00718761 0.00351258 0.024318 0.0008
1164 1 -0.00230153 0.00134529 0.0206409 0.0008 3.43146e-06 -1.08246e-12 -2.86167e-13 -3.02317e-13 -5.93826e-10 1.36931e-09 -1.77229e-10 -6.66637e-16 -9.77729e-16 4.31691e-15 0 0 0 0 0 0 0 0
1165 1 -0.00700529 0.00166487 0.0244975 0.0008 3.43146e-06 -3.62928e-13 5.41422e-13 -5.14712e-13 2.88476e-09 9.05957e-12 5.58688e-10 1.79823e-15 3.63303e-16 2.25618e-15 1 0.000534556 -0.000137337 3.68139e-05 -0.00778321 0.00184975 0.0244975 0.0008
1166 1 0.00440098 0.00415309 0.0219557 0.0008 3.43146e-06 -5.70192e-13 -2.97592e-13 -1.91452e-12 6.50697e-10 2.55089e-09 -1.52617e-09 1.07819e-15 -2.23848e-15 1.87729e-15 0 0 0 0 0 0 0 0
1167 1 0.00147595 -0.00580378 0.0226333 0.0008 3.43146e-06 -5.4217e-13 1.9924e-12 -1.18799e-12 -7.81659e-10 -1.19447e-09 2.29062e-09 1.38758e-16 -5.9076e-16 2.19138e-15 0 0 0 0 0 0 0 0
1168 1 -0.00111681 -0.000739774 0.0241796 0.0008 3.43146e-06 5.41788e-13 2.71114e-13 -1.42317e-13 -8.2584e-10 1.64275e-09 4.87389e-10 -3.4424e-16 -8.00628e-17 -2.21614e-15 0 0 0 0 0 0 0 0
1169 1 -0.00376302 -0.00382999 0.0244161 0.0008 3.43146e-06 -1.08402e-12 8.98606e-13 2.63316e-12 2.43116e-11 1.44677e-09 3.74405e-11 3.50718e-16 6.0231e-16 -3.66244e-16 0 0 0 0 0 0 0 0
1170 1 -0.00396881 -0.00224351 0.0243938 0.0008 3.43146e-06 3.4193e-13 1.08243e-12 1.15634e-12 -1.91887e-09 -1.63737e-09 -1.90574e-09 -1.49417e-15 2.03978e-15 4.33209e-16 0 0 0 0 0 0 0 0
1171 1 0.000769757 0.00305161 0.0224587 0.0008 3.43146e-06 8.12199e-13 4.15599e-13 -5.933e-12 -1.05213e-08 -5.27024e-09 -2.91196e-09 -9.05576e-16 -2.96331e-15 -1.03441e-14 0 0 0 0 0 0 0 0
1172 1 0.00227924 0.00562625 0.0229296 0.0008 3.43146e-06 -9.61243e-13 9.42197e-13 5.05014e-12 -3.26183e-09 -2.28799e-09 1.19509e-09 -7.21379e-16 -1.65773e-15 2.62034e-15 0 0 0 0 0 0 0 0
1173 1 0.000908691 0.00711665 0.0249523 0.0008 3.43146e-06 -1.83219e-13 -1.27215e-12 3.62012e-12 2.95167e-09 -5.55511e-10 1.00264e-09 -5.92029e-17 -1.54078e-15 3.82831e-15 0 0 0 0 0 0 0 0
1174 1 -0.00186142 -0.00297422 0.0248559 0.0008 3.43146e-06 5.4212e-13 1.06958e-12 -2.29055e-13 -1.32977e-09 -5.51643e-10 1.18733e-09 -2.00316e-16 8.21575e-16 -4.95465e-16 0 0 0 0 0 0 0 0
1175 1 0.00135044 -0.00142459 0.0192642 0.0008 3.43146e-06 -3.55209e-13 5.41852e-13 -8.29218e-13 3.67953e-10 -8.53327e-10 -8.03768e-10 -1.33868e-15 4.47913e-16 2.59638e-15 0 0 0 0 0 0 0 0
1176 1 0.00101139 0.000931337 0.0255372 0.0008 3.43146e-06 5.27889e-13 2.70149e-13 -1.97002e-12 -1.19934e-09 -4.66904e-10 -1.7721e-09 -9.78691e-16 6.45677e-17 -1.70717e-15 0 0 0 0 0 0 0 0
1177 1 -0.00716595 -0.000702652 0.0254556 0.0008 3.43146e-06 1.27868e-12 7.78397e-14 -1.07952e-12 9.79886e-10 1.43245e-09 -6.8819e-11 2.40391e-15 3.09895e-16 3.25411e-15 1 0.000370281 2.18537e-05 2.16573e-05 -0.00796182 -0.000780691 0.0254556 0.0008
1178 1 0.0045726 0.00556196 0.021218 0.0008 3.43146e-06 3.35262e-13 8.36671e-13 -1.27401e-12 9.55735e-10 -1.39589e-09 -3.07139e-10 -2.21787e-16 -1.02874e-15 4.89603e-16 1 -0.00015758 -0.000281128 5.88887e-05 0.00508047 0.00617971 0.021218 0.0008
1179 1 -0.00378398 -0.00441134 0.0215696 0.0008 3.43146e-06 -6.87875e-13 -2.15977e-12 -1.50545e-12 3.2407e-09 -7.85338e-10 6.05462e-10 9.38189e-16 4.20474e-16 1.28879e-15 0 0 0 0 0 0 0 0
1180 1 0.00105491 0.000704604 0.0231727 0.0008 3.43146e-06 5.42071e-13 3.78528e-13 -6.27606e-13 -8.04871e-10 1.02589e-09 -1.45823e-09 -4.74215e-16 3.16843e-15 -5.41937e-15 0 0 0 0 0 0 0 0
1181 1 -0.00224901 0.00683996 0.0203888 0.0008 3.43146e-06 -6.16506e-13 -1.28695e-12 -1.69449e-12 1.21146e-09 3.20422e-09 -1.31935e-09 -1.86893e-15 2.35325e-16 1.14241e-15 1 7.41971e-05 -0.000197615 6.75159e-05 -0.00249882 0.00759973 0.0203888 0.0008
1182 1 0.00297975 0.00655451 0.0191587 0.0008 3.43146e-06 -1.08412e-12 1.669e-12 1.94275e-12 -2.75651e-09 -9.23473e-10 -2.50079e-09 -1.45332e-16 -1.17849e-15 -1.95725e-15 1 -4.26713e-06 -1.5375e-05 -1.65587e-07 0.00331081 0.00728275 0.0191587 0.0008
1183 1 0.00445413 -0.00565793 0.0200784 0.0008 3.43146e-06 -1.46144e-12 1.33214e-12 3.31646e-13 -1.31477e-09 2.35515e-09 4.01011e-10 -7.16994e-17 -8.92765e-17 -1.20736e-15 1 -0.000893529 0.00120982 3.90813e-05 0.00494848 -0.0062859 0.0200784 0.0008
1184 1 -0.00507764 -0.000691882 0.0222088 0.0008 3.43146e-06 -9.47898e-13 2.68296e-13 9.84965e-13 -8.28883e-10 -1.90947e-09 7.94624e-10 -1.40282e-15 4.48557e-16 2.64647e-15 0 0 0 0 0 0 0 0
1185 1 0.00211424 0.00251377 0.0231391 0.0008 3.43146e-06 3.96208e-13 6.3389e-13 2.8345e-12 -2.17013e-09 -7.09342e-10 -1.35928e-09 4.57201e-16 7.75633e-16 5.08008e-15 0 0 0 0 0 0 0 0
1186 1 -0.0029774 0.000195611 0.021805 0.0008 3.43146e-06 -3.64809e-14 -3.8948e-14 5.02816e-13 9.11586e-11 -3.63471e-11 6.20437e-10 -1.39033e-15 -3.00537e-17 2.60181e-15 0 0 0 0 0 0 0 0
1187 1 -0.000523594 -0.0043959 0.022325 0.0008 3.43146e-06 -2.69348e-13 -1.71022e-13 3.75698e-13 9.55403e-10 -8.21877e-10 -1.23618e-09 7.28275e-16 -1.73988e-15 -4.4313e-15 0 0 0 0 0 0 0 0
1188 1 -0.000238497 0.00194761 0.0195078 0.0008 3.43146e-06 -7.47791e-14 5.421e-13 -1.34414e-12 8.35852e-10 2.3792e-10 3.50228e-10 2.61359e-16 5.98382e-16 -4.91206e-16 0 0 0 0 0 0 0 0
1189 1 -0.00173819 -0.00698732 0.0231752 0.0008 3.43146e-06 -9.50076e-14 -4.73046e-15 -6.67242e-14 9.23705e-11 8.53781e-10 6.6683e-11 -1.50717e-15 -7.28417e-18 1.62443e-16 1 0.000112132 0.000284306 6.7851e-05 -0.00193125 -0.00776339 0.0231752 0.0008
1190 1 -0.00295968 0.00129146 0.0232077 0.0008 3.43146e-06 1.48904e-13 5.41515e-13 -7.36746e-13 4.15575e-11 -1.00181e-09 2.34316e-10 -2.05816e-15 7.74613e-17 1.68246e-15 0 0 0 0 0 0 0 0
1191 1 -0.00719514 -0.000276868 0.0202979 0.0008 3.43146e-06 -1.34517e-12 -1.34867e-13 -1.84526e-13 2.46371e-10 1.91001e-10 -9.04502e-11 -9.67052e-16 -2.66381e-16 6.32338e-16 1 0.000681332 -8.61422e-06 -0.000170042 -0.00799408 -0.000307611 0.0202979 0.0008
1192 1 0.000305434 -0.00461743 0.0209749 0.0008 3.43146e-06 -4.67331e-14 -1.56369e-12 -3.99718e-14 -8.74091e-10 4.46535e-10 -2.00039e-09 -2.38603e-15 1.83254e-15 -8.54613e-16 0 0 0 0 0 0 0 0
1193 1 -0.00528036 0.00198714 0.0227705 0.0008 3.43146e-06 -2.16862e-12 1.08409e-12 -1.57562e-12 1.52767e-09 2.43384e-09 -1.74272e-09 1.6042e-16 6.65369e-16 -9.02213e-15 0 0 0 0 0 0 0 0
1194 1 -0.000745952 0.00296635 0.021941 0.0008 3.43146e-06 -9.89994e-13 -5.08996e-13 -1.37511e-12 -1.27796e-10 -1.58563e-09 1.16676e-09 -4.45122e-16 2.43061e-15 -1.24945e-15 0 0 0 0 0 0 0 0
1195 1 0.000356055 0.00451749 0.0198272 0.0008 3.43146e-06 1.35611e-13 1.10306e-12 1.71681e-12 -1.5063e-09 1.80127e-09 -2.59209e-10 -6.34952e-16 -3.02278e-15 -3.36381e-16 0 0 0 0 0 0 0 0
1196 1 0.00329001 0.0018205 0.0223049 0.0008 3.43146e-06 7.68243e-13 4.12052e-13 2.59905e-12 2.17069e-09 6.04301e-10 1.50478e-09 1.56596e-15 1.69588e-15 2.89081e-16 0 0 0 0 0 0 0 0
1197 1 0.000967814 0.00571253 0.0212225 0.0008 3.43146e-06 2.72248e-13 3.72353e-13 4.27703e-12 7.39865e-11 -1.18966e-09 1.8632e-09 6.25021e-17 -4.73024e-15 3.04192e-15 0 0 0 0 0 0 0 0
1198 1 0.000957692 -0.00556074 0.0198584 0.0008 3.43146e-06 -2.58491e-13 1.75291e-12 1.44433e-12 -4.75772e-10 -1.18106e-09 1.39552e-09 -5.27619e-16 2.29885e-15 1.7917e-15 0 0 0 0 0 0 0 0
1199 1 -0.00577572 0.00429935 0.0234327 0.0008 3.43146e-06 -1.78298e-12 1.18914e-12 -2.14607e-13 2.1731e-09 -1.2877e-09 -1.30813e-10 8.91843e-16 5.83281e-16 -7.92537e-16 1 0.000195192 -0.000132462 1.89939e-05 -0.00641726 0.0047769 0.0234327 0.0008
1200 1 0.00140348 -0.00493798 0.0239761 0.0008 3.43146e-06 5.41612e-13 -9.97099e-13 -2.58553e-12 2.72295e-09 4.94325e-09 1.17214e-09 -7.27222e-17 -1.04247e-16 1.1744e-15 0 0 0 0 0 0 0 0
1201 1 0.00677803 0.00242894 0.021702 0.0008 3.43146e-06 1.28959e-12 8.70321e-13 -2.08027e-12 -1.77848e-10 -2.80267e-09 -5.35798e-10 -9.01586e-16 -1.29621e-15 3.34331e-16 1 -5.64542e-05 -2.58823e-05 4.64295e-06 0.00753104 0.00269878 0.021702 0.0008
1202 1 0.00464992 0.00194398 0.0231381 0.0008 3.43146e-06 -8.99316e-13 2.88638e-13 -5.9815e-13 1.03937e-09 2.01831e-09 7.00554e-10 3.04555e-15 -2.37208e-15 -2.65706e-16 0 0 0 0 0 0 0 0
1203 1 0.00173732 0.00532261 0.0198753 0.0008 3.43146e-06 1.16158e-13 5.23762e-13 -4.28644e-12 1.65128e-09 6.99639e-09 -2.15795e-10 1.82223e-15 -6.76639e-15 4.05873e-16 0 0 0 0 0 0 0 0
1204 1 0.00238523 0.00294986 0.021624 0.0008 3.43146e-06 1.08422e-12 -5.29253e-13 5.7646e-12 1.82574e-09 -5.39459e-10 1.31273e-10 1.00646e-15 5.47411e-15 3.64268e-15 0 0 0 0 0 0 0 0
1205 1 0.00320317 0.004699 0.025234 0.0008 3.43146e-06 -1.08416e-12 -1.4967e-12 -2.52433e-12 5.92459e-09 -1.46181e-09 -1.73261e-10 -3.40216e-16 -6.30036e-15 -4.80401e-16 0 0 0 0 0 0 0 0
1206 1 0.0033802 0.00174339 0.0195033 0.0008 3.43146e-06 9.43325e-13 5.4186e-13 -1.26162e-13 -7.92186e-10 -1.30274e-09 2.18007e-10 -8.37351e-17 -1.20728e-16 4.92953e-15 0 0 0 0 0 0 0 0
1207 1 0.00020367 -0.00620769 0.0211118 0.0008 3.43146e-06 -2.10813e-14 4.4115e-13 -5.96924e-13 1.34437e-09 -1.05851e-09 1.90476e-09 -1.72635e-16 1.19247e-15 7.8579e-16 0 0 0 0 0 0 0 0
1208 1 0.000576332 0.00083125 0.0210916 0.0008 3.43146e-06 1.41006e-13 -7.11154e-15 -2.77967e-13 8.18357e-10 -8.60118e-10 -2.41564e-10 -2.34223e-15 1.8466e-15 -2.36466e-15 0 0 0 0 0 0 0 0
1209 1 -0.00430583 0.000642054 0.0226379 0.0008 3.43146e-06 -9.761e-13 2.71025e-13 -6.92282e-13 -2.54915e-09 3.53759e-10 -1.56736e-09 -4.02463e-15 -9.0331e-16 -1.84607e-15 0 0 0 0 0 0 0 0
1210 1 -0.00154073 -0.0054 0.0231481 0.0008 3.43146e-06 -5.32326e-13 1.05979e-12 -1.95292e-12 -2.33339e-09 1.25625e-09 6.39613e-10 -1.7017e-15 1.69587e-15 1.66555e-15 0 0 0 0 0 0 0 0
1211 1 -0.00697373 -0.00179123 0.0242756 0.0008 3.43146e-06 -2.00242e-12 1.17268e-13 9.34127e-13 2.1997e-10 -1.1523e-09 7.58951e-10 -2.51905e-15 1.12206e-15 -4.16207e-16 1 6.96191e-05 6.56086e-06 1.53984e-05 -0.00774848 -0.00199023 0.0242756 0.0008
1212 1 0.00225097 0.00580209 0.0245739 0.0008 3.43146e-06 5.25481e-13 -2.47375e-13 1.46864e-12 -9.6976e-10 2.41905e-09 -1.63245e-09 -4.52544e-16 6.66331e-16 2.26459e-15 0 0 0 0 0 0 0 0
1213 1 0.00586118 -0.000393231 0.0250197 0.0008 3.43146e-06 6.85135e-13 -4.01318e-13 -2.24061e-12 7.66465e-09 1.4271e-10 -3.8228e-09 7.42815e-15 1.46749e-15 2.4333e-16 0 0 0 0 0 0 0 0
1214 1 -0.00194341 -0.00453294 0.0245034 0.0008 3.43146e-06 4.5596e-13 9.04252e-14 2.07735e-12 -3.06337e-09 -4.04916e-09 -5.66174e-10 -9.37265e-16 3.05796e-15 -1.48425e-15 0 0 0 0 0 0 0 0
1215 1 0.00660361 -0.00287062 0.0187294 0.0008 3.43146e-06 -7.75564e-13 1.44371e-13 6.84014e-14 -1.58412e-10 2.45411e-10 1.79476e-10 7.48388e-16 7.94634e-16 1.28691e-15 1 -0.000786949 0.00044135 0.000257096 0.00733677 -0.00318933 0.0187294 0.0008
1216 1 0.000606341 0.00590173 0.0238393 0.0008 3.43146e-06 -1.11638e-13 -4.01416e-14 4.05225e-12 -1.25995e-09 8.25841e-10 1.0087e-09 -1.06573e-15 -1.60673e-15 3.65878e-15 0 0 0 0 0 0 0 0
1217 1 -0.000224168 -0.00193955 0.0214988 0.0008 3.43146e-06 3.42252e-14 -1.25683e-13 -2.43589e-12 3.28482e-10 4.86687e-10 -4.66077e-10 9.383e-16 -1.19829e-15 9.37672e-16 0 0 0 0 0 0 0 0
1218 1 0.00300563 -0.00111169 0.0207701 0.0008 3.43146e-06 -1.33935e-12 9.53177e-14 -2.01688e-13 9.31732e-10 -6.61452e-10 2.2102e-09 -3.76601e-15 5.50667e-15 -5.3042e-15 0 0 0 0 0 0 0 0
1219 1 0.00100787 -0.00712931 0.0178496 0.0008 3.43146e-06 -1.48666e-13 -8.48e-13 4.51054e-14 2.84248e-10 -1.62339e-09 3.35092e-10 -5.28663e-16 1.98092e-17 -3.75054e-16 1 -2.36367e-06 0.0001937 1.26856e-05 0.00111982 -0.00792124 0.0178496 0.0008
1220 1 -0.000857805 -0.00714931 0.0218496 0.0008 3.43146e-06 -8.43533e-14 -9.50586e-13 -9.97868e-13 -1.31877e-09 -1.92826e-10 -3.32301e-11 -6.93834e-16 1.12961e-15 8.96911e-16 1 0.000174807 0.000952916 4.42898e-05 -0.000953038 -0.00794303 0.0218496 0.0008
1221 1 -0.00284401 0.0051282 0.0215201 0.0008 3.43146e-06 -8.34156e-13 2.16492e-12 -3.643e-13 4.24195e-09 -6.80404e-09 -4.51201e-10 -6.41928e-17 -6.87303e-17 3.14177e-15 0 0 0 0 0 0 0 0
1222 1 -0.00467846 0.00317673 0.023741 0.0008 3.43146e-06 -5.69444e-13 1.07653e-12 -5.40991e-13 6.95238e-10 -7.37135e-10 1.83711e-09 3.21307e-15 4.517e-16 4.53556e-16 0 0 0 0 0 0 0 0
1223 1 0.00711561 0.00110133 0.0255258 0.0008 3.43146e-06 -3.44418e-13 -5.4193e-13 3.99629e-13 -2.07937e-09 1.6306e-10 6.07756e-10 -9.56608e-16 -1.38579e-16 1.05868e-15 1 -0.000399638 -9.0056e-05 -1.60964e-05 0.00790586 0.00122365 0.0255258 0.0008
1224 1 0.00714485 0.000890201 0.0223323 0.0008 3.43146e-06 1.35797e-12 2.42523e-13 -5.258e-13 -3.54512e-09 -1.03251e-09 -1.38676e-10 2.05689e-15 -4.97083e-16 -4.59339e-19 1 -5.70175e-05 -8.7858e-06 4.8437e-08 0.00793862 0.0009891 0.0223323 0.0008
1225 1 -0.00416019 -0.00444218 0.0200151 0.0008 3.43146e-06 -2.52458e-13 -1.63338e-12 7.29078e-13 -2.31624e-09 9.14709e-10 6.98632e-10 4.77321e-16 1.16538e-15 9.67144e-17 0 0 0 0 0 0 0 0
1226 1 -0.00470321 0.00337429 0.0202398 0.0008 3.43146e-06 3.82921e-13 -6.25342e-13 -9.87131e-13 -3.93484e-10 1.42266e-09 -5.92647e-10 -1.91596e-16 1.54324e-16 -1.52229e-15 0 0 0 0 0 0 0 0
1227 1 0.00226676 -0.00405607 0.024994 0.0008 3.43146e-06 1.51419e-13 -1.15552e-12 -2.61236e-12 7.71623e-10 -1.72371e-09 3.04967e-09 4.64729e-15 -1.09845e-15 -5.32402e-15 0 0 0 0 0 0 0 0
1228 1 0.00645673 -0.0031867 0.0242512 0.0008 3.43146e-06 -8.66494e-14 -8.84871e-13 -5.65819e-13 -1.38208e-09 -2.11197e-10 1.03668e-09 -1.01827e-15 1.58021e-17 2.47849e-15 1 -0.000320981 0.000179228 3.09273e-05 0.00717384 -0.00354062 0.0242512 0.0008
1229 1 0.00174259 0.00150263 0.0219566 0.0008 3.43146e-06 5.37165e-13 -1.95999e-13 2.16958e-12 1.57674e-09 -5.39277e-10 6.0444e-10 -3.81041e-16 6.62596e-17 -1.86602e-15 0 0 0 0 0 0 0 0
1230 1 -0.00297316 -0.00233447 0.0219444 0.0008 3.43146e-06 -6.04544e-13 -9.15946e-13 -7.02828e-13 5.7611e-10 -6.13915e-10 -1.16463e-09 -2.54571e-15 -1.22816e-15 1.28156e-16 0 0 0 0 0 0 0 0
1231 1 -0.00216098 0.000757782 0.0244867 0.0008 3.43146e-06 -4.97949e-13 2.71229e-13 6.49844e-13 5.1385e-10 -1.01084e-09 4.96984e-10 -6.38161e-16 -1.29994e-15 -3.08842e-16 0 0 0 0 0 0 0 0
1232 1 -0.00218283 -0.000128719 0.0231551 0.0008 3.43146e-06 -1.69732e-13 6.7491e-14 4.85829e-13 -3.47635e-10 1.61704e-10 -8.53606e-10 -3.83976e-15 -3.2171e-16 8.13397e-16 0 0 0 0 0 0 0 0
1233 1 0.00719966 9.02606e-05 0.0242891 0.0008 3.43146e-06 -7.11548e-13 3.46477e-14 6.46408e-13 2.46464e-09 8.17591e-10 -2.59463e-11 -1.55253e-15 5.26919e-17 -5.13691e-16 1 -0.000225052 -1.57679e-05 2.62446e-05 0.00799937 0.000100286 0.0242891 0.0008
1234 1 0.00357757 0.00468931 0.0236788 0.0008 3.43146e-06 6.37729e-13 1.58092e-12 -7.01677e-14 -1.62333e-09 -1.33306e-09 -1.5849e-09 -1.51329e-15 -2.49751e-15 1.7739e-15 0 0 0 0 0 0 0 0
1235 1 0.00246751 -0.00676405 0.0234423 0.0008 3.43146e-06 -2.28065e-13 2.16393e-12 2.90043e-13 8.256e-10 -1.0499e-09 -6.81855e-10 1.20382e-15 -7.68168e-16 -2.16979e-16 1 -1.47251e-05 3.4391e-05 6.65899e-06 0.00274165 -0.00751554 0.0234423 0.0008
1236 1 0.000835873 0.0023558 0.0206816 0.0008 3.43146e-06 -2.69153e-13 7.21554e-13 -8.45226e-13 -8.75224e-10 3.42495e-09 2.27292e-10 -6.9e-16 3.01411e-15 1.48513e-16 0 0 0 0 0 0 0 0
1237 1 0.00248907 -0.00311568 0.0214903 0.0008 3.43146e-06 -8.03072e-13 -3.91929e-13 6.76631e-14 -7.6006e-10 -1.04247e-09 1.31725e-09 -2.66829e-15 -1.07755e-15 -1.99126e-15 0 0 0 0 0 0 0 0
1238 1 -0.000706632 0.00429877 0.022825 0.0008 3.43146e-06 -1.58064e-13 -7.01767e-13 -2.66313e-12 -9.98592e-10 3.23849e-09 -1.60073e-09 7.44393e-16 2.56469e-15 -7.054e-16 0 0 0 0 0 0 0 0
1239 1 -0.00719614 -0.000236005 0.0218973 0.0008 3.43146e-06 -2.09327e-12 -2.38324e-14 5.80561e-13 -4.80452e-10 -1.00604e-09 5.14685e-11 9.19603e-16 -9.86177e-16 -4.97729e-15 1 5.78919e-07 -3.35694e-08 -2.0888e-08 -0.0079957 -0.000262228 0.0218973 0.0008
1240 1 0.00567129 -0.00129754 0.0237138 0.0008 3.43146e-06 -2.16822e-12 -5.41996e-13 -4.60205e-12 -6.96517e-09 -1.62586e-09 -4.02024e-09 1.39278e-16 6.62281e-16 -2.18122e-15 0 0 0 0 0 0 0 0
1241 1 0.0043 0.000599005 0.0244261 0.0008 3.43146e-06 1.63523e-12 -2.59481e-13 -7.8373e-13 2.26447e-10 3.59178e-09 -5.01655e-10 3.01741e-15 -4.7183e-15 -6.09224e-15 0 0 0 0 0 0 0 0
1242 1 0.00430464 -0.00349607 0.0212832 0.0008 3.43146e-06 -2.11412e-12 1.08401e-12 -1.81834e-12 -4.82943e-09 -1.97193e-09 3.70335e-10 -1.81725e-15 -1.86258e-16 -2.58782e-16 0 0 0 0 0 0 0 0
1243 1 -0.00176003 0.00698187 0.024636 0.0008 3.43146e-06 -5.41704e-13 -5.86816e-13 -6.66232e-13 1.22904e-09 -1.66189e-09 -7.91077e-10 3.33126e-16 2.20431e-15 -1.77963e-15 1 6.51511e-05 -0.00033645 3.1905e-05 -0.0019555 0.00775732 0.024636 0.0008
1244 1 0.0034755 0.00630629 0.0221145 0.0008 3.43146e-06 -1.08342e-12 -7.51107e-13 2.49975e-12 -1.78791e-09 3.21531e-09 -7.05517e-10 -6.46034e-16 -1.42455e-15 -3.03712e-16 1 -0.000528404 -0.00079182 -1.42657e-05 0.00386135 0.00700642 0.0221145 0.0008
1245 1 0.00539598 -0.00242109 0.0208218 0.0008 3.43146e-06 -1.15466e-12 7.4069e-14 -1.49022e-12 4.86653e-10 -2.91393e-09 -2.69949e-10 3.30159e-15 2.20689e-15 -2.61067e-15 0 0 0 0 0 0 0 0
1246 1 -0.00642747 -0.00324494 0.0187612 0.0008 3.43146e-06 -7.58395e-13 5.83088e-13 -3.27046e-12 -2.17546e-09 3.51217e-09 1.10558e-09 -2.83955e-16 -5.60873e-16 4.05752e-16 1 9.02114e-05 6.14491e-05 1.21591e-05 -0.0071415 -0.00360542 0.0187612 0.0008
1247 1 0.005481 -0.00466901 0.0247794 0.0008 3.43146e-06 -1.71259e-12 -1.24681e-12 -3.38355e-12 1.39743e-10 -5.27559e-09 2.35379e-09 6.8819e-16 -1.07976e-15 2.00818e-15 1 -2.98479e-05 1.99233e-05 -3.37309e-07 0.00608994 -0.00518774 0.0247794 0.0008
1248 1 0.00495912 0.00266855 0.0217458 0.0008 3.43146e-06 -2.56442e-14 1.06397e-12 -9.02848e-13 -1.11063e-09 -4.67812e-09 2.56287e-09 1.45513e-15 -9.47153e-16 4.91465e-16 0 0 0 0 0 0 0 0
1249 1 0.00195441 0.00197825 0.0247741 0.0008 3.43146e-06 -5.42583e-13 1.16495e-13 -3.90723e-13 4.44236e-10 -5.25347e-10 5.66485e-10 1.93592e-15 -2.16877e-15 1.05051e-15 0 0 0 0 0 0 0 0
1250 1 -0.00332342 0.00362757 0.0192014 0.0008 3.43146e-06 -1.0843e-12 -1.01359e-12 -1.88941e-12 9.61089e-10 9.12941e-10 -5.55179e-10 -8.64035e-16 -2.44375e-15 1.59594e-15 0 0 0 0 0 0 0 0
1251 1 0.0035142 0.00326711 0.0229494 0.0008 3.43146e-06 -2.13632e-13 -5.93688e-13 2.03466e-12 -1.91087e-09 1.6536e-09 6.01408e-10 1.71493e-15 -3.18188e-15 5.01266e-16 0 0 0 0 0 0 0 0
1252 1 -0.00387043 -0.00607171 0.0243514 0.0008 3.43146e-06 1.0825e-12 -8.53054e-13 3.86147e-13 -2.91624e-09 -5.39487e-09 -1.76625e-09 5.95157e-16 3.95194e-16 4.94196e-16 1 0.000266284 0.000487954 3.85254e-05 -0.00430023 -0.00674596 0.0243514 0.0008
1253 1 0.00476424 0.00331959 0.0239464 0.0008 3.43146e-06 -1.3063e-12 1.08268e-12 5.0791e-13 -1.75922e-10 -9.43365e-10 6.15331e-10 2.36917e-15 5.3425e-17 2.0718e-15 0 0 0 0 0 0 0 0
1254 1 -0.00264344 -0.00529643 0.0208805 0.0008 3.43146e-06 1.06181e-12 -3.10223e-14 -2.7474e-12 1.85522e-09 -1.38722e-09 6.208e-10 -5.41758e-16 -1.79365e-17 -4.57645e-16 0 0 0 0 0 0 0 0
1255 1 0.00304403 -0.00103283 0.0223675 0.0008 3.43146e-06 -8.51081e-13 -3.564e-13 -3.14122e-13 -4.34182e-10 1.35147e-09 -6.87373e-10 -6.13781e-15 1.32083e-15 -1.1083e-15 0 0 0 0 0 0 0 0
1256 1 0.00052843 0.00718079 0.0225975 0.0008 3.43146e-06 -2.71059e-13 -1.90457e-12 -3.63948e-13 9.86192e-10 2.86549e-09 -4.26235e-10 3.10046e-16 -3.28673e-16 7.06565e-16 1 -3.68851e-05 -0.000195479 5.60646e-05 0.000587128 0.00797843 0.0225975 0.0008
1257 1 0.0058023 -0.00426334 0.0232656 0.0008 3.43146e-06 1.25383e-12 -9.09149e-13 2.47889e-13 7.55748e-10 -2.1673e-10 8.97649e-11 -1.76503e-15 1.13418e-15 -1.28891e-16 1 -0.000113819 0.000145338 4.75195e-05 0.00644683 -0.00473692 0.0232656 0.0008
1258 1 -0.00438781 -0.00570858 0.0228815 0.0008 3.43146e-06 -1.52501e-12 1.58421e-12 1.79329e-13 -9.87802e-10 -1.63079e-09 2.70936e-09 6.2201e-16 3.44073e-16 4.0425e-16 1 1.07026e-05 2.19689e-05 -1.5361e-06 -0.00487531 -0.00634282 0.0228815 0.0008
1259 1 -0.00637768 -0.000849912 0.0231275 0.0008 3.43146e-06 -2.16674e-12 2.70558e-13 9.59426e-13 -3.07415e-10 8.73875e-10 -1.42111e-10 2.034e-16 9.7978e-17 -5.60748e-15 0 0 0 0 0 0 0 0
1260 1 -0.00492302 -0.00108286 0.0237529 0.0008 3.43146e-06 -2.16802e-12 3.63278e-13 3.29118e-13 -1.36262e-09 -1.61273e-10 -4.7923e-10 6.48162e-16 2.29538e-15 1.05645e-15 0 0 0 0 0 0 0 0
1261 1 0.00154761 0.00400586 0.0207634 0.0008 3.43146e-06 5.35268e-13 2.11394e-12 1.24382e-12 -7.21621e-09 2.23357e-09 -4.93393e-09 -2.94956e-16 1.07501e-15 5.40062e-16 0 0 0 0 0 0 0 0
1262 1 0.000814639 -0.00495807 0.0254632 0.0008 3.43146e-06 2.70689e-13 2.16831e-12 -4.17271e-12 -6.64221e-09 -5.93552e-09 -2.17729e-09 -1.24063e-15 -1.42877e-15 3.58053e-15 0 0 0 0 0 0 0 0
1263 1 0.00161721 -0.00408044 0.0202336 0.0008 3.43146e-06 1.394e-13 -9.35673e-13 -9.87899e-13 2.23112e-09 9.82816e-10 1.74335e-09 -7.66137e-16 1.91628e-15 1.14545e-15 0 0 0 0 0 0 0 0
1264 1 0.00450793 -0.00462543 0.0223981 0.0008 3.43146e-06 -1.54616e-12 5.2635e-13 -1.25227e-12 4.92407e-09 1.86471e-09 5.72504e-10 7.97894e-16 -2.04888e-15 1.93843e-16 0 0 0 0 0 0 0 0
1265 1 0.00619604 -0.00365011 0.0218413 0.0008 3.43146e-06 1.30282e-13 -2.07193e-13 -5.37161e-13 -2.82127e-10 1.80341e-09 4.49269e-10 3.96916e-16 2.59852e-15 5.51184e-16 0 0 0 0 0 0 0 0
1266 1 -0.00193938 0.00252194 0.0230113 0.0008 3.43146e-06 -6.99837e-14 1.08323e-12 -8.15016e-13 -1.25542e-09 -1.86482e-09 -5.13569e-10 2.51441e-15 -8.91686e-16 2.04013e-15 0 0 0 0 0 0 0 0
1267 1 0.00130723 0.00163085 0.0192197 0.0008 3.43146e-06 5.79125e-15 5.41941e-13 -1.24944e-12 -1.91826e-10 -1.02387e-09 -1.60875e-09 6.61151e-15 1.48277e-16 -1.39829e-15 0 0 0 0 0 0 0 0
1268 1 -0.0034473 0.00298123 0.0227384 0.0008 3.43146e-06 6.69731e-13 1.08372e-12 -1.84021e-12 -2.02372e-09 1.32702e-09 -3.07819e-10 -2.95577e-16 7.45991e-16 1.95143e-15 0 0 0 0 0 0 0 0
1269 1 -0.00225521 0.00278425 0.0214427 0.0008 3.43146e-06 -1.08393e-12 -4.09845e-14 -1.80407e-12 2.11132e-09 1.64486e-09 -1.08995e-09 -4.77784e-16 8.64666e-16 -6.7905e-17 0 0 0 0 0 0 0 0
1270 1 0.000985796 -0.00713237 0.0247898 0.0008 3.43146e-06 2.52048e-14 1.33948e-12 -7.22986e-13 -9.38865e-10 4.32139e-10 -2.25774e-10 -3.00092e-16 -3.88119e-16 -7.40009e-16 1 -2.91791e-05 0.000144771 2.834e-06 0.0010953 -0.00792466 0.0247898 0.0008
1271 1 0.00455892 -0.000594774 0.0228039 0.0008 3.43146e-06 1.70274e-12 -1.20793e-13 -4.49889e-12 1.7585e-09 2.45323e-09 -2.97995e-09 -3.37038e-15 3.67397e-15 -7.37381e-15 0 0 0 0 0 0 0 0
1272 1 -0.00521749 -0.0049582 0.0210994 0.0008 3.43146e-06 8.05105e-13 -1.97052e-12 -2.00804e-12 3.19031e-09 -2.51623e-09 5.88481e-10 -3.53628e-16 -1.5149e-15 -2.63168e-15 0 0 0 0 0 0 0 0
1273 1 -0.000803142 -6.72974e-05 0.0223476 0.0008 3.43146e-06 -2.71087e-13 -1.99881e-13 -3.20125e-14 5.66649e-10 4.30018e-10 8.55974e-11 4.27153e-16 1.89142e-15 -4.94458e-15 0 0 0 0 0 0 0 0
1274 1 -0.00171289 0.0037784 0.0239753 0.0008 3.43146e-06 -5.4204e-13 1.08407e-12 -5.09741e-12 -3.08387e-09 2.04272e-09 9.76631e-10 -2.00343e-16 -4.59344e-16 -1.49397e-15 0 0 0 0 0 0 0 0
1275 1 -0.0054453 -0.0024803 0.0217357 0.0008 3.43146e-06 1.94167e-12 1.45542e-13 2.88151e-12 -1.88702e-10 -1.4175e-09 2.20485e-09 -1.44878e-15 -2.19202e-15 1.89748e-15 0 0 0 0 0 0 0 0
1276 1 0.00236141 -0.00454525 0.0221968 0.0008 3.43146e-06 -1.0841e-12 1.43865e-12 -1.02537e-12 1.00859e-09 1.65361e-09 -2.24001e-09 1.57692e-15 -2.66807e-15 -6.74048e-16 0 0 0 0 0 0 0 0
1277 1 0.00150632 0.00457961 0.0238597 0.0008 3.43146e-06 4.58632e-13 2.16197e-12 3.11581e-12 1.99983e-09 -1.42607e-10 1.20013e-09 3.75615e-16 1.88191e-15 3.56804e-15 0 0 0 0 0 0 0 0
1278 1 0.000222056 -0.00115897 0.0234092 0.0008 3.43146e-06 -6.71077e-14 3.36162e-13 -4.07042e-13 -4.6448e-10 1.29517e-10 1.15808e-10 -4.8757e-16 7.50428e-16 -3.35781e-15 0 0 0 0 0 0 0 0
1279 1 -0.00537745 0.00478847 0.0205622 0.0008 3.43146e-06 -1.1916e-12 1.95731e-12 1.72251e-13 1.05068e-09 -1.3167e-09 7.99876e-10 -1.07002e-15 7.7553e-16 -1.63151e-16 1 0.000477681 -0.000426901 2.53619e-05 -0.00597457 0.00532019 0.0205622 0.0008
1280 1 0.00307416 -0.00528368 0.0234236 0.0008 3.43146e-06 -2.65665e-13 -8.40735e-13 5.70674e-13 -9.96183e-10 -4.30076e-10 -8.22478e-10 5.13333e-16 -1.00537e-16 -1.11304e-15 0 0 0 0 0 0 0 0
1281 1 -0.00430244 -0.0022409 0.0228292 0.0008 3.43146e-06 -1.27965e-13 2.97892e-13 4.22186e-13 2.05267e-10 1.97589e-09 -1.09455e-09 -1.10327e-15 -3.44861e-16 2.82592e-15 0 0 0 0 0 0 0 0
1282 1 0.00394112 -0.00200614 0.0232659 0.0008 3.43146e-06 -2.39947e-13 -9.34579e-13 2.00824e-12 -2.91449e-09 -3.69476e-10 -1.24783e-09 -1.79316e-15 -3.1694e-15 -3.23481e-16 0 0 0 0 0 0 0 0
1283 1 -0.00569948 0.000740104 0.0218587 0.0008 3.43146e-06 -1.90882e-12 2.88117e-15 -5.19404e-13 -2.79244e-10 5.32978e-10 4.49019e-10 -2.68585e-15 -5.37217e-15 -1.43974e-15 0 0 0 0 0 0 0 0
1284 1 -0.00490529 0.0034245 0.0221771 0.0008 3.43146e-06 -1.61288e-12 5.59931e-13 -2.29199e-12 -1.57884e-09 1.52174e-09 -6.52432e-10 5.45617e-15 1.67567e-15 -5.12136e-15 0 0 0 0 0 0 0 0
1285 1 -0.00264719 -0.00347895 0.0208753 0.0008 3.43146e-06 -1.08419e-12 -1.08417e-12 -1.22199e-12 6.59366e-11 1.8278e-10 -2.15819e-10 4.3285e-16 -3.95656e-16 2.19143e-15 0 0 0 0 0 0 0 0
1286 1 -0.00451112 -0.00561224 0.0260655 0.0008 3.43146e-06 1.49055e-12 1.91369e-12 4.53519e-13 -2.51061e-09 -3.96034e-09 9.83049e-11 -4.82085e-16 3.08875e-15 6.11706e-17 1 0.000486755 0.000606495 9.6077e-06 -0.005012 -0.00623537 0.0260655 0.0008
1287 1 -0.0047162 0.00544055 0.0255455 0.0008 3.43146e-06 -1.86131e-12 1.01533e-12 -5.1229e-13 -1.39725e-10 8.27417e-10 -9.07702e-10 -3.79441e-16 3.78888e-16 2.28223e-15 1 7.91532e-05 -8.44787e-05 3.13276e-06 -0.00524012 0.00604493 0.0255455 0.0008
1288 1 -0.00187574 0.00274233 0.0288154 0.0008 3.43146e-06 5.41731e-13 -1.08328e-12 2.8828e-12 3.16983e-09 2.59374e-09 -1.77982e-10 -5.05365e-16 4.48697e-16 -6.23966e-15 0 0 0 0 0 0 0 0
1289 1 0.00352252 -0.00627989 0.024592 0.0008 3.43146e-06 -9.85722e-13 -2.06601e-12 9.05039e-13 2.71426e-09 -2.4763e-09 2.44087e-09 3.55852e-15 -2.52898e-15 -1.18321e-15 1 -0.000224004 0.000391392 2.44477e-05 0.00391372 -0.00697731 0.024592 0.0008
1290 1 -0.00595725 -0.00404462 0.0258526 0.0008 3.43146e-06 4.49434e-13 8.57528e-14 4.16939e-13 -3.31867e-09 -2.91146e-09 -2.40006e-10 -3.13513e-16 1.28023e-15 2.2533e-15 1 0.000746699 0.000412795 7.35632e-05 -0.00661867 -0.00449368 0.0258526 0.0008
1291 1 0.000626805 0.00561122 0.0267526 0.0008 3.43146e-06 -2.78915e-13 1.50685e-12 2.38028e-12 2.81541e-10 -2.37229e-09 -2.54476e-09 -9.05759e-16 1.43368e-15 5.35652e-15 0 0 0 0 0 0 0 0
1292 1 -0.0020637 0.0030834 0.027264 0.0008 3.43146e-06 -1.08429e-12 1.08421e-12 4.74018e-12 2.58895e-10 -4.04075e-10 9.566e-10 2.42328e-16 -1.19711e-15 1.79566e-15 0 0 0 0 0 0 0 0
1293 1 -0.00214157 0.00565937 0.0254507 0.0008 3.43146e-06 -9.06899e-13 -8.60174e-13 -2.41721e-12 1.17327e-09 2.63358e-09 -3.68243e-10 -4.68196e-15 7.85428e-15 -4.74333e-15 0 0 0 0 0 0 0 0
1294 1 0.00278182 -0.00106153 0.0267461 0.0008 3.43146e-06 1.08271e-12 5.42065e-13 -8.08888e-13 -4.12e-10 -3.38626e-09 1.38975e-09 3.73963e-17 1.89072e-16 1.00872e-14 0 0 0 0 0 0 0 0
1295 1 0.000238713 7.21163e-05 0.0244307 0.0008 3.43146e-06 -2.11126e-14 1.01451e-13 -1.64847e-12 -6.69443e-10 -6.01567e-10 -6.06288e-10 3.13311e-16 3.5393e-16 -3.68621e-15 0 0 0 0 0 0 0 0
1296 1 -0.0061959 0.00235436 0.025693 0.0008 3.43146e-06 4.52967e-13 7.21283e-13 1.08676e-12 -4.72439e-11 1.49279e-09 2.23608e-09 3.19637e-16 2.34486e-15 4.86589e-15 0 0 0 0 0 0 0 0
1297 1 0.000629742 0.00420016 0.0298227 0.0008 3.43146e-06 1.19375e-12 -2.15494e-12 -3.2053e-12 1.69164e-09 3.26831e-09 -1.39427e-09 -3.24703e-15 5.22142e-16 -1.95721e-15 0 0 0 0 0 0 0 0
1298 1 -0.000273786 0.00304923 0.0251002 0.0008 3.43146e-06 1.79379e-14 1.03788e-12 -1.04325e-12 -2.12963e-09 2.28157e-09 -3.7278e-10 -1.60803e-15 -1.60986e-15 2.30081e-15 0 0 0 0 0 0 0 0
1299 1 0.00176467 0.0069807 0.0236078 0.0008 3.43146e-06 -5.41965e-13 1.88009e-13 1.08005e-12 -7.45033e-10 2.51989e-09 -7.04502e-10 -2.42604e-16 1.91708e-15 7.07877e-16 1 -5.41162e-05 -0.000339023 5.08893e-05 0.00196066 0.00775602 0.0236078 0.0008
1300 1 -0.0037675 0.00192793 0.0279007 0.0008 3.43146e-06 4.84877e-13 -3.57617e-13 1.64441e-12 4.32992e-09 1.43784e-09 1.03479e-09 1.68248e-15 -1.78339e-15 6.61998e-15 0 0 0 0 0 0 0 0
1301 1 -0.00362698 0.00516736 0.0270972 0.0008 3.43146e-06 8.84684e-13 2.16802e-12 -1.9281e-12 3.91443e-09 -6.36316e-11 6.04879e-10 -2.29285e-15 2.07747e-15 1.34648e-15 0 0 0 0 0 0 0 0
1302 1 0.00348615 -0.00343213 0.0227008 0.0008 3.43146e-06 -1.07646e-12 -8.42935e-13 2.62343e-12 1.47243e-09 -1.50039e-09 -6.54579e-10 -4.77411e-16 -5.22648e-15 -4.83805e-17 0 0 0 0 0 0 0 0
1303 1 -0.00543022 0.00190803 0.0243611 0.0008 3.43146e-06 3.14876e-14 5.14994e-13 -7.21628e-13 -5.2313e-10 5.76007e-10 -8.54878e-10 1.61225e-16 -1.41765e-15 2.81868e-15 0 0 0 0 0 0 0 0
1304 1 0.00227045 -0.00239736 0.0286784 0.0008 3.43146e-06 -1.08346e-12 -1.08412e-12 3.30015e-12 -2.87256e-09 3.65104e-09 6.40388e-10 -1.52553e-16 2.77517e-16 7.028e-15 0 0 0 0 0 0 0 0
1305 1 -0.00258805 -0.00170147 0.0264855 0.0008 3.43146e-06 1.08422e-12 -5.17996e-13 -5.1953e-13 1.65967e-10 2.72331e-09 7.58763e-10 1.48805e-16 6.30716e-16 3.13733e-15 0 0 0 0 0 0 0 0
1306 1 -0.00186442 -0.00500207 0.0273969 0.0008 3.43146e-06 5.41888e-13 1.67422e-12 -5.70531e-13 -1.42606e-09 2.48398e-09 1.61348e-09 5.3306e-16 -2.02737e-16 1.15963e-15 0 0 0 0 0 0 0 0
1307 1 -0.00307115 0.00252173 0.024224 0.0008 3.43146e-06 -1.08353e-12 1.08395e-12 2.63255e-13 8.19386e-10 -3.4027e-09 -2.05612e-09 9.3033e-17 7.04338e-16 2.36284e-15 0 0 0 0 0 0 0 0
1308 1 0.00701588 0.0016187 0.0238533 0.0008 3.43146e-06 -5.02715e-13 1.31279e-13 -1.10156e-13 -3.41056e-09 -9.02047e-10 -2.89293e-10 3.61323e-16 1.63526e-15 1.2466e-15 1 -0.000174677 -2.47333e-05 4.85566e-05 0.00779521 0.00179851 0.0238533 0.0008
1309 1 -0.00324349 -0.00290331 0.025658 0.0008 3.43146e-06 -1.69506e-13 1.08353e-12 1.65287e-12 4.36546e-10 2.16964e-09 -6.90137e-10 -5.30997e-15 8.73967e-17 5.19677e-15 0 0 0 0 0 0 0 0
1310 1 -0.000461831 0.00287536 0.0235127 0.0008 3.43146e-06 -1.34808e-13 1.08389e-12 -1.7932e-12 -1.84806e-09 2.33135e-09 -5.27188e-10 -9.50526e-16 -2.06598e-17 4.05757e-15 0 0 0 0 0 0 0 0
1311 1 -0.0064114 -0.00327646 0.0271803 0.0008 3.43146e-06 1.20771e-12 -7.65391e-13 -2.03038e-13 4.35889e-09 2.4167e-09 -1.63698e-09 -6.85354e-16 -5.18677e-16 -1.2827e-15 1 4.83955e-05 2.58553e-05 2.4245e-07 -0.00712369 -0.00364047 0.0271803 0.0008
1312 1 -0.00104198 0.00712443 0.0260584 0.0008 3.43146e-06 1.24989e-13 -1.3732e-12 3.8242e-14 -4.20402e-10 1.98298e-09 -9.06556e-11 8.07435e-16 7.21541e-17 -6.87376e-16 1 4.33789e-05 -0.000224569 1.43549e-05 -0.00115772 0.00791579 0.0260584 0.0008
1313 1 0.00063209 -0.00354995 0.0241716 0.0008 3.43146e-06 2.66815e-13 -1.08057e-12 -2.65056e-12 -5.96991e-09 1.57967e-09 4.46049e-10 7.04627e-16 7.10292e-17 5.53519e-15 0 0 0 0 0 0 0 0
1314 1 -0.001802 0.00697117 0.0290092 0.0008 3.43146e-06 5.41999e-13 3.94665e-13 -3.09717e-12 3.17021e-09 2.93655e-09 9.01811e-10 1.58047e-16 9.53657e-16 -4.23012e-15 1 3.6871e-05 -0.000357901 5.04271e-05 -0.00200214 0.00774541 0.0290092 0.0008
1315 1 0.0025275 -0.00501262 0.0262496 0.0008 3.43146e-06 5.9155e-13 -5.74622e-13 -4.00891e-12 5.00827e-10 -9.66897e-10 1.89399e-09 -2.01123e-15 -1.82139e-15 1.77299e-15 0 0 0 0 0 0 0 0
1316 1 0.00482633 0.00272408 0.0262396 0.0008 3.43146e-06 -6.62354e-13 8.13726e-13 -2.41165e-12 -4.08928e-09 -1.58045e-09 -1.3828e-09 3.3133e-15 -4.95886e-15 1.55901e-15 0 0 0 0 0 0 0 0
1317 1 -0.00509254 -0.00508998 0.0246696 0.0008 3.43146e-06 1.06564e-12 1.11923e-12 -1.53874e-12 8.12077e-10 3.6606e-09 1.03557e-11 1.84447e-16 2.03757e-16 -5.80213e-16 1 6.31008e-05 7.64611e-05 -4.8075e-06 -0.00565828 -0.00565543 0.0246696 0.0008
1318 1 -0.00151437 0.00222024 0.0245236 0.0008 3.43146e-06 -5.42067e-13 1.08358e-12 1.75054e-12 4.76125e-10 5.78892e-10 -8.64998e-11 2.31795e-15 2.08766e-15 5.39836e-16 0 0 0 0 0 0 0 0
1319 1 0.00429879 0.00411569 0.0287018 0.0008 3.43146e-06 1.2178e-12 1.93362e-12 -1.04025e-12 -2.01401e-09 5.61363e-10 -1.32967e-09 2.9456e-15 3.25962e-15 1.54126e-15 0 0 0 0 0 0 0 0
1320 1 0.00246856 0.00156765 0.0262322 0.0008 3.43146e-06 1.08413e-12 5.42338e-13 -8.02793e-13 -1.25354e-09 2.81113e-09 -8.6969e-10 1.71096e-15 -3.28374e-16 -8.70486e-15 0 0 0 0 0 0 0 0
1321 1 0.00326454 0.0016991 0.0238996 0.0008 3.43146e-06 7.72383e-13 2.43071e-14 -6.5355e-14 -1.45888e-09 -5.75753e-10 5.17986e-11 4.86577e-15 -5.82769e-16 -7.78814e-16 0 0 0 0 0 0 0 0
1322 1 -0.00321473 -0.00500769 0.0253499 0.0008 3.43146e-06 1.0228e-12 1.52884e-12 1.09502e-12 2.80221e-10 2.54261e-09 9.48932e-10 -1.09703e-15 3.45421e-15 5.3606e-16 0 0 0 0 0 0 0 0
1323 1 0.0013962 0.00246636 0.0275798 0.0008 3.43146e-06 5.41323e-13 1.06237e-12 4.28532e-12 -7.6512e-09 2.461e-09 -4.58223e-09 1.15857e-16 1.2891e-15 -8.18665e-15 0 0 0 0 0 0 0 0
1324 1 -0.00514792 0.00345916 0.0275162 0.0008 3.43146e-06 2.16766e-12 1.08218e-12 -2.14935e-12 1.56294e-10 3.83858e-09 -7.88084e-11 3.78214e-16 1.04272e-16 -1.51269e-16 0 0 0 0 0 0 0 0
1325 1 0.00328661 -0.00303993 0.0242964 0.0008 3.43146e-06 -1.08383e-12 1.0828e-12 1.02889e-12 8.40118e-10 -3.07419e-09 1.53906e-09 -8.91964e-16 -8.58134e-16 -4.96654e-15 0 0 0 0 0 0 0 0
1326 1 0.00344458 0.00601918 0.026947 0.0008 3.43146e-06 1.08302e-12 4.41492e-13 -8.41901e-13 -6.7383e-10 -1.41658e-09 3.37544e-09 -3.04875e-16 -8.6273e-16 -8.12065e-16 0 0 0 0 0 0 0 0
1327 1 0.00161918 0.00366306 0.0254883 0.0008 3.43146e-06 -6.22063e-15 1.08402e-12 3.89985e-12 -5.38154e-10 3.846e-10 5.10535e-10 -5.75152e-16 -2.08643e-16 2.83453e-15 0 0 0 0 0 0 0 0
1328 1 0.00447179 -0.00152222 0.0247657 0.0008 3.43146e-06 1.99348e-12 -2.17365e-13 -4.82867e-13 -1.63214e-09 2.14945e-09 -8.69601e-10 1.05722e-15 -6.50506e-15 3.16534e-15 0 0 0 0 0 0 0 0
1329 1 -0.00584718 -0.000452613 0.0263723 0.0008 3.43146e-06 -1.92872e-12 -2.02501e-13 1.7844e-12 -2.89843e-10 -1.48788e-09 -8.64671e-10 5.45171e-15 -2.78884e-16 1.2587e-15 0 0 0 0 0 0 0 0
1330 1 0.00181581 -0.00457397 0.0293424 0.0008 3.43146e-06 4.83248e-13 -2.16837e-12 -7.00305e-12 1.52547e-09 -1.34793e-09 -2.65911e-09 1.19513e-15 6.83356e-16 -1.7297e-15 0 0 0 0 0 0 0 0
1331 1 0.00308295 -0.00650678 0.0261134 0.0008 3.43146e-06 1.08052e-12 -6.28154e-13 -1.82215e-12 -4.22098e-09 3.64334e-09 -1.06656e-09 4.37705e-17 -1.72531e-15 4.06535e-15 1 -6.68449e-05 0.000167652 3.11422e-06 0.0034254 -0.00722956 0.0261134 0.0008
1332 1 0.00238141 -0.00657732 0.0275805 0.0008 3.43146e-06 8.12201e-13 -2.11977e-12 -2.59031e-12 5.28726e-09 6.57498e-09 7.272e-09 -1.00673e-14 4.88705e-16 9.25941e-15 0 0 0 0 0 0 0 0
1333 1 0.00418928 0.00252039 0.0286552 0.0008 3.43146e-06 7.05869e-16 1.08178e-12 2.98461e-12 -2.75524e-09 2.18263e-09 -6.59391e-11 4.13576e-15 -5.90511e-16 5.90933e-15 0 0 0 0 0 0 0 0
1334 1 0.00199949 0.00691695 0.0220268 0.0008 3.43146e-06 2.06506e-13 -2.16733e-12 8.96646e-13 -2.52477e-09 -3.68019e-09 1.14056e-09 -9.69151e-16 7.58296e-16 1.35906e-16 1 -4.83712e-05 -0.00011478 2.11075e-05 0.00222161 0.00768534 0.0220268 0.0008
1335 1 -0.00295357 -0.00484229 0.0285578 0.0008 3.43146e-06 1.08411e-12 5.10044e-13 -1.77675e-12 8.85794e-10 -2.91314e-09 8.36684e-10 3.70788e-16 4.1303e-15 1.55996e-15 0 0 0 0 0 0 0 0
1336 1 -0.000187861 -0.00487893 0.0238242 0.0008 3.43146e-06 6.93818e-14 2.8963e-13 -5.33263e-13 2.29435e-09 -2.71694e-09 -2.23984e-09 5.34363e-16 1.11838e-15 2.90154e-15 0 0 0 0 0 0 0 0
1337 1 -0.000397441 -0.00231274 0.0278359 0.0008 3.43146e-06 2.0566e-13 1.08413e-12 -1.92636e-12 -1.37319e-09 -1.04741e-09 1.65849e-09 3.50729e-15 6.51089e-16 9.82247e-15 0 0 0 0 0 0 0 0
1338 1 0.00451795 -0.00560623 0.0256477 0.0008 3.43146e-06 -5.19024e-13 8.95085e-13 -1.43268e-12 -6.19182e-09 4.70798e-09 -2.33241e-10 1.61128e-15 -8.21606e-16 -1.03208e-15 1 -6.4938e-05 5.64402e-05 3.53208e-06 0.00501986 -0.00622904 0.0256477 0.0008
1339 1 0.00662472 0.00282095 0.0281936 0.0008 3.43146e-06 -3.27624e-13 3.76341e-13 2.20083e-13 1.19978e-09 7.73461e-10 -5.72485e-10 1.90889e-15 -4.74373e-16 2.87195e-15 1 -0.000373733 -0.000123044 -3.39982e-06 0.00736047 0.00313424 0.0281936 0.0008
1340 1 -0.00609193 0.0038383 0.0262817 0.0008 3.43146e-06 -5.92272e-13 4.43368e-13 -8.19635e-14 -1.08884e-09 8.47821e-10 7.30314e-12 1.37788e-16 -1.09767e-15 -1.06025e-15 1 0.000278415 -0.000163188 2.82835e-05 -0.00676854 0.00426461 0.0262817 0.0008
1341 1 -0.0071505 0.000844339 0.0258631 0.0008 3.43146e-06 1.76224e-12 1.62781e-13 -1.67969e-12 -1.67948e-09 2.33205e-09 4.4648e-10 -2.15744e-16 -1.28485e-15 1.06639e-15 1 0.000153459 -1.19401e-05 4.60791e-05 -0.0079448 0.000938132 0.0258631 0.0008
1342 1 0.00573165 0.000284517 0.0234828 0.0008 3.43146e-06 -2.23002e-12 -6.42226e-13 -8.63459e-12 1.85622e-09 -5.3772e-09 5.03453e-09 2.90405e-15 2.34725e-15 -5.87641e-15 0 0 0 0 0 0 0 0
1343 1 0.00114783 0.00710809 0.026534 0.0008 3.43146e-06 1.88698e-13 -1.68365e-12 1.85739e-12 -2.1726e-09 1.27344e-09 7.25575e-10 1.41291e-15 -1.14714e-15 5.10379e-15 1 -2.33536e-05 -0.000141301 1.65731e-05 0.00127533 0.00789769 0.026534 0.0008
1344 1 0.00609044 -0.00167944 0.0285509 0.0008 3.43146e-06 -3.44194e-13 5.23969e-13 2.87415e-12 -5.27813e-09 6.44519e-10 2.78309e-09 -8.51811e-15 -1.49591e-15 1.11595e-15 0 0 0 0 0 0 0 0
1345 1 0.00569066 -0.00103666 0.0264786 0.0008 3.43146e-06 -1.69042e-12 5.24814e-13 8.50692e-14 -1.63069e-09 -2.74677e-09 3.91453e-11 1.31711e-16 -1.00346e-15 7.25638e-15 0 0 0 0 0 0 0 0
1346 1 -0.000230085 8.29242e-06 0.0288257 0.0008 3.43146e-06 4.48293e-13 4.47694e-14 -9.35537e-13 -6.94146e-10 1.09748e-09 1.9132e-10 3.77428e-15 1.38931e-16 2.35037e-15 0 0 0 0 0 0 0 0
1347 1 -0.00031682 0.00603471 0.0251389 0.0008 3.43146e-06 -6.19602e-14 1.60753e-13 2.23994e-12 -1.03583e-09 -1.8866e-09 1.68983e-09 -2.42753e-15 1.71903e-15 4.96093e-15 0 0 0 0 0 0 0 0
1348 1 -0.000188352 0.00719758 0.0274094 0.0008 3.43146e-06 -2.03401e-13 -1.2627e-12 4.6761e-13 -1.96585e-11 -2.8073e-09 -2.45971e-10 1.78634e-16 -3.0311e-16 1.02105e-15 1 -2.97358e-07 -1.8497e-05 7.74891e-07 -0.000209279 0.00799726 0.0274094 0.0008
1349 1 -0.00091727 0.00146158 0.0288151 0.0008 3.43146e-06 2.7292e-13 -5.40028e-13 -1.10732e-12 -4.64733e-10 1.77073e-09 4.36887e-10 -1.10539e-15 4.02934e-16 4.07413e-16 0 0 0 0 0 0 0 0
1350 1 0.00477214 0.00539151 0.0263121 0.0008 3.43146e-06 1.84882e-12 2.16789e-12 5.36533e-13 -6.4771e-10 4.74105e-10 -2.46443e-10 6.22244e-15 -3.93647e-16 -1.29122e-15 1 -5.50974e-05 -6.7782e-05 1.53321e-05 0.00530229 0.00599047 0.0263121 0.0008
1351 1 0.00288383 0.000299562 0.0293794 0.0008 3.43146e-06 -4.83921e-14 -2.70617e-13 -2.80856e-12 7.12824e-09 5.30877e-09 -3.38927e-09 5.11885e-15 -4.59325e-15 -3.30749e-15 0 0 0 0 0 0 0 0
1352 1 -0.00488752 -0.0014006 0.0253962 0.0008 3.43146e-06 9.49353e-15 5.42085e-13 -1.64452e-12 1.161e-09 -1.23402e-09 1.80114e-09 5.79058e-15 -1.31858e-16 -7.81242e-16 0 0 0 0 0 0 0 0
1353 1 0.00626369 0.00245372 0.0255915 0.0008 3.43146e-06 -1.03281e-12 -8.31929e-13 -3.8957e-13 9.4558e-10 -1.73795e-10 3.28483e-10 1.4328e-15 -2.86589e-15 2.17521e-15 0 0 0 0 0 0 0 0
1354 1 -0.00151824 0.000384924 0.0265975 0.0008 3.43146e-06 5.41272e-13 1.37403e-13 2.1696e-12 1.25455e-09 -9.76742e-10 -1.11382e-09 3.31015e-16 8.07781e-16 -2.00278e-17 0 0 0 0 0 0 0 0
1355 1 0.00453145 -0.00213429 0.0263749 0.0008 3.43146e-06 -5.81202e-13 2.9124e-13 -2.07742e-12 1.55498e-09 -1.2955e-09 1.1308e-09 -5.19247e-15 -4.65487e-15 5.39995e-15 0 0 0 0 0 0 0 0
1356 1 0.00215044 -0.0011336 0.0247657 0.0008 3.43146e-06 1.94853e-13 5.30029e-13 4.90105e-13 -3.06769e-09 -2.1258e-09 -3.87371e-10 -5.72869e-15 3.58138e-15 6.28884e-15 0 0 0 0 0 0 0 0
1357 1 -0.00224156 -0.00438318 0.0221311 0.0008 3.43146e-06 -9.87267e-13 -1.58102e-12 -1.38307e-12 7.60326e-10 -5.91812e-10 1.05702e-09 -2.56079e-16 2.06705e-15 3.40299e-15 0 0 0 0 0 0 0 0
1358 1 -0.000779686 -0.00385794 0.0276681 0.0008 3.43146e-06 2.00145e-13 -1.08408e-12 -3.202e-12 4.60662e-10 4.76591e-10 -3.60594e-09 -2.57526e-16 -6.63876e-17 1.11095e-15 0 0 0 0 0 0 0 0
1359 1 0.0051603 -0.00289091 0.0290268 0.0008 3.43146e-06 7.0488e-13 1.05606e-12 2.12198e-12 2.28307e-09 -5.49959e-09 -2.72183e-10 -1.80638e-14 -1.10314e-15 -7.00345e-18 0 0 0 0 0 0 0 0
1360 1 0.00342478 0.00356428 0.0263395 0.0008 3.43146e-06 1.08394e-12 1.66127e-13 -3.4758e-12 -6.18462e-09 1.71805e-09 4.17899e-09 9.62575e-16 -7.80883e-16 8.22704e-16 0 0 0 0 0 0 0 0
1361 1 -0.00534624 0.00200306 0.0281485 0.0008 3.43146e-06 8.34534e-13 1.08414e-12 2.21691e-12 -4.9987e-09 -7.48596e-10 -2.74235e-09 -4.09468e-15 -3.64782e-16 1.94654e-16 0 0 0 0 0 0 0 0
1362 1 -0.00187785 0.00695104 0.0274113 0.0008 3.43146e-06 -5.4183e-13 7.64276e-13 2.11984e-12 -2.52875e-09 -1.35943e-09 -6.09344e-10 4.8266e-16 8.13629e-16 2.8891e-15 1 7.65904e-05 -0.000216148 1.94423e-05 -0.00208644 0.00772313 0.0274113 0.0008
1363 1 -0.00300199 -0.00654444 0.0257408 0.0008 3.43146e-06 6.53531e-13 -2.16786e-12 1.48069e-12 3.50581e-10 -3.53365e-09 -1.88745e-09 -3.69195e-16 -5.46326e-17 1.59507e-15 1 2.48163e-05 7.49994e-05 7.81083e-06 -0.0033355 -0.00727148 0.0257408 0.0008
1364 1 0.00556605 0.0010044 0.0259111 0.0008 3.43146e-06 7.449e-13 -5.28746e-13 7.44919e-13 -2.28818e-09 3.62108e-10 5.4841e-10 3.4785e-15 3.96917e-16 1.34007e-15 0 0 0 0 0 0 0 0
1365 1 0.00277198 0.000474644 0.0229962 0.0008 3.43146e-06 9.47895e-13 1.14809e-13 8.89946e-13 -1.87505e-10 -1.27102e-09 -1.31536e-09 4.99117e-17 -1.84148e-16 -7.40845e-16 0 0 0 0 0 0 0 0
1366 1 0.00462205 0.000719823 0.0271708 0.0008 3.43146e-06 2.16751e-12 -2.66793e-13 -1.91427e-12 3.06331e-10 -1.64469e-09 2.65474e-09 -2.11896e-15 -1.08882e-15 8.85148e-15 0 0 0 0 0 0 0 0
1367 1 -0.00132256 0.00532328 0.0241183 0.0008 3.43146e-06 5.41255e-13 7.7351e-13 -4.06277e-12 3.83066e-09 -4.2511e-09 -2.71176e-09 -2.52006e-16 2.51709e-15 8.61698e-17 0 0 0 0 0 0 0 0
1368 1 -0.000867004 0.00241162 0.026442 0.0008 3.43146e-06 -2.70922e-13 1.08423e-12 4.40217e-12 -4.46383e-10 1.92368e-10 -3.06112e-10 -9.71415e-16 9.9859e-17 2.44372e-15 0 0 0 0 0 0 0 0
1369 1 -0.00283263 0.00661955 0.0235059 0.0008 3.43146e-06 -1.08419e-12 7.84175e-13 -7.71349e-13 2.33969e-11 1.9537e-09 -7.53187e-10 -1.41576e-16 3.68275e-15 -1.8523e-15 1 6.36308e-05 -0.000112629 5.51892e-06 -0.0031473 0.00735489 0.0235059 0.0008
1370 1 0.00418292 0.00586058 0.0299069 0.0008 3.43146e-06 2.01613e-12 2.16729e-12 1.1377e-12 -1.86561e-09 -1.67322e-11 3.8777e-10 -5.1199e-16 -1.24714e-15 -3.87233e-16 1 -0.000159676 -0.000159648 7.01713e-06 0.00464754 0.00651155 0.0299069 0.0008
1371 1 -0.00673786 -0.0025381 0.0285615 0.0008 3.43146e-06 2.05265e-12 -1.0822e-12 1.43084e-12 -2.23829e-09 -2.74744e-09 -2.02298e-09 1.30014e-15 3.67998e-16 -4.26487e-16 1 2.37543e-05 8.62322e-06 -4.55591e-06 -0.00748646 -0.00282009 0.0285615 0.0008
1372 1 -0.00135448 0.00707195 0.0227211 0.0008 3.43146e-06 1.83306e-13 -9.5614e-13 -2.22932e-12 3.14037e-09 -1.83518e-09 3.88137e-11 -1.37229e-15 9.02644e-16 5.81014e-16 1 0.000103774 -0.000720803 -4.28356e-05 -0.00150488 0.00785718 0.0227211 0.0008
1373 1 -0.001265 -0.00160531 0.0255916 0.0008 3.43146e-06 -2.78194e-13 5.40595e-13 -5.42637e-13 7.20567e-10 -1.80385e-09 2.1998e-10 -1.09325e-15 -3.48662e-16 -1.81776e-15 0 0 0 0 0 0 0 0
1374 1 0.000503072 0.00397022 0.0282446 0.0008 3.43146e-06 -1.4491e-13 -2.16782e-12 1.17991e-12 -2.67452e-09 -1.27185e-09 -1.52001e-09 -4.0071e-15 -1.125e-15 4.17715e-15 0 0 0 0 0 0 0 0
1375 1 -6.37502e-05 -0.0026472 0.0257671 0.0008 3.43146e-06 1.64591e-13 1.08417e-12 2.41137e-12 -1.53929e-09 -2.07776e-09 7.97763e-10 2.06685e-16 4.34266e-16 2.57509e-15 0 0 0 0 0 0 0 0
1376 1 -0.00270601 0.00667261 0.0219123 0.0008 3.43146e-06 -1.08406e-12 -7.26739e-13 1.77865e-12 -1.55235e-09 -2.14986e-09 -1.66239e-09 6.30774e-16 3.5905e-15 4.2868e-16 1 0.000150319 -0.000595465 -8.44762e-05 -0.00300649 0.00741357 0.0219123 0.0008
1377 1 0.00202676 -0.00594593 0.0250506 0.0008 3.43146e-06 1.08312e-12 -1.68144e-12 -3.12589e-12 -3.34214e-09 -1.50919e-09 -3.8954e-09 -7.02483e-16 1.19009e-15 6.10618e-16 0 0 0 0 0 0 0 0
1378 1 -0.00526339 -0.00110289 0.0296644 0.0008 3.43146e-06 -6.30256e-13 -4.69915e-13 -3.27714e-12 4.22518e-10 8.36774e-10 -3.18657e-09 -2.72521e-15 3.02583e-15 1.22712e-14 0 0 0 0 0 0 0 0
1379 1 -0.000559524 -0.00402693 0.0251264 0.0008 3.43146e-06 2.13353e-13 3.71345e-13 2.75503e-12 6.5774e-10 2.38415e-09 -1.35439e-10 -3.73902e-16 3.86373e-15 1.61359e-15 0 0 0 0 0 0 0 0
1380 1 -0.00275706 -0.0012227 0.0241716 0.0008 3.43146e-06 1.04386e-12 1.74027e-13 4.25087e-13 8.70698e-10 1.89412e-09 6.18201e-10 -1.41976e-15 3.49336e-15 3.42825e-16 0 0 0 0 0 0 0 0
1381 1 0.0071506 -0.000844175 0.0258537 0.0008 3.43146e-06 -1.97796e-12 1.01799e-13 1.01389e-12 -3.84181e-10 1.42636e-09 1.68255e-10 -4.45745e-16 4.87841e-16 2.40315e-15 1 -0.00027909 -2.84949e-06 2.31811e-05 0.00794483 -0.000937938 0.0258537 0.0008
1382 1 -0.000760636 0.00109049 0.0253777 0.0008 3.43146e-06 1.27049e-13 -4.97668e-13 2.1451e-12 -4.6072e-10 2.53135e-09 -6.24562e-10 -1.87539e-15 -1.31962e-15 6.12752e-16 0 0 0 0 0 0 0 0
1383 1 -0.00274258 -0.00608415 0.0223182 0.0008 3.43146e-06 1.04111e-12 -3.14436e-13 -3.07185e-13 -2.73106e-10 -1.95746e-09 -4.64846e-10 -7.34822e-16 4.24962e-16 9.21296e-16 0 0 0 0 0 0 0 0
1384 1 -0.00526584 0.00406935 0.0249314 0.0008 3.43146e-06 -2.1681e-12 2.48236e-14 -1.90975e-13 -2.2137e-10 5.81299e-10 1.39914e-09 -7.22816e-17 -1.98121e-15 -6.18453e-16 0 0 0 0 0 0 0 0
1385 1 0.00578906 -0.00428167 0.027072 0.0008 3.43146e-06 -7.21611e-13 1.99071e-12 -2.26865e-12 -1.36328e-09 -2.55688e-09 -1.33009e-09 2.56775e-15 -1.88847e-15 1.66901e-15 1 -0.000424164 0.000356772 4.56574e-05 0.00643192 -0.00475714 0.027072 0.0008
1386 1 -0.00690466 -0.00204201 0.0262904 0.0008 3.43146e-06 1.45143e-12 7.1758e-13 4.33732e-13 -3.01075e-09 -1.50702e-09 3.25666e-10 9.6591e-16 -7.00536e-17 4.20673e-15 1 0.000316871 0.000102454 4.14381e-05 -0.00767154 -0.0022688 0.0262904 0.0008
1387 1 -0.00585477 -0.00173943 0.0274588 0.0008 3.43146e-06 1.11791e-12 5.15349e-13 1.47183e-12 9.2518e-10 -4.5628e-10 -3.17121e-09 -4.10078e-15 -5.27654e-16 4.47282e-16 0 0 0 0 0 0 0 0
1388 1 -0.00227148 -0.00609444 0.0243905 0.0008 3.43146e-06 1.08214e-12 -1.0395e-12 2.58672e-12 1.9299e-09 2.77944e-09 1.50077e-09 -6.11329e-16 7.734e-16 2.22664e-15 0 0 0 0 0 0 0 0
1389 1 0.0039988 0.00133103 0.02583 0.0008 3.43146e-06 2.16831e-12 -4.45428e-13 -2.96841e-12 4.02227e-10 -2.87023e-10 1.49299e-10 -1.25661e-15 3.15201e-15 -3.81728e-15 0 0 0 0 0 0 0 0
1390 1 0.00217577 -0.002541 0.0268077 0.0008 3.43146e-06 -8.55677e-13 1.06136e-12 -4.97486e-12 -8.01946e-10 -1.23021e-08 -3.17492e-09 -9.05672e-15 -2.41256e-15 2.6164e-15 0 0 0 0 0 0 0 0
1391 1 -0.00163047 -0.00701308 0.0269761 0.0008 3.43146e-06 -1.80948e-13 1.61832e-12 -1.05999e-13 6.81961e-12 7.77863e-10 6.44885e-10 -2.73484e-15 1.06149e-16 1.76378e-15 1 2.67026e-05 8.38426e-05 8.48823e-06 -0.00181161 -0.00779218 0.0269761 0.0008
1392 1 -0.00263355 -0.0036026 0.0274958 0.0008 3.43146e-06 4.85418e-13 3.85971e-14 -2.11212e-12 -7.63505e-10 -2.36395e-09 -3.06797e-11 -2.24502e-15 7.15481e-15 3.21135e-15 0 0 0 0 0 0 0 0
1393 1 -0.000382328 -0.00613482 0.027456 0.0008 3.43146e-06 1.1755e-15 5.30017e-14 4.00032e-12 5.42991e-09 -3.23032e-09 -1.48934e-09 9.52968e-16 2.1983e-15 -7.20198e-16 0 0 0 0 0 0 0 0
1394 1 -0.00652072 -0.000957843 0.0286857 0.0008 3.43146e-06 2.16817e-12 -8.53135e-14 -8.22884e-13 -1.05585e-09 -3.70724e-10 1.53981e-09 4.12833e-17 -2.80524e-16 -1.27522e-15 0 0 0 0 0 0 0 0
1395 1 0.00670343 0.000317661 0.0268583 0.0008 3.43146e-06 -1.59341e-12 -1.35625e-13 1.02139e-12 9.33992e-10 -1.69316e-09 -8.379e-10 3.1234e-15 -1.47733e-17 5.5926e-15 0 0 0 0 0 0 0 0
1396 1 0.00462879 -0.00551511 0.0237222 0.0008 3.43146e-06 1.92349e-12 -1.61285e-12 -5.55067e-13 -3.41512e-09 3.05097e-09 -5.93333e-10 5.2738e-16 -4.95187e-16 -1.10136e-15 1 -7.6087e-05 9.54551e-05 -1.45358e-05 0.005143 -0.00612777 0.0237222 0.0008
1397 1 -0.00537147 -0.00479505 0.0271383 0.0008 3.43146e-06 -9.06281e-14 1.37299e-12 -5.16475e-16 2.60279e-09 2.28169e-09 1.32558e-09 2.00349e-15 1.65706e-15 -2.9838e-15 1 0.000339764 0.000304385 3.26e-05 -0.005968 -0.00532757 0.0271383 0.0008
1398 1 -0.00274111 0.00141294 0.0290225 0.0008 3.43146e-06 1.08416e-12 -5.41951e-13 1.96472e-14 1.50114e-09 -1.34685e-09 -1.17897e-10 8.91763e-16 -3.37248e-16 1.25248e-16 0 0 0 0 0 0 0 0
1399 1 -0.00392351 -0.000172731 0.025746 0.0008 3.43146e-06 -1.77297e-12 1.94635e-13 -4.51021e-13 6.87154e-11 -9.8195e-11 -3.2323e-10 6.90381e-15 -1.34103e-15 9.03631e-16 0 0 0 0 0 0 0 0
1400 1 0.00718285 -0.000498298 0.0283785 0.0008 3.43146e-06 6.77135e-14 -1.14957e-13 5.22496e-13 -1.58252e-09 7.54919e-10 1.54698e-10 7.7152e-17 2.72495e-15 -2.08674e-15 1 -7.73717e-05 2.07359e-05 -3.8198e-06 0.00798082 -0.000553656 0.0283785 0.0008
1401 1 -0.00527132 3.01374e-05 0.0285348 0.0008 3.43146e-06 2.16817e-12 -3.79769e-13 1.18294e-12 3.23497e-09 -1.07089e-09 -1.96397e-09 1.07988e-16 5.3142e-15 -3.86876e-15 0 0 0 0 0 0 0 0
1402 1 0.000160319 0.00719824 0.0289707 0.0008 3.43146e-06 1.42974e-13 -1.47297e-12 1.9004e-13 5.01719e-12 3.47086e-09 -1.24517e-10 1.82246e-15 1.00307e-15 2.17406e-15 1 -3.861e-07 -8.32854e-06 6.78797e-07 0.000178132 0.00799802 0.0289707 0.0008
1403 1 -0.000869123 0.00413984 0.0273926 0.0008 3.43146e-06 -2.69324e-13 -3.84671e-13 2.0001e-12 -2.99766e-09 2.22792e-09 -3.18797e-09 6.01368e-16 5.15634e-15 4.15198e-15 0 0 0 0 0 0 0 0
1404 1 1.6927e-05 0.00112076 0.026776 0.0008 3.43146e-06 3.15718e-13 6.02406e-13 1.79707e-12 2.28181e-09 3.02644e-09 3.09648e-10 -4.10154e-15 -1.29756e-15 1.93677e-15 0 0 0 0 0 0 0 0
1405 1 -0.00262199 -0.000417178 0.0274384 0.0008 3.43146e-06 1.08428e-12 -3.27157e-14 -4.22967e-13 -5.21889e-10 -3.45823e-10 8.24219e-10 -5.84747e-16 -8.04004e-16 1.74409e-15 0 0 0 0 0 0 0 0
1406 1 0.00711592 0.00109818 0.0283024 0.0008 3.43146e-06 -1.56559e-13 -6.01912e-14 6.58326e-13 1.62194e-09 1.20141e-09 2.03946e-11 2.97044e-15 8.62102e-16 3.53945e-16 1 -0.000136654 -2.34289e-06 -1.50046e-05 0.0079064 0.00122017 0.0283024 0.0008
1407 1 0.00450014 -0.00146416 0.0287311 0.0008 3.43146e-06 1.1376e-12 5.42083e-13 -4.68671e-13 -1.20675e-09 -4.81868e-09 1.95736e-09 -2.17396e-16 7.13854e-16 2.32173e-15 0 0 0 0 0 0 0 0
1408 1 -0.00118419 0.00434206 0.0253761 0.0008 3.43146e-06 3.54844e-13 -1.12957e-12 -7.67091e-12 3.40504e-09 -1.19073e-09 -4.97008e-09 -7.69802e-16 2.73664e-15 2.57691e-15 0 0 0 0 0 0 0 0
1409 1 0.000494796 -0.00442278 0.0284527 0.0008 3.43146e-06 2.4205e-13 -1.53695e-12 -5.49855e-12 -3.27731e-09 3.73173e-09 7.49772e-10 -1.02486e-15 -4.11442e-15 3.11241e-15 0 0 0 0 0 0 0 0
1410 1 0.0038872 -0.00606089 0.0274224 0.0008 3.43146e-06 8.68702e-13 2.16586e-12 -3.8882e-12 -2.85789e-09 -4.29774e-09 -2.42967e-09 -1.52567e-16 5.59906e-16 1.85116e-15 1 -0.000233228 0.000318523 5.00351e-05 0.00431891 -0.00673402 0.0274224 0.0008
1411 1 0.00468319 -0.00322353 0.0275366 0.0008 3.43146e-06 1.20935e-12 9.55788e-13 -3.94075e-12 -6.266e-10 2.73821e-09 9.83531e-10 -1.28616e-14 -2.92133e-15 8.51443e-16 0 0 0 0 0 0 0 0
1412 1 -0.000428532 -0.0058766 0.0250514 0.0008 3.43146e-06 1.34443e-13 9.53838e-13 -2.39614e-12 -1.14812e-09 3.16167e-09 1.1992e-09 2.1285e-15 5.74552e-15 5.00554e-16 0 0 0 0 0 0 0 0
1413 1 -0.0012707 -0.00304762 0.0289571 0.0008 3.43146e-06 5.39761e-13 6.37068e-13 -1.68393e-12 -7.55734e-10 -3.27415e-10 1.77543e-09 -9.18342e-16 -8.07956e-15 -1.95335e-14 0 0 0 0 0 0 0 0
1414 1 -0.000471352 -0.00718474 0.0241317 0.0008 3.43146e-06 -1.35415e-13 6.83588e-13 -6.08125e-13 -7.91963e-10 -2.68874e-10 3.32177e-10 -6.05138e-16 3.705e-16 -1.81009e-16 1 1.51089e-06 0.000170036 5.99074e-07 -0.000523711 -0.00798284 0.0241317 0.0008
1415 1 0.00583976 0.00421203 0.0282823 0.0008 3.43146e-06 2.6313e-13 9.48962e-14 -2.85925e-13 -1.45062e-09 -1.53282e-09 1.1445e-10 2.57772e-16 -2.74183e-15 3.18926e-15 1 -0.000262387 -0.000162372 -5.54904e-05 0.00648837 0.00467986 0.0282823 0.0008
1416 1 -0.000861595 0.00588432 0.0280346 0.0008 3.43146e-06 2.70791e-13 -1.29079e-12 3.24081e-13 3.81637e-09 4.32323e-09 -1.01168e-09 -4.39379e-16 1.78564e-15 2.29228e-16 0 0 0 0 0 0 0 0
1417 1 0.00643787 -0.00322405 0.0281232 0.0008 3.43146e-06 1.92402e-12 1.96081e-13 2.50504e-12 -1.41082e-09 3.95936e-09 -1.34751e-09 -5.69104e-15 -3.95457e-15 -7.81119e-15 1 -1.82034e-05 9.84483e-06 3.30898e-06 0.00715314 -0.00358226 0.0281232 0.0008
1418 1 0.00146353 5.77447e-08 0.0286506 0.0008 3.43146e-06 5.42252e-13 2.46964e-13 1.8135e-12 -2.65624e-10 -3.57729e-09 1.23296e-09 -5.28448e-16 4.58184e-15 -9.48688e-16 0 0 0 0 0 0 0 0
1419 1 -0.00176414 -0.00625945 0.0283809 0.0008 3.43146e-06 -4.05298e-13 -2.79883e-13 -1.03709e-13 2.37074e-09 -2.5852e-09 -3.22053e-09 -3.9151e-15 5.98048e-15 3.38199e-15 0 0 0 0 0 0 0 0
1420 1 -0.00140851 -0.00276634 0.0266823 0.0008 3.43146e-06 5.42133e-13 -7.39895e-13 -9.14918e-13 5.37672e-10 2.12258e-09 1.22169e-09 -1.97917e-16 -4.26372e-16 -7.53659e-15 0 0 0 0 0 0 0 0
1421 1 0.003147 -0.00208827 0.0255747 0.0008 3.43146e-06 -2.03234e-13 1.08412e-12 1.12984e-12 -7.9943e-10 4.33576e-09 -1.92876e-09 2.67218e-15 -8.13966e-17 1.0444e-14 0 0 0 0 0 0 0 0
1422 1 0.00350932 0.00628722 0.0237136 0.0008 3.43146e-06 1.07638e-12 -3.45214e-14 -7.58736e-13 9.04759e-10 -3.80154e-10 1.16792e-09 -6.67263e-16 4.09471e-16 1.15965e-15 1 -0.000212607 -0.000306209 -3.07642e-05 0.00389907 0.0069855 0.0237136 0.0008
1423 1 -0.00579122 -0.000228299 0.0247894 0.0008 3.43146e-06 -9.73538e-13 7.90596e-14 -1.26061e-12 1.84925e-10 3.79364e-10 2.97308e-10 3.04551e-15 -8.46041e-16 5.9007e-15 0 0 0 0 0 0 0 0
1424 1 0.00029795 -0.000343116 0.027357 0.0008 3.43146e-06 6.95024e-13 9.38898e-13 -2.39021e-12 2.15333e-09 -8.31956e-10 -1.57893e-10 2.77057e-15 4.12305e-16 -5.19404e-15 0 0 0 0 0 0 0 0
1425 1 -0.00325189 0.000881767 0.0267487 0.0008 3.43146e-06 1.08402e-12 -2.74869e-13 5.45234e-13 2.89197e-09 -2.32698e-09 1.04624e-09 4.04716e-16 -4.12432e-16 3.58734e-15 0 0 0 0 0 0 0 0
1426 1 -0.00236328 -0.000444613 0.0255217 0.0008 3.43146e-06 -5.33321e-13 1.35087e-13 -6.24932e-13 6.13722e-10 -6.24189e-11 3.01169e-10 4.03003e-15 -1.30332e-16 -3.29274e-15 0 0 0 0 0 0 0 0
1427 1 0.00449818 -0.000188762 0.0258317 0.0008 3.43146e-06 1.37662e-12 -3.35071e-13 -2.81447e-12 2.2178e-11 -1.53648e-09 -9.7603e-10 -4.07443e-17 -8.81878e-16 3.84144e-15 0 0 0 0 0 0 0 0
1428 1 0.00572606 0.00436547 0.0232117 0.0008 3.43146e-06 -7.57662e-13 3.27027e-13 3.8882e-13 -1.44021e-09 -4.64189e-10 -8.87481e-10 4.50063e-16 -7.05975e-17 4.67414e-16 1 -0.000362782 -0.000250991 5.72809e-05 0.00636198 0.00485028 0.0232117 0.0008
1429 1 -0.00146263 -0.00705044 0.0253857 0.0008 3.43146e-06 5.41531e-13 8.41257e-13 -4.30894e-13 -9.45282e-10 -1.67897e-09 -4.71272e-10 -7.44884e-19 2.71418e-16 9.6045e-16 1 4.06455e-05 0.000894723 7.02412e-05 -0.00162502 -0.00783322 0.0253857 0.0008
1430 1 -2.87653e-05 0.00439487 0.0242707 0.0008 3.43146e-06 -6.96836e-14 -6.69061e-13 -7.13998e-13 1.03624e-09 -4.30443e-09 1.56881e-09 -6.53237e-16 1.15725e-15 3.51752e-15 0 0 0 0 0 0 0 0
1431 1 0.00575854 -0.00226572 0.0253571 0.0008 3.43146e-06 3.05436e-13 4.5562e-13 -2.05685e-12 -1.37034e-09 6.74742e-10 -9.87441e-10 -3.27587e-15 -3.63023e-15 5.62358e-15 0 0 0 0 0 0 0 0
1432 1 -0.00622585 0.00113004 0.0271368 0.0008 3.43146e-06 2.16829e-12 5.40946e-13 1.17142e-12 2.74508e-09 -3.72014e-09 9.10324e-10 -4.56047e-16 5.9081e-16 1.37818e-15 0 0 0 0 0 0 0 0
1433 1 -0.00358743 0.00399399 0.0245785 0.0008 3.43146e-06 -1.08391e-12 2.16841e-12 1.51584e-12 1.63015e-09 -6.04017e-11 7.05653e-10 -8.3874e-16 -1.20274e-15 1.85198e-15 0 0 0 0 0 0 0 0
1434 1 0.00452806 0.00559799 0.0247368 0.0008 3.43146e-06 1.08888e-12 9.80414e-13 4.5852e-13 -1.65391e-09 -1.07316e-09 3.5306e-10 4.7752e-15 1.93183e-16 6.71726e-16 1 -1.94972e-05 -1.59495e-05 2.71232e-06 0.00503114 0.00621994 0.0247368 0.0008
1435 1 0.000831801 -0.00715194 0.0276813 0.0008 3.43146e-06 -1.88358e-14 -2.03245e-12 1.75384e-12 2.13982e-09 9.21979e-10 4.03121e-10 -7.13137e-16 -2.36315e-15 -2.65301e-16 1 -4.74957e-06 0.000122524 5.12155e-06 0.000924204 -0.00794644 0.0276813 0.0008
1436 1 -0.00396972 0.000148038 0.024122 0.0008 3.43146e-06 4.21485e-13 4.92685e-14 1.21263e-12 1.44414e-09 1.87505e-09 -1.20624e-09 -4.03974e-15 1.95504e-15 -2.62155e-15 0 0 0 0 0 0 0 0
1437 1 0.00263843 0.00352405 0.0242631 0.0008 3.43146e-06 1.08301e-12 4.69026e-13 2.18781e-12 8.46978e-10 -2.64271e-10 -1.63608e-09 5.06646e-16 -2.39582e-15 3.50309e-15 0 0 0 0 0 0 0 0
1438 1 0.00297105 0.00389444 0.0278373 0.0008 3.43146e-06 5.68451e-13 1.08387e-12 -1.14866e-12 3.33566e-09 1.87366e-10 3.34899e-09 3.1952e-15 7.61952e-16 -2.11522e-15 0 0 0 0 0 0 0 0
1439 1 -0.0035467 0.00128543 0.0251645 0.0008 3.43146e-06 5.48578e-13 -5.00957e-13 2.3963e-12 -5.58889e-10 -3.66044e-09 -4.45605e-10 5.11622e-16 1.93348e-15 2.15993e-15 0 0 0 0 0 0 0 0
1440 1 0.0015449 -0.00266966 0.0253431 0.0008 3.43146e-06 4.66268e-13 1.06467e-12 -5.82219e-12 -5.20445e-09 9.01335e-09 -1.11635e-08 9.3081e-15 3.12331e-15 -8.64716e-16 0 0 0 0 0 0 0 0
1441 1 0.00481506 0.00413644 0.025321 0.0008 3.43146e-06 -5.72498e-13 2.16531e-12 1.6123e-12 -3.58506e-10 9.05368e-10 -2.41375e-09 6.25947e-15 -5.48899e-16 -1.03836e-15 0 0 0 0 0 0 0 0
1442 1 -0.00371714 0.000377406 0.0282919 0.0008 3.43146e-06 1.08416e-12 -1.38413e-13 -1.96083e-12 -4.80512e-10 -9.21394e-10 -6.09423e-10 1.28115e-15 -1.04844e-15 2.32185e-15 0 0 0 0 0 0 0 0
1443 1 -0.00691658 0.0020004 0.0286233 0.0008 3.43146e-06 1.06293e-12 1.0842e-12 -9.79644e-13 2.08767e-09 6.64095e-10 1.86551e-09 -7.01228e-16 -2.11225e-16 1.81798e-15 1 1.81472e-05 -6.65014e-06 -1.45759e-06 -0.00768504 0.00222266 0.0286233 0.0008
1444 1 0.00532659 0.00208454 0.027618 0.0008 3.43146e-06 -3.93871e-13 1.08422e-12 2.85523e-13 2.23286e-09 1.00274e-09 1.20792e-09 3.22318e-15 6.99452e-16 6.62698e-15 0 0 0 0 0 0 0 0
1445 1 -0.00106736 -0.00356522 0.0235793 0.0008 3.43146e-06 3.07643e-13 -6.54098e-13 2.96197e-13 -1.31212e-09 2.5287e-09 2.80382e-09 -7.26931e-16 -7.21429e-16 3.37685e-16 0 0 0 0 0 0 0 0
1446 1 0.00471897 0.00403126 0.0271554 0.0008 3.43146e-06 8.22827e-13 2.16808e-12 -3.9464e-12 1.965e-09 -2.43237e-09 -3.70633e-09 3.00692e-15 5.24755e-16 1.35284e-15 0 0 0 0 0 0 0 0
1447 1 0.00377107 0.00270201 0.0250378 0.0008 3.43146e-06 6.72698e-13 -3.49777e-13 -5.45463e-13 2.10325e-09 1.87657e-09 1.27809e-09 2.2582e-15 -5.40154e-15 8.28527e-16 0 0 0 0 0 0 0 0
1448 1 0.00701612 -0.00161748 0.0272477 0.0008 3.43146e-06 -3.0294e-13 -4.65989e-13 7.7005e-13 1.21829e-09 6.47214e-10 6.03563e-10 2.22865e-16 4.85468e-16 -2.33622e-17 1 -0.000125897 1.41703e-05 3.68493e-05 0.00779552 -0.00179717 0.0272477 0.0008
1449 1 -0.000301338 -0.000359676 0.0258735 0.0008 3.43146e-06 9.02194e-14 -9.24835e-14 3.33365e-13 1.0789e-09 2.05047e-09 -5.00652e-10 1.11885e-15 1.12211e-15 3.19344e-15 0 0 0 0 0 0 0 0
1450 1 0.00254086 0.00673711 0.0258391 0.0008 3.43146e-06 9.54611e-13 -1.9301e-12 -8.75071e-13 1.02003e-09 -6.29781e-10 1.87264e-09 -2.29037e-16 -1.73412e-15 3.28431e-16 1 -9.74174e-05 -0.000384134 -2.55329e-05 0.00282305 0.00748534 0.0258391 0.0008
1451 1 -0.00414833 0.00404201 0.0260761 0.0008 3.43146e-06 -2.16825e-12 2.11553e-12 8.80131e-13 -1.90941e-09 -1.44534e-09 4.31354e-10 3.61323e-16 -1.50198e-15 3.97501e-15 0 0 0 0 0 0 0 0
1452 1 -0.00351291 0.00628496 0.0249145 0.0008 3.43146e-06 -8.51357e-13 4.46275e-13 -3.1679e-13 1.0159e-09 -8.88264e-10 -7.5109e-10 7.62208e-16 4.17244e-15 -5.53661e-16 1 3.27949e-05 -5.05839e-05 4.15077e-06 -0.00390319 0.0069832 0.0249145 0.0008
1453 1 -0.00198093 0.0015257 0.0276193 0.0008 3.43146e-06 8.50639e-14 5.42198e-13 3.95083e-12 5.6215e-10 1.88949e-10 4.1458e-10 -8.87295e-16 3.09422e-16 -4.4467e-15 0 0 0 0 0 0 0 0
1454 1 -0.000420221 -0.00486756 0.0264803 0.0008 3.43146e-06 1.22969e-12 2.16816e-12 4.42238e-12 -3.25681e-09 -3.89167e-09 4.91008e-09 1.59288e-15 -1.16062e-15 1.73256e-15 0 0 0 0 0 0 0 0
1455 1 0.00487784 -0.0029461 0.0241594 0.0008 3.43146e-06 -2.16812e-12 3.25683e-13 1.32285e-12 -9.60896e-10 2.86056e-09 -2.37417e-09 6.71073e-16 -1.39886e-15 -3.16508e-16 0 0 0 0 0 0 0 0
1456 1 0.000217731 0.00408059 0.0262201 0.0008 3.43146e-06 1.09231e-13 -6.00647e-13 4.50692e-13 5.15845e-09 -1.52493e-09 7.48125e-10 -9.18311e-16 1.79221e-15 4.97673e-15 0 0 0 0 0 0 0 0
1457 1 0.00617485 0.00370318 0.0245968 0.0008 3.43146e-06 -1.02934e-12 3.90022e-13 4.5595e-13 7.45548e-10 1.09911e-09 -1.13106e-09 1.43947e-15 4.03225e-16 1.34535e-16 1 -0.00010855 -7.4329e-05 -1.26008e-05 0.00686079 0.00411455 0.0245968 0.0008
1458 1 0.00144229 -0.000517116 0.026062 0.0008 3.43146e-06 -3.01269e-13 2.71121e-13 -2.07258e-12 8.50067e-10 2.13302e-09 2.54058e-10 -2.46962e-15 2.46159e-15 -1.34843e-15 0 0 0 0 0 0 0 0
1459 1 -0.00473105 0.00542748 0.0238752 0.0008 3.43146e-06 -1.43445e-12 9.66182e-13 8.44108e-13 -1.51162e-09 1.8817e-10 -5.19315e-10 -1.2257e-15 1.65279e-15 -2.66383e-16 1 6.58161e-06 -6.8549e-06 -3.39244e-07 -0.0052567 0.00603052 0.0238752 0.0008
1460 1 -0.000429787 0.00299778 0.0294505 0.0008 3.43146e-06 -1.37515e-13 -1.08376e-12 -1.45121e-12 -3.00204e-09 2.01696e-09 6.59951e-10 5.97997e-16 7.10347e-16 -8.67378e-15 0 0 0 0 0 0 0 0
1461 1 0.00606463 0.00388084 0.0262869 0.0008 3.43146e-06 -6.60657e-13 4.98163e-13 5.99452e-13 -5.33724e-10 5.18933e-10 -9.84031e-10 2.36e-15 1.7226e-16 -2.06891e-16 1 -1.328e-05 -1.1394e-05 5.07001e-06 0.00673844 0.00431202 0.0262869 0.0008
1462 1 -0.00617828 -0.00369729 0.0225908 0.0008 3.43146e-06 3.02974e-13 9.98655e-13 -3.21075e-13 -4.35321e-09 -2.1174e-09 8.84851e-10 -1.64847e-15 -1.30233e-15 7.74284e-16 1 4.11248e-05 1.8148e-05 6.36842e-07 -0.00686468 -0.00410806 0.0225908 0.0008
1463 1 0.00028715 0.00166684 0.024315 0.0008 3.43146e-06 1.35686e-13 5.96883e-14 -2.42318e-12 -3.17583e-10 1.69492e-09 2.47052e-10 1.27612e-16 3.04983e-15 -2.14088e-15 0 0 0 0 0 0 0 0
1464 1 0.00321544 -0.0037297 0.027922 0.0008 3.43146e-06 -4.5869e-13 -8.21071e-14 -4.64195e-12 2.61911e-10 -4.32558e-09 -1.35658e-10 -1.0564e-14 -7.60279e-15 -3.95037e-15 0 0 0 0 0 0 0 0
1465 1 0.00536382 0.00480338 0.0296904 0.0008 3.43146e-06 1.81655e-13 2.08881e-12 1.14247e-12 9.34557e-11 1.76534e-09 -1.68874e-09 7.40457e-16 4.23443e-18 6.52077e-16 1 -0.000146552 -0.000138999 -1.84645e-05 0.00595963 0.00533693 0.0296904 0.0008
1466 1 -1.02832e-05 -0.00720001 0.02604 0.0008 3.43146e-06 -1.18045e-13 1.12835e-12 5.23232e-13 7.44266e-10 3.24138e-10 5.36867e-10 -1.3659e-15 -1.32753e-15 1.22585e-15 1 -1.4561e-06 5.70672e-06 -9.97557e-07 -1.14258e-05 -0.00799999 0.02604 0.0008
1467 1 -0.00505336 0.00094789 0.0255837 0.0008 3.43146e-06 -6.05883e-13 2.70778e-13 -5.43734e-13 3.25365e-10 -5.02131e-10 -5.92356e-10 4.84275e-15 7.08126e-17 6.27413e-15 0 0 0 0 0 0 0 0
1468 1 0.00188323 -0.00119213 0.0296566 0.0008 3.43146e-06 4.97297e-13 -5.42046e-13 1.17988e-12 -2.35283e-10 -1.22126e-09 -6.56568e-10 1.52692e-15 -2.97889e-17 -1.13785e-15 0 0 0 0 0 0 0 0
1469 1 -0.00360941 -0.000800439 0.0228851 0.0008 3.43146e-06 5.34239e-14 3.8394e-14 -1.63455e-14 -5.23545e-10 -1.34825e-09 7.39273e-10 -2.85727e-15 2.3809e-15 2.70778e-15 0 0 0 0 0 0 0 0
1470 1 -0.00490162 0.00215859 0.0266181 0.0008 3.43146e-06 1.59396e-14 1.08378e-12 -1.56264e-12 -1.72391e-09 3.02622e-09 1.7106e-09 2.95363e-15 2.90508e-17 6.13575e-16 0 0 0 0 0 0 0 0
1471 1 -0.00233332 0.00445359 0.026484 0.0008 3.43146e-06 -7.89991e-13 2.16844e-12 -4.15132e-13 -5.17826e-09 -5.57793e-10 -1.46644e-09 -5.75903e-15 -2.3217e-15 2.19847e-15 0 0 0 0 0 0 0 0
1472 1 -0.0071847 0.000471654 0.0282353 0.0008 3.43146e-06 2.16807e-12 1.37485e-14 -1.06924e-12 -1.89887e-09 1.54157e-09 2.75719e-10 1.62455e-15 4.8135e-16 2.09572e-15 1 0.000145316 -7.04164e-06 1.23198e-05 -0.00798282 0.000524048 0.0282353 0.0008
1473 1 -0.00605735 -0.00389283 0.0242287 0.0008 3.43146e-06 -8.82678e-13 8.15335e-13 -1.46889e-13 -9.24363e-10 -4.06516e-10 1.45574e-09 -1.97123e-15 7.30636e-16 2.33016e-15 1 0.000433547 0.000281994 5.34763e-05 -0.00673003 -0.00432513 0.0242287 0.0008
1474 1 0.00221678 0.00685043 0.0292881 0.0008 3.43146e-06 1.08389e-12 2.38425e-13 3.77542e-13 -4.89595e-10 -7.83457e-11 1.36056e-09 4.51088e-16 1.60673e-15 -1.43336e-15 1 -3.45596e-05 -0.000149876 -1.80348e-05 0.00246303 0.0076114 0.0292881 0.0008
1475 1 -0.00207776 0.00391042 0.0298895 0.0008 3.43146e-06 -1.08341e-12 2.16577e-12 2.9742e-12 -5.98855e-09 -4.37004e-09 8.17983e-10 3.71622e-16 -2.58352e-15 3.84855e-17 0 0 0 0 0 0 0 0
1476 1 0.00181966 -0.00442042 0.0275563 0.0008 3.43146e-06 -2.303e-13 -2.1681e-12 -8.02606e-12 -2.06927e-09 -1.00324e-09 1.71868e-09 -7.60166e-15 -7.80425e-16 3.71488e-15 0 0 0 0 0 0 0 0
1477 1 -0.00111922 -0.00132112 0.0288629 0.0008 3.43146e-06 -5.41937e-13 5.41803e-13 -1.94671e-12 2.37142e-09 -5.05676e-10 -1.44769e-09 1.37312e-15 -1.56245e-16 8.12769e-15 0 0 0 0 0 0 0 0
1478 1 -0.00620722 0.000579247 0.0315294 0.0008 3.43146e-06 -5.463e-13 7.23973e-13 8.40539e-14 2.23599e-10 -2.87306e-09 -2.05436e-09 -1.86025e-15 6.2108e-16 6.44998e-16 0 0 0 0 0 0 0 0
1479 1 -0.000486877 -0.00554219 0.0305955 0.0008 3.43146e-06 5.46002e-14 1.38959e-12 -1.72171e-13 -6.33027e-09 1.66252e-09 -1.81068e-09 7.95481e-16 9.00471e-17 6.7652e-15 0 0 0 0 0 0 0 0
1480 1 0.00202291 0.0024478 0.0334545 0.0008 3.43146e-06 5.73682e-13 -1.08299e-12 -5.29929e-12 -7.80164e-10 4.13671e-09 -5.17948e-09 -1.62137e-15 -2.99595e-16 -8.46046e-16 0 0 0 0 0 0 0 0
1481 1 0.00077533 -0.00176753 0.026807 0.0008 3.43146e-06 2.70808e-13 5.41924e-13 -6.38119e-12 -7.63511e-10 1.13172e-08 2.95124e-09 1.13779e-16 -4.50238e-16 -7.18355e-15 0 0 0 0 0 0 0 0
1482 1 0.00305713 0.00613568 0.0330361 0.0008 3.43146e-06 -1.08401e-12 2.41736e-13 -2.77496e-12 2.68419e-09 -7.19642e-09 -1.81197e-10 -2.75567e-16 1.25206e-15 -4.82243e-15 0 0 0 0 0 0 0 0
1483 1 0.00359295 -0.00303552 0.029313 0.0008 3.43146e-06 -1.07965e-12 7.78592e-13 -7.25967e-13 8.85083e-10 1.94722e-09 -2.17652e-10 2.31484e-15 4.88424e-15 4.45068e-15 0 0 0 0 0 0 0 0
1484 1 0.00714973 0.000365881 0.0297245 0.0008 3.43146e-06 1.01373e-12 -3.35068e-14 -2.30796e-12 -1.97888e-10 5.85263e-10 -1.35101e-10 4.68891e-15 4.77748e-15 2.55209e-15 0 0 0 0 0 0 0 0
1485 1 0.000125674 -0.00624052 0.032032 0.0008 3.43146e-06 3.91203e-14 1.38448e-12 2.39568e-12 2.37376e-09 -4.71918e-09 -1.20345e-09 1.43031e-15 -6.44728e-15 7.43844e-15 0 0 0 0 0 0 0 0
1486 1 0.00153567 0.000649786 0.0271521 0.0008 3.43146e-06 5.42177e-13 2.70738e-13 7.65952e-13 1.73426e-09 -8.89593e-10 -6.13467e-10 -5.63125e-16 -5.72827e-16 -1.09404e-14 0 0 0 0 0 0 0 0
1487 1 0.00186111 -0.00387385 0.0319973 0.0008 3.43146e-06 -1.97895e-13 1.07997e-12 4.27794e-12 -4.74011e-09 -8.73565e-10 2.42584e-09 -7.77155e-15 -1.25285e-15 -1.18681e-15 0 0 0 0 0 0 0 0
1488 1 -0.00336335 0.00452793 0.0289514 0.0008 3.43146e-06 9.79247e-13 2.16836e-12 -3.99633e-12 9.52412e-10 -1.34173e-09 -7.76762e-10 5.7518e-15 4.92486e-16 7.55953e-16 0 0 0 0 0 0 0 0
1489 1 -0.000246119 0.00259823 0.0279045 0.0008 3.43146e-06 -5.75222e-14 -1.08291e-12 1.04125e-12 3.53237e-09 1.98693e-09 1.13757e-09 -7.13927e-15 -2.8831e-16 -6.56794e-16 0 0 0 0 0 0 0 0
1490 1 0.00241691 -0.00539656 0.0306683 0.0008 3.43146e-06 -1.01045e-12 7.08875e-13 -6.56535e-12 -8.39328e-09 -5.29878e-09 -6.15088e-11 -9.19214e-15 -4.76336e-15 4.39847e-15 0 0 0 0 0 0 0 0
1491 1 0.000433849 0.0057854 0.0339102 0.0008 3.43146e-06 -4.82219e-13 -1.45765e-12 2.37879e-12 -8.28387e-09 -7.98671e-09 -1.46751e-09 -4.35861e-15 2.39294e-15 -3.47829e-16 0 0 0 0 0 0 0 0
1492 1 -0.00181925 0.000145172 0.0287026 0.0008 3.43146e-06 5.41757e-13 1.06107e-13 -2.88338e-13 4.0299e-10 -3.86052e-10 -5.56124e-10 2.68939e-16 -1.0314e-15 2.19752e-15 0 0 0 0 0 0 0 0
1493 1 0.00569859 -0.000441191 0.0294848 0.0008 3.43146e-06 -8.05558e-13 3.59855e-14 -2.19186e-12 -5.0578e-10 6.64731e-10 2.132e-10 3.34716e-16 -3.19869e-15 1.20726e-14 0 0 0 0 0 0 0 0
1494 1 -0.00504138 0.000551391 0.0304341 0.0008 3.43146e-06 1.5119e-12 -2.71056e-13 6.40203e-13 -1.62698e-09 6.90251e-10 1.61509e-09 -3.79159e-15 -5.26174e-16 -4.58396e-15 0 0 0 0 0 0 0 0
1495 1 -0.00412789 0.00589939 0.0292585 0.0008 3.43146e-06 8.29333e-13 5.35956e-13 -1.94747e-12 3.31875e-09 -4.35481e-10 1.29351e-09 3.82729e-15 1.57029e-15 -3.26034e-15 1 7.31459e-05 -0.000109568 2.86659e-05 -0.00458645 0.00655473 0.0292585 0.0008
1496 1 -0.00335075 9.39924e-05 0.0315772 0.0008 3.43146e-06 7.0415e-13 -3.72777e-13 -1.75426e-12 -1.42002e-09 4.33375e-10 2.04878e-09 -4.00577e-15 5.69046e-16 7.79399e-15 0 0 0 0 0 0 0 0
1497 1 -0.00364685 -0.00575467 0.0296743 0.0008 3.43146e-06 2.15587e-13 1.99811e-12 9.75936e-13 -4.5856e-09 2.85771e-09 -1.32798e-09 -1.45856e-15 -2.64248e-15 3.27923e-15 0 0 0 0 0 0 0 0
1498 1 0.000285249 -0.00265164 0.0292426 0.0008 3.43146e-06 -1.45503e-13 1.08332e-12 -2.73145e-12 2.40218e-09 6.01152e-10 -8.47797e-12 3.16645e-15 -4.80441e-16 9.55517e-15 0 0 0 0 0 0 0 0
1499 1 0.00463972 -0.00334541 0.0322485 0.0008 3.43146e-06 -2.16909e-12 -1.08176e-12 6.87243e-12 1.0158e-08 -3.24852e-09 2.89112e-09 1.88427e-15 -1.01632e-15 1.00422e-14 0 0 0 0 0 0 0 0
1500 1 0.000290049 -0.00115117 0.0297977 0.0008 3.43146e-06 2.91531e-13 5.4171e-13 -5.89449e-13 1.3708e-10 -7.94768e-10 -6.96808e-10 2.21143e-15 3.99587e-17 8.21284e-15 0 0 0 0 0 0 0 0
1501 1 -0.00497904 -0.00266644 0.0264568 0.0008 3.43146e-06 2.13136e-12 1.08387e-12 -3.32741e-12 -6.24142e-09 -1.23136e-09 -3.05172e-09 -3.04593e-15 3.18062e-16 -1.1377e-14 0 0 0 0 0 0 0 0
1502 1 0.00705558 0.00143529 0.0310776 0.0008 3.43146e-06 -9.20707e-13 -4.72813e-13 -3.9416e-13 2.34691e-09 1.89236e-11 3.90739e-10 8.52381e-16 1.36976e-15 -4.4127e-15 1 -5.08316e-05 -2.0895e-05 1.19754e-05 0.00783944 0.00159475 0.0310776 0.0008
1503 1 -0.000836654 -0.00446994 0.0317302 0.0008 3.43146e-06 3.54e-13 -1.56576e-12 -5.50346e-12 5.55043e-09 -6.16953e-09 -1.15968e-09 1.79823e-15 3.79452e-15 1.13492e-14 0 0 0 0 0 0 0 0
1504 1 -0.000889381 -0.00714508 0.0293858 0.0008 3.43146e-06 -3.47919e-13 -1.67966e-12 -1.95175e-12 -1.73576e-09 5.74343e-09 2.08559e-10 -8.04826e-15 4.34264e-15 1.80936e-14 1 2.41463e-05 0.000214548 -3.13295e-05 -0.000988171 -0.00793874 0.0293858 0.0008
1505 1 0.0044529 0.000934819 0.0314117 0.0008 3.43146e-06 -1.14847e-12 2.69917e-13 3.37046e-13 4.03449e-09 2.85785e-10 6.12684e-10 3.21281e-15 -1.01956e-17 4.46044e-15 0 0 0 0 0 0 0 0
1506 1 -0.00418201 -0.00114089 0.0284861 0.0008 3.43146e-06 1.72323e-12 -3.16164e-13 -3.62155e-12 1.54389e-09 -2.72077e-09 1.65633e-09 -1.69297e-15 -3.15418e-15 7.24147e-15 0 0 0 0 0 0 0 0
1507 1 -0.000503709 0.00558845 0.0301215 0.0008 3.43146e-06 2.71278e-13 -2.16806e-12 -3.29121e-12 2.77327e-09 4.06302e-10 2.90948e-10 -2.02304e-16 7.53597e-16 2.50173e-15 0 0 0 0 0 0 0 0
1508 1 0.00174414 -0.00698566 0.0307378 0.0008 3.43146e-06 1.79047e-13 -2.24999e-13 -3.1602e-12 -3.77375e-09 -1.90584e-09 -1.02235e-10 5.90402e-15 -5.51642e-15 1.98481e-15 1 -2.77867e-05 6.78827e-05 1.00816e-05 0.00193791 -0.00776173 0.0307378 0.0008
1509 1 -0.00472359 0.00370673 0.0330839 0.0008 3.43146e-06 -2.16616e-12 3.01712e-13 -5.55634e-12 3.43844e-09 -4.13922e-09 1.29247e-09 1.28391e-15 7.36162e-16 -3.90612e-15 0 0 0 0 0 0 0 0
1510 1 0.000786354 -0.00715715 0.0292803 0.0008 3.43146e-06 -7.26621e-13 -2.16507e-12 -1.95193e-12 -2.03434e-09 -2.05492e-09 1.12442e-09 2.8426e-15 1.92323e-15 -2.30086e-15 1 -3.98105e-05 0.000209765 5.17677e-05 0.0008737 -0.00795215 0.0292803 0.0008
1511 1 -0.00586231 -0.00416379 0.0301367 0.0008 3.43146e-06 -1.26708e-12 -9.14418e-13 6.99533e-12 4.11154e-09 -5.91022e-10 2.74599e-09 1.08112e-15 -1.19559e-15 -1.98172e-15 0 0 0 0 0 0 0 0
1512 1 -0.00476375 0.000482802 0.0270867 0.0008 3.43146e-06 1.39489e-12 4.72142e-14 1.00574e-12 -1.21209e-09 3.3658e-09 -1.87164e-09 3.67178e-15 8.71375e-16 3.99566e-15 0 0 0 0 0 0 0 0
1513 1 -0.00431756 -0.00475809 0.0307311 0.0008 3.43146e-06 2.16793e-12 1.64274e-12 -3.07785e-12 3.98627e-10 -1.63288e-09 1.80114e-09 -7.64309e-16 -7.44649e-15 1.48756e-15 0 0 0 0 0 0 0 0
1514 1 0.000574137 0.0012737 0.0282679 0.0008 3.43146e-06 3.18607e-13 -5.23605e-13 -1.29006e-12 -8.01068e-10 -1.60326e-09 1.06287e-10 1.3671e-15 1.20861e-15 -7.73034e-15 0 0 0 0 0 0 0 0
1515 1 0.00348161 -0.00217447 0.0276574 0.0008 3.43146e-06 4.42774e-14 3.45719e-13 -1.25205e-12 3.07623e-09 -3.72283e-10 3.18661e-10 -8.75165e-15 -8.44605e-15 5.91886e-15 0 0 0 0 0 0 0 0
1516 1 -0.00306114 -0.00411437 0.0299782 0.0008 3.43146e-06 1.08002e-12 9.36441e-13 -4.31401e-12 -2.83503e-09 2.64789e-09 -8.73739e-10 -7.1405e-16 -4.94305e-15 -5.30522e-15 0 0 0 0 0 0 0 0
1517 1 -0.00172422 0.00386193 0.0322394 0.0008 3.43146e-06 -1.04898e-12 1.08396e-12 3.50034e-12 -3.72263e-09 -6.20072e-09 -1.46715e-09 -2.46181e-15 -1.59143e-16 7.58804e-15 0 0 0 0 0 0 0 0
1518 1 -0.004512 0.00533702 0.0307059 0.0008 3.43146e-06 -2.16804e-12 2.76326e-15 -7.19829e-12 -1.88709e-09 -6.64599e-09 2.75597e-09 2.25224e-16 1.64686e-15 -3.54518e-15 0 0 0 0 0 0 0 0
1519 1 -0.00435839 -0.00402694 0.0258878 0.0008 3.43146e-06 1.45333e-13 8.31474e-13 2.76621e-12 -3.01286e-10 -1.12809e-10 1.02069e-09 -3.29909e-15 3.13375e-15 5.36083e-15 0 0 0 0 0 0 0 0
1520 1 -0.00489822 -0.00318918 0.032189 0.0008 3.43146e-06 2.16802e-12 1.08442e-12 3.77072e-12 -1.1112e-08 3.71235e-09 1.88857e-09 4.51305e-16 8.90812e-16 2.85214e-15 0 0 0 0 0 0 0 0
1521 1 -0.00534265 -0.00263139 0.0302967 0.0008 3.43146e-06 2.16838e-12 -4.32143e-13 -4.48817e-12 5.87407e-09 -6.45992e-09 1.3521e-09 -1.01202e-15 1.56738e-16 8.87971e-15 0 0 0 0 0 0 0 0
1522 1 -0.00370164 -0.0024137 0.0273864 0.0008 3.43146e-06 1.06518e-12 8.2212e-13 -1.12265e-12 -2.99434e-10 -3.03457e-09 -2.28003e-09 4.13987e-16 -3.02716e-15 2.58157e-15 0 0 0 0 0 0 0 0
1523 1 -0.00325852 0.00642054 0.0280209 0.0008 3.43146e-06 -2.32669e-13 2.16802e-12 1.00892e-12 -8.87941e-10 -8.37144e-10 8.59697e-10 -5.95437e-16 -2.09607e-15 -1.14134e-15 1 2.70345e-05 -4.74719e-05 3.82022e-06 -0.00362053 0.00713385 0.0280209 0.0008
1524 1 -0.00150539 0.00222976 0.0316951 0.0008 3.43146e-06 5.53966e-14 -1.08367e-12 4.80153e-13 1.53601e-09 -1.18929e-09 1.30653e-09 7.70309e-15 -1.58349e-15 -4.45043e-15 0 0 0 0 0 0 0 0
1525 1 -0.00170097 0.00187375 0.0301476 0.0008 3.43146e-06 1.29588e-12 -5.42285e-13 -1.66227e-12 -3.99811e-10 -6.29874e-10 1.11941e-10 1.33571e-15 2.12524e-17 -6.32577e-15 0 0 0 0 0 0 0 0
1526 1 0.000449106 0.00545266 0.0288437 0.0008 3.43146e-06 4.03242e-13 -1.89563e-12 -3.31209e-12 -2.49801e-09 -4.77118e-10 2.73023e-10 -1.25402e-16 2.27267e-15 -1.44322e-15 0 0 0 0 0 0 0 0
1527 1 -0.00646866 -0.00316216 0.0313015 0.0008 3.43146e-06 1.28407e-12 8.33056e-13 -5.74673e-12 -9.76804e-09 3.03738e-09 2.03926e-10 -9.4354e-15 7.01813e-15 4.94386e-15 1 0.000164365 7.47297e-05 -2.11479e-05 -0.00718721 -0.00351341 0.0313015 0.0008
1528 1 0.00655505 -0.00297933 0.0265465 0.0008 3.43146e-06 2.43084e-13 -7.56045e-14 -7.06529e-13 6.56111e-10 -1.23807e-09 -3.33996e-12 9.13925e-16 -1.04401e-15 3.01116e-15 1 -0.000386969 0.000208963 5.51345e-05 0.00728303 -0.0033102 0.0265465 0.0008
1529 1 0.000994598 -0.0057608 0.0300326 0.0008 3.43146e-06 -5.42129e-13 -2.16844e-12 -4.85449e-12 -9.67687e-10 4.88917e-09 1.73952e-11 1.42644e-16 3.64731e-17 1.06143e-14 0 0 0 0 0 0 0 0
1530 1 -0.00306995 0.00651295 0.0264349 0.0008 3.43146e-06 -4.35182e-13 6.55626e-13 7.16482e-13 -1.29091e-09 8.86044e-10 -1.78679e-10 9.33002e-16 4.89316e-15 -4.12958e-15 1 8.25506e-05 -0.000202146 3.68825e-06 -0.00341095 0.0072364 0.0264349 0.0008
1531 1 0.00429419 0.00130065 0.0296849 0.0008 3.43146e-06 3.25043e-13 5.41899e-13 5.28357e-13 5.14767e-09 3.10205e-09 -3.74256e-09 4.95343e-15 -1.37986e-16 6.42056e-15 0 0 0 0 0 0 0 0
1532 1 -0.00367168 -0.00476383 0.0271306 0.0008 3.43146e-06 9.52564e-13 1.79195e-12 -9.61129e-13 8.5509e-10 3.54426e-09 -9.36074e-10 -1.65223e-15 8.05945e-15 4.55286e-15 0 0 0 0 0 0 0 0
1533 1 -0.00174575 -0.00556388 0.0259038 0.0008 3.43146e-06 5.00562e-13 7.03071e-13 -1.39752e-12 5.96982e-10 -1.81118e-09 -5.8291e-10 -1.62364e-15 4.54453e-17 2.96925e-15 0 0 0 0 0 0 0 0
1534 1 -0.00703364 0.00153962 0.0304637 0.0008 3.43146e-06 2.16795e-12 -3.07825e-13 -9.09385e-13 1.22347e-10 9.42652e-10 2.15566e-10 -5.04877e-17 -1.03744e-15 2.60986e-15 1 0.000156707 -1.34882e-05 3.68101e-05 -0.00781497 0.00171065 0.0304637 0.0008
1535 1 0.00564564 -0.000290505 0.027893 0.0008 3.43146e-06 -2.05971e-12 3.70519e-13 -5.05043e-13 1.28537e-09 1.21532e-09 -1.7959e-09 1.33842e-15 1.13344e-15 8.38127e-15 0 0 0 0 0 0 0 0
1536 1 0.00157593 0.00396803 0.027058 0.0008 3.43146e-06 5.4145e-13 -1.22807e-12 5.65649e-13 2.65416e-09 1.10496e-09 3.27254e-09 -6.20702e-17 -3.92115e-15 3.20066e-15 0 0 0 0 0 0 0 0
1537 1 -0.0029483 0.00656913 0.0301068 0.0008 3.43146e-06 1.08275e-12 2.23849e-13 -2.02756e-12 1.36194e-09 3.25659e-09 1.36798e-09 6.40422e-17 -6.27246e-16 -6.20756e-15 1 0.000310795 -0.000483765 -3.15702e-06 -0.0032757 0.00729862 0.0301068 0.0008
1538 1 -0.00704182 -0.0015026 0.0322328 0.0008 3.43146e-06 3.03954e-13 -5.42115e-13 -9.24886e-14 3.98189e-09 9.867e-10 -8.09171e-10 3.5651e-15 -4.09903e-16 -1.18759e-15 1 0.000427207 6.8818e-05 -4.52732e-05 -0.00782386 -0.00166948 0.0322328 0.0008
1539 1 -0.00686256 0.00217869 0.0319202 0.0008 3.43146e-06 7.68937e-13 -9.02629e-13 2.3753e-12 2.07122e-09 -3.58299e-09 -7.50882e-10 1.30731e-16 -1.1255e-15 -1.13943e-15 1 6.79198e-05 6.22711e-07 -5.78757e-06 -0.00762496 0.00242073 0.0319202 0.0008
1540 1 0.00421301 -0.000727627 0.0317763 0.0008 3.43146e-06 8.39791e-14 -2.97142e-13 2.94063e-12 6.36036e-10 1.16256e-09 -2.1168e-09 -1.46663e-14 -2.79976e-15 1.19299e-14 0 0 0 0 0 0 0 0
1541 1 -0.00274625 -0.00456301 0.0314811 0.0008 3.43146e-06 7.67517e-13 1.37499e-14 1.03423e-11 -2.77626e-09 -4.4413e-09 -6.89073e-09 -2.62615e-15 -1.56577e-15 -7.78257e-16 0 0 0 0 0 0 0 0
1542 1 -0.00140311 -0.004657 0.0289061 0.0008 3.43146e-06 5.4177e-13 1.88671e-13 -2.2649e-12 1.65505e-12 3.54685e-09 -1.05339e-09 -6.75667e-16 5.65901e-15 -1.41189e-15 0 0 0 0 0 0 0 0
1543 1 -0.0044905 -0.0011034 0.026917 0.0008 3.43146e-06 1.5741e-12 4.17938e-13 -6.70961e-13 2.52893e-10 3.59118e-09 1.9215e-09 3.44876e-15 -4.50375e-15 -1.29552e-15 0 0 0 0 0 0 0 0
1544 1 0.00509486 -0.00508775 0.0305844 0.0008 3.43146e-06 -2.07811e-12 1.29343e-12 -1.30871e-12 2.85772e-10 -2.63841e-09 5.43238e-10 -7.28088e-15 2.72418e-15 1.21788e-15 1 -0.000112117 0.00013909 -1.53162e-05 0.0056608 -0.0056529 0.0305844 0.0008
1545 1 0.00234814 0.00536582 0.0279167 0.0008 3.43146e-06 -5.9929e-13 1.13096e-12 -1.1497e-12 -1.81791e-09 -3.37495e-09 -2.17766e-09 -3.19699e-15 3.20169e-15 4.62237e-16 0 0 0 0 0 0 0 0
1546 1 0.00178544 0.00511907 0.0333727 0.0008 3.43146e-06 -5.43391e-13 -2.16838e-12 5.75019e-12 9.73412e-09 2.81304e-09 -5.82325e-10 4.65568e-16 7.71162e-17 -4.95528e-15 0 0 0 0 0 0 0 0
1547 1 -0.00213572 0.00491739 0.0280021 0.0008 3.43146e-06 -1.63394e-14 2.16805e-12 -7.46734e-13 4.61e-09 3.47613e-10 -2.44736e-09 3.26048e-16 3.94082e-16 5.06401e-15 0 0 0 0 0 0 0 0
1548 1 -0.000492879 -0.00138893 0.0315885 0.0008 3.43146e-06 -1.07541e-13 -5.41956e-13 -4.52715e-12 3.79255e-09 -1.18892e-09 5.07531e-10 -6.78239e-16 5.12399e-16 5.12849e-15 0 0 0 0 0 0 0 0
1549 1 0.00274354 -0.000907486 0.0283381 0.0008 3.43146e-06 5.60667e-14 -8.13079e-13 1.78373e-12 2.60725e-09 2.00014e-09 -3.13523e-09 7.10552e-16 2.77057e-17 3.00722e-15 0 0 0 0 0 0 0 0
1550 1 -0.00630416 0.00347845 0.0286217 0.0008 3.43146e-06 -1.00994e-12 7.13148e-13 1.82869e-12 6.47175e-10 -3.07683e-09 2.44562e-10 -1.73781e-15 2.66959e-15 -3.13598e-16 1 0.000105177 -3.63409e-05 -1.20562e-05 -0.00700448 0.00386487 0.0286217 0.0008
1551 1 -0.000228924 -0.00573949 0.029002 0.0008 3.43146e-06 -1.45625e-13 -1.68827e-12 -3.29481e-12 1.04598e-09 -3.26195e-09 -9.61453e-10 -5.64211e-15 2.83472e-16 1.52235e-14 0 0 0 0 0 0 0 0
1552 1 -0.000944984 0.00546136 0.026494 0.0008 3.43146e-06 -2.71843e-13 7.00877e-13 -1.86303e-12 -4.20597e-10 -2.90434e-09 3.56795e-09 -1.59466e-16 5.86926e-15 6.2903e-16 0 0 0 0 0 0 0 0
1553 1 -0.00669061 0.00266023 0.0271834 0.0008 3.43146e-06 3.66466e-14 1.08384e-12 1.26012e-12 -1.3162e-09 -1.14487e-09 1.29058e-09 1.17453e-15 -8.73029e-16 6.96758e-16 1 4.01524e-05 -1.38024e-05 2.40856e-06 -0.00743393 0.00295578 0.0271834 0.0008
1554 1 -0.000857128 -0.00226597 0.0302943 0.0008 3.43146e-06 -2.71111e-13 -1.06051e-12 -2.36389e-12 2.1962e-09 -1.12745e-09 -5.12745e-10 3.62072e-16 -4.71509e-16 -1.73847e-15 0 0 0 0 0 0 0 0
1555 1 -0.00240141 -0.00246445 0.0299269 0.0008 3.43146e-06 1.00449e-12 -1.08394e-12 -1.76492e-12 -1.87088e-10 1.77189e-09 1.22344e-09 -8.36834e-15 9.415e-16 -5.53838e-15 0 0 0 0 0 0 0 0
1556 1 -0.00538031 -0.00478468 0.0332356 0.0008 3.43146e-06 1.73898e-12 -1.26006e-12 -3.47187e-13 4.27406e-09 4.27409e-09 -2.60434e-09 -3.25991e-15 -6.41759e-15 -3.91888e-15 1 2.9884e-05 2.22562e-05 -1.27006e-07 -0.00597807 -0.00531627 0.0332356 0.0008
1557 1 -0.00265107 -0.00246278 0.0315071 0.0008 3.43146e-06 1.0831e-12 -1.0842e-12 -2.78245e-13 4.04349e-10 -1.44763e-09 -1.11085e-10 8.12001e-15 2.96218e-16 -4.3958e-15 0 0 0 0 0 0 0 0
1558 1 -0.00202624 -0.0053085 0.0302278 0.0008 3.43146e-06 1.08386e-12 8.53589e-13 -1.95381e-12 -7.48362e-10 -3.01216e-09 7.13554e-10 -6.03156e-17 1.12808e-14 2.17849e-16 0 0 0 0 0 0 0 0
1559 1 -0.00338857 0.00472086 0.0331894 0.0008 3.43146e-06 -9.60203e-13 2.16834e-12 -7.57109e-12 1.56916e-09 2.71202e-09 3.72001e-10 2.47738e-15 -7.54321e-16 -1.99652e-15 0 0 0 0 0 0 0 0
1560 1 0.000752876 0.00716044 0.0318929 0.0008 3.43146e-06 -2.71036e-13 -1.59552e-12 9.41696e-12 -1.96599e-09 2.96081e-09 -7.56468e-10 -5.06191e-16 -9.04115e-16 -5.04872e-15 0 0 0 0 0 0 0 0
1561 1 -0.0021663 0.00166908 0.0258765 0.0008 3.43146e-06 -9.85622e-13 6.79993e-14 4.54627e-12 -4.61692e-10 2.21951e-10 8.14543e-10 -2.11719e-15 -1.704e-15 2.04314e-15 0 0 0 0 0 0 0 0
1562 1 -0.0071477 0.000867324 0.0327912 0.0008 3.43146e-06 4.21901e-13 1.43184e-13 -1.74425e-12 1.34441e-09 2.13129e-09 2.86922e-10 1.41462e-15 5.14348e-16 2.13416e-16 1 0.000100405 1.62552e-05 4.7164e-07 -0.00794175 0.000963676 0.0327912 0.0008
1563 1 0.00126122 0.00225418 0.032061 0.0008 3.43146e-06 -2.82698e-13 1.9964e-13 -2.13566e-12 -1.2593e-11 -1.26977e-09 8.19835e-10 1.00766e-15 2.26235e-15 -2.88415e-15 0 0 0 0 0 0 0 0
1564 1 -0.000340435 -3.25966e-05 0.0324816 0.0008 3.43146e-06 6.14994e-13 1.30921e-13 -8.91964e-12 1.87265e-09 -7.24686e-10 -2.77969e-09 -5.36962e-15 4.87561e-15 -1.7996e-15 0 0 0 0 0 0 0 0
1565 1 0.00534489 0.00216669 0.0328999 0.0008 3.43146e-06 -4.03047e-13 1.08409e-12 -3.48414e-12 1.60599e-09 -4.76697e-09 5.02565e-09 1.25808e-15 6.78744e-16 4.30801e-16 0 0 0 0 0 0 0 0
1566 1 0.00427468 0.000115163 0.0286107 0.0008 3.43146e-06 -7.66189e-13 2.67748e-13 -3.77005e-12 -1.46446e-09 -4.34143e-09 1.03964e-09 7.77722e-15 -6.33664e-16 1.37754e-15 0 0 0 0 0 0 0 0
1567 1 0.00141516 -0.00705963 0.0325302 0.0008 3.43146e-06 -4.39182e-13 1.39003e-12 9.4024e-13 3.14295e-10 3.96299e-09 4.40083e-11 4.19849e-15 1.65636e-15 -1.33794e-15 1 -5.33286e-06 4.174e-05 5.90053e-06 0.00157238 -0.00784395 0.0325302 0.0008
1568 1 0.00103473 -0.00302396 0.027879 0.0008 3.43146e-06 -5.42122e-13 -1.08378e-12 5.19487e-12 -4.88625e-09 -5.68173e-09 -4.72074e-09 -8.35498e-18 2.88565e-16 1.22369e-14 0 0 0 0 0 0 0 0
1569 1 -0.00384765 -0.00608594 0.0325104 0.0008 3.43146e-06 -1.08301e-12 -7.19158e-13 -2.22931e-12 -6.35792e-09 -4.98086e-09 4.73636e-10 2.93117e-16 -3.66213e-16 -2.39251e-15 1 0.000123292 0.000164029 3.71963e-06 -0.00427504 -0.00676196 0.0325104 0.0008
1570 1 0.00100019 0.00556614 0.0306668 0.0008 3.43146e-06 5.42129e-13 -2.16839e-12 -2.68062e-12 -5.32995e-10 -7.03704e-10 7.10873e-11 1.23343e-16 4.64253e-16 -1.87858e-15 0 0 0 0 0 0 0 0
1571 1 0.00604275 0.00391491 0.0316885 0.0008 3.43146e-06 -5.51981e-13 -3.45479e-13 2.68921e-12 5.0448e-09 7.41848e-09 -1.0062e-10 -2.87029e-16 -8.10845e-15 8.32898e-16 1 -5.36775e-05 -2.30684e-05 8.0197e-06 0.00671408 0.00434984 0.0316885 0.0008
1572 1 -0.00335513 0.00254952 0.0264855 0.0008 3.43146e-06 -1.0818e-12 1.07886e-12 4.57633e-12 -7.63229e-10 8.03443e-11 -1.33713e-09 -4.75388e-16 2.87303e-15 6.78018e-15 0 0 0 0 0 0 0 0
1573 1 0.00573241 -0.00435711 0.0293121 0.0008 3.43146e-06 -1.06291e-12 1.51327e-12 8.15302e-13 1.12973e-09 3.97705e-10 -6.46982e-10 -1.07349e-14 -1.07741e-16 -1.53087e-16 1 -0.000356758 0.000229736 -2.46581e-05 0.00636904 -0.004841 0.0293121 0.0008
1574 1 -0.00215319 -0.00402212 0.0260287 0.0008 3.43146e-06 1.08409e-12 9.11472e-13 -1.16702e-13 1.2949e-09 6.81316e-10 -2.32954e-10 1.35661e-16 4.05043e-15 -2.00291e-15 0 0 0 0 0 0 0 0
1575 1 -0.00456377 -0.00365337 0.0279146 0.0008 3.43146e-06 -1.5597e-12 -8.19219e-13 -1.09248e-12 4.10258e-10 1.21339e-09 1.08804e-09 5.00069e-15 -7.17941e-16 -6.32103e-15 0 0 0 0 0 0 0 0
1576 1 -0.00550456 -0.00176416 0.0325901 0.0008 3.43146e-06 6.77492e-13 5.42623e-13 -2.8237e-12 -2.0097e-10 1.98451e-09 2.91637e-09 1.35674e-15 1.71389e-16 1.57072e-15 0 0 0 0 0 0 0 0
1577 1 -0.00133309 0.00052179 0.0313544 0.0008 3.43146e-06 -3.64016e-13 -2.71335e-13 -3.99749e-12 1.43311e-09 9.49995e-10 8.13796e-10 5.26094e-15 5.66936e-17 7.19284e-15 0 0 0 0 0 0 0 0
1578 1 -0.00193674 -0.000821523 0.0319797 0.0008 3.43146e-06 -2.38359e-13 -6.84134e-13 -4.46248e-12 -7.32686e-10 -1.29069e-10 -8.74379e-10 -1.64809e-15 -6.76997e-15 4.99546e-15 0 0 0 0 0 0 0 0
1579 1 0.0066581 0.00191016 0.0296025 0.0008 3.43146e-06 5.32983e-13 4.75505e-13 2.70638e-12 -2.65925e-10 -5.89432e-10 -1.86885e-09 6.31354e-15 -1.75637e-15 1.10407e-16 0 0 0 0 0 0 0 0
1580 1 -0.00337393 -0.0030678 0.0288092 0.0008 3.43146e-06 -6.21279e-13 -1.07562e-12 -1.51049e-12 2.60044e-09 1.38492e-09 6.48608e-10 -4.37341e-15 -4.00499e-16 -1.05436e-15 0 0 0 0 0 0 0 0
1581 1 0.00322037 0.00237553 0.0273905 0.0008 3.43146e-06 1.0839e-12 5.63146e-13 9.25397e-13 1.21754e-09 -4.96947e-09 -8.51076e-10 5.4107e-17 3.63648e-15 2.03893e-15 0 0 0 0 0 0 0 0
1582 1 0.00420037 -0.00584787 0.032345 0.0008 3.43146e-06 1.45092e-12 1.81587e-12 2.06429e-12 2.74296e-09 3.58609e-12 -2.63249e-09 3.42418e-15 -8.1268e-15 -7.34731e-15 1 -1.37555e-05 1.78404e-05 3.19986e-06 0.00466705 -0.00649759 0.032345 0.0008
1583 1 -0.00259487 0.00263986 0.0327945 0.0008 3.43146e-06 -1.08388e-12 -7.97937e-13 2.03688e-12 3.71416e-09 1.67181e-09 4.11863e-09 1.73585e-16 -5.05314e-16 -2.59158e-18 0 0 0 0 0 0 0 0
1584 1 -0.00287154 0.00321846 0.0313288 0.0008 3.43146e-06 -1.08413e-12 -1.0593e-12 -1.18755e-13 -4.51684e-09 -2.15781e-09 -3.18776e-09 -1.00108e-15 -1.29897e-16 -3.5321e-15 0 0 0 0 0 0 0 0
1585 1 0.000743852 -0.0016374 0.0325726 0.0008 3.43146e-06 -4.45534e-13 5.4085e-13 -1.48726e-12 -6.08628e-09 -1.48387e-09 -5.43376e-11 1.17517e-14 -4.70037e-16 7.06021e-15 0 0 0 0 0 0 0 0
1586 1 -0.00215073 -0.00214904 0.0279581 0.0008 3.43146e-06 1.08417e-12 -1.91319e-13 -2.03668e-12 -9.97762e-10 -2.46525e-09 -2.53748e-09 -2.37802e-17 4.54285e-15 7.77302e-15 0 0 0 0 0 0 0 0
1587 1 0.00559436 0.00103164 0.0287923 0.0008 3.43146e-06 -9.96661e-13 4.56957e-14 -8.83315e-14 -5.36527e-10 -2.48848e-09 -5.5351e-10 5.80523e-15 -9.9135e-17 8.21976e-15 0 0 0 0 0 0 0 0
1588 1 0.000813125 0.00241925 0.0260907 0.0008 3.43146e-06 5.33596e-14 -3.55148e-13 -3.03799e-14 4.39635e-09 -3.99044e-09 8.04145e-10 8.29301e-16 4.75829e-15 2.41244e-15 0 0 0 0 0 0 0 0
1589 1 -0.000858267 -0.00543693 0.0330046 0.0008 3.43146e-06 2.01333e-13 9.90769e-13 -3.94363e-12 -9.39794e-09 3.16059e-09 4.80516e-09 -3.23282e-15 -7.10294e-15 -1.05307e-15 0 0 0 0 0 0 0 0
1590 1 0.00375844 -0.00167209 0.0301332 0.0008 3.43146e-06 1.08407e-12 -4.46453e-13 6.24863e-14 1.2022e-09 4.76211e-09 8.10039e-10 5.21741e-16 -5.07225e-15 2.14018e-14 0 0 0 0 0 0 0 0
1591 1 0.0068739 -0.00214213 0.031104 0.0008 3.43146e-06 1.80069e-12 -1.0842e-12 -1.40246e-12 7.18739e-10 -2.88142e-09 2.57748e-09 -1.07616e-14 -3.29803e-17 1.25719e-15 0 0 0 0 0 0 0 0
1592 1 0.00157775 -0.00702513 0.0262718 0.0008 3.43146e-06 4.09374e-13 6.80921e-13 1.09212e-12 1.62624e-09 -8.47888e-10 -5.85621e-10 -4.72328e-15 -2.01654e-15 -1.5777e-15 1 -8.42914e-06 8.87289e-05 -1.5184e-06 0.00175303 -0.00780557 0.0262718 0.0008
1593 1 -0.000840422 0.00446383 0.0289591 0.0008 3.43146e-06 -1.41908e-13 -1.36212e-12 -1.47276e-12 3.18425e-09 -2.47687e-09 -3.81488e-10 3.12371e-15 -6.94736e-16 -3.55596e-16 0 0 0 0 0 0 0 0
1594 1 -0.00518143 0.00489793 0.0285899 0.0008 3.43146e-06 -9.41421e-13 5.65654e-13 -6.74882e-12 2.49578e-10 -2.57153e-09 -2.73075e-09 5.16698e-17 2.54571e-15 4.3586e-15 0 0 0 0 0 0 0 0
1595 1 0.00630825 0.00347109 0.0296206 0.0008 3.43146e-06 1.79279e-12 8.30046e-13 2.18026e-12 -9.38315e-10 2.58933e-09 2.12774e-10 4.39324e-15 2.12026e-16 2.12663e-15 1 -0.00011663 -0.00010528 1.12515e-05 0.007009 0.00385667 0.0296206 0.0008
1596 1 -0.00315463 0.00272897 0.0298324 0.0008 3.43146e-06 -5.13611e-13 -1.08402e-12 3.56757e-12 2.57531e-09 1.75557e-09 2.15853e-09 -1.6843e-15 -7.48544e-16 4.23443e-16 0 0 0 0 0 0 0 0
1597 1 -0.00715871 -0.000772776 0.0272304 0.0008 3.43146e-06 1.13713e-12 2.69141e-13 -8.57956e-13 2.01175e-09 1.2396e-09 2.13708e-10 1.79807e-16 -3.61596e-16 2.90346e-15 1 0.000347256 1.77458e-06 6.45326e-05 -0.00795379 -0.000858605 0.0272304 0.0008
1598 1 0.00383367 0.00609459 0.0316379 0.0008 3.43146e-06 1.08364e-12 1.15374e-12 1.5787e-12 -1.25003e-09 1.97332e-09 2.64514e-10 4.10775e-16 3.52947e-16 2.55048e-15 1 -2.7728e-05 -2.93577e-05 8.23801e-06 0.00425959 0.0067717 0.0316379 0.0008
1599 1 -0.00431042 0.00380821 0.0302795 0.0008 3.43146e-06 -2.16816e-12 -2.53646e-13 -2.12599e-12 -2.67767e-09 -2.82149e-09 -5.55609e-09 1.09267e-15 -2.5819e-15 3.19343e-15 0 0 0 0 0 0 0 0
1600 1 -0.00513811 -0.0024007 0.028727 0.0008 3.43146e-06 2.14489e-12 8.3735e-13 -9.01705e-13 -3.52155e-09 6.06371e-09 -2.31945e-09 5.62456e-15 -3.70714e-15 -4.92017e-16 0 0 0 0 0 0 0 0
1601 1 -2.10721e-05 5.97809e-05 0.0340465 0.0008 3.43146e-06 1.39044e-13 -1.40558e-13 1.19591e-11 -7.67356e-10 -5.35167e-09 1.01455e-10 -1.70183e-15 -2.67286e-16 -1.13979e-14 0 0 0 0 0 0 0 0
1602 1 -0.00240341 0.000357945 0.0301767 0.0008 3.43146e-06 6.89217e-13 -2.16609e-13 -1.58247e-12 -1.93527e-10 1.39494e-10 7.36925e-10 4.19807e-15 -7.77461e-16 5.90072e-15 0 0 0 0 0 0 0 0
1603 1 0.00367597 -0.00222768 0.0316311 0.0008 3.43146e-06 -1.09381e-12 7.07101e-13 4.19038e-12 -4.42107e-09 -7.78177e-09 -4.86472e-10 -1.14864e-15 5.14605e-15 9.89128e-15 0 0 0 0 0 0 0 0
1604 1 0.000982134 -0.00149987 0.0283707 0.0008 3.43146e-06 5.45659e-13 5.33399e-13 -2.8743e-12 1.28564e-09 -1.16881e-08 -3.53023e-09 6.42155e-16 -8.53046e-16 -1.35043e-14 0 0 0 0 0 0 0 0
1605 1 -0.00391803 -0.00196437 0.0298319 0.0008 3.43146e-06 7.76009e-13 -1.08376e-12 -7.05187e-13 -2.29812e-09 5.47671e-10 -1.34358e-09 -4.36644e-15 2.94925e-16 5.70235e-15 0 0 0 0 0 0 0 0
1606 1 -0.000241946 -0.00404665 0.029822 0.0008 3.43146e-06 5.14693e-13 1.00223e-12 -4.27292e-12 -1.20017e-09 -1.61415e-09 1.61129e-09 -5.3533e-15 -1.11394e-14 7.64676e-15 0 0 0 0 0 0 0 0
1607 1 -0.00296242 -0.00618792 0.0273 0.0008 3.43146e-06 7.58272e-13 1.88534e-12 4.25242e-14 -5.71259e-09 3.22559e-09 -1.15409e-10 -3.52602e-15 1.37488e-15 4.99313e-15 0 0 0 0 0 0 0 0
1608 1 -0.00382669 -0.00024365 0.0297622 0.0008 3.43146e-06 1.07725e-12 -6.88595e-14 -2.7618e-13 1.7531e-10 1.56486e-09 -5.92786e-10 -8.72057e-16 -5.3472e-17 3.03751e-15 0 0 0 0 0 0 0 0
1609 1 0.00292742 0.00219385 0.0295828 0.0008 3.43146e-06 1.08423e-12 -1.00376e-13 8.67258e-12 1.15275e-09 4.13369e-09 2.18016e-09 1.79769e-15 -2.81686e-15 9.27492e-16 0 0 0 0 0 0 0 0
1610 1 0.00423618 -0.00460366 0.026862 0.0008 3.43146e-06 2.16779e-12 2.15726e-12 -3.69599e-12 2.34713e-09 6.64836e-10 1.8432e-09 -4.97029e-17 -4.9175e-16 -3.90105e-16 0 0 0 0 0 0 0 0
1611 1 0.00308416 0.00037647 0.0274465 0.0008 3.43146e-06 1.08373e-12 -1.03211e-12 -3.28625e-13 -3.56003e-09 2.71668e-09 -1.37853e-09 6.0421e-16 -1.76518e-16 3.5558e-15 0 0 0 0 0 0 0 0
1612 1 -0.00521083 0.00496913 0.0269919 0.0008 3.43146e-06 6.47846e-14 1.07211e-12 -1.25385e-12 6.76067e-10 1.50925e-09 9.2588e-10 4.01234e-16 1.30877e-15 1.31626e-16 1 0.000310524 -0.000303986 2.61577e-05 -0.00578954 0.00552098 0.0269919 0.0008
1613 1 0.00127756 -0.00582335 0.0284594 0.0008 3.43146e-06 -2.06507e-12 -2.16775e-12 3.90295e-12 2.11264e-09 -5.15699e-09 -8.25978e-09 9.24094e-15 4.81271e-16 -1.33067e-14 0 0 0 0 0 0 0 0
1614 1 -0.000776706 0.00586965 0.0328676 0.0008 3.43146e-06 -2.71056e-13 -2.16608e-12 -7.27756e-12 -1.86514e-10 -6.56261e-10 -3.51592e-09 2.45346e-15 -1.15655e-16 -5.45767e-15 0 0 0 0 0 0 0 0
1615 1 -0.000172813 0.00294669 0.0322148 0.0008 3.43146e-06 1.78265e-13 8.912e-13 -2.77996e-12 -5.44721e-09 2.94561e-09 -1.14807e-09 -1.15032e-16 -6.88832e-15 -3.61758e-15 0 0 0 0 0 0 0 0
1616 1 0.00218007 0.00525782 0.0263296 0.0008 3.43146e-06 -1.96844e-13 -9.62747e-13 5.35818e-14 -1.75513e-09 2.50391e-09 -4.10192e-09 -1.97768e-16 -7.54271e-16 2.55028e-15 0 0 0 0 0 0 0 0
1617 1 -0.00281044 -0.00110833 0.0306705 0.0008 3.43146e-06 1.08362e-12 -5.42116e-13 -1.07767e-12 -3.10537e-10 6.12462e-10 -1.57696e-10 -5.53426e-16 -4.84744e-17 1.04456e-15 0 0 0 0 0 0 0 0
1618 1 0.00284162 -0.000517415 0.0307544 0.0008 3.43146e-06 4.19201e-13 -1.6569e-13 -3.5082e-12 -7.08102e-09 -3.99744e-09 1.84647e-09 -8.00262e-15 -3.32005e-15 9.99827e-15 0 0 0 0 0 0 0 0
1619 1 -0.00431169 0.00144449 0.0293254 0.0008 3.43146e-06 2.16807e-12 -5.67309e-13 -2.52412e-12 -2.47559e-09 -1.36222e-09 3.25805e-10 -4.69827e-16 -9.9123e-17 -5.08049e-15 0 0 0 0 0 0 0 0
1620 1 0.00104364 0.00238992 0.0293131 0.0008 3.43146e-06 -4.15433e-13 1.08425e-12 -4.3292e-12 -2.47363e-09 3.588e-09 2.21673e-09 2.28825e-15 1.50839e-15 -7.43363e-15 0 0 0 0 0 0 0 0
1621 1 0.00102277 0.00712707 0.0303163 0.0008 3.43146e-06 5.41771e-13 -2.16685e-12 -1.4542e-12 1.66005e-09 -1.90698e-09 9.77092e-10 -5.1891e-16 -1.0598e-15 -3.97065e-15 1 4.59071e-06 -4.938e-05 -5.90273e-06 0.0011364 0.00791888 0.0303163 0.0008
1622 1 0.00280359 0.00187497 0.0318701 0.0008 3.43146e-06 -1.08312e-12 5.04892e-13 -3.3356e-12 6.58331e-10 2.67397e-09 -5.44102e-10 -1.39553e-15 -2.86485e-15 -1.16562e-14 0 0 0 0 0 0 0 0
1623 1 0.000800986 -0.00447072 0.0309585 0.0008 3.43146e-06 1.12503e-13 -1.17408e-12 -2.72201e-13 4.53735e-09 -3.36142e-09 -7.07961e-10 -5.06241e-15 -1.65672e-14 1.28176e-14 0 0 0 0 0 0 0 0
1624 1 -0.00561253 0.0045101 0.031521 0.0008 3.43146e-06 -2.16639e-12 -1.87508e-12 -8.65096e-12 7.3259e-09 7.87644e-09 -3.6308e-09 -4.54178e-16 -3.90787e-15 -1.39514e-14 1 6.44923e-05 -3.96334e-05 4.69337e-06 -0.00623606 0.00501115 0.031521 0.0008
1625 1 -0.00197164 0.00545781 0.0294988 0.0008 3.43146e-06 6.00401e-13 -8.53574e-13 -3.05383e-12 -2.47925e-09 -4.85071e-10 -1.69014e-09 5.81281e-17 4.25426e-15 -2.29023e-15 0 0 0 0 0 0 0 0
1626 1 -0.00696968 -0.00180668 0.0299655 0.0008 3.43146e-06 1.98471e-12 -5.41905e-13 -1.33256e-13 1.1811e-09 4.7869e-10 -1.419e-09 5.95742e-15 -2.66401e-16 -5.79626e-15 1 1.38572e-05 5.98313e-06 -3.24037e-06 -0.00774405 -0.00200742 0.0299655 0.0008
1627 1 0.00343051 -0.00456568 0.0297507 0.0008 3.43146e-06 -7.63511e-14 -1.93421e-12 -3.77193e-12 3.70702e-09 -1.15899e-09 1.67307e-09 -5.82032e-15 -3.02189e-15 4.66255e-15 0 0 0 0 0 0 0 0
1628 1 -0.00424134 -0.00581832 0.0281903 0.0008 3.43146e-06 -2.9387e-13 -7.73781e-13 1.19691e-12 1.94436e-10 -2.2929e-09 -2.7403e-10 -3.474e-16 1.49629e-15 3.16455e-15 1 5.96222e-05 7.59089e-05 1.24049e-05 -0.00471252 -0.00646469 0.0281903 0.0008
1629 1 0.00192643 0.00369003 0.0322969 0.0008 3.43146e-06 -7.39368e-13 1.08402e-12 -3.17706e-13 1.44319e-09 -1.77959e-09 2.80557e-10 -1.74719e-15 2.16099e-16 4.91313e-15 0 0 0 0 0 0 0 0
1630 1 0.0035042 0.00362727 0.0300014 0.0008 3.43146e-06 9.36146e-13 -4.30641e-13 -1.88705e-12 5.01079e-09 -1.20536e-09 2.15176e-09 -1.93809e-15 2.54148e-16 2.29383e-15 0 0 0 0 0 0 0 0
1631 1 -0.000846415 0.0071502 0.0318506 0.0008 3.43146e-06 -2.71393e-13 -2.89352e-13 3.27572e-12 -2.75761e-09 -1.07253e-08 -6.77767e-10 -3.89893e-16 1.13744e-15 2.39784e-15 1 2.93792e-06 -9.46071e-05 -1.32481e-05 -0.000940445 0.00794453 0.0318506 0.0008
1632 1 0.001638 -0.00311037 0.0299633 0.0008 3.43146e-06 -5.42387e-13 -1.08471e-12 -1.06394e-12 5.41006e-09 -5.358e-09 5.92733e-10 -9.02401e-16 3.94891e-16 -5.24373e-16 0 0 0 0 0 0 0 0
1633 1 0.00177354 0.00179258 0.0306158 0.0008 3.43146e-06 4.58359e-13 -5.44696e-13 3.21175e-12 2.59154e-09 -9.22581e-09 -3.36657e-09 1.39427e-16 4.24173e-16 -1.03684e-14 0 0 0 0 0 0 0 0
1634 1 -0.000804337 0.00715496 0.0302464 0.0008 3.43146e-06 2.23966e-13 -2.16647e-12 -7.32249e-13 1.45683e-09 -4.43393e-09 -3.21244e-10 2.51247e-15 1.01487e-16 2.98047e-15 1 4.0039e-07 -9.20229e-06 -1.94388e-06 -0.000893704 0.00794992 0.0302464 0.0008
1635 1 -0.000758501 0.0049435 0.0315632 0.0008 3.43146e-06 1.84544e-13 -2.16648e-12 2.06146e-12 -6.47585e-09 -1.0382e-09 2.69317e-09 3.31454e-15 9.39416e-16 7.96363e-16 0 0 0 0 0 0 0 0
1636 1 0.00613612 -0.00376696 0.0309044 0.0008 3.43146e-06 3.72155e-13 -8.53026e-13 2.11127e-12 7.78072e-10 2.60228e-09 6.57574e-10 -1.91675e-14 2.36257e-15 -4.4857e-15 1 -9.3084e-05 4.95613e-05 1.74592e-05 0.00681778 -0.00418543 0.0309044 0.0008
1637 1 0.00214629 0.00353845 0.0291607 0.0008 3.43146e-06 7.0545e-13 1.08424e-12 -6.93276e-12 -2.08514e-09 -3.864e-09 -2.83322e-09 9.43418e-16 4.38765e-16 -3.24178e-15 0 0 0 0 0 0 0 0
1638 1 0.00471525 0.00544174 0.0279101 0.0008 3.43146e-06 1.77566e-12 1.44906e-12 -1.26376e-12 1.46054e-09 -7.41267e-10 5.40479e-10 5.3156e-15 2.59167e-16 1.69245e-16 1 -0.000316044 -0.000516059 5.48187e-05 0.00523886 0.00604602 0.0279101 0.0008
1639 1 0.00275127 -0.00112379 0.0323281 0.0008 3.43146e-06 -1.09873e-12 5.36722e-13 -2.29535e-12 3.92641e-09 -2.91127e-09 -3.28935e-09 8.1661e-15 8.974e-16 2.137e-15 0 0 0 0 0 0 0 0
1640 1 0.00225415 0.00137969 0.0283813 0.0008 3.43146e-06 1.08431e-12 5.41679e-13 7.72545e-12 2.75662e-09 -1.41573e-09 2.3756e-09 -2.2938e-16 -1.96208e-15 -8.90622e-15 0 0 0 0 0 0 0 0
1641 1 -0.00348175 0.00142092 0.0306932 0.0008 3.43146e-06 7.0864e-13 -5.41856e-13 -1.37362e-12 2.12895e-09 -1.83683e-09 -1.19745e-09 -8.01526e-16 1.50492e-15 3.71613e-15 0 0 0 0 0 0 0 0
1642 1 -0.00218846 -0.00219917 0.0330157 0.0008 3.43146e-06 -1.08308e-12 4.92694e-14 -2.77566e-12 -3.3187e-09 -6.72415e-10 -1.15234e-09 -2.50197e-16 -2.63388e-15 -9.72309e-15 0 0 0 0 0 0 0 0
1643 1 0.00291924 -0.00523105 0.0283885 0.0008 3.43146e-06 1.08266e-12 1.4259e-13 -8.01544e-12 2.76031e-09 3.73801e-10 2.91497e-09 -4.89342e-16 -3.80664e-15 3.91619e-15 0 0 0 0 0 0 0 0
1644 1 0.00570681 0.000883704 0.0303814 0.0008 3.43146e-06 -1.91366e-12 -2.64704e-13 -1.55352e-12 1.25199e-09 1.11283e-09 2.46941e-09 -2.03309e-15 -1.61521e-16 1.0313e-14 0 0 0 0 0 0 0 0
1645 1 -0.00559351 -0.00453353 0.0316699 0.0008 3.43146e-06 -1.9947e-12 6.03062e-13 -1.76505e-12 -2.544e-09 4.01045e-10 2.17025e-09 -7.70687e-15 -9.01006e-17 2.4109e-15 1 5.76434e-06 4.3734e-06 4.81297e-07 -0.006215 -0.00503724 0.0316699 0.0008
1646 1 -0.0059835 0.00400491 0.0340802 0.0008 3.43146e-06 -3.35812e-14 9.79821e-13 2.01791e-12 8.28839e-09 -8.52133e-09 7.58738e-10 2.94441e-16 2.59998e-15 -2.00941e-15 1 6.01642e-05 -5.08827e-05 -2.86605e-05 -0.00664823 0.00444983 0.0340802 0.0008
1647 1 0.00359084 0.00249077 0.0331194 0.0008 3.43146e-06 -1.08532e-12 -3.25088e-13 -2.65132e-12 -1.74632e-10 -3.78444e-09 -1.34747e-09 -1.21577e-15 3.44811e-15 3.33993e-15 0 0 0 0 0 0 0 0
1648 1 0.00694564 0.00189749 0.0269273 0.0008 3.43146e-06 -9.60679e-13 -2.19904e-13 3.91599e-13 -1.98051e-09 -9.90907e-11 -2.57124e-11 1.15482e-15 -2.40144e-15 2.73165e-16 1 -0.000144699 -2.22096e-05 3.33454e-05 0.0077172 0.00210828 0.0269273 0.0008
1649 1 0.000237021 0.00112607 0.0298706 0.0008 3.43146e-06 7.21237e-13 -5.42006e-13 -1.72262e-12 8.79994e-10 -6.36954e-10 -2.41239e-10 4.18934e-15 -3.4786e-16 -6.50169e-15 0 0 0 0 0 0 0 0
1650 1 0.00409393 -0.00592322 0.0292249 0.0008 3.43146e-06 2.16799e-12 -1.18776e-12 -3.33531e-12 -1.1743e-09 -5.74013e-09 -1.33425e-09 -4.11527e-17 4.32281e-16 2.36164e-15 1 -0.000289052 0.00029996 -3.33703e-06 0.0045486 -0.00658105 0.0292249 0.0008
1651 1 -0.00438303 0.00306531 0.0288646 0.0008 3.43146e-06 1.72595e-12 -3.63634e-13 1.3119e-12 2.9828e-11 -6.2489e-09 -1.41149e-09 -6.77657e-16 -3.48936e-15 8.2443e-15 0 0 0 0 0 0 0 0
1652 1 0.00500559 -0.00517376 0.0281442 0.0008 3.43146e-06 -2.16815e-12 1.02825e-12 -2.88377e-12 1.86964e-09 -1.10438e-10 2.06623e-09 6.24296e-17 -1.38234e-15 -1.25077e-16 0 0 0 0 0 0 0 0
1653 1 -0.00263425 0.00478696 0.0311065 0.0008 3.43146e-06 -1.0839e-12 2.16837e-12 -6.18582e-12 7.32115e-11 -1.32912e-13 -1.46026e-09 -1.1333e-15 -8.34003e-16 8.39483e-16 0 0 0 0 0 0 0 0
1654 1 -0.00580159 0.00426416 0.0299216 0.0008 3.43146e-06 -1.13196e-12 1.85119e-12 -1.73475e-12 -3.58648e-09 5.17426e-09 1.10573e-09 -4.54584e-15 3.10427e-15 -1.10072e-15 1 5.56656e-05 -4.19194e-05 -7.88541e-06 -0.00644612 0.00473789 0.0299216 0.0008
1655 1 -0.0041308 0.0022254 0.0329649 0.0008 3.43146e-06 -2.16827e-12 -1.03034e-12 -3.14063e-12 -1.53518e-09 -7.99475e-09 -3.59483e-09 -1.24494e-16 -1.00801e-14 -1.92776e-15 0 0 0 0 0 0 0 0
1656 1 0.0050032 0.00350019 0.0305453 0.0008 3.43146e-06 -2.1615e-12 9.73015e-13 2.22829e-12 -1.03354e-09 -5.38226e-09 1.16331e-09 -2.47931e-16 -3.04486e-15 2.04119e-15 0 0 0 0 0 0 0 0
1657 1 0.00661648 -0.00283972 0.0296874 0.0008 3.43146e-06 1.46308e-12 4.35394e-14 3.02845e-12 -1.55402e-09 4.92345e-09 -7.64159e-10 -3.42605e-15 -1.05192e-16 -2.94099e-15 1 -7.65724e-05 5.11257e-05 2.26328e-05 0.00735152 -0.00315519 0.0296874 0.0008
1658 1 0.0027052 0.00594548 0.0305136 0.0008 3.43146e-06 3.06726e-13 6.3768e-13 -8.09097e-13 2.6021e-09 -3.07879e-09 1.62931e-09 3.39922e-15 -2.17753e-15 -6.54615e-16 0 0 0 0 0 0 0 0
1659 1 0.00565327 -0.00054237 0.0311047 0.0008 3.43146e-06 2.16586e-12 -2.70695e-13 -1.8921e-12 -6.09798e-10 3.16888e-09 1.28465e-09 -6.34151e-16 -5.02068e-16 9.45751e-15 0 0 0 0 0 0 0 0
1660 1 -0.000917348 0.00349254 0.0309082 0.0008 3.43146e-06 -2.71347e-13 8.46421e-13 4.49199e-12 5.83043e-09 3.93028e-09 -2.47836e-09 -1.34259e-18 -2.41229e-15 -2.28361e-15 0 0 0 0 0 0 0 0
1661 1 -0.00532018 0.00253787 0.0339992 0.0008 3.43146e-06 2.17023e-12 -1.07905e-12 -6.74603e-12 5.30873e-10 1.02706e-08 8.79792e-10 -2.39802e-15 -2.80561e-15 -1.79481e-15 0 0 0 0 0 0 0 0
1662 1 -0.00122203 -0.000708805 0.0303374 0.0008 3.43146e-06 5.42074e-13 7.63554e-14 -1.45923e-12 -1.20334e-09 1.14219e-09 -6.23566e-10 -6.48014e-16 2.47559e-15 -3.30922e-15 0 0 0 0 0 0 0 0
1663 1 -0.00436257 -0.00102727 0.0310498 0.0008 3.43146e-06 2.16775e-12 -5.41461e-13 -1.05182e-12 1.51352e-09 2.38715e-10 -2.63571e-10 2.16999e-15 -1.68009e-15 2.47648e-15 0 0 0 0 0 0 0 0
1664 1 0.00103337 -0.0056525 0.0268876 0.0008 3.43146e-06 -3.10174e-13 1.77705e-12 5.41608e-12 1.90344e-09 3.81381e-09 1.43959e-09 1.41116e-15 -5.10784e-15 -8.11994e-15 0 0 0 0 0 0 0 0
1665 1 0.00373672 0.00469201 0.0329187 0.0008 3.43146e-06 -1.08393e-12 2.16641e-12 -5.22431e-13 -2.40269e-09 2.58497e-10 6.24926e-10 3.34639e-16 2.83854e-15 -3.88523e-15 0 0 0 0 0 0 0 0
1666 1 0.00189521 0.00509568 0.029427 0.0008 3.43146e-06 5.42137e-13 5.24031e-13 -5.80083e-12 3.57608e-09 3.12888e-09 2.90256e-09 5.08365e-16 -1.13616e-16 -6.12575e-15 0 0 0 0 0 0 0 0
1667 1 -0.00717845 -0.000558171 0.0335169 0.0008 3.43146e-06 9.35764e-13 -2.71257e-13 5.56479e-13 -3.56185e-09 -9.68171e-10 -2.80732e-10 3.2884e-15 2.69031e-17 -3.10543e-15 1 9.01278e-05 1.05522e-05 -9.26406e-06 -0.00797592 -0.00062018 0.0335169 0.0008
1668 1 -0.00392389 -0.00191454 0.0323067 0.0008 3.43146e-06 -1.59404e-12 -5.44547e-13 -3.25311e-12 4.35874e-10 -4.14398e-09 -1.24107e-09 1.8948e-15 -1.54643e-15 8.41015e-15 0 0 0 0 0 0 0 0
1669 1 -0.0059959 -0.00398623 0.0285524 0.0008 3.43146e-06 2.19148e-13 -7.40706e-13 -6.81376e-13 -4.77411e-09 -2.22357e-09 -9.58891e-10 1.28408e-15 -6.01429e-17 -1.39286e-15 1 2.16258e-05 2.24467e-05 -2.1954e-07 -0.00666205 -0.00442911 0.0285524 0.0008
1670 1 -0.00269458 -0.00114118 0.0290751 0.0008 3.43146e-06 6.6866e-13 4.34667e-13 -2.06689e-12 1.56285e-09 1.24407e-10 5.88849e-10 1.77867e-15 2.50394e-15 7.18629e-15 0 0 0 0 0 0 0 0
1671 1 0.000955689 -0.00368885 0.0264263 0.0008 3.43146e-06 -1.00616e-13 -1.401e-13 -2.56937e-12 9.63398e-09 2.49381e-09 1.35153e-10 1.15612e-15 3.37577e-16 8.4456e-15 0 0 0 0 0 0 0 0
1672 1 -0.00142138 -0.00705838 0.0309603 0.0008 3.43146e-06 5.42375e-13 7.45061e-13 -1.65776e-12 -2.52911e-09 -3.95095e-09 -6.19966e-10 -2.40898e-16 -1.26037e-16 8.50444e-15 1 9.0895e-06 3.90036e-05 -6.41476e-06 -0.0015793 -0.00784256 0.0309603 0.0008
1673 1 -0.00162407 -0.00371352 0.0305555 0.0008 3.43146e-06 5.41658e-13 -1.08385e-12 -5.87855e-12 4.70213e-09 -7.71535e-10 -8.11655e-10 -7.71812e-16 2.95833e-16 -3.52024e-15 0 0 0 0 0 0 0 0
1674 1 0.00281025 -0.0066291 0.0318762 0.0008 3.43146e-06 -1.08343e-12 2.05593e-12 3.9555e-14 9.96178e-10 -2.2536e-09 3.80858e-10 -3.16728e-17 -4.3328e-15 -5.66443e-15 1 -5.41845e-05 0.000142312 8.93713e-06 0.00312242 -0.00736549 0.0318762 0.0008
1675 1 0.00427439 -0.000837988 0.0272766 0.0008 3.43146e-06 1.87202e-12 -2.60003e-13 -1.31175e-12 -4.41047e-10 4.17919e-09 -3.12157e-09 -1.012e-15 3.60827e-17 9.46198e-15 0 0 0 0 0 0 0 0
1676 1 -0.00640338 0.000332522 0.0296242 0.0008 3.43146e-06 1.50068e-12 -1.60977e-13 -8.73044e-13 9.41599e-10 -2.33558e-09 -2.28931e-09 2.68917e-15 1.14298e-15 2.24498e-15 0 0 0 0 0 0 0 0
1677 1 0.000158487 -0.00719839 0.0307511 0.0008 3.43146e-06 1.36147e-13 -1.03528e-13 -9.86478e-13 -1.2903e-09 3.62284e-09 -7.38791e-11 2.63694e-15 -2.4374e-17 5.86349e-15 1 -1.6917e-05 0.000106341 3.06123e-05 0.000176093 -0.00799806 0.0307511 0.0008
1678 1 0.00299923 -0.00339383 0.0307547 0.0008 3.43146e-06 5.11239e-13 1.08403e-12 3.28701e-12 -3.80343e-09 7.12963e-10 4.4958e-09 -6.59883e-15 -6.4238e-16 1.6282e-14 0 0 0 0 0 0 0 0
1679 1 0.0032274 -0.00356833 0.0261767 0.0008 3.43146e-06 1.067e-12 6.92455e-13 3.96721e-13 1.56386e-09 1.73404e-09 1.27657e-09 6.95774e-15 -4.12386e-15 3.27061e-15 0 0 0 0 0 0 0 0
1680 1 0.00546353 -0.00185092 0.030204 0.0008 3.43146e-06 -3.97227e-13 -5.41797e-13 1.12921e-12 -2.15238e-09 3.03754e-09 -1.12527e-09 -1.53732e-14 -2.06055e-16 6.51668e-15 0 0 0 0 0 0 0 0
1681 1 -0.00573419 0.00207426 0.0296989 0.0008 3.43146e-06 2.16842e-12 5.89031e-13 -4.30699e-13 7.04254e-09 1.40959e-09 -2.93048e-09 -1.41542e-16 7.29818e-17 -2.0512e-15 0 0 0 0 0 0 0 0
1682 1 0.00394149 0.00234184 0.0308472 0.0008 3.43146e-06 -7.20076e-14 -1.04546e-12 -6.06113e-13 -3.5557e-09 -6.86078e-09 1.08404e-09 -4.56437e-15 -3.59261e-15 -5.52318e-16 0 0 0 0 0 0 0 0
1683 1 0.00385793 -0.0060793 0.0307994 0.0008 3.43146e-06 -1.08339e-12 1.67804e-12 -6.8788e-13 -2.59907e-09 2.21898e-09 2.07714e-10 -9.59097e-16 -7.01848e-15 -7.50874e-16 1 -4.92729e-05 5.58693e-05 -7.06797e-06 0.00428653 -0.00675468 0.0307994 0.0008
1684 1 -0.0045873 0.00554973 0.0325293 0.0008 3.43146e-06 -1.78612e-12 2.16773e-12 -2.20271e-12 9.7723e-10 3.16586e-09 3.00044e-11 -2.00046e-15 -5.88738e-16 1.42274e-15 1 0.000103504 -0.000153018 -1.06251e-06 -0.00509686 0.0061662 0.0325293 0.0008
1685 1 0.00719854 -0.00015011 0.0312382 0.0008 3.43146e-06 -8.56398e-13 2.21701e-14 -2.32703e-12 2.10696e-10 -2.96987e-09 2.5125e-12 -1.00352e-15 -2.08126e-15 -8.5386e-15 1 -7.12935e-05 9.77197e-06 7.37614e-06 0.00799826 -0.000166787 0.0312382 0.0008
1686 1 0.000389177 0.00258141 0.0307603 0.0008 3.43146e-06 3.99457e-13 4.07994e-13 -1.86308e-12 2.22859e-09 -6.51261e-10 1.66786e-09 -7.52775e-16 -1.47478e-15 -4.28543e-15 0 0 0 0 0 0 0 0
1687 1 -0.0035075 0.00623551 0.0315682 0.0008 3.43146e-06 -6.07526e-13 -1.43691e-12 -8.33195e-14 3.05658e-09 -2.36497e-09 -8.96227e-09 3.10863e-15 -6.01991e-15 -1.3467e-15 0 0 0 0 0 0 0 0
1688 1 0.00216023 0.00519907 0.0318194 0.0008 3.43146e-06 -6.57746e-13 2.1675e-12 -2.43199e-12 -4.36997e-09 -2.62818e-10 -2.0445e-11 4.0123e-15 -1.75399e-15 3.41384e-15 0 0 0 0 0 0 0 0
1689 1 -0.00109875 -0.0010775 0.0270927 0.0008 3.43146e-06 1.30208e-12 5.38659e-13 -2.49609e-13 -7.23111e-12 4.62128e-09 1.42815e-09 1.9249e-15 2.44787e-15 7.82404e-15 0 0 0 0 0 0 0 0
1690 1 0.00384962 -0.00456262 0.0314405 0.0008 3.43146e-06 -7.32748e-14 2.16678e-12 -2.29434e-14 4.64332e-09 3.14806e-09 -5.63744e-09 -5.27648e-15 -2.83976e-16 7.30035e-15 0 0 0 0 0 0 0 0
1691 1 -0.00242147 -0.00678088 0.0297429 0.0008 3.43146e-06 6.44375e-13 -1.07773e-13 -1.26349e-12 -2.14982e-11 4.71953e-09 -7.42634e-10 7.84715e-16 4.83066e-15 4.71127e-15 1 7.33236e-05 0.000278408 6.24356e-05 -0.00269042 -0.00753403 0.0297429 0.0008
1692 1 0.00153125 0.000258246 0.0302328 0.0008 3.43146e-06 5.42961e-14 -7.06433e-13 -1.17835e-13 -4.14642e-10 -2.26222e-09 -3.36522e-11 -3.92795e-16 1.80809e-15 -1.0923e-14 0 0 0 0 0 0 0 0
1693 1 -0.00467152 -0.00463167 0.0291759 0.0008 3.43146e-06 1.50357e-12 -4.20954e-13 1.26898e-12 -2.36859e-09 3.71139e-09 -8.90678e-10 -1.95978e-15 -3.34109e-15 1.33597e-15 0 0 0 0 0 0 0 0
1694 1 0.00543362 -0.00203306 0.0317932 0.0008 3.43146e-06 -3.59658e-12 2.2624e-13 1.733e-11 -1.16905e-09 -6.6215e-09 7.07985e-10 -1.90966e-14 6.30925e-15 4.06634e-16 0 0 0 0 0 0 0 0
1695 1 0.00127857 0.00655041 0.0280275 0.0008 3.43146e-06 5.41886e-13 -1.28434e-13 -2.99502e-12 2.83628e-09 -1.13082e-09 1.68207e-09 1.39468e-16 3.84356e-15 -1.59142e-15 0 0 0 0 0 0 0 0
1696 1 -0.00355289 0.00365783 0.0276222 0.0008 3.43146e-06 1.01341e-12 1.08083e-12 -1.26299e-12 -4.23359e-09 6.2071e-10 -7.28429e-10 7.15926e-15 -1.15468e-15 5.05703e-15 0 0 0 0 0 0 0 0
1697 1 0.00185109 0.00338688 0.0307258 0.0008 3.43146e-06 3.50152e-12 -1.08419e-12 8.61051e-12 3.90322e-09 1.11455e-08 -2.44206e-10 -6.28197e-15 -2.27512e-16 -1.10594e-15 0 0 0 0 0 0 0 0
1698 1 0.00174986 0.000675976 0.0317616 0.0008 3.43146e-06 -2.19957e-13 -3.09615e-13 -9.06299e-13 -6.65139e-11 2.57257e-09 2.28559e-09 9.54936e-16 1.19375e-15 -1.59742e-14 0 0 0 0 0 0 0 0
1699 1 0.0035049 0.00628963 0.0285228 0.0008 3.43146e-06 7.51247e-13 1.17026e-12 7.49525e-14 3.04099e-10 1.01809e-09 4.16791e-11 -3.23175e-16 9.67418e-16 -1.94103e-16 1 -0.00015358 -0.000240971 -1.91277e-05 0.00389419 0.00698822 0.0285228 0.0008
1700 1 0.000607792 0.00411634 0.0314201 0.0008 3.43146e-06 4.81717e-12 -8.32747e-13 1.73283e-11 -4.61607e-09 1.58443e-09 2.2617e-09 1.54309e-15 -6.47154e-16 1.34519e-15 0 0 0 0 0 0 0 0
1701 1 -0.0024095 0.00110445 0.0323849 0.0008 3.43146e-06 5.25679e-13 -5.37218e-13 -2.48343e-12 1.14929e-09 5.6253e-10 -1.75206e-09 3.6145e-15 1.50195e-15 7.80516e-15 0 0 0 0 0 0 0 0
1702 1 -0.00172323 0.00609942 0.0310221 0.0008 3.43146e-06 5.41732e-13 -1.99928e-12 -3.76839e-12 9.66218e-10 -2.27176e-09 -3.45305e-09 1.30185e-15 -4.39712e-15 2.28147e-15 0 0 0 0 0 0 0 0
1703 1 0.00504568 0.00513627 0.0312226 0.0008 3.43146e-06 2.16804e-12 1.03477e-12 -6.22423e-14 8.61857e-10 4.33046e-10 1.03957e-09 2.3452e-16 3.04345e-15 8.27142e-15 1 -1.81457e-06 -1.27485e-06 -1.33559e-08 0.0056063 0.00570696 0.0312226 0.0008
1704 1 0.00672846 0.00256347 0.0322015 0.0008 3.43146e-06 -1.24091e-12 1.08422e-12 8.58187e-13 -6.61785e-09 -1.30738e-09 -1.72972e-09 5.11041e-15 7.28438e-16 2.64437e-15 1 -0.000254806 -7.15057e-05 -1.10539e-05 0.00747581 0.0028482 0.0322015 0.0008
1705 1 0.000450195 -0.00318825 0.032312 0.0008 3.43146e-06 -1.18847e-13 -9.0988e-13 -9.72908e-13 4.05152e-09 -5.28835e-09 -3.43386e-10 1.71298e-15 -1.57364e-14 8.27476e-16 0 0 0 0 0 0 0 0
1706 1 -0.00124088 -0.00453026 0.0349911 0.0008 3.43146e-06 -2.5468e-13 -1.48282e-12 6.05622e-12 -2.43871e-09 5.52614e-09 5.10758e-09 -1.20542e-14 3.52309e-15 -7.877e-15 0 0 0 0 0 0 0 0
1707 1 -0.00270007 -0.00514606 0.0331099 0.0008 3.43146e-06 -1.3385e-13 2.16651e-12 4.28253e-12 2.32232e-10 -7.80906e-09 -2.99932e-09 1.29825e-15 -2.7172e-15 -2.45752e-15 0 0 0 0 0 0 0 0
1708 1 -0.00239073 -0.000529654 0.0354134 0.0008 3.43146e-06 -1.08426e-12 -2.71559e-13 2.33519e-12 -6.37565e-09 -4.05249e-09 -2.05451e-09 5.17924e-16 -2.0235e-15 7.98985e-16 0 0 0 0 0 0 0 0
1709 1 0.00234558 -0.00102322 0.0338724 0.0008 3.43146e-06 -1.07951e-12 -3.30867e-12 -1.40179e-11 1.73678e-09 -1.29904e-09 -3.2263e-09 -2.69966e-15 -2.51717e-15 2.14534e-14 0 0 0 0 0 0 0 0
1710 1 0.000182528 -0.00576546 0.0342106 0.0008 3.43146e-06 7.25829e-15 6.18574e-13 -1.78659e-13 -1.52051e-09 3.13956e-09 1.19438e-10 -7.53823e-15 -1.61077e-15 1.34628e-14 0 0 0 0 0 0 0 0
1711 1 0.00131077 0.00157764 0.0345927 0.0008 3.43146e-06 -5.29156e-13 -6.53804e-13 -2.66415e-12 1.75772e-09 2.00557e-11 -7.41772e-10 1.34991e-15 -2.06991e-14 -4.29234e-15 0 0 0 0 0 0 0 0
1712 1 -0.00622823 0.0034876 0.0325862 0.0008 3.43146e-06 1.63825e-12 -7.64547e-13 -2.96684e-12 -8.54409e-09 5.02443e-09 -9.83512e-10 4.27037e-15 -1.60285e-15 -1.32875e-14 0 0 0 0 0 0 0 0
1713 1 -0.0034447 0.00332291 0.0339654 0.0008 3.43146e-06 -1.08409e-12 1.08418e-12 6.33888e-13 -9.35967e-09 -4.22117e-10 -1.70942e-09 3.92148e-16 7.77634e-16 -1.56565e-15 0 0 0 0 0 0 0 0
1714 1 0.00322888 0.00532817 0.0348305 0.0008 3.43146e-06 1.08091e-12 -2.07299e-12 -6.39638e-12 8.70994e-09 4.93488e-10 1.73225e-09 -4.55312e-17 1.44672e-15 -4.53933e-15 0 0 0 0 0 0 0 0
1715 1 -0.00592359 -0.00137342 0.0310963 0.0008 3.43146e-06 -1.1977e-12 2.79446e-13 -3.65729e-13 2.40551e-10 9.35344e-10 -1.74423e-09 -2.81357e-15 2.2007e-15 3.7156e-15 0 0 0 0 0 0 0 0
1716 1 -0.00682542 0.00229212 0.0335157 0.0008 3.43146e-06 -2.05157e-12 -1.02315e-12 7.52864e-13 -2.08663e-09 -2.36672e-10 -2.05087e-09 2.20363e-15 -1.04724e-15 3.47184e-15 1 3.69076e-06 -1.26496e-06 4.68944e-07 -0.00758379 0.00254679 0.0335157 0.0008
1717 1 -0.00193611 -0.00587542 0.0319065 0.0008 3.43146e-06 -5.5149e-13 -2.16799e-12 4.67891e-12 9.75908e-09 7.18172e-09 4.16066e-09 2.21858e-15 1.47568e-15 1.31628e-14 0 0 0 0 0 0 0 0
1718 1 -0.00668232 0.000917057 0.0343211 0.0008 3.43146e-06 2.16683e-12 -6.05177e-14 8.72661e-13 1.88576e-09 -7.28427e-10 9.17477e-09 -4.99407e-16 2.42376e-16 -5.95941e-15 0 0 0 0 0 0 0 0
1719 1 -0.00657294 -0.000625961 0.0349962 0.0008 3.43146e-06 2.16815e-12 4.77138e-12 -4.83581e-12 -5.1776e-09 5.41355e-09 -4.02296e-09 1.12312e-15 3.83588e-15 -1.90137e-15 0 0 0 0 0 0 0 0
1720 1 -0.00605558 -0.00389487 0.034381 0.0008 3.43146e-06 -2.16832e-12 1.08422e-12 1.87591e-12 -5.05077e-09 -4.8824e-09 4.41133e-09 -1.97907e-16 -7.25354e-17 2.85272e-15 1 1.1147e-06 8.15482e-07 -3.58142e-07 -0.00672842 -0.00432763 0.034381 0.0008
1721 1 0.00256245 0.00672862 0.0344374 0.0008 3.43146e-06 -1.08391e-12 3.71628e-13 2.51878e-12 1.61099e-11 8.65401e-09 -1.47838e-09 -2.04009e-16 1.95545e-15 -1.56486e-15 1 -2.3796e-06 -1.16728e-05 1.64697e-06 0.00284715 0.00747621 0.0344374 0.0008
1722 1 -0.00101895 0.00169293 0.0359172 0.0008 3.43146e-06 -3.50808e-13 3.49571e-13 1.37708e-12 3.42585e-09 5.54208e-09 3.1113e-09 -5.79385e-15 -1.67831e-14 -3.65652e-15 0 0 0 0 0 0 0 0
1723 1 -0.00467264 0.00384912 0.034984 0.0008 3.43146e-06 9.71202e-13 1.08442e-12 1.06569e-11 -1.82775e-08 1.48293e-09 -6.61118e-09 5.54512e-15 1.54642e-16 3.22263e-15 0 0 0 0 0 0 0 0
1724 1 0.0015831 -0.00550989 0.0334806 0.0008 3.43146e-06 -5.31529e-13 3.55195e-13 2.73093e-12 3.1819e-09 -5.57576e-09 -6.72893e-10 -6.98602e-15 2.37793e-15 2.0943e-15 0 0 0 0 0 0 0 0
1725 1 0.00268641 -0.00668008 0.0291477 0.0008 3.43146e-06 1.08335e-12 9.32289e-13 -7.64578e-12 -7.89687e-09 -5.3848e-09 -1.97632e-09 8.74634e-17 5.72688e-15 3.80573e-15 1 -1.95401e-06 5.86238e-06 -4.54142e-07 0.00298489 -0.00742229 0.0291477 0.0008
1726 1 0.00462733 -0.00356748 0.0304113 0.0008 3.43146e-06 -2.15209e-12 -1.05834e-12 -7.03454e-14 3.28087e-09 -4.83292e-09 1.39534e-09 8.93379e-15 -4.33252e-15 4.72515e-15 0 0 0 0 0 0 0 0
1727 1 0.00451445 0.0032342 0.0320452 0.0008 3.43146e-06 -2.16826e-12 -3.66129e-13 -7.51123e-13 2.63778e-09 4.20724e-09 4.50878e-10 -2.33963e-16 -3.9033e-15 6.42637e-15 0 0 0 0 0 0 0 0
1728 1 0.000251627 0.00433183 0.034591 0.0008 3.43146e-06 -1.34057e-13 1.30349e-12 -1.11162e-11 -5.2613e-09 -7.04987e-09 9.12862e-10 3.30849e-16 2.80752e-15 -4.18627e-16 0 0 0 0 0 0 0 0
1729 1 -0.00229509 0.00561191 0.0324345 0.0008 3.43146e-06 -1.08258e-12 1.46427e-12 -8.28526e-12 -1.4483e-09 -1.04861e-09 -1.66775e-09 5.58918e-16 2.21797e-15 -1.00682e-14 0 0 0 0 0 0 0 0
1730 1 0.000596785 0.00132718 0.033183 0.0008 3.43146e-06 -7.10141e-16 1.68315e-13 -3.68592e-12 -9.46167e-11 -9.30368e-10 1.6513e-09 7.87941e-15 -9.69961e-15 -1.21533e-14 0 0 0 0 0 0 0 0
1731 1 -0.00013666 -0.00327138 0.0351095 0.0008 3.43146e-06 -5.95761e-13 1.0835e-12 5.12023e-12 2.79861e-10 -2.22661e-09 -2.90972e-09 -5.68879e-15 -8.17199e-17 -5.8139e-15 0 0 0 0 0 0 0 0
1732 1 0.000620548 -0.00231263 0.0309054 0.0008 3.43146e-06 -9.6722e-13 -1.22051e-12 -3.50033e-12 -5.82446e-09 2.13343e-09 -1.3239e-09 -1.08551e-14 -1.5134e-15 1.09351e-15 0 0 0 0 0 0 0 0
1733 1 -0.00562596 0.00129305 0.0330417 0.0008 3.43146e-06 -9.53083e-13 3.44567e-13 -3.33801e-12 -1.24934e-09 -4.48014e-10 6.85442e-10 -5.71115e-15 -1.54e-15 -5.64247e-15 0 0 0 0 0 0 0 0
1734 1 -0.0036289 -0.000128472 0.034483 0.0008 3.43146e-06 4.80193e-13 8.83082e-13 -2.67218e-12 -7.81808e-11 5.6795e-12 -3.82494e-09 1.55461e-14 -3.29948e-17 -7.99494e-15 0 0 0 0 0 0 0 0
1735 1 -0.00102909 0.00509009 0.0351781 0.0008 3.43146e-06 5.42019e-13 7.34244e-13 -9.6169e-12 7.33155e-09 8.01473e-09 -1.72176e-09 -1.45877e-16 7.13216e-15 9.39253e-15 0 0 0 0 0 0 0 0
1736 1 -0.00489093 0.00517344 0.0340544 0.0008 3.43146e-06 2.16828e-12 -1.17546e-12 9.25861e-12 9.62105e-10 5.74564e-09 -4.34993e-09 -1.73495e-16 -1.07242e-14 1.06543e-14 0 0 0 0 0 0 0 0
1737 1 0.00696355 0.00183034 0.033604 0.0008 3.43146e-06 -3.83557e-13 -6.12307e-14 5.77725e-13 8.07634e-09 2.91571e-09 9.26786e-11 -1.64291e-15 4.91221e-15 -5.15068e-15 1 -4.6322e-05 -1.4883e-05 -1.05064e-05 0.00773719 0.00203369 0.033604 0.0008
1738 1 0.00293666 -0.00479739 0.0339934 0.0008 3.43146e-06 2.0381e-13 -2.11443e-12 -5.97467e-13 1.64922e-09 -4.67305e-09 4.09725e-09 2.43168e-15 -2.45866e-15 -3.64873e-15 0 0 0 0 0 0 0 0
1739 1 0.000547512 -0.0047729 0.032509 0.0008 3.43146e-06 -2.52378e-13 1.58998e-15 -7.03142e-14 -5.50101e-09 3.16205e-09 4.07685e-10 -1.34774e-15 -1.3466e-14 1.17829e-14 0 0 0 0 0 0 0 0
1740 1 0.00479829 0.00214388 0.0344034 0.0008 3.43146e-06 -2.16841e-12 -1.19241e-13 -1.04039e-11 -2.17192e-09 -5.39286e-10 1.41421e-09 -6.37947e-16 6.95664e-15 -1.14348e-14 0 0 0 0 0 0 0 0
1741 1 -0.00254029 -0.00673709 0.0331632 0.0008 3.43146e-06 -1.08366e-12 8.65299e-13 2.74768e-12 3.12057e-09 -7.08612e-10 1.49981e-09 2.6551e-16 -1.74853e-15 5.35959e-15 1 1.99596e-05 6.58933e-05 -1.02756e-05 -0.0028225 -0.00748555 0.0331632 0.0008
1742 1 -0.000917626 0.00648552 0.0344033 0.0008 3.43146e-06 -8.17636e-13 1.216e-12 -7.73608e-12 -4.62549e-09 8.19239e-10 3.50336e-10 1.37132e-15 4.32376e-15 -2.35934e-15 0 0 0 0 0 0 0 0
1743 1 -0.0056455 -0.000168486 0.0337574 0.0008 3.43146e-06 -2.02131e-12 2.14791e-12 -4.81485e-12 -2.50729e-09 5.8729e-09 3.10616e-09 -7.07373e-15 -1.39014e-15 -9.20071e-15 0 0 0 0 0 0 0 0
1744 1 0.00624594 0.00276288 0.0346881 0.0008 3.43146e-06 -2.168e-12 -1.08383e-12 -2.96344e-12 -5.06704e-09 -1.23276e-08 -4.81646e-09 6.42672e-16 7.12723e-16 -1.06539e-14 0 0 0 0 0 0 0 0
1745 1 -0.00206729 0.0054206 0.0340065 0.0008 3.43146e-06 -3.011e-13 1.87065e-12 1.60428e-12 -3.27578e-10 4.70941e-10 3.77385e-09 -1.18109e-14 3.1909e-15 9.22882e-15 0 0 0 0 0 0 0 0
1746 1 0.00274045 -0.00513424 0.0324417 0.0008 3.43146e-06 8.46034e-13 2.15975e-12 3.39334e-12 2.79957e-09 5.18681e-09 -1.93857e-09 -4.39716e-16 -1.45038e-15 -3.94919e-15 0 0 0 0 0 0 0 0
1747 1 -0.00401428 -0.00449589 0.0324544 0.0008 3.43146e-06 1.06043e-12 1.13416e-12 2.37589e-12 1.30596e-08 -3.71505e-09 -3.10496e-09 -1.00161e-14 1.12518e-14 -2.34183e-15 0 0 0 0 0 0 0 0
1748 1 0.00707988 -0.00130981 0.0297533 0.0008 3.43146e-06 1.58403e-12 -5.41517e-13 1.46302e-12 1.40815e-09 1.20642e-09 4.12279e-10 -4.47738e-15 -2.44363e-17 -3.2763e-15 1 -5.77729e-06 6.21647e-07 6.68089e-07 0.00786651 -0.00145534 0.0297533 0.0008
1749 1 -0.00584893 -0.00204988 0.0349055 0.0008 3.43146e-06 -2.16887e-12 2.5134e-12 -8.89948e-12 2.85885e-09 1.36655e-08 -2.05663e-09 -2.52219e-15 3.24347e-14 1.2549e-14 0 0 0 0 0 0 0 0
1750 1 0.00139305 -0.000933729 0.0312909 0.0008 3.43146e-06 -1.88434e-13 -2.51372e-13 -4.02596e-12 3.71426e-09 2.1569e-09 -4.36515e-10 -3.47091e-15 -4.05031e-16 1.42225e-14 0 0 0 0 0 0 0 0
1751 1 -0.0017794 -0.00584127 0.0342487 0.0008 3.43146e-06 4.92363e-13 -1.28989e-12 7.11349e-12 5.1886e-09 3.57281e-09 8.29723e-10 -2.39944e-15 -5.98293e-15 -9.6092e-15 0 0 0 0 0 0 0 0
1752 1 0.00268423 0.00386437 0.0337942 0.0008 3.43146e-06 1.05112e-12 -1.0828e-12 -3.39531e-12 4.1192e-09 -2.76362e-09 5.4197e-09 -1.95713e-15 5.49475e-16 -2.14604e-15 0 0 0 0 0 0 0 0
1753 1 0.00326617 0.00408355 0.031516 0.0008 3.43146e-06 -1.08395e-12 -8.49839e-13 1.95808e-12 -3.00178e-09 -5.50727e-10 -1.87051e-09 -6.11638e-16 -9.74077e-16 8.8774e-15 0 0 0 0 0 0 0 0
1754 1 0.00116939 -0.000155405 0.0329992 0.0008 3.43146e-06 7.03435e-14 -1.12692e-13 -3.83498e-12 1.9052e-09 -3.34673e-09 -2.45807e-09 1.20712e-14 -3.07038e-15 8.11197e-16 0 0 0 0 0 0 0 0
1755 1 -0.000941512 -0.00713821 0.0346679 0.0008 3.43146e-06 2.79299e-13 8.34587e-13 -1.80408e-13 1.9096e-10 3.25074e-09 -2.5519e-10 3.56996e-15 2.16597e-15 -3.61801e-15 1 4.86741e-06 1.46567e-05 2.95732e-06 -0.00104612 -0.00793131 0.0346679 0.0008
1756 1 0.00396163 -0.000662602 0.0333549 0.0008 3.43146e-06 -1.55776e-12 7.86036e-13 1.73086e-11 1.79482e-11 -7.28463e-10 -5.237e-09 -4.99747e-14 1.90262e-15 -4.43562e-15 0 0 0 0 0 0 0 0
1757 1 -0.00506644 -0.00280752 0.0337335 0.0008 3.43146e-06 -4.8911e-13 4.32899e-12 -1.73448e-11 -1.61915e-10 -6.73766e-09 9.78257e-09 -1.19559e-15 6.35064e-15 -2.39505e-16 0 0 0 0 0 0 0 0
1758 1 -0.00102983 -0.00288277 0.0317869 0.0008 3.43146e-06 5.30688e-13 -1.0842e-12 -4.78602e-12 -3.89687e-09 2.24871e-10 6.76319e-10 1.2755e-15 -8.74991e-16 2.32033e-15 0 0 0 0 0 0 0 0
1759 1 0.00623825 0.00359522 0.0333217 0.0008 3.43146e-06 2.09762e-12 -1.00365e-12 1.94631e-12 8.17883e-09 7.40638e-09 2.41541e-09 6.79572e-15 2.37693e-15 9.11241e-16 1 -4.81321e-05 -3.40696e-05 1.3869e-05 0.0069313 0.00399464 0.0333217 0.0008
1760 1 -0.00505104 -0.000262665 0.032275 0.0008 3.43146e-06 -1.47653e-12 -3.15581e-14 -3.64229e-12 -2.32278e-09 -6.52256e-09 4.3853e-10 -2.95217e-15 -4.55484e-15 -4.33415e-15 0 0 0 0 0 0 0 0
1761 1 -0.000342315 0.00156802 0.0344728 0.0008 3.43146e-06 -5.4606e-13 -5.41806e-13 4.16103e-12 -5.74773e-09 -6.45307e-09 -2.09894e-09 3.78918e-15 -1.13898e-16 -1.12599e-14 0 0 0 0 0 0 0 0
1762 1 0.00375754 0.00347577 0.0349153 0.0008 3.43146e-06 -1.08288e-12 -9.65584e-13 -2.87159e-12 2.55472e-09 -1.97968e-09 8.87303e-10 -1.16103e-16 3.46958e-15 -4.65429e-15 0 0 0 0 0 0 0 0
1763 1 -0.00279446 0.00149015 0.0338891 0.0008 3.43146e-06 -8.40657e-14 -5.41815e-13 -2.55131e-12 2.55419e-10 -2.77718e-09 -1.98406e-09 7.00233e-15 -1.51506e-15 -6.0978e-15 0 0 0 0 0 0 0 0
1764 1 0.00201636 -0.00241662 0.0331501 0.0008 3.43146e-06 -6.16481e-13 1.07214e-12 -2.52422e-12 5.08435e-09 3.16414e-09 -9.73791e-11 3.73449e-15 -1.50393e-15 -7.27127e-15 0 0 0 0 0 0 0 0
1765 1 -0.00321776 0.00348925 0.035544 0.0008 3.43146e-06 1.01082e-12 1.08416e-12 5.35436e-12 1.63758e-09 9.08166e-09 -1.48082e-10 -6.36495e-16 6.43114e-16 -1.10791e-16 0 0 0 0 0 0 0 0
1766 1 -0.00632352 -0.00344309 0.0328698 0.0008 3.43146e-06 2.16838e-12 1.08219e-12 4.7567e-12 7.02169e-09 -2.82076e-09 -5.02301e-11 -1.86157e-15 -1.61215e-15 -4.69681e-15 1 8.76544e-05 3.22645e-05 -1.52981e-05 -0.00702602 -0.00382559 0.0328698 0.0008
1767 1 0.00593898 -0.00407052 0.033473 0.0008 3.43146e-06 3.73841e-13 1.51562e-12 -2.02915e-13 2.17783e-10 -4.44725e-10 -1.91064e-09 2.59085e-15 1.40497e-16 5.70454e-15 1 -1.54113e-05 1.03056e-05 1.53305e-07 0.00659882 -0.00452278 0.033473 0.0008
1768 1 0.00113316 -0.000690422 0.0348619 0.0008 3.43146e-06 1.08946e-13 -1.32308e-12 1.70179e-12 5.18828e-09 1.60404e-08 -2.5327e-09 -1.7323e-14 -1.37307e-15 3.27565e-15 0 0 0 0 0 0 0 0
1769 1 0.00649333 -0.00311076 0.0323191 0.0008 3.43146e-06 1.49807e-12 -5.54182e-13 -1.15859e-12 -2.48664e-09 7.0793e-11 -4.25682e-11 -8.76601e-15 -3.38669e-15 1.11749e-14 1 -2.38886e-06 1.25411e-06 7.77813e-08 0.0072148 -0.0034564 0.0323191 0.0008
1770 1 -0.00514463 0.000973767 0.0347594 0.0008 3.43146e-06 -3.98894e-13 2.37526e-12 6.05141e-12 1.34511e-08 -5.80315e-09 -1.63464e-09 -1.16588e-14 -8.57566e-15 4.01643e-15 0 0 0 0 0 0 0 0
1771 1 0.000150198 -0.00719847 0.0334998 0.0008 3.43146e-06 6.97775e-14 1.15854e-12 6.03426e-13 8.87255e-10 -3.77415e-09 -3.73971e-10 1.03427e-15 -1.90877e-16 4.26526e-15 1 -1.52247e-06 1.26495e-05 1.67385e-06 0.000166886 -0.00799826 0.0334998 0.0008
1772 1 -0.00111966 -0.00711251 0.0325305 0.0008 3.43146e-06 1.02256e-13 2.16756e-12 -7.63747e-14 3.16262e-10 3.01271e-09 -9.97799e-11 -2.03269e-15 -1.10426e-15 5.97649e-16 1 1.70423e-05 6.89162e-05 -7.59978e-06 -0.00124405 -0.00790268 0.0325305 0.0008
1773 1 0.00434429 -0.00455063 0.0332703 0.0008 3.43146e-06 2.14812e-12 2.16816e-12 2.68464e-12 -2.17382e-09 3.09617e-09 3.77688e-09 -2.03706e-15 -4.83373e-16 -3.30835e-15 0 0 0 0 0 0 0 0
1774 1 0.00546526 0.00216895 0.0313028 0.0008 3.43146e-06 -2.15371e-12 2.42846e-13 2.58679e-12 1.98664e-09 2.5592e-09 -7.67788e-11 -2.44566e-15 -7.55099e-15 2.76774e-15 0 0 0 0 0 0 0 0
1775 1 -0.00190555 0.00694346 0.0332311 0.0008 3.43146e-06 -8.02906e-14 5.46758e-13 -4.52887e-12 5.64062e-09 2.16071e-10 8.02033e-11 -3.72141e-15 3.56299e-15 -8.31458e-15 1 4.30834e-05 -0.000170865 -1.52645e-05 -0.00211723 0.00771475 0.0332311 0.0008
1776 1 -0.00203762 -0.00375825 0.0326685 0.0008 3.43146e-06 7.81544e-13 -1.02179e-12 3.39387e-12 -3.80303e-09 4.66633e-09 1.26114e-09 -1.61799e-15 4.56716e-15 -9.68889e-15 0 0 0 0 0 0 0 0
1777 1 -0.00216072 0.00239682 0.035045 0.0008 3.43146e-06 -1.08416e-12 7.15831e-13 2.61085e-12 -7.15996e-10 -4.74141e-09 -1.75831e-09 -2.45743e-16 -4.0842e-15 2.30656e-15 0 0 0 0 0 0 0 0
1778 1 -0.00169068 0.000769863 0.0347962 0.0008 3.43146e-06 -1.6839e-13 -2.87519e-13 3.04276e-13 1.06821e-09 -1.40399e-09 3.95728e-09 4.59018e-15 -8.47601e-16 -2.598e-15 0 0 0 0 0 0 0 0
1779 1 0.00669728 -0.000319494 0.0336535 0.0008 3.43146e-06 2.50633e-12 2.23942e-12 -1.17202e-12 -6.66683e-09 1.02405e-08 3.1966e-09 -9.17561e-15 6.04269e-15 1.55898e-15 0 0 0 0 0 0 0 0
1780 1 -0.00167499 6.86319e-05 0.0333582 0.0008 3.43146e-06 5.42203e-13 -4.52741e-13 -6.67724e-12 1.95304e-09 2.91938e-09 1.12717e-09 -4.83629e-16 -7.68786e-15 4.60518e-15 0 0 0 0 0 0 0 0
1781 1 0.00158956 -0.00468063 0.0348488 0.0008 3.43146e-06 -1.27018e-13 -6.55685e-13 -1.65567e-12 -5.00521e-09 3.30935e-09 -4.18991e-09 7.74474e-15 -7.41668e-15 -1.52717e-15 0 0 0 0 0 0 0 0
1782 1 0.00254036 -0.00324066 0.0344174 0.0008 3.43146e-06 -6.33093e-13 9.12684e-13 1.19569e-12 -7.95351e-09 -3.96689e-09 -1.37253e-09 7.63348e-15 -1.19275e-14 -5.20676e-15 0 0 0 0 0 0 0 0
1783 1 -0.00250547 -0.00397547 0.0341831 0.0008 3.43146e-06 8.03065e-14 -3.8118e-13 8.41408e-12 3.63677e-09 -3.17067e-09 -6.74587e-09 -7.82282e-15 3.75844e-15 -1.70383e-14 0 0 0 0 0 0 0 0
1784 1 0.000514415 0.00277847 0.0338725 0.0008 3.43146e-06 -4.10769e-13 -1.01078e-12 -4.58632e-12 -1.14748e-08 -1.02148e-09 8.42632e-09 6.87555e-15 3.32653e-15 -6.11472e-15 0 0 0 0 0 0 0 0
1785 1 0.00542856 -0.00473005 0.0321076 0.0008 3.43146e-06 -1.6244e-12 2.16545e-12 9.32472e-13 -8.12209e-10 2.36028e-09 -7.5991e-10 5.24426e-15 -5.20972e-15 -4.12415e-15 1 -0.00012345 0.000116776 1.85629e-05 0.00603158 -0.00525548 0.0321076 0.0008
1786 1 -0.00395618 -0.00315798 0.0308964 0.0008 3.43146e-06 2.14715e-12 -1.0842e-12 -2.76902e-12 4.35563e-09 5.96355e-10 2.54221e-09 -5.36294e-16 -9.74645e-16 8.44185e-15 0 0 0 0 0 0 0 0
1787 1 -0.00299053 -0.000825011 0.0331835 0.0008 3.43146e-06 1.08415e-12 2.68018e-13 -4.10532e-12 6.15473e-10 2.01842e-09 -8.7425e-10 7.93099e-16 -4.09552e-16 -8.8383e-15 0 0 0 0 0 0 0 0
1788 1 0.000858995 0.00578631 0.0354526 0.0008 3.43146e-06 5.31976e-13 2.16739e-12 -3.07262e-12 4.63292e-09 1.06643e-08 5.31848e-09 -4.6443e-15 2.99642e-16 -1.42785e-15 0 0 0 0 0 0 0 0
1789 1 -0.00408951 -0.00541325 0.0339417 0.0008 3.43146e-06 2.16776e-12 2.16837e-12 -1.40471e-11 -3.9907e-09 1.06485e-08 4.4766e-09 9.72325e-16 -3.36263e-16 -2.8141e-14 0 0 0 0 0 0 0 0
1790 1 -2.30522e-06 0.00720016 0.0333027 0.0008 3.43146e-06 2.86819e-13 -2.16449e-12 -1.52095e-12 2.14163e-09 -8.95506e-09 5.92423e-10 -9.71442e-16 -1.54651e-15 -2.20225e-15 1 -2.34391e-05 -0.000141873 -2.50782e-05 -2.5613e-06 0.008 0.0333027 0.0008
1791 1 0.00682341 -0.00229819 0.0336573 0.0008 3.43146e-06 -2.13154e-12 -1.06952e-12 -2.39312e-12 1.98577e-09 -3.80546e-09 2.04777e-09 -5.33592e-16 1.38521e-15 5.82947e-16 1 -1.91219e-05 8.26332e-06 3.07324e-06 0.00758152 -0.00255353 0.0336573 0.0008
1792 1 0.000590347 -0.00248403 0.0339215 0.0008 3.43146e-06 1.22562e-13 1.08281e-12 4.84124e-12 1.50933e-09 3.81672e-09 -9.9574e-10 4.84254e-15 -8.02484e-17 1.31148e-15 0 0 0 0 0 0 0 0
1793 1 -0.00439802 0.00275173 0.0314778 0.0008 3.43146e-06 -1.41548e-12 2.86792e-13 -2.51659e-12 2.96624e-09 7.72288e-09 1.42508e-09 -2.88879e-15 1.54007e-15 -2.21808e-15 0 0 0 0 0 0 0 0
1794 1 -0.000926945 0.00441312 0.0335121 0.0008 3.43146e-06 -3.80943e-13 -6.19138e-13 -6.28558e-12 -4.99156e-10 1.20066e-08 -2.63384e-09 2.80785e-15 4.19433e-15 7.99738e-15 0 0 0 0 0 0 0 0
1795 1 -1.1013e-05 0.00135245 0.0317033 0.0008 3.43146e-06 2.4433e-13 -1.72109e-13 -3.6934e-12 -3.31774e-11 -3.00087e-10 -8.34188e-10 1.2466e-15 -3.31002e-15 1.02597e-15 0 0 0 0 0 0 0 0
1796 1 0.00466286 0.0035795 0.0336003 0.0008 3.43146e-06 -8.14336e-13 -1.07699e-12 5.2777e-12 -4.65945e-10 -3.87046e-09 -3.52147e-09 -1.28103e-15 3.3791e-16 1.45352e-15 0 0 0 0 0 0 0 0
1797 1 0.00708346 -0.00129052 0.032442 0.0008 3.43146e-06 -1.65073e-12 -5.22366e-13 2.69725e-13 7.72301e-11 6.16729e-11 1.14858e-09 -6.25023e-15 2.41772e-16 4.57671e-15 1 -3.14702e-05 -6.47578e-07 4.41514e-06 0.00787045 -0.0014339 0.032442 0.0008
1798 1 -0.00324415 -0.00642776 0.0310687 0.0008 3.43146e-06 1.08411e-12 -1.16115e-12 4.75871e-12 5.18686e-09 -1.48561e-09 -2.29016e-09 1.92535e-16 -2.95033e-15 3.36436e-15 1 7.45807e-06 1.48511e-05 1.9959e-06 -0.00360459 -0.00714191 0.0310687 0.0008
1799 1 0.00326085 0.0017069 0.0344745 0.0008 3.43146e-06 -1.08318e-12 -5.42026e-13 -8.59282e-12 4.26001e-09 3.45365e-09 -3.43317e-10 -5.15391e-16 -7.32541e-16 -4.75899e-15 0 0 0 0 0 0 0 0
1800 1 0.000646253 0.00551815 0.0322264 0.0008 3.43146e-06 -1.34775e-13 -1.15773e-12 -5.20458e-12 -2.01733e-09 -1.19517e-09 5.69247e-09 -3.01064e-15 2.68066e-15 4.44743e-15 0 0 0 0 0 0 0 0
1801 1 0.00056878 0.00413081 0.0330194 0.0008 3.43146e-06 -1.00383e-12 -2.14275e-12 -8.73693e-12 5.83101e-09 -9.77711e-09 -9.04758e-10 4.74339e-15 1.73035e-15 -1.18544e-15 0 0 0 0 0 0 0 0
1802 1 0.000104082 -5.15779e-05 0.0309449 0.0008 3.43146e-06 3.66898e-14 1.09029e-13 -2.20882e-12 -1.20482e-09 -9.58841e-10 1.51951e-10 -1.71923e-15 6.71013e-16 5.82494e-15 0 0 0 0 0 0 0 0
1803 1 0.00561982 0.00450094 0.0344919 0.0008 3.43146e-06 -2.15129e-12 -1.52659e-12 2.81045e-12 -5.88206e-09 -8.9751e-11 -3.21221e-10 -1.05609e-15 1.64855e-15 1.33065e-17 1 -2.30323e-05 -1.20553e-05 6.9506e-06 0.0062442 0.005001 0.0344919 0.0008
1804 1 -0.00378385 0.000557554 0.033046 0.0008 3.43146e-06 8.61698e-13 1.98738e-13 -3.41071e-12 -9.61542e-10 4.09667e-10 1.08675e-09 2.38307e-15 -1.18477e-15 -7.77652e-15 0 0 0 0 0 0 0 0
1805 1 -0.000295723 -0.00138561 0.0346751 0.0008 3.43146e-06 -7.30406e-13 -1.15174e-13 8.3449e-12 3.24279e-09 -2.91171e-09 1.95851e-09 -4.31489e-15 -8.63868e-15 -1.64571e-14 0 0 0 0 0 0 0 0
1806 1 -0.000163915 -0.00424756 0.0338422 0.0008 3.43146e-06 -5.0074e-14 2.16734e-12 1.2738e-12 3.44342e-09 -1.89802e-09 -8.38563e-10 -5.909e-15 -8.58788e-17 2.29028e-15 0 0 0 0 0 0 0 0
1807 1 -0.00206133 0.00390516 0.0345195 0.0008 3.43146e-06 -1.61875e-13 9.59502e-13 1.28904e-12 8.40073e-10 -3.26192e-09 -2.71547e-09 -1.29305e-15 -6.77689e-16 1.29193e-14 0 0 0 0 0 0 0 0
1808 1 -0.00718665 -0.000442732 0.0307838 0.0008 3.43146e-06 -7.4334e-13 4.06637e-13 -2.8745e-13 -2.05241e-09 4.05567e-10 6.92944e-10 3.0767e-15 -1.81977e-17 6.41918e-15 1 0.000301115 5.73423e-06 -2.99883e-06 -0.00798486 -0.000491906 0.0307838 0.0008
1809 1 0.00310536 -0.0035867 0.0329611 0.0008 3.43146e-06 6.96225e-13 1.08108e-12 6.97171e-12 7.57384e-09 -5.6578e-10 -9.6816e-10 -1.96154e-15 4.66345e-17 -6.67633e-15 0 0 0 0 0 0 0 0
1810 1 -0.00096275 -0.00286196 0.0338019 0.0008 3.43146e-06 2.74607e-13 1.08434e-12 1.07995e-12 -2.14543e-09 -5.65107e-10 1.19797e-09 3.62651e-16 -3.88555e-16 -7.19755e-15 0 0 0 0 0 0 0 0
1811 1 -0.000728491 0.003078 0.0348343 0.0008 3.43146e-06 -2.70582e-13 3.37633e-13 -1.3411e-12 -2.63152e-09 8.21083e-09 1.34475e-09 1.28068e-15 2.75139e-16 1.08614e-14 0 0 0 0 0 0 0 0
1812 1 0.00179678 0.00461749 0.0348919 0.0008 3.43146e-06 -3.32541e-13 -4.09315e-14 -6.95385e-12 -7.34284e-09 -6.3677e-10 -4.9259e-09 -5.40408e-15 3.11243e-16 1.73979e-15 0 0 0 0 0 0 0 0
1813 1 0.00428423 0.00105372 0.0333426 0.0008 3.43146e-06 2.16694e-12 4.79568e-13 -3.72484e-12 1.15414e-09 7.98244e-09 -3.25897e-09 -3.07592e-16 3.44948e-15 -7.63561e-15 0 0 0 0 0 0 0 0
1814 1 0.00455541 0.00557596 0.0339711 0.0008 3.43146e-06 -2.06505e-12 9.01498e-13 -1.73053e-12 1.22157e-09 -1.91692e-09 -2.63585e-09 -4.77929e-16 -4.08392e-17 -5.32411e-15 1 -0.000129947 -0.000166315 -4.92296e-05 0.00506142 0.00619532 0.0339711 0.0008
1815 1 0.00473083 -0.0032796 0.0341619 0.0008 3.43146e-06 2.16707e-12 1.08317e-12 2.70828e-12 4.72942e-09 2.2497e-09 -4.66298e-10 -4.91449e-16 7.25384e-16 4.85164e-15 0 0 0 0 0 0 0 0
1816 1 -0.00320279 0.00644852 0.0344687 0.0008 3.43146e-06 -1.08414e-12 7.10172e-13 1.46385e-12 -3.35922e-09 2.64376e-09 -9.07164e-10 5.27641e-16 -1.97946e-14 -2.45435e-16 1 2.83103e-05 -4.84704e-05 1.0243e-05 -0.00355861 0.00716494 0.0344687 0.0008
1817 1 -0.00184868 -0.00173202 0.0345077 0.0008 3.43146e-06 -6.81747e-13 -5.43502e-13 3.74986e-12 6.54909e-09 -7.31576e-10 -5.50573e-10 9.434e-15 1.1935e-15 2.55236e-15 0 0 0 0 0 0 0 0
1818 1 -0.00445606 -0.00123558 0.0336768 0.0008 3.43146e-06 -2.14821e-12 1.6262e-12 -4.17315e-12 -1.8019e-09 -3.52783e-09 -1.80897e-09 -3.04708e-15 4.8881e-16 -6.92896e-15 0 0 0 0 0 0 0 0
1819 1 -0.00459155 0.00120205 0.0318246 0.0008 3.43146e-06 3.59385e-13 -5.42013e-13 -3.93741e-12 -1.12958e-10 -2.1223e-10 -7.21889e-10 -5.82158e-15 -3.93698e-16 -4.96408e-15 0 0 0 0 0 0 0 0
1820 1 0.00266435 -0.00668901 0.0334683 0.0008 3.43146e-06 -4.88762e-13 1.77897e-13 1.63655e-12 1.06683e-09 3.03986e-09 4.92099e-10 -5.29313e-15 3.03919e-15 -3.25634e-16 1 -3.79539e-05 6.78787e-05 -3.26723e-06 0.00296034 -0.00743212 0.0334683 0.0008
1821 1 0.00231278 0.00681858 0.0317954 0.0008 3.43146e-06 1.01038e-12 -9.88471e-13 1.94977e-12 -2.09169e-10 7.02466e-09 1.77811e-09 6.47066e-16 -2.51409e-15 -6.32258e-16 1 -2.64734e-05 -9.97304e-05 -2.64548e-05 0.00256971 0.00757606 0.0317954 0.0008
1822 1 -0.00686488 -0.00217121 0.0336755 0.0008 3.43146e-06 -2.15913e-12 7.74462e-13 2.33651e-12 -6.84778e-09 -5.11299e-09 1.74804e-09 2.6914e-15 1.17042e-14 1.02186e-14 1 2.25505e-05 7.34282e-06 -2.99671e-07 -0.00762759 -0.00241244 0.0336755 0.0008
1823 1 -0.00348827 0.00490444 0.0347756 0.0008 3.43146e-06 1.10432e-12 -2.1683e-12 1.90268e-12 4.51587e-09 1.10784e-09 4.215e-09 1.25185e-15 -1.11149e-17 1.88326e-15 0 0 0 0 0 0 0 0
1824 1 0.00664923 0.000751067 0.0324655 0.0008 3.43146e-06 -2.16735e-12 1.36405e-12 -8.06448e-12 1.28241e-11 -3.44299e-09 -2.31172e-09 -5.77453e-16 9.1848e-15 -1.316e-14 0 0 0 0 0 0 0 0
1825 1 -0.000806187 -0.00140598 0.0331574 0.0008 3.43146e-06 -1.15211e-12 5.79789e-13 -5.60035e-12 -5.86463e-09 -3.34302e-10 1.30329e-09 2.725e-15 -1.42274e-16 -1.20713e-15 0 0 0 0 0 0 0 0
1826 1 0.00572788 0.000900886 0.0340151 0.0008 3.43146e-06 2.16783e-12 -5.07986e-13 -5.18974e-12 -1.89424e-09 -6.19719e-09 1.52941e-09 2.0271e-16 4.94605e-15 -5.94329e-15 0 0 0 0 0 0 0 0
1827 1 0.00322767 0.000403378 0.0323325 0.0008 3.43146e-06 3.68534e-14 2.76322e-14 -4.61652e-13 -3.62844e-09 -4.00182e-09 1.90554e-09 -1.06069e-14 -1.37362e-14 -1.16752e-14 0 0 0 0 0 0 0 0
1828 1 0.00324372 0.000109277 0.0345585 0.0008 3.43146e-06 -3.25019e-12 -7.43554e-13 -6.39687e-12 -7.57212e-09 -1.97447e-08 -1.69879e-09 7.78547e-16 -2.36456e-14 -2.2443e-14 0 0 0 0 0 0 0 0
1829 1 -0.00399109 0.00426953 0.0317777 0.0008 3.43146e-06 -2.16821e-12 2.16709e-12 -3.22852e-12 -1.78412e-09 1.75035e-09 1.85667e-09 2.16766e-16 -1.19459e-15 -2.06835e-15 0 0 0 0 0 0 0 0
1830 1 -0.0033832 -0.00217304 0.0344048 0.0008 3.43146e-06 -1.08419e-12 -1.08406e-12 -6.72888e-13 4.39937e-09 -1.6994e-09 2.07377e-09 8.4381e-17 -4.65345e-18 9.60206e-16 0 0 0 0 0 0 0 0
1831 1 -0.00661019 0.00285404 0.0349981 0.0008 3.43146e-06 2.16836e-12 5.13557e-13 -4.43106e-12 -1.9681e-09 6.65743e-09 1.6443e-09 1.76066e-16 1.46708e-15 -4.2807e-15 1 1.36532e-06 -6.29026e-07 -8.22411e-08 -0.00734464 0.00317115 0.0349981 0.0008
1832 1 -0.00411509 -0.00388959 0.0344292 0.0008 3.43146e-06 -2.16847e-12 3.25216e-12 -9.32282e-12 9.3559e-09 -1.73411e-08 -8.07096e-10 -1.19852e-15 5.18088e-16 -1.10589e-14 0 0 0 0 0 0 0 0
1833 1 -0.00397647 0.0020662 0.0348006 0.0008 3.43146e-06 2.16841e-12 1.08375e-12 1.00151e-11 4.36013e-09 1.58251e-08 -1.20158e-09 9.16558e-16 5.70629e-16 7.46791e-15 0 0 0 0 0 0 0 0
1834 1 -0.000986278 0.00148182 0.0330107 0.0008 3.43146e-06 1.98942e-13 -2.09638e-12 -3.69575e-12 3.44846e-09 1.23913e-09 1.62195e-09 1.09276e-14 -9.6518e-15 -5.63641e-15 0 0 0 0 0 0 0 0
1835 1 0.00227627 0.000869993 0.0335312 0.0008 3.43146e-06 -7.90352e-13 2.61682e-13 -3.99555e-12 -2.33132e-09 2.92331e-09 3.57479e-09 6.48863e-15 -1.47066e-15 -1.63957e-14 0 0 0 0 0 0 0 0
1836 1 0.0040192 -0.00597381 0.0339296 0.0008 3.43146e-06 1.54648e-12 -3.62281e-13 4.7956e-13 6.65597e-10 1.72715e-10 -1.43818e-09 2.41947e-15 1.55498e-15 -3.98803e-15 1 -3.22576e-06 5.03836e-06 3.00336e-07 0.00446576 -0.00663754 0.0339296 0.0008
1837 1 0.00541601 -0.00160856 0.0333357 0.0008 3.43146e-06 6.03632e-13 5.47178e-13 1.90876e-12 -4.36726e-09 1.03577e-08 -6.51183e-09 3.88545e-15 1.25688e-14 1.5716e-14 0 0 0 0 0 0 0 0
1838 1 0.00135699 -0.00382817 0.033515 0.0008 3.43146e-06 1.37684e-13 -6.31185e-15 -1.51934e-12 5.20252e-09 -9.80147e-10 6.46862e-11 3.50139e-15 1.44645e-15 1.10078e-14 0 0 0 0 0 0 0 0
1839 1 0.000757288 0.00306528 0.0354277 0.0008 3.43146e-06 -6.46374e-13 -1.08343e-12 -1.22364e-11 1.00478e-08 3.76667e-09 -5.0179e-10 9.56346e-15 -1.54323e-16 3.22121e-15 0 0 0 0 0 0 0 0
1840 1 -0.00344493 -0.00317885 0.0331621 0.0008 3.43146e-06 7.1173e-13 -7.81019e-13 5.22674e-12 -8.81443e-09 3.15473e-09 3.28431e-09 -3.11876e-15 7.54281e-16 -5.72019e-16 0 0 0 0 0 0 0 0
1841 1 0.000930853 0.00713963 0.0346021 0.0008 3.43146e-06 -2.09773e-12 2.16812e-12 -5.48727e-14 -1.37784e-09 -7.26027e-09 -3.18588e-09 -3.38662e-15 -2.02801e-15 -1.76516e-15 1 -2.21543e-06 -3.11506e-05 5.57942e-06 0.00103427 0.00793286 0.0346021 0.0008
1842 1 -0.00593041 0.00304801 0.0309531 0.0008 3.43146e-06 2.15876e-12 -5.61606e-13 5.50979e-12 -1.29308e-09 -1.40203e-09 1.89607e-09 -2.01248e-16 3.06662e-15 -4.5836e-15 0 0 0 0 0 0 0 0
1843 1 0.00533939 -0.000125664 0.0327399 0.0008 3.43146e-06 -2.16707e-12 2.07964e-13 -4.98229e-12 -4.46184e-09 4.54931e-09 4.09996e-09 1.41489e-15 9.67714e-15 2.00627e-14 0 0 0 0 0 0 0 0
1844 1 -0.0049794 -0.000721424 0.0351029 0.0008 3.43146e-06 8.63103e-13 2.02337e-12 -7.39457e-12 5.76858e-09 -2.78272e-09 7.49501e-10 -7.63272e-15 -2.13607e-16 5.4016e-15 0 0 0 0 0 0 0 0
1845 1 0.00433174 -0.000185439 0.0302759 0.0008 3.43146e-06 -3.93283e-13 6.46447e-14 -1.94693e-12 -2.12839e-09 2.5944e-10 1.47533e-09 1.9519e-15 -1.08939e-15 1.82843e-14 0 0 0 0 0 0 0 0
1846 1 0.00227955 0.00286621 0.0349773 0.0008 3.43146e-06 -1.08429e-12 -5.68979e-13 -9.814e-12 -2.4521e-09 -7.30711e-09 -9.86385e-10 5.91415e-16 4.22473e-15 5.76631e-15 0 0 0 0 0 0 0 0
1847 1 0.00395851 -0.00225553 0.0332056 0.0008 3.43146e-06 -1.73101e-12 1.08365e-12 1.31238e-11 4.8436e-09 5.17286e-09 5.28932e-09 -7.51049e-15 1.67082e-16 8.75543e-15 0 0 0 0 0 0 0 0
1848 1 0.00532413 0.00484709 0.0327721 0.0008 3.43146e-06 1.5631e-12 -2.16773e-12 1.72677e-12 -6.58979e-09 -3.09763e-09 3.35755e-09 -2.93975e-15 1.25815e-16 1.02909e-14 1 -1.16472e-05 -1.12341e-05 2.37417e-06 0.00591566 0.00538562 0.0327721 0.0008
1849 1 0.00155219 0.00669221 0.0331973 0.0008 3.43146e-06 8.64972e-14 2.14429e-13 1.1961e-11 -2.70186e-09 -2.49606e-09 -1.15744e-09 -2.59202e-15 1.17172e-15 -6.38492e-15 0 0 0 0 0 0 0 0
1850 1 0.00208294 -0.00235319 0.0315528 0.0008 3.43146e-06 -1.08504e-12 1.02607e-12 -3.3202e-12 -5.03957e-09 -2.30106e-09 -9.82699e-11 -2.31712e-15 -7.69133e-15 6.4339e-15 0 0 0 0 0 0 0 0
