Authorization required, but no authorization protocol specified

Authorization required, but no authorization protocol specified

Authorization required, but no authorization protocol specified

Authorization required, but no authorization protocol specified

LAMMPS (22 Jul 2025 - Update 5)
OMP_NUM_THREADS environment is not set. Defaulting to 1 thread.
  using 1 OpenMP thread(s) per MPI task
OMP_NUM_THREADS environment is not set. Defaulting to 1 thread.
  using 1 OpenMP thread(s) per MPI task
CO2 sorbent = commercial zeolite 13X (mechanical packing only)
Realization seed = 81929
Target particle count = 1850
Bead diameter [m] = 0.0016
Tube diameter [m] = 0.016
Tube-to-particle diameter ratio = 10
Target solid volume [m^3] = 3.96762208197367e-06
Created orthogonal box = (-0.008 -0.008 0) to (0.008 0.008 0.07)
  1 by 1 by 1 MPI processor grid
Generated 0 of 0 mixed pair_coeff terms from geometric mixing rule
Particle insertion: 303 every 319275 steps, 1850 by step 1915651
Neighbor list info ...
  update: every = 1 steps, delay = 0 steps, check = yes
  max neighbors/atom: 2000, page size: 100000
  master list distance cutoff = 0.00185
  ghost atom cutoff = 0.00185
  binsize = 0.000925, bins = 18 18 76
  1 neighbor lists, perpetual/occasional/extra = 1 0 0
  (1) pair granular, perpetual
      attributes: half, newton off, size, history
      pair build: half/size/bin/atomonly/newtoff
      stencil: full/bin/3d
      bin: standard
Setting up Verlet run ...
  Unit style    : si
  Current step  : 0
  Time step     : 2e-07
Per MPI rank memory allocation (min/avg/max) = 7.438 | 7.438 | 7.438 Mbytes
   Step          Time         Atoms        KinEng     c_granularTemp c_solidVolume    c_maxSpeed  
         0   0                      0  -0              0              0             -1e+20        
WARNING: Fewer insertions than requested (src/GRANULAR/fix_pour.cpp:691)
     10000   0.002                241  -0              5.5781982e+15  5.168632e-07   0.6097823    
     20000   0.004                241  -0              5.4648306e+15  5.168632e-07   0.59431662   
     30000   0.006                241  -0              5.3649079e+15  5.168632e-07   0.57972657   
     40000   0.008                241  -0              5.2768956e+15  5.168632e-07   0.56596259   
     50000   0.01                 241  -0              5.1994314e+15  5.168632e-07   0.55297791   
     60000   0.012                241  -0              5.1313058e+15  5.168632e-07   0.5407284    
     70000   0.014                241  -0              5.071445e+15   5.168632e-07   0.52917244   
     80000   0.016                241  -0              5.0188962e+15  5.168632e-07   0.51827075   
     90000   0.018                241  -0              4.9728138e+15  5.168632e-07   0.50798631   
    100000   0.02                 241  -0              4.9324474e+15  5.168632e-07   0.49828415   
    110000   0.022                241  -0              4.8971316e+15  5.168632e-07   0.48913132   
    120000   0.024                241  -0              4.8662762e+15  5.168632e-07   0.4804967    
    130000   0.026                241  -0              4.8393579e+15  5.168632e-07   0.47235096   
    140000   0.028                241  -0              4.8159127e+15  5.168632e-07   0.46466642   
    150000   0.03                 241  -0              4.7955296e+15  5.168632e-07   0.45741697   
    160000   0.032                241  -0              4.7778444e+15  5.168632e-07   0.45057797   
    170000   0.034                241  -0              4.7625344e+15  5.168632e-07   0.44412618   
    180000   0.036                241  -0              4.749314e+15   5.168632e-07   0.43803969   
    190000   0.038                241  -0              4.7379303e+15  5.168632e-07   0.4322978    
    200000   0.04                 241  -0              4.7281596e+15  5.168632e-07   0.42688101   
    210000   0.042                241  -0              4.719804e+15   5.168632e-07   0.4217709    
    220000   0.044                241  -0              4.7126885e+15  5.168632e-07   0.41695013   
    230000   0.046                241  -0              4.7066586e+15  5.168632e-07   0.4124023    
    240000   0.048                241  -0              4.7015777e+15  5.168632e-07   0.40811196   
    250000   0.05                 241  -0              4.6973251e+15  5.168632e-07   0.40406453   
    260000   0.052                241  -0              4.6937945e+15  5.168632e-07   0.40024626   
    270000   0.054                241  -0              4.690892e+15   5.168632e-07   0.39664418   
    280000   0.056                241  -0              4.6885351e+15  5.168632e-07   0.39324604   
    290000   0.058                241  -0              4.6866508e+15  5.168632e-07   0.3900403    
    300000   0.06                 241  -0              4.685175e+15   5.168632e-07   0.38701606   
    310000   0.062                241  -0              4.6840515e+15  5.168632e-07   0.38416305   
WARNING: Fewer insertions than requested (src/GRANULAR/fix_pour.cpp:691)
    320000   0.064                464  -0              4.9655916e+15  9.9512251e-07  0.61774202   
    330000   0.066                464  -0              4.886215e+15   9.9512251e-07  0.60182567   
    340000   0.068                464  -0              4.8315837e+15  9.9512251e-07  0.57229516   
    350000   0.07                 464  -0              4.7896255e+15  9.9512251e-07  0.55895193   
    360000   0.072                464  -0              4.7601007e+15  9.9512251e-07  0.54942164   
    370000   0.074                464  -0              4.7356215e+15  9.9512251e-07  0.53736262   
    380000   0.076                464  -0              4.7157359e+15  9.9512251e-07  0.52598713   
    390000   0.078                464  -0              4.6980591e+15  9.9512251e-07  0.51525643   
    400000   0.08                 464  -0              4.6842492e+15  9.9512251e-07  0.50513397   
    410000   0.082                464  -0              4.6722595e+15  9.9512251e-07  0.476628     
    420000   0.084                464  -0              4.6384243e+15  9.9512251e-07  0.46869583   
    430000   0.086                464  -0              4.5996278e+15  9.9512251e-07  0.46121321   
    440000   0.088                464  -0              4.5812087e+15  9.9512251e-07  0.45415465   
    450000   0.09                 464  -0              4.5720022e+15  9.9512251e-07  0.44749611   
    460000   0.092                464  -0              4.5220076e+15  9.9512251e-07  0.44121493   
    470000   0.094                464  -0              4.4749681e+15  9.9512251e-07  0.43528971   
    480000   0.096                464  -0              4.4191452e+15  9.9512251e-07  0.42970028   
    490000   0.098                464  -0              4.37658e+15    9.9512251e-07  0.42442759   
    500000   0.1                  464  -0              4.3258289e+15  9.9512251e-07  0.41945369   
    510000   0.102                464  -0              4.3014291e+15  9.9512251e-07  0.41476165   
    520000   0.104                464  -0              4.262369e+15   9.9512251e-07  0.41033549   
    530000   0.106                464  -0              4.2318404e+15  9.9512251e-07  0.40616014   
    540000   0.108                464  -0              4.202855e+15   9.9512251e-07  0.40222137   
    550000   0.11                 464  -0              4.1857152e+15  9.9512251e-07  0.39850579   
    560000   0.112                464  -0              4.1606325e+15  9.9512251e-07  0.39500073   
    570000   0.114                464  -0              4.1331432e+15  9.9512251e-07  0.39169426   
    580000   0.116                464  -0              4.0972664e+15  9.9512251e-07  0.38857513   
    590000   0.118                464  -0              4.0691237e+15  9.9512251e-07  0.38563273   
    600000   0.12                 464  -0              4.0245271e+15  9.9512251e-07  0.38285702   
    610000   0.122                464  -0              3.9523365e+15  9.9512251e-07  0.38023857   
    620000   0.124                464  -0              3.9153858e+15  9.9512251e-07  0.37776847   
    630000   0.126                464  -0              3.8681589e+15  9.9512251e-07  0.3754383    
WARNING: Fewer insertions than requested (src/GRANULAR/fix_pour.cpp:691)
    640000   0.128                641  -0              4.174483e+15   1.3747274e-06  0.62169493   
    650000   0.13                 641  -0              4.1098968e+15  1.3747274e-06  0.60555476   
    660000   0.132                641  -0              4.0321002e+15  1.3747274e-06  0.58656568   
    670000   0.134                641  -0              3.9583108e+15  1.3747274e-06  0.57241449   
    680000   0.136                641  -0              3.9310813e+15  1.3747274e-06  0.55906451   
    690000   0.138                641  -0              3.884725e+15   1.3747274e-06  0.54647038   
    700000   0.14                 641  -0              3.8467699e+15  1.3747274e-06  0.53458932   
    710000   0.142                641  -0              3.8032868e+15  1.3747274e-06  0.49880602   
    720000   0.144                641  -0              3.7631897e+15  1.3747274e-06  0.48959736   
    730000   0.146                641  -0              3.7290151e+15  1.3747274e-06  0.48091211   
    740000   0.148                641  -0              3.6983067e+15  1.3747274e-06  0.47272049   
    750000   0.15                 641  -0              3.6579912e+15  1.3747274e-06  0.46499446   
    760000   0.152                641  -0              3.5904084e+15  1.3747274e-06  0.45770752   
    770000   0.154                641  -0              3.517979e+15   1.3747274e-06  0.45083471   
    780000   0.156                641  -0              3.4415609e+15  1.3747274e-06  0.44435248   
    790000   0.158                641  -0              3.3711153e+15  1.3747274e-06  0.4382386    
    800000   0.16                 641  -0              3.3074204e+15  1.3747274e-06  0.42779408   
    810000   0.162                641  -0              3.2355545e+15  1.3747274e-06  0.42263228   
    820000   0.164                641  -0              3.176699e+15   1.3747274e-06  0.41776273   
    830000   0.166                641  -0              3.1118461e+15  1.3747274e-06  0.41316889   
    840000   0.168                641  -0              3.0470229e+15  1.3747274e-06  0.40883515   
    850000   0.17                 641  -0              2.9664277e+15  1.3747274e-06  0.40474678   
    860000   0.172                641  -0              2.8517601e+15  1.3747274e-06  0.40088988   
    870000   0.174                641  -0              2.7779589e+15  1.3747274e-06  0.39725136   
    880000   0.176                641  -0              2.7183328e+15  1.3747274e-06  0.39381884   
    890000   0.178                641  -0              2.654827e+15   1.3747274e-06  0.39058067   
    900000   0.18                 641  -0              2.5810182e+15  1.3747274e-06  0.38752583   
    910000   0.182                641  -0              2.4970784e+15  1.3747274e-06  0.38464396   
    920000   0.184                641  -0              2.4276621e+15  1.3747274e-06  0.38192525   
    930000   0.186                641  -0              2.3800174e+15  1.3747274e-06  0.37136976   
    940000   0.188                641  -0              2.3281142e+15  1.3747274e-06  0.36939859   
    950000   0.19                 641  -0              2.2976992e+15  1.3747274e-06  0.36753943   
WARNING: Fewer insertions than requested (src/GRANULAR/fix_pour.cpp:691)
    960000   0.192                833  -0              3.0084943e+15  1.7865023e-06  0.62128435   
    970000   0.194                833  -0              2.9405348e+15  1.7865023e-06  0.60516743   
    980000   0.196                833  -0              2.8784291e+15  1.7865023e-06  0.58996303   
    990000   0.198                833  -0              2.8223461e+15  1.7865023e-06  0.57561948   
   1000000   0.2                  833  -0              2.7706651e+15  1.7865023e-06  0.56208804   
   1010000   0.202                833  -0              2.6984544e+15  1.7865023e-06  0.54932273   
   1020000   0.204                833  -0              2.6410976e+15  1.7865023e-06  0.53728017   
   1030000   0.206                833  -0              2.5902379e+15  1.7865023e-06  0.52591944   
   1040000   0.208                833  -0              2.5356774e+15  1.7865023e-06  0.51520193   
   1050000   0.21                 833  -0              2.4825073e+15  1.7865023e-06  0.50509124   
   1060000   0.212                833  -0              2.420317e+15   1.7865023e-06  0.495553     
   1070000   0.214                833  -0              2.3657804e+15  1.7865023e-06  0.48655479   
   1080000   0.216                833  -0              2.317012e+15   1.7865023e-06  0.47806606   
   1090000   0.218                833  -0              2.2812468e+15  1.7865023e-06  0.47005794   
   1100000   0.22                 833  -0              2.2444353e+15  1.7865023e-06  0.46250323   
   1110000   0.222                833  -0              2.1907919e+15  1.7865023e-06  0.45537625   
   1120000   0.224                833  -0              2.144003e+15   1.7865023e-06  0.44865279   
   1130000   0.226                833  -0              2.1130924e+15  1.7865023e-06  0.44231001   
   1140000   0.228                833  -0              2.0655269e+15  1.7865023e-06  0.43632634   
   1150000   0.23                 833  -0              2.0019296e+15  1.7865023e-06  0.43068146   
   1160000   0.232                833  -0              1.9469938e+15  1.7865023e-06  0.42535618   
   1170000   0.234                833  -0              1.8636863e+15  1.7865023e-06  0.42033241   
   1180000   0.236                833  -0              1.805689e+15   1.7865023e-06  0.41559308   
   1190000   0.238                833  -0              1.7431768e+15  1.7865023e-06  0.41112208   
   1200000   0.24                 833  -0              1.7084553e+15  1.7865023e-06  0.40690423   
   1210000   0.242                833  -0              1.6895226e+15  1.7865023e-06  0.40292518   
   1220000   0.244                833  -0              1.6659291e+15  1.7865023e-06  0.39502042   
   1230000   0.246                833  -0              1.6403117e+15  1.7865023e-06  0.39171421   
   1240000   0.248                833  -0              1.6049014e+15  1.7865023e-06  0.3885952    
   1250000   0.25                 833  -0              1.5815264e+15  1.7865023e-06  0.38565278   
   1260000   0.252                833  -0              1.5615119e+15  1.7865023e-06  0.38287696   
   1270000   0.254                833  -0              1.5327194e+15  1.7865023e-06  0.36545038   
WARNING: Fewer insertions than requested (src/GRANULAR/fix_pour.cpp:691)
   1280000   0.256               1073  -0              2.3870878e+15  2.3012208e-06  0.61622574   
   1290000   0.258               1073  -0              2.3345687e+15  2.3012208e-06  0.60039524   
   1300000   0.26                1073  -0              2.2930757e+15  2.3012208e-06  0.58546103   
   1310000   0.262               1073  -0              2.236059e+15   2.3012208e-06  0.57137238   
   1320000   0.264               1073  -0              2.1946795e+15  2.3012208e-06  0.55130363   
   1330000   0.266               1073  -0              2.1422089e+15  2.3012208e-06  0.53914891   
   1340000   0.268               1073  -0              2.1021826e+15  2.3012208e-06  0.52768238   
   1350000   0.27                1073  -0              2.0607892e+15  2.3012208e-06  0.51686506   
   1360000   0.272               1073  -0              2.0250219e+15  2.3012208e-06  0.5066602    
   1370000   0.274               1073  -0              1.9764177e+15  2.3012208e-06  0.49403361   
   1380000   0.276               1073  -0              1.9423465e+15  2.3012208e-06  0.48512143   
   1390000   0.278               1073  -0              1.9087873e+15  2.3012208e-06  0.47671385   
   1400000   0.28                1073  -0              1.8599352e+15  2.3012208e-06  0.46878229   
   1410000   0.282               1073  -0              1.8205851e+15  2.3012208e-06  0.4612998    
   1420000   0.284               1073  -0              1.7587312e+15  2.3012208e-06  0.45424096   
   1430000   0.286               1073  -0              1.7015947e+15  2.3012208e-06  0.44758178   
   1440000   0.288               1073  -0              1.6552051e+15  2.3012208e-06  0.44129964   
   1450000   0.29                1073  -0              1.5932064e+15  2.3012208e-06  0.43537317   
   1460000   0.292               1073  -0              1.5661117e+15  2.3012208e-06  0.42978226   
   1470000   0.294               1073  -0              1.5504279e+15  2.3012208e-06  0.42450789   
   1480000   0.296               1073  -0              1.5210759e+15  2.3012208e-06  0.41953215   
   1490000   0.298               1073  -0              1.4828702e+15  2.3012208e-06  0.41483813   
   1500000   0.3                 1073  -0              1.4688106e+15  2.3012208e-06  0.41040988   
   1510000   0.302               1073  -0              1.4459579e+15  2.3012208e-06  0.40623235   
   1520000   0.304               1073  -0              1.4255132e+15  2.3012208e-06  0.39284116   
   1530000   0.306               1073  -0              1.4124058e+15  2.3012208e-06  0.38965515   
   1540000   0.308               1073  -0              1.3891694e+15  2.3012208e-06  0.38664983   
   1550000   0.31                1073  -0              1.3557509e+15  2.3012208e-06  0.38381495   
   1560000   0.312               1073  -0              1.313101e+15   2.3012208e-06  0.38063223   
   1570000   0.314               1073  -0              1.2767499e+15  2.3012208e-06  0.37814066   
   1580000   0.316               1073  -0              1.2460936e+15  2.3012208e-06  0.36438699   
   1590000   0.318               1073  -0              1.2046405e+15  2.3012208e-06  0.35878926   
WARNING: Fewer insertions than requested (src/GRANULAR/fix_pour.cpp:691)
   1600000   0.32                1263  -0              1.8106858e+15  2.7087063e-06  0.61777249   
   1610000   0.322               1263  -0              1.7579157e+15  2.7087063e-06  0.60185441   
   1620000   0.324               1263  -0              1.7177713e+15  2.7087063e-06  0.58683758   
   1630000   0.326               1263  -0              1.6671821e+15  2.7087063e-06  0.57267099   
   1640000   0.328               1263  -0              1.6301067e+15  2.7087063e-06  0.53716215   
   1650000   0.33                1263  -0              1.5891973e+15  2.7087063e-06  0.5258081    
   1660000   0.332               1263  -0              1.550083e+15   2.7087063e-06  0.5150969    
   1670000   0.334               1263  -0              1.4945247e+15  2.7087063e-06  0.50499216   
   1680000   0.336               1263  -0              1.4462024e+15  2.7087063e-06  0.49545952   
   1690000   0.338               1263  -0              1.3889725e+15  2.7087063e-06  0.48646661   
   1700000   0.34                1263  -0              1.3380881e+15  2.7087063e-06  0.47798287   
   1710000   0.342               1263  -0              1.2997225e+15  2.7087063e-06  0.46997946   
   1720000   0.344               1263  -0              1.2792761e+15  2.7087063e-06  0.46242919   
   1730000   0.346               1263  -0              1.2543324e+15  2.7087063e-06  0.45530641   
   1740000   0.348               1263  -0              1.2298002e+15  2.7087063e-06  0.4485869    
   1750000   0.35                1263  -0              1.213529e+15   2.7087063e-06  0.44224785   
   1760000   0.352               1263  -0              1.1871827e+15  2.7087063e-06  0.4362677    
   1770000   0.354               1263  -0              1.1608081e+15  2.7087063e-06  0.42345621   
   1780000   0.356               1263  -0              1.1413161e+15  2.7087063e-06  0.40648466   
   1790000   0.358               1263  -0              1.1230306e+15  2.7087063e-06  0.40251864   
   1800000   0.36                1263  -0              1.0900779e+15  2.7087063e-06  0.39877816   
   1810000   0.362               1263  -0              1.0600215e+15  2.7087063e-06  0.39525038   
   1820000   0.364               1263  -0              1.02605e+15    2.7087063e-06  0.39192316   
   1830000   0.366               1263  -0              9.7756958e+14  2.7087063e-06  0.38046392   
   1840000   0.368               1263  -0              9.5242162e+14  2.7087063e-06  0.37798084   
   1850000   0.37                1263  -0              9.1791271e+14  2.7087063e-06  0.37563846   
   1860000   0.372               1263  -0              8.7412935e+14  2.7087063e-06  0.3722822    
   1870000   0.374               1263  -0              8.171726e+14   2.7087063e-06  0.35994713   
   1880000   0.376               1263  -0              7.6345491e+14  2.7087063e-06  0.3578828    
   1890000   0.378               1263  -0              7.3547002e+14  2.7087063e-06  0.35489807   
   1900000   0.38                1263  -0              6.8255453e+14  2.7087063e-06  0.35373914   
   1910000   0.382               1263  -0              6.5266342e+14  2.7087063e-06  0.35277022   
WARNING: Fewer insertions than requested (src/GRANULAR/fix_pour.cpp:691)
   1920000   0.384               1471  -0              1.2868884e+15  3.1547957e-06  0.60623513   
   1930000   0.386               1471  -0              1.2396479e+15  3.1547957e-06  0.59097027   
   1940000   0.388               1471  -0              1.1819205e+15  3.1547957e-06  0.5765697    
   1950000   0.39                1471  -0              1.1355374e+15  3.1547957e-06  0.56298445   
   1960000   0.392               1471  -0              1.0881526e+15  3.1547957e-06  0.55016839   
   1970000   0.394               1471  -0              1.0590622e+15  3.1547957e-06  0.53807795   
   1980000   0.396               1471  -0              1.0323424e+15  3.1547957e-06  0.52667205   
   1990000   0.398               1471  -0              1.014009e+15   3.1547957e-06  0.51591193   
   2000000   0.4                 1471  -0              9.9745652e+14  3.1547957e-06  0.50440486   
   2010000   0.402               1471  -0              9.7907087e+14  3.1547957e-06  0.49490548   
   2020000   0.404               1471  -0              9.6008208e+14  3.1547957e-06  0.48594394   
   2030000   0.406               1471  -0              9.4696922e+14  3.1547957e-06  0.47748979   
   2040000   0.408               1471  -0              9.377997e+14   3.1547957e-06  0.4695143    
   2050000   0.41                1471  -0              9.2916344e+14  3.1547957e-06  0.46199036   
   2060000   0.412               1471  -0              9.2046446e+14  3.1547957e-06  0.45489243   
   2070000   0.414               1471  -0              8.9776131e+14  3.1547957e-06  0.44168598   
   2080000   0.416               1471  -0              8.7732503e+14  3.1547957e-06  0.43573765   
   2090000   0.418               1471  -0              8.6505928e+14  3.1547957e-06  0.41251206   
   2100000   0.42                1471  -0              8.2137157e+14  3.1547957e-06  0.38548955   
   2110000   0.422               1471  -0              7.9700836e+14  3.1547957e-06  0.38272257   
   2120000   0.424               1471  -0              7.7828538e+14  3.1547957e-06  0.37795938   
   2130000   0.426               1471  -0              7.5221331e+14  3.1547957e-06  0.37561676   
   2140000   0.428               1471  -0              7.0335909e+14  3.1547957e-06  0.37340702   
   2150000   0.43                1471  -0              6.6654884e+14  3.1547957e-06  0.3713226    
   2160000   0.432               1471  -0              6.2779845e+14  3.1547957e-06  0.36935638   
   2170000   0.434               1471  -0              5.9969099e+14  3.1547957e-06  0.36381943   
   2180000   0.436               1471  -0              5.6201476e+14  3.1547957e-06  0.36227977   
   2190000   0.438               1471  -0              5.2116386e+14  3.1547957e-06  0.36082729   
   2200000   0.44                1471  -0              4.8170592e+14  3.1547957e-06  0.35557768   
   2210000   0.442               1471  -0              4.5327818e+14  3.1547957e-06  0.35450466   
   2220000   0.444               1471  -0              4.1644834e+14  3.1547957e-06  0.34788612   
   2230000   0.446               1471  -0              3.9908444e+14  3.1547957e-06  0.34724859   
WARNING: Fewer insertions than requested (src/GRANULAR/fix_pour.cpp:691)
   2240000   0.448               1727  -0              1.1694697e+15  3.7038288e-06  0.61074754   
   2250000   0.45                1727  -0              1.1312651e+15  3.7038288e-06  0.59522721   
   2260000   0.452               1727  -0              1.1008628e+15  3.7038288e-06  0.58058561   
   2270000   0.454               1727  -0              1.078128e+15   3.7038288e-06  0.56541747   
   2280000   0.456               1727  -0              1.0517591e+15  3.7038288e-06  0.55246365   
   2290000   0.458               1727  -0              1.0278121e+15  3.7038288e-06  0.54024325   
   2300000   0.46                1727  -0              1.0128219e+15  3.7038288e-06  0.52871476   
   2310000   0.462               1727  -0              9.9366996e+14  3.7038288e-06  0.513369     
   2320000   0.464               1727  -0              9.7631468e+14  3.7038288e-06  0.50336208   
   2330000   0.466               1727  -0              9.6204819e+14  3.7038288e-06  0.49168433   
   2340000   0.468               1727  -0              9.3935085e+14  3.7038288e-06  0.46295447   
   2350000   0.47                1727  -0              9.1239246e+14  3.7038288e-06  0.45580194   
   2360000   0.472               1727  -0              8.8918313e+14  3.7038288e-06  0.44905438   
   2370000   0.474               1727  -0              8.5391486e+14  3.7038288e-06  0.44268886   
   2380000   0.476               1727  -0              8.1623592e+14  3.7038288e-06  0.42922633   
   2390000   0.478               1727  -0              7.6495962e+14  3.7038288e-06  0.40391867   
   2400000   0.48                1727  -0              7.3383847e+14  3.7038288e-06  0.39637115   
   2410000   0.482               1727  -0              7.1123884e+14  3.7038288e-06  0.38598076   
   2420000   0.484               1727  -0              6.8855442e+14  3.7038288e-06  0.38318611   
   2430000   0.486               1727  -0              6.4515807e+14  3.7038288e-06  0.37579585   
   2440000   0.488               1727  -0              6.0980759e+14  3.7038288e-06  0.37051173   
   2450000   0.49                1727  -0              5.6434484e+14  3.7038288e-06  0.3638909    
   2460000   0.492               1727  -0              4.9562279e+14  3.7038288e-06  0.36078374   
   2470000   0.494               1727  -0              4.4392435e+14  3.7038288e-06  0.35651832   
   2480000   0.496               1727  -0              4.0740649e+14  3.7038288e-06  0.35539205   
   2490000   0.498               1727  -0              3.7967724e+14  3.7038288e-06  0.35219541   
   2500000   0.5                 1727  -0              3.614346e+14   3.7038288e-06  0.35131389   
   2510000   0.502               1727  -0              3.4157253e+14  3.7038288e-06  0.34426773   
   2520000   0.504               1727  -0              3.2575261e+14  3.7038288e-06  0.34059813   
   2530000   0.506               1727  -0              3.1835909e+14  3.7038288e-06  0.34037323   
   2540000   0.508               1727  -0              3.0117776e+14  3.7038288e-06  0.33772693   
   2550000   0.51                1727  -0              2.9230493e+14  3.7038288e-06  0.33659607   
   2560000   0.512               1850  -0              6.116241e+14   3.9676221e-06  0.61233269   
   2570000   0.514               1850  -0              5.9690502e+14  3.9676221e-06  0.59396373   
   2580000   0.516               1850  -0              5.8078255e+14  3.9676221e-06  0.57939367   
   2590000   0.518               1850  -0              5.6489457e+14  3.9676221e-06  0.56564854   
   2600000   0.52                1850  -0              5.3614121e+14  3.9676221e-06  0.55268163   
   2610000   0.522               1850  -0              5.1165945e+14  3.9676221e-06  0.50395678   
   2620000   0.524               1850  -0              4.7402088e+14  3.9676221e-06  0.49448277   
   2630000   0.526               1850  -0              4.5681834e+14  3.9676221e-06  0.44262013   
   2640000   0.528               1850  -0              4.2796404e+14  3.9676221e-06  0.41690648   
   2650000   0.53                1850  -0              4.0478805e+14  3.9676221e-06  0.41236112   
   2660000   0.532               1850  -0              3.8230624e+14  3.9676221e-06  0.40807312   
   2670000   0.534               1850  -0              3.6307166e+14  3.9676221e-06  0.40402789   
   2680000   0.536               1850  -0              3.3573218e+14  3.9676221e-06  0.40021169   
   2690000   0.538               1850  -0              3.1132843e+14  3.9676221e-06  0.39453577   
   2700000   0.54                1850  -0              2.9058188e+14  3.9676221e-06  0.37900477   
   2710000   0.542               1850  -0              2.705504e+14   3.9676221e-06  0.3742559    
   2720000   0.544               1850  -0              2.3970446e+14  3.9676221e-06  0.3717714    
   2730000   0.546               1850  -0              2.0803362e+14  3.9676221e-06  0.35471961   
   2740000   0.548               1850  -0              1.8573532e+14  3.9676221e-06  0.35369517   
   2750000   0.55                1850  -0              1.7558099e+14  3.9676221e-06  0.35272874   
   2760000   0.552               1850  -0              1.709712e+14   3.9676221e-06  0.35181702   
   2770000   0.554               1850  -0              1.6134207e+14  3.9676221e-06  0.35095692   
   2780000   0.556               1850  -0              1.5555588e+14  3.9676221e-06  0.34578822   
   2790000   0.558               1850  -0              1.4952317e+14  3.9676221e-06  0.34197769   
   2800000   0.56                1850  -0              1.4694133e+14  3.9676221e-06  0.33741218   
   2810000   0.562               1850  -0              1.4359936e+14  3.9676221e-06  0.33561949   
   2820000   0.564               1850  -0              1.3903277e+14  3.9676221e-06  0.33320421   
   2830000   0.566               1850  -0              1.3747201e+14  3.9676221e-06  0.33031622   
   2840000   0.568               1850  -0              1.3362684e+14  3.9676221e-06  0.32892265   
   2850000   0.57                1850  -0              1.276071e+14   3.9676221e-06  0.32804763   
   2860000   0.572               1850  -0              1.2296944e+14  3.9676221e-06  0.32770891   
   2870000   0.574               1850  -0              1.1606429e+14  3.9676221e-06  0.32633151   
   2880000   0.576               1850  -0              1.0855789e+14  3.9676221e-06  0.32579122   
   2890000   0.578               1850  -0              1.0441149e+14  3.9676221e-06  0.32616934   
   2900000   0.58                1850  -0              9.931096e+13   3.9676221e-06  0.32276678   
   2910000   0.582               1850  -0              9.6687669e+13  3.9676221e-06  0.32355146   
   2920000   0.584               1850  -0              8.8606403e+13  3.9676221e-06  0.32049555   
   2930000   0.586               1850  -0              8.01651e+13    3.9676221e-06  0.32140883   
   2940000   0.588               1850  -0              7.346518e+13   3.9676221e-06  0.31854259   
   2950000   0.59                1850  -0              7.1968426e+13  3.9676221e-06  0.31956644   
   2960000   0.592               1850  -0              6.2900992e+13  3.9676221e-06  0.31838703   
   2970000   0.594               1850  -0              5.8680248e+13  3.9676221e-06  0.31835999   
   2980000   0.596               1850  -0              4.7251378e+13  3.9676221e-06  0.31865004   
   2990000   0.598               1850  -0              4.2144208e+13  3.9676221e-06  0.31601079   
   3000000   0.6                 1850  -0              3.7083794e+13  3.9676221e-06  0.31717799   
Loop time of 344.476 on 1 procs for 3000000 steps with 1850 atoms

100.0% CPU use with 1 MPI tasks x 1 OpenMP threads

MPI task timing breakdown:
Section |  min time  |  avg time  |  max time  |%varavg| %total
---------------------------------------------------------------
Pair    | 247.85     | 247.85     | 247.85     |   0.0 | 71.95
Neigh   | 0.5753     | 0.5753     | 0.5753     |   0.0 |  0.17
Comm    | 0.064059   | 0.064059   | 0.064059   |   0.0 |  0.02
Output  | 0.1206     | 0.1206     | 0.1206     |   0.0 |  0.04
Modify  | 91.788     | 91.788     | 91.788     |   0.0 | 26.65
Other   |            | 4.082      |            |       |  1.19

Nlocal:           1850 ave        1850 max        1850 min
Histogram: 1 0 0 0 0 0 0 0 0 0
Nghost:              0 ave           0 max           0 min
Histogram: 1 0 0 0 0 0 0 0 0 0
Neighs:           6944 ave        6944 max        6944 min
Histogram: 1 0 0 0 0 0 0 0 0 0

Total # of neighbors = 6944
Ave neighs/atom = 3.7535135
Neighbor list builds = 2128
Dangerous builds = 0
Generated 0 of 0 mixed pair_coeff terms from geometric mixing rule
Setting up Verlet run ...
  Unit style    : si
  Current step  : 0
  Time step     : 2e-07
Per MPI rank memory allocation (min/avg/max) = 14.72 | 14.72 | 14.72 Mbytes
   Step          Time         Atoms        KinEng     c_granularTemp c_solidVolume    c_maxSpeed  
         0   0                   1850   2.678604e-06   3.6708608e+13  3.9676221e-06  0.31417772   
     10000   0.002               1850   1.3567096e-06  1.9329933e+13  3.9676221e-06  0.25156879   
     20000   0.004               1850   6.998934e-07   1.0513885e+13  3.9676221e-06  0.20383793   
     30000   0.006               1850   3.9273444e-07  6.1529002e+12  3.9676221e-06  0.16932717   
     40000   0.008               1850   2.6711565e-07  4.2296573e+12  3.9676221e-06  0.14314464   
     50000   0.01                1850   1.815377e-07   2.8971734e+12  3.9676221e-06  0.1239773    
     60000   0.012               1850   1.1284039e-07  1.9090309e+12  3.9676221e-06  0.1096555    
     70000   0.014               1850   7.4761831e-08  1.3837074e+12  3.9676221e-06  0.098864498  
     80000   0.016               1850   5.5271548e-08  1.0494109e+12  3.9676221e-06  0.090891282  
     90000   0.018               1850   4.988777e-08   9.6439295e+11  3.9676221e-06  0.084933715  
    100000   0.02                1850   4.4402483e-08  8.7735509e+11  3.9676221e-06  0.080482235  
    110000   0.022               1850   3.5699902e-08  7.3983208e+11  3.9676221e-06  0.077156101  
    120000   0.024               1850   3.0087972e-08  6.9695384e+11  3.9676221e-06  0.074670821  
    130000   0.026               1850   3.0440026e-08  7.3134408e+11  3.9676221e-06  0.072813827  
    140000   0.028               1850   2.8311673e-08  6.941059e+11   3.9676221e-06  0.071426285  
    150000   0.03                1850   1.8534079e-08  5.6305401e+11  3.9676221e-06  0.045959289  
    160000   0.032               1850   2.0572069e-08  5.9968926e+11  3.9676221e-06  0.05136254   
    170000   0.034               1850   1.7175077e-08  4.840658e+11   3.9676221e-06  0.044212108  
    180000   0.036               1850   1.070039e-08   2.9037428e+11  3.9676221e-06  0.040994728  
    190000   0.038               1850   1.1361332e-08  3.0393951e+11  3.9676221e-06  0.043072473  
    200000   0.04                1850   9.8456283e-09  2.6413741e+11  3.9676221e-06  0.040369387  
    210000   0.042               1850   9.2851293e-09  2.5047524e+11  3.9676221e-06  0.042433931  
    220000   0.044               1850   9.2675554e-09  2.4543661e+11  3.9676221e-06  0.045340495  
    230000   0.046               1850   1.0021678e-08  2.4676421e+11  3.9676221e-06  0.048138576  
    240000   0.048               1850   9.0435337e-09  2.3060333e+11  3.9676221e-06  0.042693653  
    250000   0.05                1850   8.7530921e-09  2.0444438e+11  3.9676221e-06  0.04430501   
    260000   0.052               1850   3.7100341e-09  9.7223748e+10  3.9676221e-06  0.030211813  
    270000   0.054               1850   3.7276607e-09  9.0054881e+10  3.9676221e-06  0.032087383  
    280000   0.056               1850   3.9398326e-09  9.4955984e+10  3.9676221e-06  0.03424304   
    290000   0.058               1850   4.4462636e-09  1.0667406e+11  3.9676221e-06  0.036446293  
    300000   0.06                1850   4.9962129e-09  1.1578408e+11  3.9676221e-06  0.038890906  
    310000   0.062               1850   5.28356e-09    1.1947998e+11  3.9676221e-06  0.041437308  
    320000   0.064               1850   5.8300546e-09  1.3066258e+11  3.9676221e-06  0.043696363  
    330000   0.066               1850   4.6765524e-09  1.0780291e+11  3.9676221e-06  0.031315015  
    340000   0.068               1850   4.8399827e-09  1.1337027e+11  3.9676221e-06  0.028338024  
    350000   0.07                1850   5.2686464e-09  1.2402865e+11  3.9676221e-06  0.029275676  
    360000   0.072               1850   5.1645193e-09  1.2180391e+11  3.9676221e-06  0.031553192  
    370000   0.074               1850   5.3820041e-09  1.2744803e+11  3.9676221e-06  0.033971273  
    380000   0.076               1850   4.3165214e-09  1.032357e+11   3.9676221e-06  0.036573562  
    390000   0.078               1850   4.8919797e-09  1.1411427e+11  3.9676221e-06  0.039518922  
    400000   0.08                1850   5.5335266e-09  1.2674821e+11  3.9676221e-06  0.042603155  
    410000   0.082               1850   6.2729424e-09  1.4124895e+11  3.9676221e-06  0.04549869   
    420000   0.084               1850   6.4658582e-09  1.4524578e+11  3.9676221e-06  0.048209078  
    430000   0.086               1850   3.1210787e-09  8.535795e+10   3.9676221e-06  0.031469791  
    440000   0.088               1850   2.0422669e-09  6.5348506e+10  3.9676221e-06  0.01713626   
    450000   0.09                1850   1.2916518e-09  3.8449272e+10  3.9676221e-06  0.018476716  
    460000   0.092               1850   1.4028722e-09  3.7935808e+10  3.9676221e-06  0.019950225  
    470000   0.094               1850   1.6587038e-09  4.4060205e+10  3.9676221e-06  0.021505593  
    480000   0.096               1850   2.0061071e-09  5.2656725e+10  3.9676221e-06  0.023162409  
    490000   0.098               1850   2.3425448e-09  5.9348727e+10  3.9676221e-06  0.024926158  
    500000   0.1                 1850   2.4395247e-09  6.1824958e+10  3.9676221e-06  0.026881554  
    510000   0.102               1850   2.814521e-09   7.1011792e+10  3.9676221e-06  0.028849226  
    520000   0.104               1850   3.1660447e-09  7.9541636e+10  3.9676221e-06  0.030934871  
    530000   0.106               1850   2.9269198e-09  7.322353e+10   3.9676221e-06  0.03310689   
    540000   0.108               1850   2.4354627e-09  5.3895493e+10  3.9676221e-06  0.02808029   
    550000   0.11                1850   2.3933577e-09  5.311988e+10   3.9676221e-06  0.024388585  
    560000   0.112               1850   2.2272654e-09  5.1421011e+10  3.9676221e-06  0.021236631  
    570000   0.114               1850   2.2846025e-09  5.0787019e+10  3.9676221e-06  0.019057182  
    580000   0.116               1850   2.3222474e-09  5.267091e+10   3.9676221e-06  0.018034395  
    590000   0.118               1850   2.2218337e-09  4.7829167e+10  3.9676221e-06  0.019364892  
    600000   0.12                1850   2.5247034e-09  5.1795709e+10  3.9676221e-06  0.021498247  
    610000   0.122               1850   2.9352458e-09  6.0134992e+10  3.9676221e-06  0.024403613  
    620000   0.124               1850   3.2292554e-09  6.596919e+10   3.9676221e-06  0.02505312   
    630000   0.126               1850   3.6547235e-09  7.4754482e+10  3.9676221e-06  0.027175535  
    640000   0.128               1850   4.159399e-09   8.5166644e+10  3.9676221e-06  0.029566133  
    650000   0.13                1850   3.7333614e-09  7.7997944e+10  3.9676221e-06  0.02816205   
    660000   0.132               1850   1.2813559e-09  2.761217e+10   3.9676221e-06  0.019017232  
    670000   0.134               1850   8.3587642e-10  1.7244163e+10  3.9676221e-06  0.019974187  
    680000   0.136               1850   9.942268e-10   1.8721926e+10  3.9676221e-06  0.021127108  
    690000   0.138               1850   8.6866508e-10  1.6187744e+10  3.9676221e-06  0.022321579  
    700000   0.14                1850   9.7850238e-10  1.8214884e+10  3.9676221e-06  0.023611339  
    710000   0.142               1850   1.1170631e-09  2.1332694e+10  3.9676221e-06  0.025030873  
    720000   0.144               1850   1.2859616e-09  2.5430563e+10  3.9676221e-06  0.026506283  
    730000   0.146               1850   1.2851568e-09  2.4754749e+10  3.9676221e-06  0.026480779  
    740000   0.148               1850   1.0637732e-09  2.3428464e+10  3.9676221e-06  0.024686722  
    750000   0.15                1850   1.355767e-09   2.5959071e+10  3.9676221e-06  0.0280508    
    760000   0.152               1850   1.5496388e-09  2.9421637e+10  3.9676221e-06  0.029930844  
    770000   0.154               1850   1.783357e-09   3.3767077e+10  3.9676221e-06  0.031965435  
    780000   0.156               1850   1.9266775e-09  3.7189267e+10  3.9676221e-06  0.033419999  
    790000   0.158               1850   2.1359811e-09  4.152468e+10   3.9676221e-06  0.035227701  
    800000   0.16                1850   2.3920856e-09  4.6601016e+10  3.9676221e-06  0.037278002  
    810000   0.162               1850   5.2000507e-10  1.2641617e+10  3.9676221e-06  0.016166147  
    820000   0.164               1850   1.6179934e-10  3.531127e+09   3.9676221e-06  0.0094424452 
    830000   0.166               1850   2.1043124e-11  9.4394498e+08  3.9676221e-06  0.0027936557 
    840000   0.168               1850   2.7345308e-11  1.0597711e+09  3.9676221e-06  0.0033148898 
    850000   0.17                1850   1.1156881e-10  2.6018063e+09  3.9676221e-06  0.0077064572 
    860000   0.172               1850   1.5839426e-10  3.7634991e+09  3.9676221e-06  0.0088075851 
    870000   0.174               1850   9.706238e-11   2.1409156e+09  3.9676221e-06  0.0069767858 
    880000   0.176               1850   2.9089892e-11  7.624679e+08   3.9676221e-06  0.0029106382 
    890000   0.178               1850   1.8664069e-11  5.2847184e+08  3.9676221e-06  0.0031287754 
    900000   0.18                1850   1.9874729e-11  5.5132036e+08  3.9676221e-06  0.0033658923 
    910000   0.182               1850   2.753325e-11   7.1108966e+08  3.9676221e-06  0.0036118461 
    920000   0.184               1850   3.919674e-11   9.5633914e+08  3.9676221e-06  0.0038768696 
    930000   0.186               1850   3.0639905e-11  7.7337138e+08  3.9676221e-06  0.0041736523 
    940000   0.188               1850   3.4402035e-11  8.5270125e+08  3.9676221e-06  0.0044698414 
    950000   0.19                1850   3.9811904e-11  9.6098262e+08  3.9676221e-06  0.0048111237 
    960000   0.192               1850   4.5874427e-11  1.085011e+09   3.9676221e-06  0.0051701179 
    970000   0.194               1850   5.293242e-11   1.2301902e+09  3.9676221e-06  0.0055542671 
    980000   0.196               1850   6.1106669e-11  1.3981335e+09  3.9676221e-06  0.005967834  
    990000   0.198               1850   7.0576989e-11  1.5920258e+09  3.9676221e-06  0.0064136713 
   1000000   0.2                 1850   8.1502282e-11  1.8158355e+09  3.9676221e-06  0.006892237  
   1010000   0.202               1850   9.408377e-11   2.0740696e+09  3.9676221e-06  0.0074051357 
   1020000   0.204               1850   1.0859891e-10  2.3719362e+09  3.9676221e-06  0.007955883  
   1030000   0.206               1850   1.2535033e-10  2.7154192e+09  3.9676221e-06  0.0085474871 
   1040000   0.208               1850   1.4466297e-10  3.1113767e+09  3.9676221e-06  0.0091823618 
   1050000   0.21                1850   1.6690774e-10  3.5676361e+09  3.9676221e-06  0.0098631118 
   1060000   0.212               1850   1.9252516e-10  4.0931367e+09  3.9676221e-06  0.010593012  
   1070000   0.214               1850   2.2202e-10     4.6980757e+09  3.9676221e-06  0.011375533  
   1080000   0.216               1850   2.559562e-10   5.3940507e+09  3.9676221e-06  0.012214018  
   1090000   0.218               1850   1.0714645e-10  2.397072e+09   3.9676221e-06  0.0075311915 
   1100000   0.22                1850   8.2762809e-12  3.1151258e+08  3.9676221e-06  0.0020954344 
   1110000   0.222               1850   3.8936813e-11  1.0334269e+09  3.9676221e-06  0.0046863217 
   1120000   0.224               1850   2.3721996e-12  1.9183851e+08  3.9676221e-06  0.00099348966
   1130000   0.226               1850   7.9023835e-13  1.6279332e+08  3.9676221e-06  0.00034118923
   1140000   0.228               1850   4.9962035e-13  1.5587764e+08  3.9676221e-06  0.00024127611
   1150000   0.23                1850   1.0551912e-13  1.4701455e+08  3.9676221e-06  5.9856566e-05
   1160000   0.232               1850   5.2343246e-14  1.4582325e+08  3.9676221e-06  4.7176381e-05
   1170000   0.234               1850   1.7112032e-14  1.4485634e+08  3.9676221e-06  3.0603582e-05
   1180000   0.236               1850   3.675186e-15   1.4450223e+08  3.9676221e-06  1.2259229e-05
   1190000   0.238               1850   5.6252729e-15  1.4455376e+08  3.9676221e-06  1.9790433e-05
   1200000   0.24                1850   1.1338273e-15  1.4443614e+08  3.9676221e-06  7.9152636e-06
   1210000   0.242               1850   5.8788705e-16  1.4442458e+08  3.9676221e-06  7.3141645e-06
   1220000   0.244               1850   6.4570839e-16  1.4442614e+08  3.9676221e-06  8.1440768e-06
   1230000   0.246               1850   3.840485e-17   1.4440953e+08  3.9676221e-06  1.2452931e-06
   1240000   0.248               1850   1.3352495e-16  1.4441202e+08  3.9676221e-06  3.6822435e-06
   1250000   0.25                1850   7.102463e-17   1.4441031e+08  3.9676221e-06  2.7227879e-06
   1260000   0.252               1850   3.6529802e-18  1.4440846e+08  3.9676221e-06  4.3926751e-07
   1270000   0.254               1850   2.4579025e-17  1.4440903e+08  3.9676221e-06  1.5866533e-06
   1280000   0.256               1850   5.6109106e-18  1.4440852e+08  3.9676221e-06  7.5114719e-07
   1290000   0.258               1850   1.783215e-18   1.4440842e+08  3.9676221e-06  3.9732216e-07
   1300000   0.26                1850   3.7848289e-18  1.4440847e+08  3.9676221e-06  6.2500498e-07
   1310000   0.262               1850   2.6150523e-19  1.4440838e+08  3.9676221e-06  1.5432145e-07
   1320000   0.264               1850   5.917418e-19   1.4440839e+08  3.9676221e-06  2.3823605e-07
   1330000   0.266               1850   4.8003185e-19  1.4440838e+08  3.9676221e-06  2.1711607e-07
   1340000   0.268               1850   2.8551402e-20  1.4440837e+08  3.9676221e-06  1.0669265e-07
   1350000   0.27                1850   1.4244473e-19  1.4440837e+08  3.9676221e-06  1.1615074e-07
   1360000   0.272               1850   5.8309813e-20  1.4440837e+08  3.9676221e-06  9.5919115e-08
   1370000   0.274               1850   1.9384654e-20  1.4440837e+08  3.9676221e-06  9.0944226e-08
   1380000   0.276               1850   3.4093719e-20  1.4440837e+08  3.9676221e-06  8.622728e-08 
   1390000   0.278               1850   1.4447655e-20  1.4440837e+08  3.9676221e-06  8.1755884e-08
   1400000   0.28                1850   1.2642354e-20  1.4440837e+08  3.9676221e-06  7.7516848e-08
   1410000   0.282               1850   1.2274981e-20  1.4440837e+08  3.9676221e-06  7.3496475e-08
   1420000   0.284               1850   8.4447622e-21  1.4440837e+08  3.9676221e-06  6.9685216e-08
   1430000   0.286               1850   8.0995367e-21  1.4440837e+08  3.9676221e-06  6.6069895e-08
   1440000   0.288               1850   7.0735007e-21  1.4440837e+08  3.9676221e-06  6.2644575e-08
   1450000   0.29                1850   6.0623958e-21  1.4440837e+08  3.9676221e-06  5.9395773e-08
   1460000   0.292               1850   5.5645782e-21  1.4440837e+08  3.9676221e-06  5.6315367e-08
   1470000   0.294               1850   4.9205716e-21  1.4440837e+08  3.9676221e-06  5.3394505e-08
   1480000   0.296               1850   4.4058154e-21  1.4440837e+08  3.9676221e-06  5.0625714e-08
   1490000   0.298               1850   3.9736307e-21  1.4440837e+08  3.9676221e-06  4.8000158e-08
   1500000   0.3                 1850   3.5547696e-21  1.4440837e+08  3.9676221e-06  4.5510938e-08
   1510000   0.302               1850   3.1981554e-21  1.4440837e+08  3.9676221e-06  4.3150729e-08
   1520000   0.304               1850   2.874305e-21   1.4440837e+08  3.9676221e-06  4.0912736e-08
   1530000   0.306               1850   2.5818718e-21  1.4440837e+08  3.9676221e-06  3.8791024e-08
   1540000   0.308               1850   2.3217328e-21  1.4440837e+08  3.9676221e-06  3.6779286e-08
   1550000   0.31                1850   2.0865729e-21  1.4440837e+08  3.9676221e-06  3.4871858e-08
   1560000   0.312               1850   1.8757616e-21  1.4440837e+08  3.9676221e-06  3.3063377e-08
   1570000   0.314               1850   1.6862189e-21  1.4440837e+08  3.9676221e-06  3.1348736e-08
   1580000   0.316               1850   1.5158068e-21  1.4440837e+08  3.9676221e-06  2.972289e-08 
   1590000   0.318               1850   1.3626308e-21  1.4440837e+08  3.9676221e-06  2.8181328e-08
   1600000   0.32                1850   1.2249625e-21  1.4440837e+08  3.9676221e-06  2.6719867e-08
   1610000   0.322               1850   1.1011898e-21  1.4440837e+08  3.9676221e-06  2.5334019e-08
   1620000   0.324               1850   9.8993478e-22  1.4440837e+08  3.9676221e-06  2.4020178e-08
   1630000   0.326               1850   8.8991833e-22  1.4440837e+08  3.9676221e-06  2.2774424e-08
   1640000   0.328               1850   8.0000843e-22  1.4440837e+08  3.9676221e-06  2.1593291e-08
   1650000   0.33                1850   7.1918043e-22  1.4440837e+08  3.9676221e-06  2.0473347e-08
   1660000   0.332               1850   6.465176e-22   1.4440837e+08  3.9676221e-06  1.9411523e-08
   1670000   0.334               1850   5.8119523e-22  1.4440837e+08  3.9676221e-06  1.8404776e-08
   1680000   0.336               1850   5.2247963e-22  1.4440837e+08  3.9676221e-06  1.7450277e-08
   1690000   0.338               1850   4.6968356e-22  1.4440837e+08  3.9676221e-06  1.6545168e-08
   1700000   0.34                1850   4.2223179e-22  1.4440837e+08  3.9676221e-06  1.5687131e-08
   1710000   0.342               1850   3.7957915e-22  1.4440837e+08  3.9676221e-06  1.4873614e-08
   1720000   0.344               1850   3.4122519e-22  1.4440837e+08  3.9676221e-06  1.4102107e-08
   1730000   0.346               1850   3.0675636e-22  1.4440837e+08  3.9676221e-06  1.3370881e-08
   1740000   0.348               1850   2.7576694e-22  1.4440837e+08  3.9676221e-06  1.2677455e-08
   1750000   0.35                1850   2.4790646e-22  1.4440837e+08  3.9676221e-06  1.2019925e-08
   1760000   0.352               1850   2.228627e-22   1.4440837e+08  3.9676221e-06  1.1396533e-08
   1770000   0.354               1850   2.0034558e-22  1.4440837e+08  3.9676221e-06  1.0805523e-08
   1780000   0.356               1850   1.8010785e-22  1.4440837e+08  3.9676221e-06  1.0245193e-08
   1790000   0.358               1850   1.6191137e-22  1.4440837e+08  3.9676221e-06  9.7137787e-09
   1800000   0.36                1850   1.4555367e-22  1.4440837e+08  3.9676221e-06  9.2099607e-09
   1810000   0.362               1850   1.3085119e-22  1.4440837e+08  3.9676221e-06  8.7323325e-09
   1820000   0.364               1850   1.1763677e-22  1.4440837e+08  3.9676221e-06  8.2795856e-09
   1830000   0.366               1850   1.0575316e-22  1.4440837e+08  3.9676221e-06  7.8501642e-09
   1840000   0.368               1850   9.5074302e-23  1.4440837e+08  3.9676221e-06  7.4430266e-09
   1850000   0.37                1850   8.546724e-23   1.4440837e+08  3.9676221e-06  7.0570703e-09
   1860000   0.372               1850   7.6832124e-23  1.4440837e+08  3.9676221e-06  6.69094e-09  
   1870000   0.374               1850   6.9067198e-23  1.4440837e+08  3.9676221e-06  6.3436525e-09
   1880000   0.376               1850   6.2089456e-23  1.4440837e+08  3.9676221e-06  6.0145266e-09
   1890000   0.378               1850   5.5814161e-23  1.4440837e+08  3.9676221e-06  5.7025632e-09
   1900000   0.38                1850   5.017613e-23   1.4440837e+08  3.9676221e-06  5.4068527e-09
   1910000   0.382               1850   4.5108309e-23  1.4440837e+08  3.9676221e-06  5.1264868e-09
   1920000   0.384               1850   4.055171e-23   1.4440837e+08  3.9676221e-06  4.8605669e-09
   1930000   0.386               1850   3.645691e-23   1.4440837e+08  3.9676221e-06  4.6084009e-09
   1940000   0.388               1850   3.2779675e-23  1.4440837e+08  3.9676221e-06  4.3694351e-09
   1950000   0.39                1850   2.9470087e-23  1.4440837e+08  3.9676221e-06  4.1429484e-09
   1960000   0.392               1850   2.6496382e-23  1.4440837e+08  3.9676221e-06  3.9282372e-09
   1970000   0.394               1850   2.3825169e-23  1.4440837e+08  3.9676221e-06  3.7246317e-09
   1980000   0.396               1850   2.1421712e-23  1.4440837e+08  3.9676221e-06  3.5314844e-09
   1990000   0.398               1850   1.9258444e-23  1.4440837e+08  3.9676221e-06  3.3482774e-09
   2000000   0.4                 1850   1.7310464e-23  1.4440837e+08  3.9676221e-06  3.1745404e-09
   2010000   0.402               1850   1.5563353e-23  1.4440837e+08  3.9676221e-06  3.0099085e-09
   2020000   0.404               1850   1.3996891e-23  1.4440837e+08  3.9676221e-06  2.8538345e-09
   2030000   0.406               1850   1.2584399e-23  1.4440837e+08  3.9676221e-06  2.7058986e-09
   2040000   0.408               1850   1.1314718e-23  1.4440837e+08  3.9676221e-06  2.5656087e-09
   2050000   0.41                1850   1.0170948e-23  1.4440837e+08  3.9676221e-06  2.4324364e-09
   2060000   0.412               1850   9.1479002e-24  1.4440837e+08  3.9676221e-06  2.3061797e-09
   2070000   0.414               1850   8.2240493e-24  1.4440837e+08  3.9676221e-06  2.1866096e-09
   2080000   0.416               1850   7.397436e-24   1.4440837e+08  3.9676221e-06  2.0732691e-09
   2090000   0.418               1850   6.6494251e-24  1.4440837e+08  3.9676221e-06  1.9658181e-09
   2100000   0.42                1850   5.9794947e-24  1.4440837e+08  3.9676221e-06  1.8636626e-09
   2110000   0.422               1850   5.3799481e-24  1.4440837e+08  3.9676221e-06  1.7670745e-09
   2120000   0.424               1850   4.8393885e-24  1.4440837e+08  3.9676221e-06  1.675579e-09 
   2130000   0.426               1850   4.3507895e-24  1.4440837e+08  3.9676221e-06  1.5887005e-09
   2140000   0.428               1850   3.9157137e-24  1.4440837e+08  3.9676221e-06  1.5063078e-09
   2150000   0.43                1850   3.5218523e-24  1.4440837e+08  3.9676221e-06  1.4281163e-09
   2160000   0.432               1850   3.1654985e-24  1.4440837e+08  3.9676221e-06  1.3541065e-09
   2170000   0.434               1850   2.8513363e-24  1.4440837e+08  3.9676221e-06  1.2839046e-09
   2180000   0.436               1850   2.5673871e-24  1.4440837e+08  3.9676221e-06  1.2173542e-09
   2190000   0.438               1850   2.308319e-24   1.4440837e+08  3.9676221e-06  1.1542782e-09
   2200000   0.44                1850   2.0763227e-24  1.4440837e+08  3.9676221e-06  1.0944272e-09
   2210000   0.442               1850   1.8724556e-24  1.4440837e+08  3.9676221e-06  1.0376117e-09
   2220000   0.444               1850   1.6855581e-24  1.4440837e+08  3.9676221e-06  9.8383105e-10
   2230000   0.446               1850   1.5134482e-24  1.4440837e+08  3.9676221e-06  9.3281036e-10
   2240000   0.448               1850   1.3620228e-24  1.4440837e+08  3.9676221e-06  8.8441311e-10
   2250000   0.45                1850   1.2255652e-24  1.4440837e+08  3.9676221e-06  8.3853308e-10
   2260000   0.452               1850   1.1054182e-24  1.4440837e+08  3.9676221e-06  7.9498069e-10
   2270000   0.454               1850   9.9744172e-25  1.4440837e+08  3.9676221e-06  7.5368799e-10
   2280000   0.456               1850   8.9830428e-25  1.4440837e+08  3.9676221e-06  7.146161e-10 
   2290000   0.458               1850   8.0854124e-25  1.4440837e+08  3.9676221e-06  6.7749325e-10
   2300000   0.46                1850   7.2570241e-25  1.4440837e+08  3.9676221e-06  6.4235142e-10
   2310000   0.462               1850   6.5962308e-25  1.4440837e+08  3.9676221e-06  6.0897778e-10
   2320000   0.464               1850   5.9213756e-25  1.4440837e+08  3.9676221e-06  5.7736765e-10
   2330000   0.466               1850   5.2898421e-25  1.4440837e+08  3.9676221e-06  5.4733683e-10
   2340000   0.468               1850   4.7860754e-25  1.4440837e+08  3.9676221e-06  5.1893972e-10
   2350000   0.47                1850   4.3102206e-25  1.4440837e+08  3.9676221e-06  4.9208809e-10
   2360000   0.472               1850   3.8795297e-25  1.4440837e+08  3.9676221e-06  4.6657525e-10
   2370000   0.474               1850   3.5256908e-25  1.4440837e+08  3.9676221e-06  4.4237919e-10
   2380000   0.476               1850   3.2442206e-25  1.4440837e+08  3.9676221e-06  4.1951612e-10
   2390000   0.478               1850   2.9150449e-25  1.4440837e+08  3.9676221e-06  3.9781064e-10
   2400000   0.48                1850   2.6372514e-25  1.4440837e+08  3.9676221e-06  3.772129e-10 
   2410000   0.482               1850   2.3875881e-25  1.4440837e+08  3.9676221e-06  3.5780764e-10
   2420000   0.484               1850   2.1642413e-25  1.4440837e+08  3.9676221e-06  3.3932004e-10
   2430000   0.486               1850   1.9724235e-25  1.4440837e+08  3.9676221e-06  3.2172822e-10
   2440000   0.488               1850   1.7781364e-25  1.4440837e+08  3.9676221e-06  3.0500988e-10
   2450000   0.49                1850   1.6184643e-25  1.4440837e+08  3.9676221e-06  2.891736e-10 
   2460000   0.492               1850   1.513054e-25   1.4440837e+08  3.9676221e-06  2.7419971e-10
   2470000   0.494               1850   1.3804184e-25  1.4440837e+08  3.9676221e-06  2.5994918e-10
   2480000   0.496               1850   1.2575667e-25  1.4440837e+08  3.9676221e-06  2.4646116e-10
   2490000   0.498               1850   1.1451103e-25  1.4440837e+08  3.9676221e-06  2.3357531e-10
   2500000   0.5                 1850   1.0591236e-25  1.4440837e+08  3.9676221e-06  2.2140392e-10
   2510000   0.502               1850   9.9161219e-26  1.4440837e+08  3.9676221e-06  2.0996707e-10
   2520000   0.504               1850   8.9011785e-26  1.4440837e+08  3.9676221e-06  1.9909377e-10
   2530000   0.506               1850   7.8392118e-26  1.4440837e+08  3.9676221e-06  1.8876606e-10
   2540000   0.508               1850   7.4536922e-26  1.4440837e+08  3.9676221e-06  1.7901525e-10
   2550000   0.51                1850   7.2238855e-26  1.4440837e+08  3.9676221e-06  1.6988001e-10
   2560000   0.512               1850   6.8868216e-26  1.4440837e+08  3.9676221e-06  1.6092845e-10
   2570000   0.514               1850   6.6443973e-26  1.4440837e+08  3.9676221e-06  1.5251591e-10
   2580000   0.516               1850   6.2207395e-26  1.4440837e+08  3.9676221e-06  1.4449605e-10
   2590000   0.518               1850   5.5111992e-26  1.4440837e+08  3.9676221e-06  1.3691819e-10
   2600000   0.52                1850   5.4732796e-26  1.4440837e+08  3.9676221e-06  1.2979011e-10
   2610000   0.522               1850   4.5753238e-26  1.4440837e+08  3.9676221e-06  1.2312207e-10
   2620000   0.524               1850   4.843485e-26   1.4440837e+08  3.9676221e-06  1.1687031e-10
   2630000   0.526               1850   4.4192145e-26  1.4440837e+08  3.9676221e-06  1.1082803e-10
   2640000   0.528               1850   4.464328e-26   1.4440837e+08  3.9676221e-06  1.0514511e-10
   2650000   0.53                1850   3.6811961e-26  1.4440837e+08  3.9676221e-06  9.964996e-11 
   2660000   0.532               1850   3.5806273e-26  1.4440837e+08  3.9676221e-06  9.4359091e-11
   2670000   0.534               1850   3.5935928e-26  1.4440837e+08  3.9676221e-06  8.9405977e-11
   2680000   0.536               1850   3.2604686e-26  1.4440837e+08  3.9676221e-06  8.4815759e-11
   2690000   0.538               1850   3.0606894e-26  1.4440837e+08  3.9676221e-06  8.0385693e-11
   2700000   0.54                1850   2.937125e-26   1.4440837e+08  3.9676221e-06  7.6105047e-11
   2710000   0.542               1850   2.9514255e-26  1.4440837e+08  3.9676221e-06  7.1824881e-11
   2720000   0.544               1850   2.617279e-26   1.4440837e+08  3.9676221e-06  6.8089553e-11
   2730000   0.546               1850   2.595273e-26   1.4440837e+08  3.9676221e-06  6.4597642e-11
   2740000   0.548               1850   2.8874155e-26  1.4440837e+08  3.9676221e-06  6.1327822e-11
   2750000   0.55                1850   2.9054076e-26  1.4440837e+08  3.9676221e-06  5.8288791e-11
   2760000   0.552               1850   2.8295804e-26  1.4440837e+08  3.9676221e-06  5.556615e-11 
   2770000   0.554               1850   2.4837131e-26  1.4440837e+08  3.9676221e-06  5.249501e-11 
   2780000   0.556               1850   2.4362048e-26  1.4440837e+08  3.9676221e-06  4.9862644e-11
   2790000   0.558               1850   2.7624953e-26  1.4440837e+08  3.9676221e-06  4.714846e-11 
   2800000   0.56                1850   2.3386771e-26  1.4440837e+08  3.9676221e-06  4.4810088e-11
   2810000   0.562               1850   2.3415568e-26  1.4440837e+08  3.9676221e-06  4.2573013e-11
   2820000   0.564               1850   2.4224743e-26  1.4440837e+08  3.9676221e-06  4.0313789e-11
   2830000   0.566               1850   2.540767e-26   1.4440837e+08  3.9676221e-06  3.8387737e-11
   2840000   0.568               1850   2.4013092e-26  1.4440837e+08  3.9676221e-06  3.6297748e-11
   2850000   0.57                1850   2.1555678e-26  1.4440837e+08  3.9676221e-06  3.4444867e-11
   2860000   0.572               1850   2.4995307e-26  1.4440837e+08  3.9676221e-06  3.2736848e-11
   2870000   0.574               1850   2.2706579e-26  1.4440837e+08  3.9676221e-06  3.075871e-11 
   2880000   0.576               1850   2.040987e-26   1.4440837e+08  3.9676221e-06  2.9522701e-11
   2890000   0.578               1850   1.9287227e-26  1.4440837e+08  3.9676221e-06  2.7617234e-11
   2900000   0.58                1850   1.8049825e-26  1.4440837e+08  3.9676221e-06  2.6170157e-11
   2910000   0.582               1850   1.9290192e-26  1.4440837e+08  3.9676221e-06  2.483984e-11 
   2920000   0.584               1850   1.9509871e-26  1.4440837e+08  3.9676221e-06  2.3650681e-11
   2930000   0.586               1850   2.2866248e-26  1.4440837e+08  3.9676221e-06  2.2441909e-11
   2940000   0.588               1850   2.2809233e-26  1.4440837e+08  3.9676221e-06  2.1353066e-11
   2950000   0.59                1850   2.1908351e-26  1.4440837e+08  3.9676221e-06  2.1378652e-11
   2960000   0.592               1850   2.4097834e-26  1.4440837e+08  3.9676221e-06  1.9864937e-11
   2970000   0.594               1850   2.3552428e-26  1.4440837e+08  3.9676221e-06  2.0976519e-11
   2980000   0.596               1850   2.1758654e-26  1.4440837e+08  3.9676221e-06  1.7357575e-11
   2990000   0.598               1850   1.9383938e-26  1.4440837e+08  3.9676221e-06  1.7884259e-11
   3000000   0.6                 1850   1.8373758e-26  1.4440837e+08  3.9676221e-06  1.735321e-11 
   3010000   0.602               1850   1.9463747e-26  1.4440837e+08  3.9676221e-06  1.4533082e-11
   3020000   0.604               1850   1.8720097e-26  1.4440837e+08  3.9676221e-06  2.2849811e-11
   3030000   0.606               1850   2.2175439e-26  1.4440837e+08  3.9676221e-06  1.7753332e-11
   3040000   0.608               1850   2.1899787e-26  1.4440837e+08  3.9676221e-06  1.7901475e-11
   3050000   0.61                1850   2.1923443e-26  1.4440837e+08  3.9676221e-06  1.8365113e-11
   3060000   0.612               1850   2.4121851e-26  1.4440837e+08  3.9676221e-06  1.8090357e-11
   3070000   0.614               1850   2.1453602e-26  1.4440837e+08  3.9676221e-06  1.7429949e-11
   3080000   0.616               1850   2.3319743e-26  1.4440837e+08  3.9676221e-06  1.7973256e-11
   3090000   0.618               1850   1.8858015e-26  1.4440837e+08  3.9676221e-06  1.8975197e-11
   3100000   0.62                1850   1.7671229e-26  1.4440837e+08  3.9676221e-06  1.7346051e-11
   3110000   0.622               1850   1.7509613e-26  1.4440837e+08  3.9676221e-06  1.7349162e-11
   3120000   0.624               1850   2.2131446e-26  1.4440837e+08  3.9676221e-06  2.3171121e-11
   3130000   0.626               1850   2.3479473e-26  1.4440837e+08  3.9676221e-06  1.7378051e-11
   3140000   0.628               1850   2.222754e-26   1.4440837e+08  3.9676221e-06  1.7382905e-11
   3150000   0.63                1850   1.9304979e-26  1.4440837e+08  3.9676221e-06  1.7359526e-11
   3160000   0.632               1850   2.0293607e-26  1.4440837e+08  3.9676221e-06  1.6786025e-11
   3170000   0.634               1850   1.874499e-26   1.4440837e+08  3.9676221e-06  2.2456837e-11
   3180000   0.636               1850   1.9106599e-26  1.4440837e+08  3.9676221e-06  1.9104544e-11
   3190000   0.638               1850   2.1132287e-26  1.4440837e+08  3.9676221e-06  1.7565925e-11
   3200000   0.64                1850   1.931992e-26   1.4440837e+08  3.9676221e-06  1.5590648e-11
   3210000   0.642               1850   2.1239395e-26  1.4440837e+08  3.9676221e-06  2.314179e-11 
   3220000   0.644               1850   2.3279157e-26  1.4440837e+08  3.9676221e-06  1.7601309e-11
   3230000   0.646               1850   2.248463e-26   1.4440837e+08  3.9676221e-06  1.7500182e-11
   3240000   0.648               1850   2.1859631e-26  1.4440837e+08  3.9676221e-06  1.7684922e-11
   3250000   0.65                1850   2.1366343e-26  1.4440837e+08  3.9676221e-06  1.8655035e-11
   3260000   0.652               1850   2.1869983e-26  1.4440837e+08  3.9676221e-06  1.7419213e-11
   3270000   0.654               1850   2.2684018e-26  1.4440837e+08  3.9676221e-06  1.7542719e-11
   3280000   0.656               1850   2.0843932e-26  1.4440837e+08  3.9676221e-06  2.1434753e-11
   3290000   0.658               1850   2.3291441e-26  1.4440837e+08  3.9676221e-06  1.8475696e-11
   3300000   0.66                1850   2.1835008e-26  1.4440837e+08  3.9676221e-06  1.7367543e-11
   3310000   0.662               1850   2.4928483e-26  1.4440837e+08  3.9676221e-06  1.777575e-11 
   3320000   0.664               1850   2.1944033e-26  1.4440837e+08  3.9676221e-06  1.9995704e-11
   3330000   0.666               1850   2.6998589e-26  1.4440837e+08  3.9676221e-06  1.969011e-11 
   3340000   0.668               1850   2.4563436e-26  1.4440837e+08  3.9676221e-06  1.7877408e-11
   3350000   0.67                1850   2.162974e-26   1.4440837e+08  3.9676221e-06  1.7352163e-11
   3360000   0.672               1850   2.8328184e-26  1.4440837e+08  3.9676221e-06  1.8534182e-11
   3370000   0.674               1850   2.5406602e-26  1.4440837e+08  3.9676221e-06  2.0960216e-11
   3380000   0.676               1850   2.0846651e-26  1.4440837e+08  3.9676221e-06  1.7608449e-11
   3390000   0.678               1850   2.384647e-26   1.4440837e+08  3.9676221e-06  1.847502e-11 
   3400000   0.68                1850   2.4620732e-26  1.4440837e+08  3.9676221e-06  1.7726873e-11
   3410000   0.682               1850   2.5874623e-26  1.4440837e+08  3.9676221e-06  2.3150798e-11
   3420000   0.684               1850   1.8933443e-26  1.4440837e+08  3.9676221e-06  1.8414618e-11
   3430000   0.686               1850   1.6088503e-26  1.4440837e+08  3.9676221e-06  1.7351403e-11
   3440000   0.688               1850   1.8612105e-26  1.4440837e+08  3.9676221e-06  1.7331834e-11
   3450000   0.69                1850   1.599236e-26   1.4440837e+08  3.9676221e-06  1.8934154e-11
   3460000   0.692               1850   1.9632185e-26  1.4440837e+08  3.9676221e-06  1.761764e-11 
   3470000   0.694               1850   2.0295888e-26  1.4440837e+08  3.9676221e-06  1.9782608e-11
   3480000   0.696               1850   1.8010773e-26  1.4440837e+08  3.9676221e-06  2.2966729e-11
   3490000   0.698               1850   1.8826032e-26  1.4440837e+08  3.9676221e-06  1.763585e-11 
   3500000   0.7                 1850   2.0827388e-26  1.4440837e+08  3.9676221e-06  1.7617632e-11
   3510000   0.702               1850   1.9022902e-26  1.4440837e+08  3.9676221e-06  1.7696351e-11
   3520000   0.704               1850   2.257646e-26   1.4440837e+08  3.9676221e-06  1.7523126e-11
   3530000   0.706               1850   2.5711437e-26  1.4440837e+08  3.9676221e-06  1.991115e-11 
   3540000   0.708               1850   2.1047656e-26  1.4440837e+08  3.9676221e-06  1.7358689e-11
   3550000   0.71                1850   2.0847492e-26  1.4440837e+08  3.9676221e-06  1.7689935e-11
   3560000   0.712               1850   1.7759125e-26  1.4440837e+08  3.9676221e-06  2.0284324e-11
   3570000   0.714               1850   1.9671028e-26  1.4440837e+08  3.9676221e-06  1.7870157e-11
   3580000   0.716               1850   2.4689364e-26  1.4440837e+08  3.9676221e-06  2.2461995e-11
   3590000   0.718               1850   2.094461e-26   1.4440837e+08  3.9676221e-06  1.7370943e-11
   3600000   0.72                1850   1.9803969e-26  1.4440837e+08  3.9676221e-06  1.8137581e-11
   3610000   0.722               1850   1.8656094e-26  1.4440837e+08  3.9676221e-06  1.7360385e-11
   3620000   0.724               1850   2.145426e-26   1.4440837e+08  3.9676221e-06  1.6651722e-11
   3630000   0.726               1850   1.9428789e-26  1.4440837e+08  3.9676221e-06  1.9938688e-11
   3640000   0.728               1850   2.0936252e-26  1.4440837e+08  3.9676221e-06  1.7549822e-11
   3650000   0.73                1850   1.9959879e-26  1.4440837e+08  3.9676221e-06  1.7719756e-11
   3660000   0.732               1850   1.9106994e-26  1.4440837e+08  3.9676221e-06  2.0459516e-11
   3670000   0.734               1850   1.990091e-26   1.4440837e+08  3.9676221e-06  1.8185903e-11
   3680000   0.736               1850   2.1385589e-26  1.4440837e+08  3.9676221e-06  1.7567784e-11
   3690000   0.738               1850   2.1846723e-26  1.4440837e+08  3.9676221e-06  1.7457945e-11
   3700000   0.74                1850   2.2861155e-26  1.4440837e+08  3.9676221e-06  2.3633214e-11
   3710000   0.742               1850   2.1635598e-26  1.4440837e+08  3.9676221e-06  2.0281363e-11
   3720000   0.744               1850   2.3117889e-26  1.4440837e+08  3.9676221e-06  1.8857405e-11
   3730000   0.746               1850   2.0249891e-26  1.4440837e+08  3.9676221e-06  1.7390281e-11
   3740000   0.748               1850   2.3808406e-26  1.4440837e+08  3.9676221e-06  1.7716301e-11
   3750000   0.75                1850   2.0302808e-26  1.4440837e+08  3.9676221e-06  1.7367926e-11
   3760000   0.752               1850   1.8783689e-26  1.4440837e+08  3.9676221e-06  1.7425227e-11
   3770000   0.754               1850   1.6715434e-26  1.4440837e+08  3.9676221e-06  1.5273002e-11
   3780000   0.756               1850   2.1345575e-26  1.4440837e+08  3.9676221e-06  1.8595136e-11
   3790000   0.758               1850   2.3140506e-26  1.4440837e+08  3.9676221e-06  2.2789503e-11
   3800000   0.76                1850   2.0113525e-26  1.4440837e+08  3.9676221e-06  1.7887687e-11
   3810000   0.762               1850   2.1173466e-26  1.4440837e+08  3.9676221e-06  1.7952992e-11
   3820000   0.764               1850   1.7183438e-26  1.4440837e+08  3.9676221e-06  1.5580066e-11
   3830000   0.766               1850   1.9588343e-26  1.4440837e+08  3.9676221e-06  1.8284906e-11
   3840000   0.768               1850   2.0066785e-26  1.4440837e+08  3.9676221e-06  1.8059995e-11
   3850000   0.77                1850   1.9657331e-26  1.4440837e+08  3.9676221e-06  1.7393058e-11
   3860000   0.772               1850   2.1720594e-26  1.4440837e+08  3.9676221e-06  1.6812556e-11
   3870000   0.774               1850   1.8584607e-26  1.4440837e+08  3.9676221e-06  1.951547e-11 
   3880000   0.776               1850   1.3568785e-26  1.4440837e+08  3.9676221e-06  1.1623859e-11
   3890000   0.778               1850   1.3515645e-26  1.4440837e+08  3.9676221e-06  1.1420728e-11
   3900000   0.78                1850   1.419901e-26   1.4440837e+08  3.9676221e-06  1.7738546e-11
   3910000   0.782               1850   1.3582452e-26  1.4440837e+08  3.9676221e-06  1.6518057e-11
   3920000   0.784               1850   1.8877188e-26  1.4440837e+08  3.9676221e-06  1.8414606e-11
   3930000   0.786               1850   2.1187016e-26  1.4440837e+08  3.9676221e-06  2.3378804e-11
   3940000   0.788               1850   1.9564139e-26  1.4440837e+08  3.9676221e-06  1.8283753e-11
   3950000   0.79                1850   2.0339584e-26  1.4440837e+08  3.9676221e-06  1.7614872e-11
   3960000   0.792               1850   2.2083485e-26  1.4440837e+08  3.9676221e-06  2.2616546e-11
   3970000   0.794               1850   1.616216e-26   1.4440837e+08  3.9676221e-06  2.0464251e-11
   3980000   0.796               1850   1.518497e-26   1.4440837e+08  3.9676221e-06  1.724627e-11 
   3990000   0.798               1850   1.4506848e-26  1.4440837e+08  3.9676221e-06  1.4196556e-11
   4000000   0.8                 1850   1.6241907e-26  1.4440837e+08  3.9676221e-06  1.7684528e-11
Loop time of 1003.16 on 1 procs for 4000000 steps with 1850 atoms

100.0% CPU use with 1 MPI tasks x 1 OpenMP threads

MPI task timing breakdown:
Section |  min time  |  avg time  |  max time  |%varavg| %total
---------------------------------------------------------------
Pair    | 764.56     | 764.56     | 764.56     |   0.0 | 76.22
Neigh   | 0.037643   | 0.037643   | 0.037643   |   0.0 |  0.00
Comm    | 0.086772   | 0.086772   | 0.086772   |   0.0 |  0.01
Output  | 0.31169    | 0.31169    | 0.31169    |   0.0 |  0.03
Modify  | 228.61     | 228.61     | 228.61     |   0.0 | 22.79
Other   |            | 9.555      |            |       |  0.95

Nlocal:           1850 ave        1850 max        1850 min
Histogram: 1 0 0 0 0 0 0 0 0 0
Nghost:              0 ave           0 max           0 min
Histogram: 1 0 0 0 0 0 0 0 0 0
Neighs:           7037 ave        7037 max        7037 min
Histogram: 1 0 0 0 0 0 0 0 0 0

Total # of neighbors = 7037
Ave neighs/atom = 3.8037838
Neighbor list builds = 63
Dangerous builds = 0
Generated 0 of 0 mixed pair_coeff terms from geometric mixing rule
Setting up Verlet run ...
  Unit style    : si
  Current step  : 4000000
  Time step     : 2e-07
Per MPI rank memory allocation (min/avg/max) = 13 | 13 | 13 Mbytes
   Step          Time         Atoms        KinEng     c_granularTemp c_solidVolume    c_maxSpeed  
   4000000   0.8                 1850   1.6241907e-26  1.4440837e+08  3.9676221e-06  1.7684528e-11
Loop time of 2.08e-07 on 1 procs for 0 steps with 1850 atoms

480.8% CPU use with 1 MPI tasks x 1 OpenMP threads

MPI task timing breakdown:
Section |  min time  |  avg time  |  max time  |%varavg| %total
---------------------------------------------------------------
Pair    | 0          | 0          | 0          |   0.0 |  0.00
Neigh   | 0          | 0          | 0          |   0.0 |  0.00
Comm    | 0          | 0          | 0          |   0.0 |  0.00
Output  | 0          | 0          | 0          |   0.0 |  0.00
Modify  | 0          | 0          | 0          |   0.0 |  0.00
Other   |            | 2.08e-07   |            |       |100.00

Nlocal:           1850 ave        1850 max        1850 min
Histogram: 1 0 0 0 0 0 0 0 0 0
Nghost:              0 ave           0 max           0 min
Histogram: 1 0 0 0 0 0 0 0 0 0
Neighs:           7037 ave        7037 max        7037 min
Histogram: 1 0 0 0 0 0 0 0 0 0

Total # of neighbors = 7037
Ave neighs/atom = 3.8037838
Neighbor list builds = 0
Dangerous builds = 0
Generated 0 of 0 mixed pair_coeff terms from geometric mixing rule
Neighbor list info ...
  update: every = 1 steps, delay = 0 steps, check = yes
  max neighbors/atom: 2000, page size: 100000
  master list distance cutoff = 0.00185
  ghost atom cutoff = 0.00185
  binsize = 0.000925, bins = 18 18 76
  3 neighbor lists, perpetual/occasional/extra = 1 2 0
  (1) pair granular, perpetual
      attributes: half, newton off, size, history
      pair build: half/size/bin/atomonly/newtoff
      stencil: full/bin/3d
      bin: standard
  (2) compute property/local, occasional
      attributes: half, newton off, size
      pair build: half/size/bin/atomonly/newtoff
      stencil: full/bin/3d
      bin: standard
  (3) compute pair/local, occasional
      attributes: half, newton off, size
      pair build: half/size/bin/atomonly/newtoff
      stencil: full/bin/3d
      bin: standard
Setting up Verlet run ...
  Unit style    : si
  Current step  : 4000000
  Time step     : 2e-07
Per MPI rank memory allocation (min/avg/max) = 14.26 | 14.26 | 14.26 Mbytes
   Step          Time         Atoms        KinEng     c_granularTemp c_solidVolume    c_maxSpeed  
   4000000   0.8                 1850   1.6241907e-26  1.4440837e+08  3.9676221e-06  1.7684528e-11
   4000001   0.8000002           1850   1.6242627e-26  1.4440837e+08  3.9676221e-06  1.7688491e-11
Loop time of 0.00641624 on 1 procs for 1 steps with 1850 atoms

100.0% CPU use with 1 MPI tasks x 1 OpenMP threads

MPI task timing breakdown:
Section |  min time  |  avg time  |  max time  |%varavg| %total
---------------------------------------------------------------
Pair    | 0.00020612 | 0.00020612 | 0.00020612 |   0.0 |  3.21
Neigh   | 0          | 0          | 0          |   0.0 |  0.00
Comm    | 1.13e-07   | 1.13e-07   | 1.13e-07   |   0.0 |  0.00
Output  | 0.0061462  | 0.0061462  | 0.0061462  |   0.0 | 95.79
Modify  | 6.0108e-05 | 6.0108e-05 | 6.0108e-05 |   0.0 |  0.94
Other   |            | 3.691e-06  |            |       |  0.06

Nlocal:           1850 ave        1850 max        1850 min
Histogram: 1 0 0 0 0 0 0 0 0 0
Nghost:              0 ave           0 max           0 min
Histogram: 1 0 0 0 0 0 0 0 0 0
Neighs:           7037 ave        7037 max        7037 min
Histogram: 1 0 0 0 0 0 0 0 0 0

Total # of neighbors = 7037
Ave neighs/atom = 3.8037838
Neighbor list builds = 0
Dangerous builds = 0
System init for write_data ...
Generated 0 of 0 mixed pair_coeff terms from geometric mixing rule
System init for write_restart ...
Generated 0 of 0 mixed pair_coeff terms from geometric mixing rule
seed Ntarget Nfinal dp_m density_kgm3 Dtube_m D_over_dp solidVolume_m3 bedHeight_m bedVolume_m3 packingFraction porosity minParticleBottom_m kineticEnergy_J maxSpeed_ms
81929 1850 1850 0.0016 1600 0.016 10 3.96762208197362e-06 0.036368107879503 7.31224195450929e-06 0.542599944949426 0.457400055050574 -1.32076797044361e-06 1.62426267873564e-26 1.76884908619474e-11
Packing generation completed: co2_13x_seed_81929
ACCEPT only if Nfinal=Ntarget, the bed is settled, and overlap/geometry checks pass.
For the 20-packing pilot, change only seed_realization.
CO2 diffusion and particle LDF adsorption are added later in the pore-network solver, not here.
Total wall time: 0:22:27
