Authorization required, but no authorization protocol specified

Authorization required, but no authorization protocol specified

Authorization required, but no authorization protocol specified

Authorization required, but no authorization protocol specified

LAMMPS (22 Jul 2025 - Update 5)
OMP_NUM_THREADS environment is not set. Defaulting to 1 thread.
  using 1 OpenMP thread(s) per MPI task
OMP_NUM_THREADS environment is not set. Defaulting to 1 thread.
  using 1 OpenMP thread(s) per MPI task
CO2 sorbent = commercial zeolite 13X (mechanical packing only)
Realization seed = 121021
Target particle count = 1850
Bead diameter [m] = 0.0016
Tube diameter [m] = 0.016
Tube-to-particle diameter ratio = 10
Target solid volume [m^3] = 3.96762208197367e-06
Created orthogonal box = (-0.008 -0.008 0) to (0.008 0.008 0.07)
  1 by 1 by 1 MPI processor grid
Generated 0 of 0 mixed pair_coeff terms from geometric mixing rule
Particle insertion: 303 every 319275 steps, 1850 by step 1915651
Neighbor list info ...
  update: every = 1 steps, delay = 0 steps, check = yes
  max neighbors/atom: 2000, page size: 100000
  master list distance cutoff = 0.00185
  ghost atom cutoff = 0.00185
  binsize = 0.000925, bins = 18 18 76
  1 neighbor lists, perpetual/occasional/extra = 1 0 0
  (1) pair granular, perpetual
      attributes: half, newton off, size, history
      pair build: half/size/bin/atomonly/newtoff
      stencil: full/bin/3d
      bin: standard
Setting up Verlet run ...
  Unit style    : si
  Current step  : 0
  Time step     : 2e-07
Per MPI rank memory allocation (min/avg/max) = 7.438 | 7.438 | 7.438 Mbytes
   Step          Time         Atoms        KinEng     c_granularTemp c_solidVolume    c_maxSpeed  
         0   0                      0  -0              0              0             -1e+20        
WARNING: Fewer insertions than requested (src/GRANULAR/fix_pour.cpp:691)
     10000   0.002                222  -0              5.9532746e+15  4.7611465e-07  0.60718283   
     20000   0.004                222  -0              5.8127635e+15  4.7611465e-07  0.59186433   
     30000   0.006                222  -0              5.6878893e+15  4.7611465e-07  0.57741313   
     40000   0.008                222  -0              5.5769214e+15  4.7611465e-07  0.56378013   
     50000   0.01                 222  -0              5.4783203e+15  4.7611465e-07  0.55091902   
     60000   0.012                222  -0              5.3907162e+15  4.7611465e-07  0.53878608   
     70000   0.014                222  -0              5.312891e+15   4.7611465e-07  0.52734008   
     80000   0.016                222  -0              5.2437606e+15  4.7611465e-07  0.51654215   
     90000   0.018                222  -0              5.1823609e+15  4.7611465e-07  0.50635557   
    100000   0.02                 222  -0              5.1278342e+15  4.7611465e-07  0.49674574   
    110000   0.022                222  -0              5.0794177e+15  4.7611465e-07  0.48768001   
    120000   0.024                222  -0              5.0364329e+15  4.7611465e-07  0.47912756   
    130000   0.026                222  -0              4.9982761e+15  4.7611465e-07  0.47105934   
    140000   0.028                222  -0              4.9644105e+15  4.7611465e-07  0.46344793   
    150000   0.03                 222  -0              4.9343588e+15  4.7611465e-07  0.45626747   
    160000   0.032                222  -0              4.9076962e+15  4.7611465e-07  0.44949355   
    170000   0.034                222  -0              4.8840454e+15  4.7611465e-07  0.44310316   
    180000   0.036                222  -0              4.8630703e+15  4.7611465e-07  0.43707459   
    190000   0.038                222  -0              4.8444725e+15  4.7611465e-07  0.43138734   
    200000   0.04                 222  -0              4.8279865e+15  4.7611465e-07  0.4260221    
    210000   0.042                222  -0              4.8133761e+15  4.7611465e-07  0.42096063   
    220000   0.044                222  -0              4.8004316e+15  4.7611465e-07  0.41618573   
    230000   0.046                222  -0              4.7889663e+15  4.7611465e-07  0.41168118   
    240000   0.048                222  -0              4.7788144e+15  4.7611465e-07  0.40743167   
    250000   0.05                 222  -0              4.7698283e+15  4.7611465e-07  0.40342276   
    260000   0.052                222  -0              4.7618772e+15  4.7611465e-07  0.39964082   
    270000   0.054                222  -0              4.7548444e+15  4.7611465e-07  0.39607302   
    280000   0.056                222  -0              4.7486264e+15  4.7611465e-07  0.39270722   
    290000   0.058                222  -0              4.7431314e+15  4.7611465e-07  0.38953198   
    300000   0.06                 222  -0              4.7382775e+15  4.7611465e-07  0.38653652   
    310000   0.062                222  -0              4.7339921e+15  4.7611465e-07  0.38371066   
WARNING: Fewer insertions than requested (src/GRANULAR/fix_pour.cpp:691)
    320000   0.064                440  -0              5.0335626e+15  9.4365066e-07  0.62372683   
    330000   0.066                440  -0              4.9480517e+15  9.4365066e-07  0.60747163   
    340000   0.068                440  -0              4.8943371e+15  9.4365066e-07  0.59213677   
    350000   0.07                 440  -0              4.8491881e+15  9.4365066e-07  0.57767014   
    360000   0.072                440  -0              4.8123717e+15  9.4365066e-07  0.5640226    
    370000   0.074                440  -0              4.7838063e+15  9.4365066e-07  0.55114775   
    380000   0.076                440  -0              4.7612575e+15  9.4365066e-07  0.53900186   
    390000   0.078                440  -0              4.7388177e+15  9.4365066e-07  0.52754365   
    400000   0.08                 440  -0              4.7219142e+15  9.4365066e-07  0.51673419   
    410000   0.082                440  -0              4.7054479e+15  9.4365066e-07  0.50653674   
    420000   0.084                440  -0              4.6927273e+15  9.4365066e-07  0.48854431   
    430000   0.086                440  -0              4.6254464e+15  9.4365066e-07  0.47994293   
    440000   0.088                440  -0              4.5317526e+15  9.4365066e-07  0.47182854   
    450000   0.09                 440  -0              4.4895221e+15  9.4365066e-07  0.46417358   
    460000   0.092                440  -0              4.445478e+15   9.4365066e-07  0.45695203   
    470000   0.094                440  -0              4.3987276e+15  9.4365066e-07  0.45013936   
    480000   0.096                440  -0              4.3721815e+15  9.4365066e-07  0.4437124    
    490000   0.098                440  -0              4.3428656e+15  9.4365066e-07  0.43764933   
    500000   0.1                  440  -0              4.2715097e+15  9.4365066e-07  0.43192955   
    510000   0.102                440  -0              4.2258702e+15  9.4365066e-07  0.4265336    
    520000   0.104                440  -0              4.1814904e+15  9.4365066e-07  0.42144317   
    530000   0.106                440  -0              4.1397526e+15  9.4365066e-07  0.41664095   
    540000   0.108                440  -0              4.1054693e+15  9.4365066e-07  0.41211063   
    550000   0.11                 440  -0              4.0813328e+15  9.4365066e-07  0.4078368    
    560000   0.112                440  -0              4.062815e+15   9.4365066e-07  0.40380495   
    570000   0.114                440  -0              4.0118066e+15  9.4365066e-07  0.40000138   
    580000   0.116                440  -0              3.9720426e+15  9.4365066e-07  0.39641316   
    590000   0.118                440  -0              3.9413244e+15  9.4365066e-07  0.3930281    
    600000   0.12                 440  -0              3.898866e+15   9.4365066e-07  0.3898347    
    610000   0.122                440  -0              3.8605658e+15  9.4365066e-07  0.3868221    
    620000   0.124                440  -0              3.8314155e+15  9.4365066e-07  0.38398007   
    630000   0.126                440  -0              3.8222533e+15  9.4365066e-07  0.38129895   
WARNING: Fewer insertions than requested (src/GRANULAR/fix_pour.cpp:691)
    640000   0.128                631  -0              4.3677387e+15  1.3532808e-06  0.62202682   
    650000   0.13                 631  -0              4.2883445e+15  1.3532808e-06  0.60586786   
    660000   0.132                631  -0              4.2078365e+15  1.3532808e-06  0.59062381   
    670000   0.134                631  -0              4.1428067e+15  1.3532808e-06  0.57589848   
    680000   0.136                631  -0              4.0818674e+15  1.3532808e-06  0.55724463   
    690000   0.138                631  -0              4.0388665e+15  1.3532808e-06  0.53782038   
    700000   0.14                 631  -0              4.0083029e+15  1.3532808e-06  0.52642907   
    710000   0.142                631  -0              3.9749653e+15  1.3532808e-06  0.51568271   
    720000   0.144                631  -0              3.912358e+15   1.3532808e-06  0.5055448    
    730000   0.146                631  -0              3.8572287e+15  1.3532808e-06  0.49598087   
    740000   0.148                631  -0              3.8257906e+15  1.3532808e-06  0.473042     
    750000   0.15                 631  -0              3.7878712e+15  1.3532808e-06  0.45288563   
    760000   0.152                631  -0              3.733933e+15   1.3532808e-06  0.44630318   
    770000   0.154                631  -0              3.6666807e+15  1.3532808e-06  0.44009343   
    780000   0.156                631  -0              3.5688603e+15  1.3532808e-06  0.43423526   
    790000   0.158                631  -0              3.4771745e+15  1.3532808e-06  0.42341245   
    800000   0.16                 631  -0              3.4197304e+15  1.3532808e-06  0.41849873   
    810000   0.162                631  -0              3.3684256e+15  1.3532808e-06  0.41386322   
    820000   0.164                631  -0              3.3125418e+15  1.3532808e-06  0.40949016   
    830000   0.166                631  -0              3.2292783e+15  1.3532808e-06  0.40536471   
    840000   0.168                631  -0              3.1699078e+15  1.3532808e-06  0.40147282   
    850000   0.17                 631  -0              3.1001616e+15  1.3532808e-06  0.39780129   
    860000   0.172                631  -0              3.0133197e+15  1.3532808e-06  0.39433764   
    870000   0.174                631  -0              2.9434796e+15  1.3532808e-06  0.39107009   
    880000   0.176                631  -0              2.8662583e+15  1.3532808e-06  0.38798755   
    890000   0.178                631  -0              2.8132099e+15  1.3532808e-06  0.38507953   
    900000   0.18                 631  -0              2.7785928e+15  1.3532808e-06  0.38233617   
    910000   0.182                631  -0              2.7062471e+15  1.3532808e-06  0.37974812   
    920000   0.184                631  -0              2.6408961e+15  1.3532808e-06  0.37730661   
    930000   0.186                631  -0              2.5604385e+15  1.3532808e-06  0.37500334   
    940000   0.188                631  -0              2.5077202e+15  1.3532808e-06  0.37283047   
    950000   0.19                 631  -0              2.4719837e+15  1.3532808e-06  0.37078062   
WARNING: Fewer insertions than requested (src/GRANULAR/fix_pour.cpp:691)
    960000   0.192                862  -0              3.2546539e+15  1.8486974e-06  0.62150463   
    970000   0.194                862  -0              3.1991071e+15  1.8486974e-06  0.60537524   
    980000   0.196                862  -0              3.1449881e+15  1.8486974e-06  0.59015908   
    990000   0.198                862  -0              3.0985879e+15  1.8486974e-06  0.57580443   
   1000000   0.2                  862  -0              3.0400295e+15  1.8486974e-06  0.56226251   
   1010000   0.202                862  -0              2.9857059e+15  1.8486974e-06  0.54666537   
   1020000   0.204                862  -0              2.9057765e+15  1.8486974e-06  0.53477327   
   1030000   0.206                862  -0              2.825411e+15   1.8486974e-06  0.52355448   
   1040000   0.208                862  -0              2.7061523e+15  1.8486974e-06  0.51297087   
   1050000   0.21                 862  -0              2.5903299e+15  1.8486974e-06  0.49932108   
   1060000   0.212                862  -0              2.5111016e+15  1.8486974e-06  0.49010954   
   1070000   0.214                862  -0              2.459332e+15   1.8486974e-06  0.47924231   
   1080000   0.216                862  -0              2.414013e+15   1.8486974e-06  0.4711676    
   1090000   0.218                862  -0              2.3757922e+15  1.8486974e-06  0.46355006   
   1100000   0.22                 862  -0              2.3238398e+15  1.8486974e-06  0.45636381   
   1110000   0.222                862  -0              2.2793302e+15  1.8486974e-06  0.44958444   
   1120000   0.224                862  -0              2.249581e+15   1.8486974e-06  0.4431889    
   1130000   0.226                862  -0              2.2105516e+15  1.8486974e-06  0.43715548   
   1140000   0.228                862  -0              2.170071e+15   1.8486974e-06  0.42691128   
   1150000   0.23                 862  -0              2.1222065e+15  1.8486974e-06  0.42179252   
   1160000   0.232                862  -0              2.0451484e+15  1.8486974e-06  0.40765769   
   1170000   0.234                862  -0              1.9902044e+15  1.8486974e-06  0.40363598   
   1180000   0.236                862  -0              1.9616405e+15  1.8486974e-06  0.39984197   
   1190000   0.238                862  -0              1.9268777e+15  1.8486974e-06  0.39626278   
   1200000   0.24                 862  -0              1.8915164e+15  1.8486974e-06  0.39288624   
   1210000   0.242                862  -0              1.8727997e+15  1.8486974e-06  0.38970086   
   1220000   0.244                862  -0              1.8476893e+15  1.8486974e-06  0.38669584   
   1230000   0.246                862  -0              1.841116e+15   1.8486974e-06  0.38386096   
   1240000   0.248                862  -0              1.8176951e+15  1.8486974e-06  0.38118659   
   1250000   0.25                 862  -0              1.8005807e+15  1.8486974e-06  0.37575902   
   1260000   0.252                862  -0              1.765804e+15   1.8486974e-06  0.37157334   
   1270000   0.254                862  -0              1.7143215e+15  1.8486974e-06  0.36959436   
WARNING: Fewer insertions than requested (src/GRANULAR/fix_pour.cpp:691)
   1280000   0.256               1100  -0              2.5260499e+15  2.3591266e-06  0.62006991   
   1290000   0.258               1100  -0              2.4424139e+15  2.3591266e-06  0.60402175   
   1300000   0.26                1100  -0              2.3789696e+15  2.3591266e-06  0.58768455   
   1310000   0.262               1100  -0              2.3163232e+15  2.3591266e-06  0.57347001   
   1320000   0.264               1100  -0              2.2618547e+15  2.3591266e-06  0.56006027   
   1330000   0.266               1100  -0              2.1832346e+15  2.3591266e-06  0.54740976   
   1340000   0.268               1100  -0              2.149113e+15   2.3591266e-06  0.53547551   
   1350000   0.27                1100  -0              2.0744366e+15  2.3591266e-06  0.52254825   
   1360000   0.272               1100  -0              2.0464594e+15  2.3591266e-06  0.51201525   
   1370000   0.274               1100  -0              2.0051027e+15  2.3591266e-06  0.50013097   
   1380000   0.276               1100  -0              1.9832477e+15  2.3591266e-06  0.49087165   
   1390000   0.278               1100  -0              1.9537016e+15  2.3591266e-06  0.46448625   
   1400000   0.28                1100  -0              1.9088356e+15  2.3591266e-06  0.4572232    
   1410000   0.282               1100  -0              1.8703666e+15  2.3591266e-06  0.43963323   
   1420000   0.284               1100  -0              1.8219851e+15  2.3591266e-06  0.43380112   
   1430000   0.286               1100  -0              1.77166e+15    2.3591266e-06  0.41968855   
   1440000   0.288               1100  -0              1.7212729e+15  2.3591266e-06  0.4149709    
   1450000   0.29                1100  -0              1.6710532e+15  2.3591266e-06  0.41052169   
   1460000   0.292               1100  -0              1.6336922e+15  2.3591266e-06  0.40632561   
   1470000   0.294               1100  -0              1.6180538e+15  2.3591266e-06  0.40236823   
   1480000   0.296               1100  -0              1.6066225e+15  2.3591266e-06  0.39863595   
   1490000   0.298               1100  -0              1.590639e+15   2.3591266e-06  0.39511592   
   1500000   0.3                 1100  -0              1.5711625e+15  2.3591266e-06  0.39179605   
   1510000   0.302               1100  -0              1.552975e+15   2.3591266e-06  0.38866493   
   1520000   0.304               1100  -0              1.5116757e+15  2.3591266e-06  0.38571181   
   1530000   0.306               1100  -0              1.4736036e+15  2.3591266e-06  0.38292655   
   1540000   0.308               1100  -0              1.4292407e+15  2.3591266e-06  0.37555248   
   1550000   0.31                1100  -0              1.3887364e+15  2.3591266e-06  0.37234672   
   1560000   0.312               1100  -0              1.3313276e+15  2.3591266e-06  0.3703216    
   1570000   0.314               1100  -0              1.2922888e+15  2.3591266e-06  0.36841142   
   1580000   0.316               1100  -0              1.2384447e+15  2.3591266e-06  0.36258854   
   1590000   0.318               1100  -0              1.1919719e+15  2.3591266e-06  0.36111472   
WARNING: Fewer insertions than requested (src/GRANULAR/fix_pour.cpp:691)
   1600000   0.32                1280  -0              1.6404939e+15  2.7451655e-06  0.61368099   
   1610000   0.322               1280  -0              1.5777915e+15  2.7451655e-06  0.59625527   
   1620000   0.324               1280  -0              1.504482e+15   2.7451655e-06  0.58155546   
   1630000   0.326               1280  -0              1.4478534e+15  2.7451655e-06  0.54996957   
   1640000   0.328               1280  -0              1.3938362e+15  2.7451655e-06  0.53789038   
   1650000   0.33                1280  -0              1.3508984e+15  2.7451655e-06  0.5264951    
   1660000   0.332               1280  -0              1.3088878e+15  2.7451655e-06  0.50736911   
   1670000   0.334               1280  -0              1.2699418e+15  2.7451655e-06  0.48630594   
   1680000   0.336               1280  -0              1.2336314e+15  2.7451655e-06  0.4778313    
   1690000   0.338               1280  -0              1.196324e+15   2.7451655e-06  0.46983647   
   1700000   0.34                1280  -0              1.1514347e+15  2.7451655e-06  0.4622943    
   1710000   0.342               1280  -0              1.1223116e+15  2.7451655e-06  0.44675968   
   1720000   0.344               1280  -0              1.1030405e+15  2.7451655e-06  0.44052408   
   1730000   0.346               1280  -0              1.0868154e+15  2.7451655e-06  0.43464152   
   1740000   0.348               1280  -0              1.0770505e+15  2.7451655e-06  0.42909203   
   1750000   0.35                1280  -0              1.0725607e+15  2.7451655e-06  0.42385675   
   1760000   0.352               1280  -0              1.0605181e+15  2.7451655e-06  0.41891788   
   1770000   0.354               1280  -0              1.044432e+15   2.7451655e-06  0.41425863   
   1780000   0.356               1280  -0              1.0287836e+15  2.7451655e-06  0.40986319   
   1790000   0.358               1280  -0              1.0134975e+15  2.7451655e-06  0.40571661   
   1800000   0.36                1280  -0              9.872569e+14   2.7451655e-06  0.40180481   
   1810000   0.362               1280  -0              9.7141033e+14  2.7451655e-06  0.39811448   
   1820000   0.364               1280  -0              9.4371108e+14  2.7451655e-06  0.38671076   
   1830000   0.366               1280  -0              9.0399849e+14  2.7451655e-06  0.38009421   
   1840000   0.368               1280  -0              8.6121813e+14  2.7451655e-06  0.37763098   
   1850000   0.37                1280  -0              8.4427954e+14  2.7451655e-06  0.37530741   
   1860000   0.372               1280  -0              8.0841511e+14  2.7451655e-06  0.36432714   
   1870000   0.374               1280  -0              7.7705343e+14  2.7451655e-06  0.36275874   
   1880000   0.376               1280  -0              7.3837069e+14  2.7451655e-06  0.36127914   
   1890000   0.378               1280  -0              7.1436013e+14  2.7451655e-06  0.35988332   
   1900000   0.38                1280  -0              6.9361723e+14  2.7451655e-06  0.35856652   
   1910000   0.382               1280  -0              6.4854913e+14  2.7451655e-06  0.35732428   
WARNING: Fewer insertions than requested (src/GRANULAR/fix_pour.cpp:691)
   1920000   0.384               1468  -0              1.2071029e+15  3.1483617e-06  0.61862144   
   1930000   0.386               1468  -0              1.1574712e+15  3.1483617e-06  0.6026553    
   1940000   0.388               1468  -0              1.1107787e+15  3.1483617e-06  0.58759313   
   1950000   0.39                1468  -0              1.0818565e+15  3.1483617e-06  0.57338376   
   1960000   0.392               1468  -0              1.0555712e+15  3.1483617e-06  0.5599789    
   1970000   0.394               1468  -0              1.0187166e+15  3.1483617e-06  0.547333     
   1980000   0.396               1468  -0              9.7585986e+14  3.1483617e-06  0.5354031    
   1990000   0.398               1468  -0              9.5859643e+14  3.1483617e-06  0.52414865   
   2000000   0.4                 1468  -0              9.4026023e+14  3.1483617e-06  0.5135314    
   2010000   0.402               1468  -0              9.3193756e+14  3.1483617e-06  0.50351529   
   2020000   0.404               1468  -0              9.2491807e+14  3.1483617e-06  0.49406628   
   2030000   0.406               1468  -0              9.0759512e+14  3.1483617e-06  0.48515225   
   2040000   0.408               1468  -0              8.8950408e+14  3.1483617e-06  0.46805304   
   2050000   0.41                1468  -0              8.7910976e+14  3.1483617e-06  0.46061185   
   2060000   0.412               1468  -0              8.5913954e+14  3.1483617e-06  0.45359196   
   2070000   0.414               1468  -0              8.3908672e+14  3.1483617e-06  0.42194529   
   2080000   0.416               1468  -0              7.9608712e+14  3.1483617e-06  0.41711464   
   2090000   0.418               1468  -0              7.6707362e+14  3.1483617e-06  0.41255749   
   2100000   0.42                1468  -0              7.3785697e+14  3.1483617e-06  0.40825837   
   2110000   0.422               1468  -0              7.2217094e+14  3.1483617e-06  0.40420265   
   2120000   0.424               1468  -0              7.1096151e+14  3.1483617e-06  0.40037656   
   2130000   0.426               1468  -0              6.7230058e+14  3.1483617e-06  0.37553635   
   2140000   0.428               1468  -0              6.3679425e+14  3.1483617e-06  0.37332418   
   2150000   0.43                1468  -0              6.1680566e+14  3.1483617e-06  0.37123817   
   2160000   0.432               1468  -0              5.961052e+14   3.1483617e-06  0.36927109   
   2170000   0.434               1468  -0              5.6819697e+14  3.1483617e-06  0.36046417   
   2180000   0.436               1468  -0              5.1889574e+14  3.1483617e-06  0.35250712   
   2190000   0.438               1468  -0              4.7981456e+14  3.1483617e-06  0.35160795   
   2200000   0.44                1468  -0              4.6532434e+14  3.1483617e-06  0.3507597    
   2210000   0.442               1468  -0              4.3616209e+14  3.1483617e-06  0.34995946   
   2220000   0.444               1468  -0              4.1092432e+14  3.1483617e-06  0.34763918   
   2230000   0.446               1468  -0              3.9063762e+14  3.1483617e-06  0.34633606   
WARNING: Fewer insertions than requested (src/GRANULAR/fix_pour.cpp:691)
   2240000   0.448               1699  -0              1.103682e+15   3.6437783e-06  0.61665702   
   2250000   0.45                1699  -0              1.0611912e+15  3.6437783e-06  0.60073629   
   2260000   0.452               1699  -0              1.0305859e+15  3.6437783e-06  0.58163343   
   2270000   0.454               1699  -0              1.0046449e+15  3.6437783e-06  0.56507352   
   2280000   0.456               1699  -0              9.869035e+14   3.6437783e-06  0.55213917   
   2290000   0.458               1699  -0              9.7126079e+14  3.6437783e-06  0.53993715   
   2300000   0.46                1699  -0              9.5760105e+14  3.6437783e-06  0.52842599   
   2310000   0.462               1699  -0              9.4689916e+14  3.6437783e-06  0.51756657   
   2320000   0.464               1699  -0              9.2885443e+14  3.6437783e-06  0.50732199   
   2330000   0.466               1699  -0              9.0338009e+14  3.6437783e-06  0.49765745   
   2340000   0.468               1699  -0              8.8530156e+14  3.6437783e-06  0.48854009   
   2350000   0.47                1699  -0              8.4279903e+14  3.6437783e-06  0.45008991   
   2360000   0.472               1699  -0              8.0172325e+14  3.6437783e-06  0.44073446   
   2370000   0.474               1699  -0              7.6065231e+14  3.6437783e-06  0.42234404   
   2380000   0.476               1699  -0              7.1297823e+14  3.6437783e-06  0.40688849   
   2390000   0.478               1699  -0              6.7177657e+14  3.6437783e-06  0.4005493    
   2400000   0.48                1699  -0              6.2600777e+14  3.6437783e-06  0.3969266    
   2410000   0.482               1699  -0              5.8264004e+14  3.6437783e-06  0.37476325   
   2420000   0.484               1699  -0              5.5373592e+14  3.6437783e-06  0.37260398   
   2430000   0.486               1699  -0              5.2305143e+14  3.6437783e-06  0.37056696   
   2440000   0.488               1699  -0              4.9001023e+14  3.6437783e-06  0.36864527   
   2450000   0.49                1699  -0              4.6786883e+14  3.6437783e-06  0.36683238   
   2460000   0.492               1699  -0              4.2745751e+14  3.6437783e-06  0.36512214   
   2470000   0.494               1699  -0              3.935079e+14   3.6437783e-06  0.35802921   
   2480000   0.496               1699  -0              3.741189e+14   3.6437783e-06  0.35681739   
   2490000   0.498               1699  -0              3.5799868e+14  3.6437783e-06  0.35567418   
   2500000   0.5                 1699  -0              3.4364214e+14  3.6437783e-06  0.35050298   
   2510000   0.502               1699  -0              3.2489873e+14  3.6437783e-06  0.34718114   
   2520000   0.504               1699  -0              3.1469254e+14  3.6437783e-06  0.34186321   
   2530000   0.506               1699  -0              3.0963117e+14  3.6437783e-06  0.34113608   
   2540000   0.508               1699  -0              2.9802191e+14  3.6437783e-06  0.33878786   
   2550000   0.51                1699  -0              2.9215115e+14  3.6437783e-06  0.33728769   
   2560000   0.512               1850  -0              6.4421397e+14  3.9676221e-06  0.59669194   
   2570000   0.514               1850  -0              6.2966526e+14  3.9676221e-06  0.58196741   
   2580000   0.516               1850  -0              6.128785e+14   3.9676221e-06  0.56807655   
   2590000   0.518               1850  -0              6.0051062e+14  3.9676221e-06  0.55497218   
   2600000   0.52                1850  -0              5.8890921e+14  3.9676221e-06  0.53754619   
   2610000   0.522               1850  -0              5.7721143e+14  3.9676221e-06  0.5261704    
   2620000   0.524               1850  -0              5.6457296e+14  3.9676221e-06  0.51543869   
   2630000   0.526               1850  -0              5.5087356e+14  3.9676221e-06  0.45652586   
   2640000   0.528               1850  -0              5.3407392e+14  3.9676221e-06  0.44973732   
   2650000   0.53                1850  -0              5.0407571e+14  3.9676221e-06  0.44333313   
   2660000   0.532               1850  -0              4.7650116e+14  3.9676221e-06  0.41469752   
   2670000   0.534               1850  -0              4.4815828e+14  3.9676221e-06  0.40883372   
   2680000   0.536               1850  -0              4.137575e+14   3.9676221e-06  0.40474543   
   2690000   0.538               1850  -0              3.8436569e+14  3.9676221e-06  0.40088861   
   2700000   0.54                1850  -0              3.6012415e+14  3.9676221e-06  0.39725015   
   2710000   0.542               1850  -0              3.3240235e+14  3.9676221e-06  0.37965323   
   2720000   0.544               1850  -0              3.1049108e+14  3.9676221e-06  0.37721709   
   2730000   0.546               1850  -0              2.8402117e+14  3.9676221e-06  0.36569424   
   2740000   0.548               1850  -0              2.6238978e+14  3.9676221e-06  0.36404843   
   2750000   0.55                1850  -0              2.5000313e+14  3.9676221e-06  0.3618208    
   2760000   0.552               1850  -0              2.3181467e+14  3.9676221e-06  0.35739612   
   2770000   0.554               1850  -0              2.2009232e+14  3.9676221e-06  0.35067835   
   2780000   0.556               1850  -0              2.1470789e+14  3.9676221e-06  0.3462039    
   2790000   0.558               1850  -0              2.0593108e+14  3.9676221e-06  0.34539699   
   2800000   0.56                1850  -0              1.9661369e+14  3.9676221e-06  0.34021079   
   2810000   0.562               1850  -0              1.8740619e+14  3.9676221e-06  0.33644522   
   2820000   0.564               1850  -0              1.8016243e+14  3.9676221e-06  0.33416437   
   2830000   0.566               1850  -0              1.7810213e+14  3.9676221e-06  0.33430374   
   2840000   0.568               1850  -0              1.7090695e+14  3.9676221e-06  0.32838281   
   2850000   0.57                1850  -0              1.6615781e+14  3.9676221e-06  0.32884953   
   2860000   0.572               1850  -0              1.6295555e+14  3.9676221e-06  0.32928981   
   2870000   0.574               1850  -0              1.5485007e+14  3.9676221e-06  0.32970517   
   2880000   0.576               1850  -0              1.4872941e+14  3.9676221e-06  0.32416009   
   2890000   0.578               1850  -0              1.3621033e+14  3.9676221e-06  0.32399526   
   2900000   0.58                1850  -0              1.2933867e+14  3.9676221e-06  0.32471039   
   2910000   0.582               1850  -0              1.2475565e+14  3.9676221e-06  0.32073224   
   2920000   0.584               1850  -0              1.2165024e+14  3.9676221e-06  0.32163212   
   2930000   0.586               1850  -0              1.1258302e+14  3.9676221e-06  0.32176563   
   2940000   0.588               1850  -0              1.0586249e+14  3.9676221e-06  0.32103402   
   2950000   0.59                1850  -0              9.6188561e+13  3.9676221e-06  0.32191681   
   2960000   0.592               1850  -0              9.0854638e+13  3.9676221e-06  0.31929138   
   2970000   0.594               1850  -0              7.6955119e+13  3.9676221e-06  0.31808524   
   2980000   0.596               1850  -0              6.6711854e+13  3.9676221e-06  0.31908636   
   2990000   0.598               1850  -0              5.8966633e+13  3.9676221e-06  0.32007942   
   3000000   0.6                 1850  -0              4.6636805e+13  3.9676221e-06  0.31806762   
Loop time of 340.814 on 1 procs for 3000000 steps with 1850 atoms

100.0% CPU use with 1 MPI tasks x 1 OpenMP threads

MPI task timing breakdown:
Section |  min time  |  avg time  |  max time  |%varavg| %total
---------------------------------------------------------------
Pair    | 243.12     | 243.12     | 243.12     |   0.0 | 71.34
Neigh   | 0.5694     | 0.5694     | 0.5694     |   0.0 |  0.17
Comm    | 0.063688   | 0.063688   | 0.063688   |   0.0 |  0.02
Output  | 0.13567    | 0.13567    | 0.13567    |   0.0 |  0.04
Modify  | 92.801     | 92.801     | 92.801     |   0.0 | 27.23
Other   |            | 4.122      |            |       |  1.21

Nlocal:           1850 ave        1850 max        1850 min
Histogram: 1 0 0 0 0 0 0 0 0 0
Nghost:              0 ave           0 max           0 min
Histogram: 1 0 0 0 0 0 0 0 0 0
Neighs:           6872 ave        6872 max        6872 min
Histogram: 1 0 0 0 0 0 0 0 0 0

Total # of neighbors = 6872
Ave neighs/atom = 3.7145946
Neighbor list builds = 2123
Dangerous builds = 0
Generated 0 of 0 mixed pair_coeff terms from geometric mixing rule
Setting up Verlet run ...
  Unit style    : si
  Current step  : 0
  Time step     : 2e-07
Per MPI rank memory allocation (min/avg/max) = 14.72 | 14.72 | 14.72 Mbytes
   Step          Time         Atoms        KinEng     c_granularTemp c_solidVolume    c_maxSpeed  
         0   0                   1850   3.3117989e-06  4.5971895e+13  3.9676221e-06  0.31407821   
     10000   0.002               1850   1.665441e-06   2.4460521e+13  3.9676221e-06  0.25181308   
     20000   0.004               1850   9.556987e-07   1.4631289e+13  3.9676221e-06  0.20383145   
     30000   0.006               1850   5.5101086e-07  8.7952326e+12  3.9676221e-06  0.16932232   
     40000   0.008               1850   3.8706941e-07  6.3361163e+12  3.9676221e-06  0.14353719   
     50000   0.01                1850   2.9181858e-07  4.8143511e+12  3.9676221e-06  0.12427061   
     60000   0.012               1850   2.0585439e-07  3.4419675e+12  3.9676221e-06  0.10987466   
     70000   0.014               1850   1.5153859e-07  2.6833861e+12  3.9676221e-06  0.098957116  
     80000   0.016               1850   9.4776986e-08  1.8044891e+12  3.9676221e-06  0.090706218  
     90000   0.018               1850   7.6826355e-08  1.4818213e+12  3.9676221e-06  0.084795435  
    100000   0.02                1850   6.4279852e-08  1.2666827e+12  3.9676221e-06  0.080378913  
    110000   0.022               1850   5.4488812e-08  1.1038436e+12  3.9676221e-06  0.077078898  
    120000   0.024               1850   4.0754398e-08  8.7927899e+11  3.9676221e-06  0.067538817  
    130000   0.026               1850   3.0341987e-08  7.1436796e+11  3.9676221e-06  0.060509704  
    140000   0.028               1850   3.023932e-08   6.8172511e+11  3.9676221e-06  0.06209148   
    150000   0.03                1850   2.9125387e-08  6.345134e+11   3.9676221e-06  0.063393073  
    160000   0.032               1850   2.8255488e-08  6.1038732e+11  3.9676221e-06  0.064252841  
    170000   0.034               1850   2.8216398e-08  6.2645717e+11  3.9676221e-06  0.062931128  
    180000   0.036               1850   2.1344479e-08  4.900377e+11   3.9676221e-06  0.054800703  
    190000   0.038               1850   1.9740952e-08  4.4180258e+11  3.9676221e-06  0.055132758  
    200000   0.04                1850   1.9757971e-08  4.377754e+11   3.9676221e-06  0.055378543  
    210000   0.042               1850   1.9482041e-08  4.0486621e+11  3.9676221e-06  0.052585932  
    220000   0.044               1850   2.1527392e-08  4.4321358e+11  3.9676221e-06  0.054280731  
    230000   0.046               1850   1.7769598e-08  3.950072e+11   3.9676221e-06  0.053082741  
    240000   0.048               1850   1.4790004e-08  3.3939687e+11  3.9676221e-06  0.054991082  
    250000   0.05                1850   1.1514897e-08  2.7560986e+11  3.9676221e-06  0.040374484  
    260000   0.052               1850   1.2793145e-08  3.1035288e+11  3.9676221e-06  0.042866815  
    270000   0.054               1850   1.1057323e-08  2.8891381e+11  3.9676221e-06  0.045311733  
    280000   0.056               1850   1.0998723e-08  2.8382697e+11  3.9676221e-06  0.037152294  
    290000   0.058               1850   8.9165603e-09  2.2042276e+11  3.9676221e-06  0.035598084  
    300000   0.06                1850   7.1918209e-09  1.8932285e+11  3.9676221e-06  0.034741114  
    310000   0.062               1850   7.6004126e-09  2.0093596e+11  3.9676221e-06  0.03708867   
    320000   0.064               1850   7.4444784e-09  1.8227655e+11  3.9676221e-06  0.039985809  
    330000   0.066               1850   6.0266049e-09  1.548948e+11   3.9676221e-06  0.027718396  
    340000   0.068               1850   5.9771537e-09  1.5852906e+11  3.9676221e-06  0.029383557  
    350000   0.07                1850   4.7417413e-09  1.3585526e+11  3.9676221e-06  0.031265496  
    360000   0.072               1850   5.2015334e-09  1.458927e+11   3.9676221e-06  0.033508447  
    370000   0.074               1850   4.024624e-09   1.3458991e+11  3.9676221e-06  0.020369271  
    380000   0.076               1850   3.7443048e-09  1.3162061e+11  3.9676221e-06  0.022169577  
    390000   0.078               1850   4.0582031e-09  1.4044367e+11  3.9676221e-06  0.024561828  
    400000   0.08                1850   4.6486532e-09  1.581526e+11   3.9676221e-06  0.027814911  
    410000   0.082               1850   5.3009882e-09  1.7761318e+11  3.9676221e-06  0.031013977  
    420000   0.084               1850   6.0095936e-09  1.990383e+11   3.9676221e-06  0.034810567  
    430000   0.086               1850   7.0267849e-09  2.2582135e+11  3.9676221e-06  0.038613097  
    440000   0.088               1850   8.0792351e-09  2.4241546e+11  3.9676221e-06  0.043234461  
    450000   0.09                1850   7.6673165e-09  2.0743775e+11  3.9676221e-06  0.046156226  
    460000   0.092               1850   8.097724e-09   2.0593075e+11  3.9676221e-06  0.048375649  
    470000   0.094               1850   8.9046687e-09  2.2009268e+11  3.9676221e-06  0.050194178  
    480000   0.096               1850   7.737256e-09   2.0854824e+11  3.9676221e-06  0.049940536  
    490000   0.098               1850   7.9312569e-09  2.1586105e+11  3.9676221e-06  0.050923354  
    500000   0.1                 1850   7.2414528e-09  1.9879571e+11  3.9676221e-06  0.052428275  
    510000   0.102               1850   5.4336481e-09  1.325243e+11   3.9676221e-06  0.038590573  
    520000   0.104               1850   3.7785753e-09  9.0098276e+10  3.9676221e-06  0.029640147  
    530000   0.106               1850   3.6555945e-09  8.971459e+10   3.9676221e-06  0.031181937  
    540000   0.108               1850   4.3684826e-09  1.0450294e+11  3.9676221e-06  0.033325891  
    550000   0.11                1850   4.6966408e-09  1.1650613e+11  3.9676221e-06  0.035793032  
    560000   0.112               1850   3.2984602e-09  9.7460836e+10  3.9676221e-06  0.029137758  
    570000   0.114               1850   3.6825216e-09  1.1176577e+11  3.9676221e-06  0.031858316  
    580000   0.116               1850   2.6372692e-09  8.4134532e+10  3.9676221e-06  0.022531422  
    590000   0.118               1850   2.8837162e-09  9.1110388e+10  3.9676221e-06  0.024287434  
    600000   0.12                1850   2.4935486e-09  8.2656032e+10  3.9676221e-06  0.026221246  
    610000   0.122               1850   2.7083628e-09  8.4757107e+10  3.9676221e-06  0.028187317  
    620000   0.124               1850   3.251285e-09   9.8040844e+10  3.9676221e-06  0.03024608   
    630000   0.126               1850   3.982929e-09   1.1802773e+11  3.9676221e-06  0.032436909  
    640000   0.128               1850   4.3545139e-09  1.232675e+11   3.9676221e-06  0.034837809  
    650000   0.13                1850   4.9242444e-09  1.3554545e+11  3.9676221e-06  0.037549963  
    660000   0.132               1850   2.9806838e-09  8.0544276e+10  3.9676221e-06  0.040826377  
    670000   0.134               1850   2.1441949e-09  4.2559443e+10  3.9676221e-06  0.034618705  
    680000   0.136               1850   1.1929527e-09  2.7712826e+10  3.9676221e-06  0.025223471  
    690000   0.138               1850   1.301642e-09   2.6864646e+10  3.9676221e-06  0.026200626  
    700000   0.14                1850   1.3493529e-09  2.6452439e+10  3.9676221e-06  0.027037006  
    710000   0.142               1850   1.2916371e-09  2.4882332e+10  3.9676221e-06  0.027425742  
    720000   0.144               1850   1.3738574e-09  2.6311109e+10  3.9676221e-06  0.028213971  
    730000   0.146               1850   1.4692675e-09  2.8281135e+10  3.9676221e-06  0.029160767  
    740000   0.148               1850   3.6368911e-10  7.0958127e+09  3.9676221e-06  0.014307814  
    750000   0.15                1850   3.4683905e-10  6.7587121e+09  3.9676221e-06  0.014192275  
    760000   0.152               1850   1.4293664e-11  3.7367489e+08  3.9676221e-06  0.0026750741 
    770000   0.154               1850   5.6284193e-12  1.3251116e+08  3.9676221e-06  0.0017178212 
    780000   0.156               1850   1.6051089e-11  4.6547739e+08  3.9676221e-06  0.0029535972 
    790000   0.158               1850   4.8450998e-11  1.2892933e+09  3.9676221e-06  0.0052780451 
    800000   0.16                1850   9.2922785e-11  2.4440896e+09  3.9676221e-06  0.0073528547 
    810000   0.162               1850   3.5991846e-11  6.8929104e+08  3.9676221e-06  0.0044281276 
    820000   0.164               1850   1.8378227e-12  52380640       3.9676221e-06  0.00078099792
    830000   0.166               1850   6.9278992e-12  1.5412689e+08  3.9676221e-06  0.0019877008 
    840000   0.168               1850   3.1494087e-11  6.6177094e+08  3.9676221e-06  0.0042806858 
    850000   0.17                1850   1.4243023e-12  50554437       3.9676221e-06  0.00064270353
    860000   0.172               1850   9.1754896e-12  2.5328015e+08  3.9676221e-06  0.0023025958 
    870000   0.174               1850   1.0865122e-12  34093145       3.9676221e-06  0.00070998911
    880000   0.176               1850   1.1753575e-12  40960089       3.9676221e-06  0.00076789529
    890000   0.178               1850   1.1722736e-13  13743920       3.9676221e-06  9.5908804e-05
    900000   0.18                1850   5.1103293e-14  11888148       3.9676221e-06  4.7275631e-05
    910000   0.182               1850   1.5201186e-14  11034635       3.9676221e-06  3.4992336e-05
    920000   0.184               1850   6.205489e-15   10826348       3.9676221e-06  1.9998719e-05
    930000   0.186               1850   2.8075442e-15  10701598       3.9676221e-06  1.0779824e-05
    940000   0.188               1850   9.4150708e-16  10638250       3.9676221e-06  6.9474463e-06
    950000   0.19                1850   5.5203688e-16  10631196       3.9676221e-06  7.0726467e-06
    960000   0.192               1850   2.5980568e-16  10624020       3.9676221e-06  3.4943319e-06
    970000   0.194               1850   1.4984262e-16  10619137       3.9676221e-06  2.4501642e-06
    980000   0.196               1850   7.1613269e-17  10616801       3.9676221e-06  1.921117e-06 
    990000   0.198               1850   3.1983275e-17  10615989       3.9676221e-06  1.2464459e-06
   1000000   0.2                 1850   1.543199e-17   10615477       3.9676221e-06  9.5984419e-07
   1010000   0.202               1850   6.5915419e-18  10615212       3.9676221e-06  4.1347096e-07
   1020000   0.204               1850   3.98429e-18    10615156       3.9676221e-06  3.9947676e-07
   1030000   0.206               1850   1.393298e-18   10615078       3.9676221e-06  2.8050011e-07
   1040000   0.208               1850   6.0112949e-19  10615056       3.9676221e-06  1.6244291e-07
   1050000   0.21                1850   4.764401e-19   10615053       3.9676221e-06  1.2600201e-07
   1060000   0.212               1850   1.4098134e-19  10615041       3.9676221e-06  7.2633969e-08
   1070000   0.214               1850   1.4559956e-19  10615041       3.9676221e-06  7.4573621e-08
   1080000   0.216               1850   4.5956327e-20  10615039       3.9676221e-06  4.1497202e-08
   1090000   0.218               1850   1.8632687e-20  10615038       3.9676221e-06  3.4815664e-08
   1100000   0.22                1850   1.6888133e-20  10615038       3.9676221e-06  2.1551538e-08
   1110000   0.222               1850   6.9519066e-21  10615038       3.9676221e-06  1.4833575e-08
   1120000   0.224               1850   2.5264832e-21  10615038       3.9676221e-06  1.5461259e-08
   1130000   0.226               1850   1.9413263e-21  10615038       3.9676221e-06  1.3122775e-08
   1140000   0.228               1850   8.1342424e-22  10615038       3.9676221e-06  1.0419831e-08
   1150000   0.23                1850   5.052728e-22   10615038       3.9676221e-06  1.0911748e-08
   1160000   0.232               1850   1.3987789e-22  10615038       3.9676221e-06  2.2209868e-09
   1170000   0.234               1850   1.7566545e-22  10615038       3.9676221e-06  5.7950713e-09
   1180000   0.236               1850   3.9909917e-23  10615038       3.9676221e-06  1.3583394e-09
   1190000   0.238               1850   2.5031391e-23  10615038       3.9676221e-06  2.020422e-09 
   1200000   0.24                1850   2.4013603e-23  10615038       3.9676221e-06  9.7904637e-10
   1210000   0.242               1850   4.6991121e-24  10615038       3.9676221e-06  5.4067512e-10
   1220000   0.244               1850   3.9855115e-24  10615038       3.9676221e-06  4.4846779e-10
   1230000   0.246               1850   2.2699456e-24  10615038       3.9676221e-06  3.0052119e-10
   1240000   0.248               1850   6.0635359e-25  10615038       3.9676221e-06  1.7699675e-10
   1250000   0.25                1850   4.049283e-25   10615038       3.9676221e-06  1.3145962e-10
   1260000   0.252               1850   2.5802088e-25  10615038       3.9676221e-06  1.6364952e-10
   1270000   0.254               1850   8.6137867e-26  10615038       3.9676221e-06  4.744721e-11 
   1280000   0.256               1850   6.041816e-26   10615038       3.9676221e-06  4.4467714e-11
   1290000   0.258               1850   3.253803e-26   10615038       3.9676221e-06  3.1828605e-11
   1300000   0.26                1850   1.8298772e-26  10615038       3.9676221e-06  1.7507098e-11
   1310000   0.262               1850   1.6283613e-26  10615038       3.9676221e-06  1.7466723e-11
   1320000   0.264               1850   1.2792661e-26  10615038       3.9676221e-06  1.9509099e-11
   1330000   0.266               1850   1.2264776e-26  10615038       3.9676221e-06  1.7614502e-11
   1340000   0.268               1850   1.2946641e-26  10615038       3.9676221e-06  1.5497898e-11
   1350000   0.27                1850   1.4810878e-26  10615038       3.9676221e-06  1.7992612e-11
   1360000   0.272               1850   1.5951071e-26  10615038       3.9676221e-06  1.7966466e-11
   1370000   0.274               1850   1.6953776e-26  10615038       3.9676221e-06  1.7688536e-11
   1380000   0.276               1850   1.9841753e-26  10615038       3.9676221e-06  1.8171417e-11
   1390000   0.278               1850   2.146556e-26   10615038       3.9676221e-06  1.7848557e-11
   1400000   0.28                1850   2.2194079e-26  10615038       3.9676221e-06  1.8765848e-11
   1410000   0.282               1850   2.1793586e-26  10615038       3.9676221e-06  1.8429095e-11
   1420000   0.284               1850   2.3099208e-26  10615038       3.9676221e-06  1.8557171e-11
   1430000   0.286               1850   2.3399722e-26  10615038       3.9676221e-06  1.852724e-11 
   1440000   0.288               1850   2.5699011e-26  10615038       3.9676221e-06  1.8519566e-11
   1450000   0.29                1850   2.4101448e-26  10615038       3.9676221e-06  1.7004597e-11
   1460000   0.292               1850   2.2117904e-26  10615038       3.9676221e-06  1.3055704e-11
   1470000   0.294               1850   2.4047352e-26  10615038       3.9676221e-06  1.9504916e-11
   1480000   0.296               1850   2.348239e-26   10615038       3.9676221e-06  1.9470644e-11
   1490000   0.298               1850   2.4245401e-26  10615038       3.9676221e-06  1.8611665e-11
   1500000   0.3                 1850   2.4608795e-26  10615038       3.9676221e-06  1.8267225e-11
   1510000   0.302               1850   2.2506029e-26  10615038       3.9676221e-06  1.8335616e-11
   1520000   0.304               1850   2.1194511e-26  10615038       3.9676221e-06  1.982298e-11 
   1530000   0.306               1850   2.2080707e-26  10615038       3.9676221e-06  2.0418626e-11
   1540000   0.308               1850   2.225877e-26   10615038       3.9676221e-06  1.7438915e-11
   1550000   0.31                1850   2.0227328e-26  10615038       3.9676221e-06  1.5433219e-11
   1560000   0.312               1850   1.9555049e-26  10615038       3.9676221e-06  1.0376009e-11
   1570000   0.314               1850   1.7872011e-26  10615038       3.9676221e-06  1.0922023e-11
   1580000   0.316               1850   1.730762e-26   10615038       3.9676221e-06  1.0718657e-11
   1590000   0.318               1850   1.9082732e-26  10615038       3.9676221e-06  1.5602672e-11
   1600000   0.32                1850   1.9971839e-26  10615038       3.9676221e-06  1.8673843e-11
   1610000   0.322               1850   1.9259265e-26  10615038       3.9676221e-06  1.8523299e-11
   1620000   0.324               1850   1.8779596e-26  10615038       3.9676221e-06  1.8811659e-11
   1630000   0.326               1850   2.2207512e-26  10615038       3.9676221e-06  1.9365955e-11
   1640000   0.328               1850   2.2354248e-26  10615038       3.9676221e-06  2.1064739e-11
   1650000   0.33                1850   2.0294157e-26  10615038       3.9676221e-06  1.9879424e-11
   1660000   0.332               1850   1.9824035e-26  10615038       3.9676221e-06  1.6667757e-11
   1670000   0.334               1850   1.8756496e-26  10615038       3.9676221e-06  1.7458051e-11
   1680000   0.336               1850   1.7904317e-26  10615038       3.9676221e-06  1.4257758e-11
   1690000   0.338               1850   1.709894e-26   10615038       3.9676221e-06  1.7729591e-11
   1700000   0.34                1850   1.7720456e-26  10615038       3.9676221e-06  1.7624676e-11
   1710000   0.342               1850   1.7774912e-26  10615038       3.9676221e-06  1.8341814e-11
   1720000   0.344               1850   1.8675989e-26  10615038       3.9676221e-06  1.8104108e-11
   1730000   0.346               1850   1.8381815e-26  10615038       3.9676221e-06  1.8281144e-11
   1740000   0.348               1850   1.760243e-26   10615038       3.9676221e-06  1.7802189e-11
   1750000   0.35                1850   1.7953194e-26  10615038       3.9676221e-06  1.8325682e-11
   1760000   0.352               1850   1.8274838e-26  10615038       3.9676221e-06  1.7071056e-11
   1770000   0.354               1850   1.7051775e-26  10615038       3.9676221e-06  9.6381823e-12
   1780000   0.356               1850   1.6553772e-26  10615038       3.9676221e-06  9.1977411e-12
   1790000   0.358               1850   1.7020599e-26  10615038       3.9676221e-06  1.0277924e-11
   1800000   0.36                1850   1.8610956e-26  10615038       3.9676221e-06  1.7450637e-11
   1810000   0.362               1850   1.7536008e-26  10615038       3.9676221e-06  1.7431141e-11
   1820000   0.364               1850   1.8035439e-26  10615038       3.9676221e-06  1.5276172e-11
   1830000   0.366               1850   1.9495822e-26  10615038       3.9676221e-06  1.4637633e-11
   1840000   0.368               1850   1.8423407e-26  10615038       3.9676221e-06  1.4572653e-11
   1850000   0.37                1850   1.7723278e-26  10615038       3.9676221e-06  1.7755381e-11
   1860000   0.372               1850   1.7070003e-26  10615038       3.9676221e-06  1.7172175e-11
   1870000   0.374               1850   1.7329989e-26  10615038       3.9676221e-06  1.8134882e-11
   1880000   0.376               1850   1.8413992e-26  10615038       3.9676221e-06  1.8540027e-11
   1890000   0.378               1850   2.0352512e-26  10615038       3.9676221e-06  1.7666806e-11
   1900000   0.38                1850   2.1612552e-26  10615038       3.9676221e-06  1.7544465e-11
   1910000   0.382               1850   2.3532479e-26  10615038       3.9676221e-06  1.8540785e-11
   1920000   0.384               1850   2.2042489e-26  10615038       3.9676221e-06  1.8480256e-11
   1930000   0.386               1850   2.1074708e-26  10615038       3.9676221e-06  1.764611e-11 
   1940000   0.388               1850   2.0904176e-26  10615038       3.9676221e-06  1.7536199e-11
   1950000   0.39                1850   1.9595937e-26  10615038       3.9676221e-06  1.3635362e-11
   1960000   0.392               1850   1.8062064e-26  10615038       3.9676221e-06  1.0426914e-11
   1970000   0.394               1850   1.8916615e-26  10615038       3.9676221e-06  1.2097248e-11
   1980000   0.396               1850   2.0657043e-26  10615038       3.9676221e-06  1.8114786e-11
   1990000   0.398               1850   2.197147e-26   10615038       3.9676221e-06  1.855566e-11 
   2000000   0.4                 1850   2.194733e-26   10615038       3.9676221e-06  1.8585213e-11
   2010000   0.402               1850   2.2733287e-26  10615038       3.9676221e-06  1.8436698e-11
   2020000   0.404               1850   2.8367142e-26  10615038       3.9676221e-06  1.9516192e-11
   2030000   0.406               1850   2.6379601e-26  10615038       3.9676221e-06  2.0590177e-11
   2040000   0.408               1850   2.3548973e-26  10615038       3.9676221e-06  1.8528196e-11
   2050000   0.41                1850   2.3539597e-26  10615038       3.9676221e-06  2.0090403e-11
   2060000   0.412               1850   2.0640801e-26  10615038       3.9676221e-06  1.6775984e-11
   2070000   0.414               1850   2.0270427e-26  10615038       3.9676221e-06  1.3995593e-11
   2080000   0.416               1850   1.6827459e-26  10615038       3.9676221e-06  1.5190758e-11
   2090000   0.418               1850   1.7601158e-26  10615038       3.9676221e-06  1.3881437e-11
   2100000   0.42                1850   1.796137e-26   10615038       3.9676221e-06  1.2064133e-11
   2110000   0.422               1850   1.9684184e-26  10615038       3.9676221e-06  1.8309618e-11
   2120000   0.424               1850   2.1161698e-26  10615038       3.9676221e-06  2.0085401e-11
   2130000   0.426               1850   1.8823234e-26  10615038       3.9676221e-06  1.8108237e-11
   2140000   0.428               1850   1.8927844e-26  10615038       3.9676221e-06  1.7571183e-11
   2150000   0.43                1850   1.8508279e-26  10615038       3.9676221e-06  1.8833965e-11
   2160000   0.432               1850   2.0908102e-26  10615038       3.9676221e-06  2.0077369e-11
   2170000   0.434               1850   1.6634261e-26  10615038       3.9676221e-06  1.7867981e-11
   2180000   0.436               1850   1.6769964e-26  10615038       3.9676221e-06  1.7457526e-11
   2190000   0.438               1850   1.7358599e-26  10615038       3.9676221e-06  1.8054665e-11
   2200000   0.44                1850   1.8332975e-26  10615038       3.9676221e-06  1.7541895e-11
   2210000   0.442               1850   2.1051851e-26  10615038       3.9676221e-06  1.7829634e-11
   2220000   0.444               1850   2.0357143e-26  10615038       3.9676221e-06  1.8514919e-11
   2230000   0.446               1850   1.9881993e-26  10615038       3.9676221e-06  1.4052838e-11
   2240000   0.448               1850   1.884569e-26   10615038       3.9676221e-06  1.7480966e-11
   2250000   0.45                1850   1.8352126e-26  10615038       3.9676221e-06  1.7250427e-11
   2260000   0.452               1850   1.7237399e-26  10615038       3.9676221e-06  1.7561129e-11
   2270000   0.454               1850   1.7302518e-26  10615038       3.9676221e-06  1.7735346e-11
   2280000   0.456               1850   1.5879176e-26  10615038       3.9676221e-06  1.6681108e-11
   2290000   0.458               1850   1.5316307e-26  10615038       3.9676221e-06  1.7387762e-11
   2300000   0.46                1850   1.6520451e-26  10615038       3.9676221e-06  1.661986e-11 
   2310000   0.462               1850   1.7826326e-26  10615038       3.9676221e-06  1.7523425e-11
   2320000   0.464               1850   1.8327839e-26  10615038       3.9676221e-06  1.7690236e-11
   2330000   0.466               1850   1.8731552e-26  10615038       3.9676221e-06  1.7621209e-11
   2340000   0.468               1850   1.9040041e-26  10615038       3.9676221e-06  1.7531313e-11
   2350000   0.47                1850   2.1847732e-26  10615038       3.9676221e-06  1.8838753e-11
   2360000   0.472               1850   2.1978654e-26  10615038       3.9676221e-06  1.8027341e-11
   2370000   0.474               1850   2.3949826e-26  10615038       3.9676221e-06  1.8358555e-11
   2380000   0.476               1850   2.2957477e-26  10615038       3.9676221e-06  1.8571083e-11
   2390000   0.478               1850   2.4363803e-26  10615038       3.9676221e-06  1.7965468e-11
   2400000   0.48                1850   2.1762878e-26  10615038       3.9676221e-06  1.7677171e-11
   2410000   0.482               1850   2.0704487e-26  10615038       3.9676221e-06  1.7770701e-11
   2420000   0.484               1850   2.0388294e-26  10615038       3.9676221e-06  1.8525596e-11
   2430000   0.486               1850   2.00381e-26    10615038       3.9676221e-06  1.793595e-11 
   2440000   0.488               1850   2.1031694e-26  10615038       3.9676221e-06  1.8185932e-11
   2450000   0.49                1850   2.2449892e-26  10615038       3.9676221e-06  1.8196748e-11
   2460000   0.492               1850   2.3677049e-26  10615038       3.9676221e-06  1.8946097e-11
   2470000   0.494               1850   2.3183705e-26  10615038       3.9676221e-06  1.8457903e-11
   2480000   0.496               1850   2.2176896e-26  10615038       3.9676221e-06  1.797367e-11 
   2490000   0.498               1850   2.1494306e-26  10615038       3.9676221e-06  1.7929595e-11
   2500000   0.5                 1850   2.31176e-26    10615038       3.9676221e-06  1.8555639e-11
   2510000   0.502               1850   2.0612772e-26  10615038       3.9676221e-06  1.5467499e-11
   2520000   0.504               1850   1.9622452e-26  10615038       3.9676221e-06  1.2960316e-11
   2530000   0.506               1850   2.2184016e-26  10615038       3.9676221e-06  1.8493773e-11
   2540000   0.508               1850   2.3611185e-26  10615038       3.9676221e-06  1.949311e-11 
   2550000   0.51                1850   2.3224683e-26  10615038       3.9676221e-06  2.0001704e-11
   2560000   0.512               1850   2.1892034e-26  10615038       3.9676221e-06  1.8904297e-11
   2570000   0.514               1850   2.5020656e-26  10615038       3.9676221e-06  1.8615998e-11
   2580000   0.516               1850   2.5965961e-26  10615038       3.9676221e-06  2.0193425e-11
   2590000   0.518               1850   2.5383772e-26  10615038       3.9676221e-06  1.8073649e-11
   2600000   0.52                1850   2.4723877e-26  10615038       3.9676221e-06  2.0017775e-11
   2610000   0.522               1850   2.4440043e-26  10615038       3.9676221e-06  2.0293423e-11
   2620000   0.524               1850   2.2141059e-26  10615038       3.9676221e-06  1.8779156e-11
   2630000   0.526               1850   1.8945202e-26  10615038       3.9676221e-06  1.8019771e-11
   2640000   0.528               1850   1.9519499e-26  10615038       3.9676221e-06  1.7953035e-11
   2650000   0.53                1850   1.9022727e-26  10615038       3.9676221e-06  1.7635187e-11
   2660000   0.532               1850   1.7861617e-26  10615038       3.9676221e-06  1.6806659e-11
   2670000   0.534               1850   1.8485164e-26  10615038       3.9676221e-06  1.5935519e-11
   2680000   0.536               1850   1.5113406e-26  10615038       3.9676221e-06  1.0307091e-11
   2690000   0.538               1850   1.5211941e-26  10615038       3.9676221e-06  9.6435649e-12
   2700000   0.54                1850   1.5417501e-26  10615038       3.9676221e-06  1.8408402e-11
   2710000   0.542               1850   1.4706423e-26  10615038       3.9676221e-06  1.8780472e-11
   2720000   0.544               1850   1.6121202e-26  10615038       3.9676221e-06  1.8803336e-11
   2730000   0.546               1850   1.7243673e-26  10615038       3.9676221e-06  1.8771637e-11
   2740000   0.548               1850   1.8989725e-26  10615038       3.9676221e-06  2.0673425e-11
   2750000   0.55                1850   1.7900972e-26  10615038       3.9676221e-06  1.9246967e-11
   2760000   0.552               1850   1.7340769e-26  10615038       3.9676221e-06  1.7643911e-11
   2770000   0.554               1850   1.7982504e-26  10615038       3.9676221e-06  1.8239888e-11
   2780000   0.556               1850   1.9062054e-26  10615038       3.9676221e-06  1.7768896e-11
   2790000   0.558               1850   2.0395292e-26  10615038       3.9676221e-06  1.9828356e-11
   2800000   0.56                1850   2.0479946e-26  10615038       3.9676221e-06  1.3679096e-11
   2810000   0.562               1850   1.9307476e-26  10615038       3.9676221e-06  1.7149421e-11
   2820000   0.564               1850   1.9777509e-26  10615038       3.9676221e-06  1.865373e-11 
   2830000   0.566               1850   1.9522756e-26  10615038       3.9676221e-06  1.8698967e-11
   2840000   0.568               1850   2.3368782e-26  10615038       3.9676221e-06  1.9555202e-11
   2850000   0.57                1850   2.5401884e-26  10615038       3.9676221e-06  2.1150788e-11
   2860000   0.572               1850   2.507783e-26   10615038       3.9676221e-06  2.0272291e-11
   2870000   0.574               1850   2.6399988e-26  10615038       3.9676221e-06  2.0275651e-11
   2880000   0.576               1850   2.5238099e-26  10615038       3.9676221e-06  1.9504768e-11
   2890000   0.578               1850   2.5461957e-26  10615038       3.9676221e-06  2.0218935e-11
   2900000   0.58                1850   2.287682e-26   10615038       3.9676221e-06  1.8521009e-11
   2910000   0.582               1850   2.0293896e-26  10615038       3.9676221e-06  1.7242218e-11
   2920000   0.584               1850   2.3177425e-26  10615038       3.9676221e-06  1.8765543e-11
   2930000   0.586               1850   2.2363787e-26  10615038       3.9676221e-06  2.0262537e-11
   2940000   0.588               1850   2.1886005e-26  10615038       3.9676221e-06  1.9757012e-11
   2950000   0.59                1850   2.1745251e-26  10615038       3.9676221e-06  1.798821e-11 
   2960000   0.592               1850   1.8804746e-26  10615038       3.9676221e-06  1.3167295e-11
   2970000   0.594               1850   1.8595967e-26  10615038       3.9676221e-06  1.7416597e-11
   2980000   0.596               1850   1.9534497e-26  10615038       3.9676221e-06  1.7082786e-11
   2990000   0.598               1850   1.9312159e-26  10615038       3.9676221e-06  1.707579e-11 
   3000000   0.6                 1850   1.8824773e-26  10615038       3.9676221e-06  1.7590484e-11
   3010000   0.602               1850   1.8935306e-26  10615038       3.9676221e-06  1.7383791e-11
   3020000   0.604               1850   1.8879168e-26  10615038       3.9676221e-06  1.7643931e-11
   3030000   0.606               1850   1.9167512e-26  10615038       3.9676221e-06  1.8525919e-11
   3040000   0.608               1850   2.03194e-26    10615038       3.9676221e-06  1.8448646e-11
   3050000   0.61                1850   1.9757459e-26  10615038       3.9676221e-06  1.8868653e-11
   3060000   0.612               1850   2.0828777e-26  10615038       3.9676221e-06  1.7315985e-11
   3070000   0.614               1850   2.2252987e-26  10615038       3.9676221e-06  1.8031745e-11
   3080000   0.616               1850   2.2375204e-26  10615038       3.9676221e-06  1.696355e-11 
   3090000   0.618               1850   1.957421e-26   10615038       3.9676221e-06  1.5336789e-11
   3100000   0.62                1850   1.8468811e-26  10615038       3.9676221e-06  1.8748942e-11
   3110000   0.622               1850   1.9174907e-26  10615038       3.9676221e-06  1.8724862e-11
   3120000   0.624               1850   2.1078364e-26  10615038       3.9676221e-06  1.8749268e-11
   3130000   0.626               1850   2.1002805e-26  10615038       3.9676221e-06  1.5692537e-11
   3140000   0.628               1850   2.5021779e-26  10615038       3.9676221e-06  1.7798763e-11
   3150000   0.63                1850   2.6091822e-26  10615038       3.9676221e-06  1.8934543e-11
   3160000   0.632               1850   2.5263679e-26  10615038       3.9676221e-06  1.747646e-11 
   3170000   0.634               1850   2.6212947e-26  10615038       3.9676221e-06  1.7440621e-11
   3180000   0.636               1850   2.4154432e-26  10615038       3.9676221e-06  1.7481557e-11
   3190000   0.638               1850   2.2362804e-26  10615038       3.9676221e-06  1.7488522e-11
   3200000   0.64                1850   2.0856406e-26  10615038       3.9676221e-06  1.5839182e-11
   3210000   0.642               1850   2.0270954e-26  10615038       3.9676221e-06  1.2896827e-11
   3220000   0.644               1850   2.0490758e-26  10615038       3.9676221e-06  1.7461649e-11
   3230000   0.646               1850   1.9693259e-26  10615038       3.9676221e-06  1.774753e-11 
   3240000   0.648               1850   2.0819456e-26  10615038       3.9676221e-06  1.7649909e-11
   3250000   0.65                1850   2.3103541e-26  10615038       3.9676221e-06  1.7712685e-11
   3260000   0.652               1850   1.9732775e-26  10615038       3.9676221e-06  1.6956411e-11
   3270000   0.654               1850   1.8764495e-26  10615038       3.9676221e-06  1.7054983e-11
   3280000   0.656               1850   2.0266545e-26  10615038       3.9676221e-06  1.861961e-11 
   3290000   0.658               1850   2.1484496e-26  10615038       3.9676221e-06  1.7956916e-11
   3300000   0.66                1850   2.0149224e-26  10615038       3.9676221e-06  2.1303704e-11
   3310000   0.662               1850   2.2335403e-26  10615038       3.9676221e-06  2.1026933e-11
   3320000   0.664               1850   2.770242e-26   10615038       3.9676221e-06  1.8135477e-11
   3330000   0.666               1850   2.6881454e-26  10615038       3.9676221e-06  2.1340148e-11
   3340000   0.668               1850   2.5581031e-26  10615038       3.9676221e-06  1.9420879e-11
   3350000   0.67                1850   2.5020833e-26  10615038       3.9676221e-06  1.8546548e-11
   3360000   0.672               1850   2.5065433e-26  10615038       3.9676221e-06  1.8649743e-11
   3370000   0.674               1850   2.5514493e-26  10615038       3.9676221e-06  1.8460328e-11
   3380000   0.676               1850   2.3555834e-26  10615038       3.9676221e-06  1.7759048e-11
   3390000   0.678               1850   2.321107e-26   10615038       3.9676221e-06  1.9157139e-11
   3400000   0.68                1850   1.9971952e-26  10615038       3.9676221e-06  1.7949253e-11
   3410000   0.682               1850   1.7838274e-26  10615038       3.9676221e-06  1.6260252e-11
   3420000   0.684               1850   1.8972621e-26  10615038       3.9676221e-06  1.7720997e-11
   3430000   0.686               1850   1.9861559e-26  10615038       3.9676221e-06  1.7723707e-11
   3440000   0.688               1850   2.1121834e-26  10615038       3.9676221e-06  1.7740228e-11
   3450000   0.69                1850   2.0310744e-26  10615038       3.9676221e-06  1.2732562e-11
   3460000   0.692               1850   2.33804e-26    10615038       3.9676221e-06  1.9189316e-11
   3470000   0.694               1850   2.1292195e-26  10615038       3.9676221e-06  1.8129166e-11
   3480000   0.696               1850   2.1795607e-26  10615038       3.9676221e-06  1.9217762e-11
   3490000   0.698               1850   2.2561238e-26  10615038       3.9676221e-06  1.7704906e-11
   3500000   0.7                 1850   2.4847375e-26  10615038       3.9676221e-06  1.7609652e-11
   3510000   0.702               1850   2.4084404e-26  10615038       3.9676221e-06  1.9622564e-11
   3520000   0.704               1850   2.0730372e-26  10615038       3.9676221e-06  1.9413334e-11
   3530000   0.706               1850   2.0734609e-26  10615038       3.9676221e-06  1.8870898e-11
   3540000   0.708               1850   2.0174273e-26  10615038       3.9676221e-06  1.8816463e-11
   3550000   0.71                1850   1.8452684e-26  10615038       3.9676221e-06  1.7923161e-11
   3560000   0.712               1850   1.7274994e-26  10615038       3.9676221e-06  1.7399338e-11
   3570000   0.714               1850   1.5517758e-26  10615038       3.9676221e-06  1.7561571e-11
   3580000   0.716               1850   1.6083506e-26  10615038       3.9676221e-06  1.7541707e-11
   3590000   0.718               1850   1.7304748e-26  10615038       3.9676221e-06  1.7372078e-11
   3600000   0.72                1850   2.1912802e-26  10615038       3.9676221e-06  1.741953e-11 
   3610000   0.722               1850   2.4451563e-26  10615038       3.9676221e-06  1.8457136e-11
   3620000   0.724               1850   2.4034714e-26  10615038       3.9676221e-06  1.7957315e-11
   3630000   0.726               1850   2.1674606e-26  10615038       3.9676221e-06  1.8772624e-11
   3640000   0.728               1850   1.8336904e-26  10615038       3.9676221e-06  1.7431918e-11
   3650000   0.73                1850   1.8659606e-26  10615038       3.9676221e-06  1.6539576e-11
   3660000   0.732               1850   2.0683652e-26  10615038       3.9676221e-06  1.9033173e-11
   3670000   0.734               1850   2.5161047e-26  10615038       3.9676221e-06  1.9017401e-11
   3680000   0.736               1850   2.6899437e-26  10615038       3.9676221e-06  1.9676448e-11
   3690000   0.738               1850   2.5411168e-26  10615038       3.9676221e-06  2.0462623e-11
   3700000   0.74                1850   2.157334e-26   10615038       3.9676221e-06  1.9786936e-11
   3710000   0.742               1850   2.0151526e-26  10615038       3.9676221e-06  1.9310246e-11
   3720000   0.744               1850   2.1371893e-26  10615038       3.9676221e-06  1.9245849e-11
   3730000   0.746               1850   1.9126266e-26  10615038       3.9676221e-06  1.830073e-11 
   3740000   0.748               1850   1.9308881e-26  10615038       3.9676221e-06  1.6817165e-11
   3750000   0.75                1850   1.9758942e-26  10615038       3.9676221e-06  1.7522522e-11
   3760000   0.752               1850   2.1519781e-26  10615038       3.9676221e-06  1.8379904e-11
   3770000   0.754               1850   2.2229074e-26  10615038       3.9676221e-06  1.8838843e-11
   3780000   0.756               1850   2.351148e-26   10615038       3.9676221e-06  1.7975717e-11
   3790000   0.758               1850   2.3881307e-26  10615038       3.9676221e-06  1.9801181e-11
   3800000   0.76                1850   2.202054e-26   10615038       3.9676221e-06  1.729399e-11 
   3810000   0.762               1850   1.846444e-26   10615038       3.9676221e-06  1.4173503e-11
   3820000   0.764               1850   1.8350352e-26  10615038       3.9676221e-06  1.7794749e-11
   3830000   0.766               1850   1.9630244e-26  10615038       3.9676221e-06  1.7857429e-11
   3840000   0.768               1850   2.185616e-26   10615038       3.9676221e-06  1.8058141e-11
   3850000   0.77                1850   2.54838e-26    10615038       3.9676221e-06  1.9303739e-11
   3860000   0.772               1850   2.4676069e-26  10615038       3.9676221e-06  1.9134829e-11
   3870000   0.774               1850   2.1623703e-26  10615038       3.9676221e-06  1.8258573e-11
   3880000   0.776               1850   2.0931812e-26  10615038       3.9676221e-06  1.8126604e-11
   3890000   0.778               1850   1.8336938e-26  10615038       3.9676221e-06  1.8448469e-11
   3900000   0.78                1850   1.8599484e-26  10615038       3.9676221e-06  1.8311851e-11
   3910000   0.782               1850   2.0703264e-26  10615038       3.9676221e-06  1.8646586e-11
   3920000   0.784               1850   1.9635068e-26  10615038       3.9676221e-06  1.8581874e-11
   3930000   0.786               1850   2.017619e-26   10615038       3.9676221e-06  1.821016e-11 
   3940000   0.788               1850   2.0750592e-26  10615038       3.9676221e-06  1.7827391e-11
   3950000   0.79                1850   2.0752534e-26  10615038       3.9676221e-06  1.7598252e-11
   3960000   0.792               1850   1.731181e-26   10615038       3.9676221e-06  1.1664349e-11
   3970000   0.794               1850   1.7800154e-26  10615038       3.9676221e-06  1.2097432e-11
   3980000   0.796               1850   1.8009551e-26  10615038       3.9676221e-06  1.2849982e-11
   3990000   0.798               1850   2.0408323e-26  10615038       3.9676221e-06  2.1744769e-11
   4000000   0.8                 1850   2.3899209e-26  10615038       3.9676221e-06  2.0490217e-11
Loop time of 989.099 on 1 procs for 4000000 steps with 1850 atoms

100.0% CPU use with 1 MPI tasks x 1 OpenMP threads

MPI task timing breakdown:
Section |  min time  |  avg time  |  max time  |%varavg| %total
---------------------------------------------------------------
Pair    | 746.91     | 746.91     | 746.91     |   0.0 | 75.51
Neigh   | 0.037558   | 0.037558   | 0.037558   |   0.0 |  0.00
Comm    | 0.091534   | 0.091534   | 0.091534   |   0.0 |  0.01
Output  | 0.304      | 0.304      | 0.304      |   0.0 |  0.03
Modify  | 231.93     | 231.93     | 231.93     |   0.0 | 23.45
Other   |            | 9.821      |            |       |  0.99

Nlocal:           1850 ave        1850 max        1850 min
Histogram: 1 0 0 0 0 0 0 0 0 0
Nghost:              0 ave           0 max           0 min
Histogram: 1 0 0 0 0 0 0 0 0 0
Neighs:           6996 ave        6996 max        6996 min
Histogram: 1 0 0 0 0 0 0 0 0 0

Total # of neighbors = 6996
Ave neighs/atom = 3.7816216
Neighbor list builds = 63
Dangerous builds = 0
Generated 0 of 0 mixed pair_coeff terms from geometric mixing rule
Setting up Verlet run ...
  Unit style    : si
  Current step  : 4000000
  Time step     : 2e-07
Per MPI rank memory allocation (min/avg/max) = 13 | 13 | 13 Mbytes
   Step          Time         Atoms        KinEng     c_granularTemp c_solidVolume    c_maxSpeed  
   4000000   0.8                 1850   2.3899209e-26  10615038       3.9676221e-06  2.0490217e-11
Loop time of 2.88e-07 on 1 procs for 0 steps with 1850 atoms

0.0% CPU use with 1 MPI tasks x 1 OpenMP threads

MPI task timing breakdown:
Section |  min time  |  avg time  |  max time  |%varavg| %total
---------------------------------------------------------------
Pair    | 0          | 0          | 0          |   0.0 |  0.00
Neigh   | 0          | 0          | 0          |   0.0 |  0.00
Comm    | 0          | 0          | 0          |   0.0 |  0.00
Output  | 0          | 0          | 0          |   0.0 |  0.00
Modify  | 0          | 0          | 0          |   0.0 |  0.00
Other   |            | 2.88e-07   |            |       |100.00

Nlocal:           1850 ave        1850 max        1850 min
Histogram: 1 0 0 0 0 0 0 0 0 0
Nghost:              0 ave           0 max           0 min
Histogram: 1 0 0 0 0 0 0 0 0 0
Neighs:           6996 ave        6996 max        6996 min
Histogram: 1 0 0 0 0 0 0 0 0 0

Total # of neighbors = 6996
Ave neighs/atom = 3.7816216
Neighbor list builds = 0
Dangerous builds = 0
Generated 0 of 0 mixed pair_coeff terms from geometric mixing rule
Neighbor list info ...
  update: every = 1 steps, delay = 0 steps, check = yes
  max neighbors/atom: 2000, page size: 100000
  master list distance cutoff = 0.00185
  ghost atom cutoff = 0.00185
  binsize = 0.000925, bins = 18 18 76
  3 neighbor lists, perpetual/occasional/extra = 1 2 0
  (1) pair granular, perpetual
      attributes: half, newton off, size, history
      pair build: half/size/bin/atomonly/newtoff
      stencil: full/bin/3d
      bin: standard
  (2) compute property/local, occasional
      attributes: half, newton off, size
      pair build: half/size/bin/atomonly/newtoff
      stencil: full/bin/3d
      bin: standard
  (3) compute pair/local, occasional
      attributes: half, newton off, size
      pair build: half/size/bin/atomonly/newtoff
      stencil: full/bin/3d
      bin: standard
Setting up Verlet run ...
  Unit style    : si
  Current step  : 4000000
  Time step     : 2e-07
Per MPI rank memory allocation (min/avg/max) = 14.26 | 14.26 | 14.26 Mbytes
   Step          Time         Atoms        KinEng     c_granularTemp c_solidVolume    c_maxSpeed  
   4000000   0.8                 1850   2.3899209e-26  10615038       3.9676221e-06  2.0490217e-11
   4000001   0.8000002           1850   2.3899906e-26  10615038       3.9676221e-06  2.0490849e-11
Loop time of 0.00650859 on 1 procs for 1 steps with 1850 atoms

100.0% CPU use with 1 MPI tasks x 1 OpenMP threads

MPI task timing breakdown:
Section |  min time  |  avg time  |  max time  |%varavg| %total
---------------------------------------------------------------
Pair    | 0.00020264 | 0.00020264 | 0.00020264 |   0.0 |  3.11
Neigh   | 0          | 0          | 0          |   0.0 |  0.00
Comm    | 1.98e-07   | 1.98e-07   | 1.98e-07   |   0.0 |  0.00
Output  | 0.006241   | 0.006241   | 0.006241   |   0.0 | 95.89
Modify  | 6.1155e-05 | 6.1155e-05 | 6.1155e-05 |   0.0 |  0.94
Other   |            | 3.608e-06  |            |       |  0.06

Nlocal:           1850 ave        1850 max        1850 min
Histogram: 1 0 0 0 0 0 0 0 0 0
Nghost:              0 ave           0 max           0 min
Histogram: 1 0 0 0 0 0 0 0 0 0
Neighs:           6996 ave        6996 max        6996 min
Histogram: 1 0 0 0 0 0 0 0 0 0

Total # of neighbors = 6996
Ave neighs/atom = 3.7816216
Neighbor list builds = 0
Dangerous builds = 0
System init for write_data ...
Generated 0 of 0 mixed pair_coeff terms from geometric mixing rule
System init for write_restart ...
Generated 0 of 0 mixed pair_coeff terms from geometric mixing rule
seed Ntarget Nfinal dp_m density_kgm3 Dtube_m D_over_dp solidVolume_m3 bedHeight_m bedVolume_m3 packingFraction porosity minParticleBottom_m kineticEnergy_J maxSpeed_ms
121021 1850 1850 0.0016 1600 0.016 10 3.96762208197362e-06 0.0365755201250928 7.35394466087789e-06 0.539522972355353 0.460477027644647 -1.48007552507154e-06 2.38999055591187e-26 2.04908490565086e-11
Packing generation completed: co2_13x_seed_121021
ACCEPT only if Nfinal=Ntarget, the bed is settled, and overlap/geometry checks pass.
For the 20-packing pilot, change only seed_realization.
CO2 diffusion and particle LDF adsorption are added later in the pore-network solver, not here.
Total wall time: 0:22:09
