Authorization required, but no authorization protocol specified

Authorization required, but no authorization protocol specified

Authorization required, but no authorization protocol specified

Authorization required, but no authorization protocol specified

LAMMPS (22 Jul 2025 - Update 5)
OMP_NUM_THREADS environment is not set. Defaulting to 1 thread.
  using 1 OpenMP thread(s) per MPI task
OMP_NUM_THREADS environment is not set. Defaulting to 1 thread.
  using 1 OpenMP thread(s) per MPI task
CO2 sorbent = commercial zeolite 13X (mechanical packing only)
Realization seed = 113117
Target particle count = 1850
Bead diameter [m] = 0.0016
Tube diameter [m] = 0.016
Tube-to-particle diameter ratio = 10
Target solid volume [m^3] = 3.96762208197367e-06
Created orthogonal box = (-0.008 -0.008 0) to (0.008 0.008 0.07)
  1 by 1 by 1 MPI processor grid
Generated 0 of 0 mixed pair_coeff terms from geometric mixing rule
Particle insertion: 303 every 319275 steps, 1850 by step 1915651
Neighbor list info ...
  update: every = 1 steps, delay = 0 steps, check = yes
  max neighbors/atom: 2000, page size: 100000
  master list distance cutoff = 0.00185
  ghost atom cutoff = 0.00185
  binsize = 0.000925, bins = 18 18 76
  1 neighbor lists, perpetual/occasional/extra = 1 0 0
  (1) pair granular, perpetual
      attributes: half, newton off, size, history
      pair build: half/size/bin/atomonly/newtoff
      stencil: full/bin/3d
      bin: standard
Setting up Verlet run ...
  Unit style    : si
  Current step  : 0
  Time step     : 2e-07
Per MPI rank memory allocation (min/avg/max) = 7.438 | 7.438 | 7.438 Mbytes
   Step          Time         Atoms        KinEng     c_granularTemp c_solidVolume    c_maxSpeed  
         0   0                      0  -0              0              0             -1e+20        
WARNING: Fewer insertions than requested (src/GRANULAR/fix_pour.cpp:691)
     10000   0.002                165  -0              5.1113149e+15  3.53869e-07    0.6075208    
     20000   0.004                165  -0              5.0119855e+15  3.53869e-07    0.59218316   
     30000   0.006                165  -0              4.9266981e+15  3.53869e-07    0.5777139    
     40000   0.008                165  -0              4.8537315e+15  3.53869e-07    0.56406388   
     50000   0.01                 165  -0              4.7915636e+15  3.53869e-07    0.5511867    
     60000   0.012                165  -0              4.7388494e+15  3.53869e-07    0.5390386    
     70000   0.014                165  -0              4.6944009e+15  3.53869e-07    0.52757831   
     80000   0.016                165  -0              4.6571689e+15  3.53869e-07    0.51676689   
     90000   0.018                165  -0              4.6262276e+15  3.53869e-07    0.50656759   
    100000   0.02                 165  -0              4.6007608e+15  3.53869e-07    0.49694576   
    110000   0.022                165  -0              4.5800488e+15  3.53869e-07    0.4878687    
    120000   0.024                165  -0              4.5634579e+15  3.53869e-07    0.47930557   
    130000   0.026                165  -0              4.5504303e+15  3.53869e-07    0.47122727   
    140000   0.028                165  -0              4.5404756e+15  3.53869e-07    0.46360635   
    150000   0.03                 165  -0              4.5331629e+15  3.53869e-07    0.45641692   
    160000   0.032                165  -0              4.5281138e+15  3.53869e-07    0.44963454   
    170000   0.034                165  -0              4.5249967e+15  3.53869e-07    0.44323617   
    180000   0.036                165  -0              4.5235211e+15  3.53869e-07    0.43720007   
    190000   0.038                165  -0              4.5234329e+15  3.53869e-07    0.43150571   
    200000   0.04                 165  -0              4.52451e+15    3.53869e-07    0.42613377   
    210000   0.042                165  -0              4.5265588e+15  3.53869e-07    0.42106598   
    220000   0.044                165  -0              4.5294106e+15  3.53869e-07    0.41628511   
    230000   0.046                165  -0              4.5329189e+15  3.53869e-07    0.41177493   
    240000   0.048                165  -0              4.5369565e+15  3.53869e-07    0.40752011   
    250000   0.05                 165  -0              4.5414133e+15  3.53869e-07    0.4035062    
    260000   0.052                165  -0              4.5461943e+15  3.53869e-07    0.39971954   
    270000   0.054                165  -0              4.5512178e+15  3.53869e-07    0.39614728   
    280000   0.056                165  -0              4.5564134e+15  3.53869e-07    0.39277727   
    290000   0.058                165  -0              4.5617213e+15  3.53869e-07    0.38959807   
    300000   0.06                 165  -0              4.5670904e+15  3.53869e-07    0.38659887   
    310000   0.062                165  -0              4.5724774e+15  3.53869e-07    0.38376948   
WARNING: Fewer insertions than requested (src/GRANULAR/fix_pour.cpp:691)
    320000   0.064                366  -0              5.047366e+15   7.8494577e-07  0.62259949   
    330000   0.066                366  -0              4.9722552e+15  7.8494577e-07  0.60640812   
    340000   0.068                366  -0              4.913098e+15   7.8494577e-07  0.59113347   
    350000   0.07                 366  -0              4.8518792e+15  7.8494577e-07  0.57672365   
    360000   0.072                366  -0              4.8090261e+15  7.8494577e-07  0.56312969   
    370000   0.074                366  -0              4.7755119e+15  7.8494577e-07  0.5503054    
    380000   0.076                366  -0              4.7474843e+15  7.8494577e-07  0.53820721   
    390000   0.078                366  -0              4.722478e+15   7.8494577e-07  0.52031115   
    400000   0.08                 366  -0              4.7021905e+15  7.8494577e-07  0.50991118   
    410000   0.082                366  -0              4.6858051e+15  7.8494577e-07  0.50010004   
    420000   0.084                366  -0              4.6735585e+15  7.8494577e-07  0.49084439   
    430000   0.086                366  -0              4.6007568e+15  7.8494577e-07  0.48211278   
    440000   0.088                366  -0              4.5387041e+15  7.8494577e-07  0.47387554   
    450000   0.09                 366  -0              4.5016735e+15  7.8494577e-07  0.46610468   
    460000   0.092                366  -0              4.4452231e+15  7.8494577e-07  0.4587738    
    470000   0.094                366  -0              4.42194e+15    7.8494577e-07  0.45185798   
    480000   0.096                366  -0              4.4164431e+15  7.8494577e-07  0.44533372   
    490000   0.098                366  -0              4.3885117e+15  7.8494577e-07  0.43917885   
    500000   0.1                  366  -0              4.3772087e+15  7.8494577e-07  0.43337247   
    510000   0.102                366  -0              4.3310352e+15  7.8494577e-07  0.42789483   
    520000   0.104                366  -0              4.3137858e+15  7.8494577e-07  0.42272733   
    530000   0.106                366  -0              4.2569922e+15  7.8494577e-07  0.4178524    
    540000   0.108                366  -0              4.216541e+15   7.8494577e-07  0.41325348   
    550000   0.11                 366  -0              4.1842999e+15  7.8494577e-07  0.4058748    
    560000   0.112                366  -0              4.1771563e+15  7.8494577e-07  0.40195404   
    570000   0.114                366  -0              4.1708252e+15  7.8494577e-07  0.39825526   
    580000   0.116                366  -0              4.1605883e+15  7.8494577e-07  0.3947659    
    590000   0.118                366  -0              4.1378454e+15  7.8494577e-07  0.39147411   
    600000   0.12                 366  -0              4.1218653e+15  7.8494577e-07  0.38836869   
    610000   0.122                366  -0              4.0971125e+15  7.8494577e-07  0.3854391    
    620000   0.124                366  -0              4.0711637e+15  7.8494577e-07  0.38267537   
    630000   0.126                366  -0              4.0658217e+15  7.8494577e-07  0.38006812   
WARNING: Fewer insertions than requested (src/GRANULAR/fix_pour.cpp:691)
    640000   0.128                543  -0              4.5854819e+15  1.1645507e-06  0.62289517   
    650000   0.13                 543  -0              4.5239576e+15  1.1645507e-06  0.60668706   
    660000   0.132                543  -0              4.4410727e+15  1.1645507e-06  0.59139662   
    670000   0.134                543  -0              4.3983588e+15  1.1645507e-06  0.55613968   
    680000   0.136                543  -0              4.3612379e+15  1.1645507e-06  0.54371116   
    690000   0.138                543  -0              4.3150557e+15  1.1645507e-06  0.53198632   
    700000   0.14                 543  -0              4.2810943e+15  1.1645507e-06  0.52092532   
    710000   0.142                543  -0              4.2534624e+15  1.1645507e-06  0.51049057   
    720000   0.144                543  -0              4.2078063e+15  1.1645507e-06  0.50064663   
    730000   0.146                543  -0              4.1505803e+15  1.1645507e-06  0.49136003   
    740000   0.148                543  -0              4.1098522e+15  1.1645507e-06  0.48259923   
    750000   0.15                 543  -0              4.0628567e+15  1.1645507e-06  0.47433445   
    760000   0.152                543  -0              3.9870394e+15  1.1645507e-06  0.46653761   
    770000   0.154                543  -0              3.9156725e+15  1.1645507e-06  0.44727867   
    780000   0.156                543  -0              3.8730069e+15  1.1645507e-06  0.44099616   
    790000   0.158                543  -0              3.8337597e+15  1.1645507e-06  0.43507084   
    800000   0.16                 543  -0              3.7787018e+15  1.1645507e-06  0.4294824    
    810000   0.162                543  -0              3.7303662e+15  1.1645507e-06  0.42421163   
    820000   0.164                543  -0              3.6567378e+15  1.1645507e-06  0.41924048   
    830000   0.166                543  -0              3.6239321e+15  1.1645507e-06  0.41455187   
    840000   0.168                543  -0              3.5608457e+15  1.1645507e-06  0.41012972   
    850000   0.17                 543  -0              3.5087907e+15  1.1645507e-06  0.40595887   
    860000   0.172                543  -0              3.4617904e+15  1.1645507e-06  0.40202502   
    870000   0.174                543  -0              3.4196023e+15  1.1645507e-06  0.39831466   
    880000   0.176                543  -0              3.3467519e+15  1.1645507e-06  0.3948151    
    890000   0.178                543  -0              3.2743264e+15  1.1645507e-06  0.39151431   
    900000   0.18                 543  -0              3.1444915e+15  1.1645507e-06  0.3865443    
    910000   0.182                543  -0              3.0345558e+15  1.1645507e-06  0.38370665   
    920000   0.184                543  -0              2.9799274e+15  1.1645507e-06  0.38103077   
    930000   0.186                543  -0              2.8710105e+15  1.1645507e-06  0.37850739   
    940000   0.188                543  -0              2.7398218e+15  1.1645507e-06  0.37612779   
    950000   0.19                 543  -0              2.6531164e+15  1.1645507e-06  0.37388375   
WARNING: Fewer insertions than requested (src/GRANULAR/fix_pour.cpp:691)
    960000   0.192                738  -0              3.2048563e+15  1.5827595e-06  0.62093101   
    970000   0.194                738  -0              3.1330873e+15  1.5827595e-06  0.6048341    
    980000   0.196                738  -0              3.0808193e+15  1.5827595e-06  0.58964857   
    990000   0.198                738  -0              3.0507734e+15  1.5827595e-06  0.57532282   
   1000000   0.2                  738  -0              3.0154759e+15  1.5827595e-06  0.56180818   
   1010000   0.202                738  -0              2.985557e+15   1.5827595e-06  0.54905871   
   1020000   0.204                738  -0              2.9507168e+15  1.5827595e-06  0.52992507   
   1030000   0.206                738  -0              2.9156417e+15  1.5827595e-06  0.51898077   
   1040000   0.208                738  -0              2.8824363e+15  1.5827595e-06  0.50865613   
   1050000   0.21                 738  -0              2.8413325e+15  1.5827595e-06  0.49891605   
   1060000   0.212                738  -0              2.7620678e+15  1.5827595e-06  0.48972743   
   1070000   0.214                738  -0              2.7129231e+15  1.5827595e-06  0.48105906   
   1080000   0.216                738  -0              2.6474196e+15  1.5827595e-06  0.47288149   
   1090000   0.218                738  -0              2.5680569e+15  1.5827595e-06  0.46516691   
   1100000   0.22                 738  -0              2.519271e+15   1.5827595e-06  0.45788912   
   1110000   0.222                738  -0              2.4504197e+15  1.5827595e-06  0.45102339   
   1120000   0.224                738  -0              2.4065457e+15  1.5827595e-06  0.44454638   
   1130000   0.226                738  -0              2.3638074e+15  1.5827595e-06  0.43843609   
   1140000   0.228                738  -0              2.2898925e+15  1.5827595e-06  0.43267176   
   1150000   0.23                 738  -0              2.2441683e+15  1.5827595e-06  0.4272338    
   1160000   0.232                738  -0              2.1976825e+15  1.5827595e-06  0.42210372   
   1170000   0.234                738  -0              2.1518542e+15  1.5827595e-06  0.4172641    
   1180000   0.236                738  -0              2.1058528e+15  1.5827595e-06  0.41269849   
   1190000   0.238                738  -0              2.0288387e+15  1.5827595e-06  0.40839138   
   1200000   0.24                 738  -0              1.9709438e+15  1.5827595e-06  0.40432814   
   1210000   0.242                738  -0              1.9363068e+15  1.5827595e-06  0.40049494   
   1220000   0.244                738  -0              1.9003377e+15  1.5827595e-06  0.39687878   
   1230000   0.246                738  -0              1.8665415e+15  1.5827595e-06  0.39346736   
   1240000   0.248                738  -0              1.8253654e+15  1.5827595e-06  0.39024908   
   1250000   0.25                 738  -0              1.8062206e+15  1.5827595e-06  0.38721302   
   1260000   0.252                738  -0              1.7872485e+15  1.5827595e-06  0.38434886   
   1270000   0.254                738  -0              1.7648392e+15  1.5827595e-06  0.3805749    
WARNING: Fewer insertions than requested (src/GRANULAR/fix_pour.cpp:691)
   1280000   0.256                921  -0              2.333425e+15   1.9752324e-06  0.60800665   
   1290000   0.258                921  -0              2.2935412e+15  1.9752324e-06  0.5926415    
   1300000   0.26                 921  -0              2.2564313e+15  1.9752324e-06  0.5781463    
   1310000   0.262                921  -0              2.2271421e+15  1.9752324e-06  0.56447179   
   1320000   0.264                921  -0              2.1913232e+15  1.9752324e-06  0.55157152   
   1330000   0.266                921  -0              2.17144e+15    1.9752324e-06  0.53940163   
   1340000   0.268                921  -0              2.1467816e+15  1.9752324e-06  0.52792079   
   1350000   0.27                 921  -0              2.1102634e+15  1.9752324e-06  0.51708997   
   1360000   0.272                921  -0              2.0678479e+15  1.9752324e-06  0.50687238   
   1370000   0.274                921  -0              2.0344918e+15  1.9752324e-06  0.49723329   
   1380000   0.276                921  -0              2.0152516e+15  1.9752324e-06  0.48813996   
   1390000   0.278                921  -0              1.9951803e+15  1.9752324e-06  0.47956147   
   1400000   0.28                 921  -0              1.9594639e+15  1.9752324e-06  0.47146868   
   1410000   0.282                921  -0              1.9101226e+15  1.9752324e-06  0.46383409   
   1420000   0.284                921  -0              1.863337e+15   1.9752324e-06  0.45663177   
   1430000   0.286                921  -0              1.8092715e+15  1.9752324e-06  0.44983722   
   1440000   0.288                921  -0              1.7665973e+15  1.9752324e-06  0.44342738   
   1450000   0.29                 921  -0              1.713608e+15   1.9752324e-06  0.43738045   
   1460000   0.292                921  -0              1.6542467e+15  1.9752324e-06  0.43167588   
   1470000   0.294                921  -0              1.5932802e+15  1.9752324e-06  0.4262943    
   1480000   0.296                921  -0              1.5514815e+15  1.9752324e-06  0.42121742   
   1490000   0.298                921  -0              1.5205793e+15  1.9752324e-06  0.41642798   
   1500000   0.3                  921  -0              1.5094165e+15  1.9752324e-06  0.41190971   
   1510000   0.302                921  -0              1.501844e+15   1.9752324e-06  0.39692821   
   1520000   0.304                921  -0              1.492467e+15   1.9752324e-06  0.39350577   
   1530000   0.306                921  -0              1.4793859e+15  1.9752324e-06  0.39027788   
   1540000   0.308                921  -0              1.4637038e+15  1.9752324e-06  0.38723347   
   1550000   0.31                 921  -0              1.4485348e+15  1.9752324e-06  0.38436207   
   1560000   0.312                921  -0              1.4294758e+15  1.9752324e-06  0.37196003   
   1570000   0.314                921  -0              1.4090421e+15  1.9752324e-06  0.36995698   
   1580000   0.316                921  -0              1.3599176e+15  1.9752324e-06  0.36806759   
   1590000   0.318                921  -0              1.3259259e+15  1.9752324e-06  0.3662854    
WARNING: Fewer insertions than requested (src/GRANULAR/fix_pour.cpp:691)
   1600000   0.32                1131  -0              2.0088035e+15  2.4256111e-06  0.61905293   
   1610000   0.322               1131  -0              1.9645351e+15  2.4256111e-06  0.60306235   
   1620000   0.324               1131  -0              1.9243643e+15  2.4256111e-06  0.58421796   
   1630000   0.326               1131  -0              1.8789083e+15  2.4256111e-06  0.57019969   
   1640000   0.328               1131  -0              1.8332888e+15  2.4256111e-06  0.55697511   
   1650000   0.33                1131  -0              1.7973575e+15  2.4256111e-06  0.54449928   
   1660000   0.332               1131  -0              1.749339e+15   2.4256111e-06  0.53272982   
   1670000   0.334               1131  -0              1.7075709e+15  2.4256111e-06  0.52162672   
   1680000   0.336               1131  -0              1.6571745e+15  2.4256111e-06  0.51115226   
   1690000   0.338               1131  -0              1.6167421e+15  2.4256111e-06  0.50127086   
   1700000   0.34                1131  -0              1.5863428e+15  2.4256111e-06  0.49072382   
   1710000   0.342               1131  -0              1.5365013e+15  2.4256111e-06  0.48199904   
   1720000   0.344               1131  -0              1.4946488e+15  2.4256111e-06  0.47376824   
   1730000   0.346               1131  -0              1.4551999e+15  2.4256111e-06  0.46600345   
   1740000   0.348               1131  -0              1.4284622e+15  2.4256111e-06  0.4586783    
   1750000   0.35                1131  -0              1.3930698e+15  2.4256111e-06  0.45176789   
   1760000   0.352               1131  -0              1.3597742e+15  2.4256111e-06  0.44524873   
   1770000   0.354               1131  -0              1.343564e+15   2.4256111e-06  0.43909867   
   1780000   0.356               1131  -0              1.3241335e+15  2.4256111e-06  0.43329683   
   1790000   0.358               1131  -0              1.3105414e+15  2.4256111e-06  0.42782347   
   1800000   0.36                1131  -0              1.2973533e+15  2.4256111e-06  0.42266001   
   1810000   0.362               1131  -0              1.2831869e+15  2.4256111e-06  0.41778889   
   1820000   0.364               1131  -0              1.2677992e+15  2.4256111e-06  0.4047341    
   1830000   0.366               1131  -0              1.2346037e+15  2.4256111e-06  0.40087793   
   1840000   0.368               1131  -0              1.2041801e+15  2.4256111e-06  0.39724008   
   1850000   0.37                1131  -0              1.1751936e+15  2.4256111e-06  0.3938082    
   1860000   0.372               1131  -0              1.1336001e+15  2.4256111e-06  0.38466461   
   1870000   0.374               1131  -0              1.1055809e+15  2.4256111e-06  0.37006854   
   1880000   0.376               1131  -0              1.0760966e+15  2.4256111e-06  0.36817381   
   1890000   0.378               1131  -0              1.0436693e+15  2.4256111e-06  0.36249495   
   1900000   0.38                1131  -0              1.018575e+15   2.4256111e-06  0.36102593   
   1910000   0.382               1131  -0              9.7838704e+14  2.4256111e-06  0.35642394   
WARNING: Fewer insertions than requested (src/GRANULAR/fix_pour.cpp:691)
   1920000   0.384               1327  -0              1.5414488e+15  2.8459646e-06  0.61850892   
   1930000   0.386               1327  -0              1.5030162e+15  2.8459646e-06  0.60254915   
   1940000   0.388               1327  -0              1.4630881e+15  2.8459646e-06  0.58749299   
   1950000   0.39                1327  -0              1.4155237e+15  2.8459646e-06  0.57328929   
   1960000   0.392               1327  -0              1.3716652e+15  2.8459646e-06  0.54839708   
   1970000   0.394               1327  -0              1.3318529e+15  2.8459646e-06  0.53640015   
   1980000   0.396               1327  -0              1.3045847e+15  2.8459646e-06  0.52508295   
   1990000   0.398               1327  -0              1.2549861e+15  2.8459646e-06  0.51440696   
   2000000   0.4                 1327  -0              1.2217338e+15  2.8459646e-06  0.50433586   
   2010000   0.402               1327  -0              1.1869003e+15  2.8459646e-06  0.49483538   
   2020000   0.404               1327  -0              1.1542178e+15  2.8459646e-06  0.48587318   
   2030000   0.406               1327  -0              1.1344617e+15  2.8459646e-06  0.47033086   
   2040000   0.408               1327  -0              1.1144444e+15  2.8459646e-06  0.46275594   
   2050000   0.41                1327  -0              1.1011114e+15  2.8459646e-06  0.45561028   
   2060000   0.412               1327  -0              1.0858618e+15  2.8459646e-06  0.44886956   
   2070000   0.414               1327  -0              1.0694477e+15  2.8459646e-06  0.44251083   
   2080000   0.416               1327  -0              1.0415732e+15  2.8459646e-06  0.43651243   
   2090000   0.418               1327  -0              1.0180267e+15  2.8459646e-06  0.41676727   
   2100000   0.42                1327  -0              1.0053651e+15  2.8459646e-06  0.41222979   
   2110000   0.422               1327  -0              9.7292142e+14  2.8459646e-06  0.40794922   
   2120000   0.424               1327  -0              9.4619496e+14  2.8459646e-06  0.40391101   
   2130000   0.426               1327  -0              9.270356e+14   2.8459646e-06  0.40010143   
   2140000   0.428               1327  -0              8.9189267e+14  2.8459646e-06  0.38973614   
   2150000   0.43                1327  -0              8.5896824e+14  2.8459646e-06  0.38672912   
   2160000   0.432               1327  -0              8.2664533e+14  2.8459646e-06  0.38389236   
   2170000   0.434               1327  -0              8.009255e+14   2.8459646e-06  0.36730787   
   2180000   0.436               1327  -0              7.8418016e+14  2.8459646e-06  0.36557043   
   2190000   0.438               1327  -0              7.6275848e+14  2.8459646e-06  0.3639314    
   2200000   0.44                1327  -0              7.4307942e+14  2.8459646e-06  0.37089479   
   2210000   0.442               1327  -0              7.1869623e+14  2.8459646e-06  0.36213065   
   2220000   0.444               1327  -0              6.7510946e+14  2.8459646e-06  0.354944     
   2230000   0.446               1327  -0              6.3608861e+14  2.8459646e-06  0.35390686   
WARNING: Fewer insertions than requested (src/GRANULAR/fix_pour.cpp:691)
   2240000   0.448               1577  -0              1.4522313e+15  3.3821297e-06  0.6166293    
   2250000   0.45                1577  -0              1.3906078e+15  3.3821297e-06  0.60077594   
   2260000   0.452               1577  -0              1.3334552e+15  3.3821297e-06  0.58582018   
   2270000   0.454               1577  -0              1.2892627e+15  3.3821297e-06  0.57171119   
   2280000   0.456               1577  -0              1.245023e+15   3.3821297e-06  0.55840103   
   2290000   0.458               1577  -0              1.2079264e+15  3.3821297e-06  0.54584447   
   2300000   0.46                1577  -0              1.1744792e+15  3.3821297e-06  0.53399885   
   2310000   0.462               1577  -0              1.1469217e+15  3.3821297e-06  0.5228239    
   2320000   0.464               1577  -0              1.1286303e+15  3.3821297e-06  0.51228166   
   2330000   0.466               1577  -0              1.1142545e+15  3.3821297e-06  0.50233631   
   2340000   0.468               1577  -0              1.0979446e+15  3.3821297e-06  0.49295405   
   2350000   0.47                1577  -0              1.0773015e+15  3.3821297e-06  0.48410299   
   2360000   0.472               1577  -0              1.0343129e+15  3.3821297e-06  0.4714285    
   2370000   0.474               1577  -0              1.0102812e+15  3.3821297e-06  0.45168794   
   2380000   0.476               1577  -0              9.8198375e+14  3.3821297e-06  0.44517331   
   2390000   0.478               1577  -0              9.3091603e+14  3.3821297e-06  0.43801214   
   2400000   0.48                1577  -0              8.9818307e+14  3.3821297e-06  0.40157802   
   2410000   0.482               1577  -0              8.6376189e+14  3.3821297e-06  0.39790012   
   2420000   0.484               1577  -0              8.2025393e+14  3.3821297e-06  0.39443049   
   2430000   0.486               1577  -0              7.9660927e+14  3.3821297e-06  0.39115735   
   2440000   0.488               1577  -0              7.5568063e+14  3.3821297e-06  0.37850602   
   2450000   0.49                1577  -0              7.1660931e+14  3.3821297e-06  0.37554202   
   2460000   0.492               1577  -0              6.7901751e+14  3.3821297e-06  0.37333865   
   2470000   0.494               1577  -0              6.3037905e+14  3.3821297e-06  0.37126003   
   2480000   0.496               1577  -0              5.7891941e+14  3.3821297e-06  0.35999604   
   2490000   0.498               1577  -0              5.4000789e+14  3.3821297e-06  0.35826378   
   2500000   0.5                 1577  -0              5.0304825e+14  3.3821297e-06  0.35703868   
   2510000   0.502               1577  -0              4.6440102e+14  3.3821297e-06  0.35316578   
   2520000   0.504               1577  -0              4.3334476e+14  3.3821297e-06  0.35101044   
   2530000   0.506               1577  -0              4.1115928e+14  3.3821297e-06  0.34587202   
   2540000   0.508               1577  -0              3.8979936e+14  3.3821297e-06  0.34534852   
   2550000   0.51                1577  -0              3.7378246e+14  3.3821297e-06  0.34129534   
WARNING: Fewer insertions than requested (src/GRANULAR/fix_pour.cpp:691)
   2560000   0.512               1807  -0              9.8356435e+14  3.8754017e-06  0.61356278   
   2570000   0.514               1807  -0              9.5056771e+14  3.8754017e-06  0.59788305   
   2580000   0.516               1807  -0              9.2585463e+14  3.8754017e-06  0.58309108   
   2590000   0.518               1807  -0              9.0594917e+14  3.8754017e-06  0.56913661   
   2600000   0.52                1807  -0              8.8705146e+14  3.8754017e-06  0.5372623    
   2610000   0.522               1807  -0              8.6880693e+14  3.8754017e-06  0.52590258   
   2620000   0.524               1807  -0              8.5711855e+14  3.8754017e-06  0.51518604   
   2630000   0.526               1807  -0              8.4100828e+14  3.8754017e-06  0.50507624   
   2640000   0.528               1807  -0              8.2363981e+14  3.8754017e-06  0.49553885   
   2650000   0.53                1807  -0              7.9672497e+14  3.8754017e-06  0.47963307   
   2660000   0.532               1807  -0              7.7152525e+14  3.8754017e-06  0.44985552   
   2670000   0.534               1807  -0              7.4688526e+14  3.8754017e-06  0.44344464   
   2680000   0.536               1807  -0              7.0777101e+14  3.8754017e-06  0.43221138   
   2690000   0.538               1807  -0              6.6510917e+14  3.8754017e-06  0.42679948   
   2700000   0.54                1807  -0              6.3152009e+14  3.8754017e-06  0.39404075   
   2710000   0.542               1807  -0              6.1003268e+14  3.8754017e-06  0.39078975   
   2720000   0.544               1807  -0              5.8641808e+14  3.8754017e-06  0.38665559   
   2730000   0.546               1807  -0              5.4907695e+14  3.8754017e-06  0.38382298   
   2740000   0.548               1807  -0              5.1562106e+14  3.8754017e-06  0.37380272   
   2750000   0.55                1807  -0              4.7304204e+14  3.8754017e-06  0.37169783   
   2760000   0.552               1807  -0              4.2859789e+14  3.8754017e-06  0.36311701   
   2770000   0.554               1807  -0              4.0523798e+14  3.8754017e-06  0.35892267   
   2780000   0.556               1807  -0              3.7082962e+14  3.8754017e-06  0.35766027   
   2790000   0.558               1807  -0              3.4197276e+14  3.8754017e-06  0.35084535   
   2800000   0.56                1807  -0              3.2496845e+14  3.8754017e-06  0.35004027   
   2810000   0.562               1807  -0              3.115128e+14   3.8754017e-06  0.34601389   
   2820000   0.564               1807  -0              2.994104e+14   3.8754017e-06  0.3424693    
   2830000   0.566               1807  -0              2.8223326e+14  3.8754017e-06  0.33661205   
   2840000   0.568               1807  -0              2.7009002e+14  3.8754017e-06  0.33463612   
   2850000   0.57                1807  -0              2.5915356e+14  3.8754017e-06  0.33474878   
   2860000   0.572               1807  -0              2.4732721e+14  3.8754017e-06  0.33413931   
   2870000   0.574               1807  -0              2.3783954e+14  3.8754017e-06  0.33135894   
   2880000   0.576               1850  -0              3.529592e+14   3.9676221e-06  0.60772039   
   2890000   0.578               1850  -0              3.3861699e+14  3.9676221e-06  0.51672167   
   2900000   0.58                1850  -0              3.2530508e+14  3.9676221e-06  0.50652493   
   2910000   0.582               1850  -0              3.1259527e+14  3.9676221e-06  0.49690552   
   2920000   0.584               1850  -0              2.9004033e+14  3.9676221e-06  0.48783074   
   2930000   0.586               1850  -0              2.7552823e+14  3.9676221e-06  0.47926976   
   2940000   0.588               1850  -0              2.6280899e+14  3.9676221e-06  0.47119349   
   2950000   0.59                1850  -0              2.5168308e+14  3.9676221e-06  0.42510084   
   2960000   0.592               1850  -0              2.3365958e+14  3.9676221e-06  0.40201066   
   2970000   0.594               1850  -0              2.2265697e+14  3.9676221e-06  0.39830868   
   2980000   0.596               1850  -0              2.1181892e+14  3.9676221e-06  0.3948163    
   2990000   0.598               1850  -0              1.9218432e+14  3.9676221e-06  0.38573183   
   3000000   0.6                 1850  -0              1.7043551e+14  3.9676221e-06  0.37673186   
Loop time of 296.091 on 1 procs for 3000000 steps with 1850 atoms

100.0% CPU use with 1 MPI tasks x 1 OpenMP threads

MPI task timing breakdown:
Section |  min time  |  avg time  |  max time  |%varavg| %total
---------------------------------------------------------------
Pair    | 209.72     | 209.72     | 209.72     |   0.0 | 70.83
Neigh   | 0.52714    | 0.52714    | 0.52714    |   0.0 |  0.18
Comm    | 0.062783   | 0.062783   | 0.062783   |   0.0 |  0.02
Output  | 0.11764    | 0.11764    | 0.11764    |   0.0 |  0.04
Modify  | 81.948     | 81.948     | 81.948     |   0.0 | 27.68
Other   |            | 3.711      |            |       |  1.25

Nlocal:           1850 ave        1850 max        1850 min
Histogram: 1 0 0 0 0 0 0 0 0 0
Nghost:              0 ave           0 max           0 min
Histogram: 1 0 0 0 0 0 0 0 0 0
Neighs:           6711 ave        6711 max        6711 min
Histogram: 1 0 0 0 0 0 0 0 0 0

Total # of neighbors = 6711
Ave neighs/atom = 3.6275676
Neighbor list builds = 2187
Dangerous builds = 0
Generated 0 of 0 mixed pair_coeff terms from geometric mixing rule
Setting up Verlet run ...
  Unit style    : si
  Current step  : 0
  Time step     : 2e-07
Per MPI rank memory allocation (min/avg/max) = 14.72 | 14.72 | 14.72 Mbytes
   Step          Time         Atoms        KinEng     c_granularTemp c_solidVolume    c_maxSpeed  
         0   0                   1850   1.2085735e-05  1.6263115e+14  3.9676221e-06  0.36303477   
     10000   0.002               1850   6.860621e-06   9.3509424e+13  3.9676221e-06  0.28827775   
     20000   0.004               1850   4.5031805e-06  6.2282787e+13  3.9676221e-06  0.23204404   
     30000   0.006               1850   3.0800618e-06  4.2733618e+13  3.9676221e-06  0.19040269   
     40000   0.008               1850   2.0911189e-06  2.9349233e+13  3.9676221e-06  0.15928837   
     50000   0.01                1850   1.4376405e-06  2.0522491e+13  3.9676221e-06  0.13603984   
     60000   0.012               1850   1.0718216e-06  1.5314567e+13  3.9676221e-06  0.1186686    
     70000   0.014               1850   8.1232304e-07  1.173643e+13   3.9676221e-06  0.10568885   
     80000   0.016               1850   6.3011403e-07  9.1080059e+12  3.9676221e-06  0.095990415  
     90000   0.018               1850   5.5407347e-07  7.9762116e+12  3.9676221e-06  0.088743771  
    100000   0.02                1850   4.6916549e-07  6.7431211e+12  3.9676221e-06  0.083329098  
    110000   0.022               1850   3.9308481e-07  5.6733374e+12  3.9676221e-06  0.079283268  
    120000   0.024               1850   3.3556414e-07  4.8822004e+12  3.9676221e-06  0.076260235  
    130000   0.026               1850   3.0312876e-07  4.3716658e+12  3.9676221e-06  0.074001432  
    140000   0.028               1850   2.9431393e-07  4.2312064e+12  3.9676221e-06  0.07231366   
    150000   0.03                1850   2.6316121e-07  3.8389667e+12  3.9676221e-06  0.070915972  
    160000   0.032               1850   2.5359153e-07  3.7285367e+12  3.9676221e-06  0.070008212  
    170000   0.034               1850   2.5061356e-07  3.6734167e+12  3.9676221e-06  0.069329936  
    180000   0.036               1850   2.3810815e-07  3.513729e+12   3.9676221e-06  0.06882313   
    190000   0.038               1850   2.2381015e-07  3.2583071e+12  3.9676221e-06  0.068444446  
    200000   0.04                1850   2.1266757e-07  3.0641128e+12  3.9676221e-06  0.068161494  
    210000   0.042               1850   2.081217e-07   2.9973616e+12  3.9676221e-06  0.067950073  
    220000   0.044               1850   2.0624738e-07  2.9660022e+12  3.9676221e-06  0.0677921    
    230000   0.046               1850   2.0153379e-07  2.8851904e+12  3.9676221e-06  0.067674063  
    240000   0.048               1850   2.017105e-07   2.8942232e+12  3.9676221e-06  0.067585866  
    250000   0.05                1850   2.0182025e-07  2.8885427e+12  3.9676221e-06  0.067519965  
    260000   0.052               1850   2.017757e-07   2.8889853e+12  3.9676221e-06  0.067470724  
    270000   0.054               1850   2.0115203e-07  2.8694074e+12  3.9676221e-06  0.067433931  
    280000   0.056               1850   2.0197748e-07  2.8774576e+12  3.9676221e-06  0.06740644   
    290000   0.058               1850   2.0509841e-07  2.935969e+12   3.9676221e-06  0.067385899  
    300000   0.06                1850   2.0085339e-07  2.8152446e+12  3.9676221e-06  0.06737055   
    310000   0.062               1850   1.9409993e-07  2.7396639e+12  3.9676221e-06  0.067356932  
    320000   0.064               1850   1.9445522e-07  2.7383983e+12  3.9676221e-06  0.067348906  
    330000   0.066               1850   1.9293016e-07  2.7150873e+12  3.9676221e-06  0.06734291   
    340000   0.068               1850   1.9481642e-07  2.7504205e+12  3.9676221e-06  0.067338429  
    350000   0.07                1850   1.878478e-07   2.6495126e+12  3.9676221e-06  0.067335081  
    360000   0.072               1850   1.804753e-07   2.5656404e+12  3.9676221e-06  0.067332579  
    370000   0.074               1850   1.8000546e-07  2.5376189e+12  3.9676221e-06  0.06733071   
    380000   0.076               1850   1.7578071e-07  2.4557929e+12  3.9676221e-06  0.067329313  
    390000   0.078               1850   1.6894985e-07  2.3692045e+12  3.9676221e-06  0.067328127  
    400000   0.08                1850   1.6825502e-07  2.3580023e+12  3.9676221e-06  0.067327384  
    410000   0.082               1850   1.6937456e-07  2.3866048e+12  3.9676221e-06  0.067326828  
    420000   0.084               1850   1.6829308e-07  2.3933136e+12  3.9676221e-06  0.067326413  
    430000   0.086               1850   1.6575141e-07  2.3462647e+12  3.9676221e-06  0.067326102  
    440000   0.088               1850   1.6553858e-07  2.3333674e+12  3.9676221e-06  0.06732587   
    450000   0.09                1850   1.6652039e-07  2.3586513e+12  3.9676221e-06  0.067325697  
    460000   0.092               1850   1.6503672e-07  2.3481847e+12  3.9676221e-06  0.067325568  
    470000   0.094               1850   1.6367235e-07  2.3252395e+12  3.9676221e-06  0.067325471  
    480000   0.096               1850   1.5666172e-07  2.2387299e+12  3.9676221e-06  0.067325388  
    490000   0.098               1850   1.5532701e-07  2.1488855e+12  3.9676221e-06  0.067325337  
    500000   0.1                 1850   1.5437448e-07  2.1137382e+12  3.9676221e-06  0.067325299  
    510000   0.102               1850   1.5371493e-07  2.0779503e+12  3.9676221e-06  0.06732527   
    520000   0.104               1850   1.534737e-07   2.0543332e+12  3.9676221e-06  0.067325248  
    530000   0.106               1850   1.5285958e-07  2.0368973e+12  3.9676221e-06  0.067325232  
    540000   0.108               1850   1.5276251e-07  2.0332741e+12  3.9676221e-06  0.06732522   
    550000   0.11                1850   1.5299913e-07  2.0373546e+12  3.9676221e-06  0.067325212  
    560000   0.112               1850   1.5123122e-07  2.0013796e+12  3.9676221e-06  0.067325205  
    570000   0.114               1850   1.4418783e-07  1.9123094e+12  3.9676221e-06  0.0673252    
    580000   0.116               1850   1.3627783e-07  1.8096678e+12  3.9676221e-06  0.067325196  
    590000   0.118               1850   1.3537331e-07  1.7936285e+12  3.9676221e-06  0.067325193  
    600000   0.12                1850   1.3559484e-07  1.798538e+12   3.9676221e-06  0.067325191  
    610000   0.122               1850   1.3624071e-07  1.8129538e+12  3.9676221e-06  0.06732519   
    620000   0.124               1850   1.3698702e-07  1.8310413e+12  3.9676221e-06  0.067325188  
    630000   0.126               1850   1.3469034e-07  1.7907354e+12  3.9676221e-06  0.067325188  
    640000   0.128               1850   1.3420789e-07  1.7846163e+12  3.9676221e-06  0.067325187  
    650000   0.13                1850   1.3461226e-07  1.7895908e+12  3.9676221e-06  0.067325186  
    660000   0.132               1850   1.3461846e-07  1.7915668e+12  3.9676221e-06  0.067325186  
    670000   0.134               1850   1.3432978e-07  1.7802971e+12  3.9676221e-06  0.067325186  
    680000   0.136               1850   1.2809625e-07  1.709439e+12   3.9676221e-06  0.067325186  
    690000   0.138               1850   1.2129815e-07  1.63169e+12    3.9676221e-06  0.067325185  
    700000   0.14                1850   1.2201178e-07  1.6429676e+12  3.9676221e-06  0.067325185  
    710000   0.142               1850   1.1983159e-07  1.6112811e+12  3.9676221e-06  0.067325185  
    720000   0.144               1850   1.1350944e-07  1.5413698e+12  3.9676221e-06  0.067325185  
    730000   0.146               1850   1.0696514e-07  1.4619479e+12  3.9676221e-06  0.067325185  
    740000   0.148               1850   1.079912e-07   1.4800655e+12  3.9676221e-06  0.067325185  
    750000   0.15                1850   1.0768354e-07  1.4756607e+12  3.9676221e-06  0.067325185  
    760000   0.152               1850   1.0887963e-07  1.4950727e+12  3.9676221e-06  0.067325185  
    770000   0.154               1850   1.0793529e-07  1.4744293e+12  3.9676221e-06  0.067325185  
    780000   0.156               1850   1.0923436e-07  1.4942916e+12  3.9676221e-06  0.067325185  
    790000   0.158               1850   1.0960993e-07  1.5021251e+12  3.9676221e-06  0.067325185  
    800000   0.16                1850   1.0928813e-07  1.5074932e+12  3.9676221e-06  0.067325185  
    810000   0.162               1850   1.0482551e-07  1.4675094e+12  3.9676221e-06  0.067325185  
    820000   0.164               1850   9.6785649e-08  1.3677183e+12  3.9676221e-06  0.067325185  
    830000   0.166               1850   9.7209236e-08  1.3672386e+12  3.9676221e-06  0.067325185  
    840000   0.168               1850   9.8864799e-08  1.3885866e+12  3.9676221e-06  0.067325185  
    850000   0.17                1850   9.7229887e-08  1.3623872e+12  3.9676221e-06  0.067325185  
    860000   0.172               1850   9.8628207e-08  1.3877717e+12  3.9676221e-06  0.067325185  
    870000   0.174               1850   9.6472244e-08  1.3555329e+12  3.9676221e-06  0.067325185  
    880000   0.176               1850   9.7670708e-08  1.3751873e+12  3.9676221e-06  0.067325185  
    890000   0.178               1850   9.9296598e-08  1.4042009e+12  3.9676221e-06  0.067325185  
    900000   0.18                1850   1.0083685e-07  1.4307268e+12  3.9676221e-06  0.067325185  
    910000   0.182               1850   9.9481607e-08  1.3962432e+12  3.9676221e-06  0.067325185  
    920000   0.184               1850   9.9093623e-08  1.3879928e+12  3.9676221e-06  0.067325185  
    930000   0.186               1850   9.7640989e-08  1.3562625e+12  3.9676221e-06  0.067325185  
    940000   0.188               1850   9.7636395e-08  1.3562577e+12  3.9676221e-06  0.067325185  
    950000   0.19                1850   9.7568161e-08  1.3529302e+12  3.9676221e-06  0.067325185  
    960000   0.192               1850   8.6846535e-08  1.2037827e+12  3.9676221e-06  0.067325185  
    970000   0.194               1850   8.7122642e-08  1.2084353e+12  3.9676221e-06  0.067325185  
    980000   0.196               1850   8.3761898e-08  1.1393618e+12  3.9676221e-06  0.067325185  
    990000   0.198               1850   8.4858159e-08  1.1524594e+12  3.9676221e-06  0.067325185  
   1000000   0.2                 1850   8.4480304e-08  1.1513626e+12  3.9676221e-06  0.067325185  
   1010000   0.202               1850   7.9380351e-08  1.0895146e+12  3.9676221e-06  0.067325185  
   1020000   0.204               1850   7.9978244e-08  1.1044683e+12  3.9676221e-06  0.067325185  
   1030000   0.206               1850   7.8553083e-08  1.0798818e+12  3.9676221e-06  0.067325185  
   1040000   0.208               1850   7.9104444e-08  1.0922128e+12  3.9676221e-06  0.067325185  
   1050000   0.21                1850   7.9765603e-08  1.1055513e+12  3.9676221e-06  0.067325185  
   1060000   0.212               1850   8.0732842e-08  1.125761e+12   3.9676221e-06  0.067325185  
   1070000   0.214               1850   7.5476805e-08  1.0662529e+12  3.9676221e-06  0.067325185  
   1080000   0.216               1850   7.5391856e-08  1.0713825e+12  3.9676221e-06  0.067325185  
   1090000   0.218               1850   7.5645544e-08  1.0715212e+12  3.9676221e-06  0.067325185  
   1100000   0.22                1850   7.6675152e-08  1.0847933e+12  3.9676221e-06  0.067325185  
   1110000   0.222               1850   7.1995434e-08  1.0024041e+12  3.9676221e-06  0.067325185  
   1120000   0.224               1850   7.2636143e-08  1.0140746e+12  3.9676221e-06  0.067325185  
   1130000   0.226               1850   7.0248046e-08  9.8379612e+11  3.9676221e-06  0.067325185  
   1140000   0.228               1850   7.0697253e-08  9.9153497e+11  3.9676221e-06  0.067325185  
   1150000   0.23                1850   6.8889923e-08  9.6031371e+11  3.9676221e-06  0.067325185  
   1160000   0.232               1850   6.2862283e-08  8.9015378e+11  3.9676221e-06  0.067325185  
   1170000   0.234               1850   6.3470473e-08  9.0100449e+11  3.9676221e-06  0.067325185  
   1180000   0.236               1850   5.8051145e-08  8.4099356e+11  3.9676221e-06  0.067325185  
   1190000   0.238               1850   5.9162378e-08  8.6228691e+11  3.9676221e-06  0.067325185  
   1200000   0.24                1850   5.4045696e-08  8.0124808e+11  3.9676221e-06  0.067325185  
   1210000   0.242               1850   5.4806067e-08  8.1970911e+11  3.9676221e-06  0.067325185  
   1220000   0.244               1850   5.5989508e-08  8.4072927e+11  3.9676221e-06  0.067325185  
   1230000   0.246               1850   4.5471297e-08  6.9760392e+11  3.9676221e-06  0.067325185  
   1240000   0.248               1850   4.6722635e-08  7.1262785e+11  3.9676221e-06  0.067325185  
   1250000   0.25                1850   4.7843254e-08  7.33614e+11    3.9676221e-06  0.067325185  
   1260000   0.252               1850   4.1176792e-08  6.4850406e+11  3.9676221e-06  0.067325185  
   1270000   0.254               1850   3.6493007e-08  5.7613091e+11  3.9676221e-06  0.067325185  
   1280000   0.256               1850   3.4035788e-08  5.2600619e+11  3.9676221e-06  0.067325185  
   1290000   0.258               1850   3.0743999e-08  4.6659912e+11  3.9676221e-06  0.067325185  
   1300000   0.26                1850   3.1386935e-08  4.7643182e+11  3.9676221e-06  0.067325185  
   1310000   0.262               1850   3.2169367e-08  4.9913445e+11  3.9676221e-06  0.067325185  
   1320000   0.264               1850   3.3483049e-08  5.2982382e+11  3.9676221e-06  0.067325185  
   1330000   0.266               1850   3.1363726e-08  4.9568251e+11  3.9676221e-06  0.067325185  
   1340000   0.268               1850   3.1298102e-08  4.9754116e+11  3.9676221e-06  0.067325185  
   1350000   0.27                1850   3.1670621e-08  5.0188658e+11  3.9676221e-06  0.067325185  
   1360000   0.272               1850   3.2738246e-08  5.2462878e+11  3.9676221e-06  0.067325185  
   1370000   0.274               1850   2.9484248e-08  5.0109283e+11  3.9676221e-06  0.067325185  
   1380000   0.276               1850   2.5066656e-08  4.2531682e+11  3.9676221e-06  0.067325185  
   1390000   0.278               1850   1.5825258e-08  2.7997735e+11  3.9676221e-06  0.067325185  
   1400000   0.28                1850   1.6056298e-08  2.776064e+11   3.9676221e-06  0.067325185  
   1410000   0.282               1850   1.0394138e-08  2.0891032e+11  3.9676221e-06  0.050210104  
   1420000   0.284               1850   9.4065041e-09  1.9586202e+11  3.9676221e-06  0.052555397  
   1430000   0.286               1850   5.1001874e-09  1.1566889e+11  3.9676221e-06  0.032299581  
   1440000   0.288               1850   5.2252871e-09  1.172261e+11   3.9676221e-06  0.03435253   
   1450000   0.29                1850   4.5381011e-09  9.6651697e+10  3.9676221e-06  0.025756177  
   1460000   0.292               1850   3.7272928e-09  8.0376291e+10  3.9676221e-06  0.026399797  
   1470000   0.294               1850   3.93205e-09    8.5381485e+10  3.9676221e-06  0.028059416  
   1480000   0.296               1850   3.9427612e-09  8.7816718e+10  3.9676221e-06  0.029766387  
   1490000   0.298               1850   2.8540085e-09  5.7175655e+10  3.9676221e-06  0.0315276    
   1500000   0.3                 1850   3.0346148e-09  6.02805e+10    3.9676221e-06  0.033392354  
   1510000   0.302               1850   2.6418293e-09  5.6367455e+10  3.9676221e-06  0.030089016  
   1520000   0.304               1850   1.9163397e-09  4.4573586e+10  3.9676221e-06  0.025084485  
   1530000   0.306               1850   2.1123642e-09  4.8164565e+10  3.9676221e-06  0.026113335  
   1540000   0.308               1850   2.162158e-09   4.6228964e+10  3.9676221e-06  0.028560093  
   1550000   0.31                1850   2.5522264e-09  5.4106212e+10  3.9676221e-06  0.031522397  
   1560000   0.312               1850   2.901369e-09   5.9717243e+10  3.9676221e-06  0.033801035  
   1570000   0.314               1850   3.1847414e-09  6.498912e+10   3.9676221e-06  0.035599597  
   1580000   0.316               1850   1.2084363e-09  2.7343332e+10  3.9676221e-06  0.021642676  
   1590000   0.318               1850   1.2208405e-09  2.5948262e+10  3.9676221e-06  0.022927444  
   1600000   0.32                1850   1.2677447e-09  2.6232109e+10  3.9676221e-06  0.024318294  
   1610000   0.322               1850   1.3584377e-09  2.7536376e+10  3.9676221e-06  0.025788776  
   1620000   0.324               1850   1.4856836e-09  2.9615948e+10  3.9676221e-06  0.02734386   
   1630000   0.326               1850   1.6257108e-09  3.2075226e+10  3.9676221e-06  0.028967235  
   1640000   0.328               1850   1.7980796e-09  3.5181058e+10  3.9676221e-06  0.030674453  
   1650000   0.33                1850   1.9968104e-09  3.886761e+10   3.9676221e-06  0.032457546  
   1660000   0.332               1850   1.5212015e-09  3.3488785e+10  3.9676221e-06  0.026223261  
   1670000   0.334               1850   2.6449846e-10  8.3871926e+09  3.9676221e-06  0.011366967  
   1680000   0.336               1850   2.580672e-10   7.6341115e+09  3.9676221e-06  0.011984994  
   1690000   0.338               1850   4.7172859e-11  1.765589e+09   3.9676221e-06  0.0037084032 
   1700000   0.34                1850   2.1425307e-11  7.1111516e+08  3.9676221e-06  0.0021416026 
   1710000   0.342               1850   2.1216451e-11  8.1854985e+08  3.9676221e-06  0.0029634565 
   1720000   0.344               1850   2.5057334e-12  2.5752979e+08  3.9676221e-06  0.00072521916
   1730000   0.346               1850   5.4617295e-12  3.4837541e+08  3.9676221e-06  0.0017247072 
   1740000   0.348               1850   1.2404028e-12  2.1865376e+08  3.9676221e-06  0.00052601536
   1750000   0.35                1850   4.0380226e-13  2.024455e+08   3.9676221e-06  0.00035959973
   1760000   0.352               1850   5.5552292e-14  1.9080077e+08  3.9676221e-06  6.2423024e-05
   1770000   0.354               1850   1.3173573e-14  1.8969539e+08  3.9676221e-06  1.7519782e-05
   1780000   0.356               1850   3.3029436e-15  1.8948746e+08  3.9676221e-06  1.1158215e-05
   1790000   0.358               1850   7.6260917e-16  1.8941895e+08  3.9676221e-06  7.1357209e-06
   1800000   0.36                1850   4.6693696e-16  1.8940979e+08  3.9676221e-06  5.7090492e-06
   1810000   0.362               1850   1.6761718e-16  1.8940196e+08  3.9676221e-06  2.1912282e-06
   1820000   0.364               1850   8.4823811e-17  1.8940077e+08  3.9676221e-06  2.2786124e-06
   1830000   0.366               1850   2.8356573e-17  1.8939955e+08  3.9676221e-06  1.4100443e-06
   1840000   0.368               1850   3.2075116e-17  1.8939954e+08  3.9676221e-06  1.7430098e-06
   1850000   0.37                1850   8.5852091e-18  1.893989e+08   3.9676221e-06  8.6316255e-07
   1860000   0.372               1850   6.2335881e-18  1.8939886e+08  3.9676221e-06  7.7047888e-07
   1870000   0.374               1850   1.2110911e-18  1.8939871e+08  3.9676221e-06  3.5286932e-07
   1880000   0.376               1850   2.5230202e-18  1.8939873e+08  3.9676221e-06  6.8197621e-07
   1890000   0.378               1850   6.7490451e-19  1.8939869e+08  3.9676221e-06  4.8374009e-07
   1900000   0.38                1850   6.1692259e-19  1.8939869e+08  3.9676221e-06  2.3606897e-07
   1910000   0.382               1850   2.9523787e-19  1.8939867e+08  3.9676221e-06  2.9819774e-07
   1920000   0.384               1850   3.7734571e-19  1.8939868e+08  3.9676221e-06  3.3963584e-07
   1930000   0.386               1850   1.3948958e-19  1.8939867e+08  3.9676221e-06  2.4733229e-07
   1940000   0.388               1850   1.0434752e-19  1.8939867e+08  3.9676221e-06  1.6386198e-07
   1950000   0.39                1850   6.4192992e-20  1.8939867e+08  3.9676221e-06  1.7135062e-07
   1960000   0.392               1850   7.0788683e-20  1.8939867e+08  3.9676221e-06  1.7229413e-07
   1970000   0.394               1850   3.5010068e-20  1.8939867e+08  3.9676221e-06  1.2839334e-07
   1980000   0.396               1850   2.5473454e-20  1.8939867e+08  3.9676221e-06  9.7217909e-08
   1990000   0.398               1850   1.7840517e-20  1.8939866e+08  3.9676221e-06  9.1509202e-08
   2000000   0.4                 1850   1.5086444e-20  1.8939866e+08  3.9676221e-06  8.3533129e-08
   2010000   0.402               1850   8.8323591e-21  1.8939866e+08  3.9676221e-06  6.4437391e-08
   2020000   0.404               1850   5.9030641e-21  1.8939866e+08  3.9676221e-06  5.0301103e-08
   2030000   0.406               1850   4.3167759e-21  1.8939866e+08  3.9676221e-06  4.5193159e-08
   2040000   0.408               1850   3.1651922e-21  1.8939866e+08  3.9676221e-06  3.8637199e-08
   2050000   0.41                1850   1.9299516e-21  1.8939866e+08  3.9676221e-06  3.0153101e-08
   2060000   0.412               1850   1.2607427e-21  1.8939866e+08  3.9676221e-06  2.3794999e-08
   2070000   0.414               1850   8.8116805e-22  1.8939866e+08  3.9676221e-06  2.0358923e-08
   2080000   0.416               1850   5.8885492e-22  1.8939866e+08  3.9676221e-06  1.6758374e-08
   2090000   0.418               1850   3.5909593e-22  1.8939866e+08  3.9676221e-06  1.2950978e-08
   2100000   0.42                1850   2.2533599e-22  1.8939866e+08  3.9676221e-06  1.0092427e-08
   2110000   0.422               1850   1.459395e-22   1.8939866e+08  3.9676221e-06  8.3081067e-09
   2120000   0.424               1850   8.9844693e-23  1.8939866e+08  3.9676221e-06  6.5338636e-09
   2130000   0.426               1850   5.2527258e-23  1.8939866e+08  3.9676221e-06  4.9250294e-09
   2140000   0.428               1850   2.9618315e-23  1.8939866e+08  3.9676221e-06  3.6779889e-09
   2150000   0.43                1850   1.7201261e-23  1.8939866e+08  3.9676221e-06  2.8654775e-09
   2160000   0.432               1850   9.4915993e-24  1.8939866e+08  3.9676221e-06  2.094409e-09 
   2170000   0.434               1850   4.7290431e-24  1.8939866e+08  3.9676221e-06  1.4365976e-09
   2180000   0.436               1850   2.0415627e-24  1.8939866e+08  3.9676221e-06  9.384707e-10 
   2190000   0.438               1850   9.553866e-25   1.8939866e+08  3.9676221e-06  6.1798705e-10
   2200000   0.44                1850   4.2675794e-25  1.8939866e+08  3.9676221e-06  3.5088052e-10
   2210000   0.442               1850   1.5244238e-25  1.8939866e+08  3.9676221e-06  1.3785628e-10
   2220000   0.444               1850   9.4952738e-26  1.8939866e+08  3.9676221e-06  3.8577661e-11
   2230000   0.446               1850   1.4698897e-25  1.8939866e+08  3.9676221e-06  1.1362577e-10
   2240000   0.448               1850   1.871224e-25   1.8939866e+08  3.9676221e-06  2.0110124e-10
   2250000   0.45                1850   2.2860139e-25  1.8939866e+08  3.9676221e-06  2.5185122e-10
   2260000   0.452               1850   2.7756192e-25  1.8939866e+08  3.9676221e-06  2.8980004e-10
   2270000   0.454               1850   2.6695696e-25  1.8939866e+08  3.9676221e-06  2.8055777e-10
   2280000   0.456               1850   2.6996354e-25  1.8939866e+08  3.9676221e-06  3.0464297e-10
   2290000   0.458               1850   2.3143506e-25  1.8939866e+08  3.9676221e-06  2.8419012e-10
   2300000   0.46                1850   1.9690357e-25  1.8939866e+08  3.9676221e-06  2.6200637e-10
   2310000   0.462               1850   1.599558e-25   1.8939866e+08  3.9676221e-06  2.3760847e-10
   2320000   0.464               1850   1.2410423e-25  1.8939866e+08  3.9676221e-06  2.1488284e-10
   2330000   0.466               1850   9.6030075e-26  1.8939866e+08  3.9676221e-06  1.8668695e-10
   2340000   0.468               1850   7.2660388e-26  1.8939866e+08  3.9676221e-06  1.5770565e-10
   2350000   0.47                1850   4.9807916e-26  1.8939866e+08  3.9676221e-06  1.255558e-10 
   2360000   0.472               1850   2.7150296e-26  1.8939866e+08  3.9676221e-06  7.5131674e-11
   2370000   0.474               1850   1.9370355e-26  1.8939866e+08  3.9676221e-06  3.9941671e-11
   2380000   0.476               1850   1.5136512e-26  1.8939866e+08  3.9676221e-06  1.784326e-11 
   2390000   0.478               1850   1.8152093e-26  1.8939866e+08  3.9676221e-06  2.7667793e-11
   2400000   0.48                1850   1.7877979e-26  1.8939866e+08  3.9676221e-06  4.0525487e-11
   2410000   0.482               1850   1.7304982e-26  1.8939866e+08  3.9676221e-06  4.0830713e-11
   2420000   0.484               1850   1.6451269e-26  1.8939866e+08  3.9676221e-06  3.2704669e-11
   2430000   0.486               1850   1.4362753e-26  1.8939866e+08  3.9676221e-06  1.748511e-11 
   2440000   0.488               1850   1.4328641e-26  1.8939866e+08  3.9676221e-06  1.9883537e-11
   2450000   0.49                1850   1.5845569e-26  1.8939866e+08  3.9676221e-06  2.7050773e-11
   2460000   0.492               1850   1.4560845e-26  1.8939866e+08  3.9676221e-06  2.8034356e-11
   2470000   0.494               1850   1.3587052e-26  1.8939866e+08  3.9676221e-06  1.7048739e-11
   2480000   0.496               1850   1.4615739e-26  1.8939866e+08  3.9676221e-06  1.7377631e-11
   2490000   0.498               1850   1.6203101e-26  1.8939866e+08  3.9676221e-06  2.2918741e-11
   2500000   0.5                 1850   1.7080375e-26  1.8939866e+08  3.9676221e-06  1.8354736e-11
   2510000   0.502               1850   1.6939928e-26  1.8939866e+08  3.9676221e-06  1.7609697e-11
   2520000   0.504               1850   1.8150523e-26  1.8939866e+08  3.9676221e-06  1.8130156e-11
   2530000   0.506               1850   1.8488386e-26  1.8939866e+08  3.9676221e-06  1.9158554e-11
   2540000   0.508               1850   1.8212058e-26  1.8939866e+08  3.9676221e-06  1.890599e-11 
   2550000   0.51                1850   1.8114565e-26  1.8939866e+08  3.9676221e-06  1.8856242e-11
   2560000   0.512               1850   1.8350706e-26  1.8939866e+08  3.9676221e-06  1.8948589e-11
   2570000   0.514               1850   1.8542022e-26  1.8939866e+08  3.9676221e-06  1.8892636e-11
   2580000   0.516               1850   1.9651292e-26  1.8939866e+08  3.9676221e-06  1.8792103e-11
   2590000   0.518               1850   2.0687757e-26  1.8939866e+08  3.9676221e-06  1.875808e-11 
   2600000   0.52                1850   2.0682592e-26  1.8939866e+08  3.9676221e-06  1.8905568e-11
   2610000   0.522               1850   2.1797232e-26  1.8939866e+08  3.9676221e-06  1.8999497e-11
   2620000   0.524               1850   2.2746967e-26  1.8939866e+08  3.9676221e-06  1.9174694e-11
   2630000   0.526               1850   2.2951977e-26  1.8939866e+08  3.9676221e-06  1.8814813e-11
   2640000   0.528               1850   2.2242462e-26  1.8939866e+08  3.9676221e-06  1.8705637e-11
   2650000   0.53                1850   2.1924922e-26  1.8939866e+08  3.9676221e-06  1.8633098e-11
   2660000   0.532               1850   2.0468141e-26  1.8939866e+08  3.9676221e-06  1.8131015e-11
   2670000   0.534               1850   2.0131933e-26  1.8939866e+08  3.9676221e-06  1.8170857e-11
   2680000   0.536               1850   1.9868219e-26  1.8939866e+08  3.9676221e-06  1.8403778e-11
   2690000   0.538               1850   1.9516312e-26  1.8939866e+08  3.9676221e-06  1.8281389e-11
   2700000   0.54                1850   2.0542819e-26  1.8939866e+08  3.9676221e-06  1.8527473e-11
   2710000   0.542               1850   2.0204382e-26  1.8939866e+08  3.9676221e-06  1.8810138e-11
   2720000   0.544               1850   1.9773943e-26  1.8939866e+08  3.9676221e-06  1.877672e-11 
   2730000   0.546               1850   1.9811213e-26  1.8939866e+08  3.9676221e-06  1.9048802e-11
   2740000   0.548               1850   2.0224505e-26  1.8939866e+08  3.9676221e-06  1.8866767e-11
   2750000   0.55                1850   2.106517e-26   1.8939866e+08  3.9676221e-06  1.9217403e-11
   2760000   0.552               1850   2.0709002e-26  1.8939866e+08  3.9676221e-06  1.9177879e-11
   2770000   0.554               1850   2.0549153e-26  1.8939866e+08  3.9676221e-06  1.9023511e-11
   2780000   0.556               1850   2.0406118e-26  1.8939866e+08  3.9676221e-06  1.9122774e-11
   2790000   0.558               1850   2.0535709e-26  1.8939866e+08  3.9676221e-06  1.9311329e-11
   2800000   0.56                1850   2.1449488e-26  1.8939866e+08  3.9676221e-06  1.9706508e-11
   2810000   0.562               1850   2.1131662e-26  1.8939866e+08  3.9676221e-06  1.9571298e-11
   2820000   0.564               1850   2.0804776e-26  1.8939866e+08  3.9676221e-06  1.9464018e-11
   2830000   0.566               1850   2.1051641e-26  1.8939866e+08  3.9676221e-06  1.9358125e-11
   2840000   0.568               1850   2.1294392e-26  1.8939866e+08  3.9676221e-06  1.9345525e-11
   2850000   0.57                1850   2.0873941e-26  1.8939866e+08  3.9676221e-06  1.9233259e-11
   2860000   0.572               1850   2.1806028e-26  1.8939866e+08  3.9676221e-06  1.9224905e-11
   2870000   0.574               1850   2.120727e-26   1.8939866e+08  3.9676221e-06  1.9232688e-11
   2880000   0.576               1850   2.0867405e-26  1.8939866e+08  3.9676221e-06  1.9357012e-11
   2890000   0.578               1850   2.2116417e-26  1.8939866e+08  3.9676221e-06  1.9663521e-11
   2900000   0.58                1850   2.1920823e-26  1.8939866e+08  3.9676221e-06  1.9411725e-11
   2910000   0.582               1850   2.229082e-26   1.8939866e+08  3.9676221e-06  1.9357306e-11
   2920000   0.584               1850   2.2395211e-26  1.8939866e+08  3.9676221e-06  1.8876749e-11
   2930000   0.586               1850   2.1018962e-26  1.8939866e+08  3.9676221e-06  1.9061012e-11
   2940000   0.588               1850   2.1777869e-26  1.8939866e+08  3.9676221e-06  1.918963e-11 
   2950000   0.59                1850   2.2336949e-26  1.8939866e+08  3.9676221e-06  1.904209e-11 
   2960000   0.592               1850   2.3610948e-26  1.8939866e+08  3.9676221e-06  1.9137124e-11
   2970000   0.594               1850   2.3445243e-26  1.8939866e+08  3.9676221e-06  1.9317103e-11
   2980000   0.596               1850   2.3569707e-26  1.8939866e+08  3.9676221e-06  1.9165713e-11
   2990000   0.598               1850   2.3719899e-26  1.8939866e+08  3.9676221e-06  1.8798047e-11
   3000000   0.6                 1850   2.2022465e-26  1.8939866e+08  3.9676221e-06  1.8651224e-11
   3010000   0.602               1850   2.1364135e-26  1.8939866e+08  3.9676221e-06  1.8763708e-11
   3020000   0.604               1850   2.0886439e-26  1.8939866e+08  3.9676221e-06  1.854506e-11 
   3030000   0.606               1850   1.9823501e-26  1.8939866e+08  3.9676221e-06  1.8646548e-11
   3040000   0.608               1850   2.0156473e-26  1.8939866e+08  3.9676221e-06  1.8851245e-11
   3050000   0.61                1850   2.1317373e-26  1.8939866e+08  3.9676221e-06  1.9015802e-11
   3060000   0.612               1850   2.1188771e-26  1.8939866e+08  3.9676221e-06  1.9049115e-11
   3070000   0.614               1850   2.1308466e-26  1.8939866e+08  3.9676221e-06  1.8890673e-11
   3080000   0.616               1850   2.1942506e-26  1.8939866e+08  3.9676221e-06  1.9130357e-11
   3090000   0.618               1850   1.9822548e-26  1.8939866e+08  3.9676221e-06  1.921574e-11 
   3100000   0.62                1850   1.9547635e-26  1.8939866e+08  3.9676221e-06  1.9175816e-11
   3110000   0.622               1850   2.0200681e-26  1.8939866e+08  3.9676221e-06  1.9066251e-11
   3120000   0.624               1850   1.9732007e-26  1.8939866e+08  3.9676221e-06  1.8894932e-11
   3130000   0.626               1850   1.9374669e-26  1.8939866e+08  3.9676221e-06  1.8902051e-11
   3140000   0.628               1850   1.7936388e-26  1.8939866e+08  3.9676221e-06  1.8433391e-11
   3150000   0.63                1850   1.8037163e-26  1.8939866e+08  3.9676221e-06  1.856324e-11 
   3160000   0.632               1850   1.8576335e-26  1.8939866e+08  3.9676221e-06  1.8623837e-11
   3170000   0.634               1850   1.8994516e-26  1.8939866e+08  3.9676221e-06  1.8521366e-11
   3180000   0.636               1850   1.8989405e-26  1.8939866e+08  3.9676221e-06  1.8246442e-11
   3190000   0.638               1850   1.8918823e-26  1.8939866e+08  3.9676221e-06  1.8473148e-11
   3200000   0.64                1850   1.9251731e-26  1.8939866e+08  3.9676221e-06  1.8453823e-11
   3210000   0.642               1850   1.9745277e-26  1.8939866e+08  3.9676221e-06  1.8517873e-11
   3220000   0.644               1850   1.9758468e-26  1.8939866e+08  3.9676221e-06  1.8410887e-11
   3230000   0.646               1850   1.933755e-26   1.8939866e+08  3.9676221e-06  1.8506251e-11
   3240000   0.648               1850   1.8983027e-26  1.8939866e+08  3.9676221e-06  1.8411702e-11
   3250000   0.65                1850   2.0855148e-26  1.8939866e+08  3.9676221e-06  1.8262898e-11
   3260000   0.652               1850   2.2769279e-26  1.8939866e+08  3.9676221e-06  1.8331398e-11
   3270000   0.654               1850   2.3167595e-26  1.8939866e+08  3.9676221e-06  1.8353419e-11
   3280000   0.656               1850   2.2121831e-26  1.8939866e+08  3.9676221e-06  1.855938e-11 
   3290000   0.658               1850   2.174636e-26   1.8939866e+08  3.9676221e-06  1.8756806e-11
   3300000   0.66                1850   2.2015201e-26  1.8939866e+08  3.9676221e-06  1.857991e-11 
   3310000   0.662               1850   2.1648528e-26  1.8939866e+08  3.9676221e-06  1.8605445e-11
   3320000   0.664               1850   2.4156293e-26  1.8939866e+08  3.9676221e-06  1.8587104e-11
   3330000   0.666               1850   2.2938334e-26  1.8939866e+08  3.9676221e-06  1.8737794e-11
   3340000   0.668               1850   2.2078754e-26  1.8939866e+08  3.9676221e-06  1.8508448e-11
   3350000   0.67                1850   2.0832267e-26  1.8939866e+08  3.9676221e-06  1.8353677e-11
   3360000   0.672               1850   1.9672975e-26  1.8939866e+08  3.9676221e-06  1.8374205e-11
   3370000   0.674               1850   1.8958464e-26  1.8939866e+08  3.9676221e-06  1.8471427e-11
   3380000   0.676               1850   1.8584589e-26  1.8939866e+08  3.9676221e-06  1.8029701e-11
   3390000   0.678               1850   1.9358487e-26  1.8939866e+08  3.9676221e-06  1.818674e-11 
   3400000   0.68                1850   1.9324567e-26  1.8939866e+08  3.9676221e-06  1.8344892e-11
   3410000   0.682               1850   1.8735775e-26  1.8939866e+08  3.9676221e-06  1.8163885e-11
   3420000   0.684               1850   1.8433848e-26  1.8939866e+08  3.9676221e-06  1.8101145e-11
   3430000   0.686               1850   1.842991e-26   1.8939866e+08  3.9676221e-06  1.7838204e-11
   3440000   0.688               1850   1.8456257e-26  1.8939866e+08  3.9676221e-06  1.8241593e-11
   3450000   0.69                1850   1.839206e-26   1.8939866e+08  3.9676221e-06  1.8568076e-11
   3460000   0.692               1850   1.7976132e-26  1.8939866e+08  3.9676221e-06  1.8577565e-11
   3470000   0.694               1850   1.8046465e-26  1.8939866e+08  3.9676221e-06  1.8520878e-11
   3480000   0.696               1850   1.8852562e-26  1.8939866e+08  3.9676221e-06  1.8515502e-11
   3490000   0.698               1850   1.8963302e-26  1.8939866e+08  3.9676221e-06  1.8430587e-11
   3500000   0.7                 1850   1.8712101e-26  1.8939866e+08  3.9676221e-06  1.838509e-11 
   3510000   0.702               1850   1.7801202e-26  1.8939866e+08  3.9676221e-06  1.8406084e-11
   3520000   0.704               1850   1.8837112e-26  1.8939866e+08  3.9676221e-06  1.8198595e-11
   3530000   0.706               1850   1.9302195e-26  1.8939866e+08  3.9676221e-06  1.8056168e-11
   3540000   0.708               1850   1.8781044e-26  1.8939866e+08  3.9676221e-06  1.814912e-11 
   3550000   0.71                1850   1.8047405e-26  1.8939866e+08  3.9676221e-06  1.8158465e-11
   3560000   0.712               1850   1.7993437e-26  1.8939866e+08  3.9676221e-06  1.8544428e-11
   3570000   0.714               1850   1.7746165e-26  1.8939866e+08  3.9676221e-06  1.8531034e-11
   3580000   0.716               1850   1.7895709e-26  1.8939866e+08  3.9676221e-06  1.856251e-11 
   3590000   0.718               1850   1.8748593e-26  1.8939866e+08  3.9676221e-06  1.8725738e-11
   3600000   0.72                1850   1.8468771e-26  1.8939866e+08  3.9676221e-06  1.8754218e-11
   3610000   0.722               1850   1.8432128e-26  1.8939866e+08  3.9676221e-06  1.8971578e-11
   3620000   0.724               1850   1.8537366e-26  1.8939866e+08  3.9676221e-06  1.8952534e-11
   3630000   0.726               1850   1.9106981e-26  1.8939866e+08  3.9676221e-06  1.8944206e-11
   3640000   0.728               1850   1.9777121e-26  1.8939866e+08  3.9676221e-06  1.9055499e-11
   3650000   0.73                1850   1.9919008e-26  1.8939866e+08  3.9676221e-06  1.9379471e-11
   3660000   0.732               1850   1.9394212e-26  1.8939866e+08  3.9676221e-06  1.9075811e-11
   3670000   0.734               1850   1.9060625e-26  1.8939866e+08  3.9676221e-06  1.9140093e-11
   3680000   0.736               1850   1.9401912e-26  1.8939866e+08  3.9676221e-06  1.9188658e-11
   3690000   0.738               1850   1.9718014e-26  1.8939866e+08  3.9676221e-06  1.9112592e-11
   3700000   0.74                1850   2.065306e-26   1.8939866e+08  3.9676221e-06  1.9121343e-11
   3710000   0.742               1850   2.0513228e-26  1.8939866e+08  3.9676221e-06  1.9020324e-11
   3720000   0.744               1850   2.0029577e-26  1.8939866e+08  3.9676221e-06  1.9161273e-11
   3730000   0.746               1850   1.9583413e-26  1.8939866e+08  3.9676221e-06  1.9160116e-11
   3740000   0.748               1850   1.9603268e-26  1.8939866e+08  3.9676221e-06  1.928052e-11 
   3750000   0.75                1850   1.9807105e-26  1.8939866e+08  3.9676221e-06  1.9178034e-11
   3760000   0.752               1850   2.0642094e-26  1.8939866e+08  3.9676221e-06  1.9239736e-11
   3770000   0.754               1850   2.1924495e-26  1.8939866e+08  3.9676221e-06  1.9389285e-11
   3780000   0.756               1850   2.0397168e-26  1.8939866e+08  3.9676221e-06  1.9450408e-11
   3790000   0.758               1850   1.9646438e-26  1.8939866e+08  3.9676221e-06  1.9328007e-11
   3800000   0.76                1850   2.0389218e-26  1.8939866e+08  3.9676221e-06  1.9068592e-11
   3810000   0.762               1850   2.2491883e-26  1.8939866e+08  3.9676221e-06  1.9186843e-11
   3820000   0.764               1850   2.2806348e-26  1.8939866e+08  3.9676221e-06  1.9225811e-11
   3830000   0.766               1850   2.255516e-26   1.8939866e+08  3.9676221e-06  1.9119326e-11
   3840000   0.768               1850   2.1676361e-26  1.8939866e+08  3.9676221e-06  1.9308379e-11
   3850000   0.77                1850   2.2069288e-26  1.8939866e+08  3.9676221e-06  1.9028215e-11
   3860000   0.772               1850   2.2561677e-26  1.8939866e+08  3.9676221e-06  1.884341e-11 
   3870000   0.774               1850   2.247977e-26   1.8939866e+08  3.9676221e-06  1.8924065e-11
   3880000   0.776               1850   2.3380887e-26  1.8939866e+08  3.9676221e-06  1.8956767e-11
   3890000   0.778               1850   2.3682812e-26  1.8939866e+08  3.9676221e-06  1.9147367e-11
   3900000   0.78                1850   2.2832758e-26  1.8939866e+08  3.9676221e-06  1.9179938e-11
   3910000   0.782               1850   2.222132e-26   1.8939866e+08  3.9676221e-06  1.8902819e-11
   3920000   0.784               1850   2.0398572e-26  1.8939866e+08  3.9676221e-06  1.8795525e-11
   3930000   0.786               1850   1.9891429e-26  1.8939866e+08  3.9676221e-06  1.8492067e-11
   3940000   0.788               1850   1.9819483e-26  1.8939866e+08  3.9676221e-06  1.8402039e-11
   3950000   0.79                1850   2.0767578e-26  1.8939866e+08  3.9676221e-06  1.8467189e-11
   3960000   0.792               1850   2.1538428e-26  1.8939866e+08  3.9676221e-06  1.8559605e-11
   3970000   0.794               1850   2.1838563e-26  1.8939866e+08  3.9676221e-06  1.8741852e-11
   3980000   0.796               1850   2.2331985e-26  1.8939866e+08  3.9676221e-06  1.8728045e-11
   3990000   0.798               1850   2.2451781e-26  1.8939866e+08  3.9676221e-06  1.8738554e-11
   4000000   0.8                 1850   2.2279466e-26  1.8939866e+08  3.9676221e-06  1.8590528e-11
Loop time of 1029.03 on 1 procs for 4000000 steps with 1850 atoms

100.0% CPU use with 1 MPI tasks x 1 OpenMP threads

MPI task timing breakdown:
Section |  min time  |  avg time  |  max time  |%varavg| %total
---------------------------------------------------------------
Pair    | 788.81     | 788.81     | 788.81     |   0.0 | 76.66
Neigh   | 0.10592    | 0.10592    | 0.10592    |   0.0 |  0.01
Comm    | 0.084496   | 0.084496   | 0.084496   |   0.0 |  0.01
Output  | 0.29568    | 0.29568    | 0.29568    |   0.0 |  0.03
Modify  | 229.87     | 229.87     | 229.87     |   0.0 | 22.34
Other   |            | 9.857      |            |       |  0.96

Nlocal:           1850 ave        1850 max        1850 min
Histogram: 1 0 0 0 0 0 0 0 0 0
Nghost:              0 ave           0 max           0 min
Histogram: 1 0 0 0 0 0 0 0 0 0
Neighs:           7017 ave        7017 max        7017 min
Histogram: 1 0 0 0 0 0 0 0 0 0

Total # of neighbors = 7017
Ave neighs/atom = 3.792973
Neighbor list builds = 179
Dangerous builds = 0
Generated 0 of 0 mixed pair_coeff terms from geometric mixing rule
Setting up Verlet run ...
  Unit style    : si
  Current step  : 4000000
  Time step     : 2e-07
Per MPI rank memory allocation (min/avg/max) = 13 | 13 | 13 Mbytes
   Step          Time         Atoms        KinEng     c_granularTemp c_solidVolume    c_maxSpeed  
   4000000   0.8                 1850   2.2279466e-26  1.8939866e+08  3.9676221e-06  1.8590528e-11
Loop time of 2.52e-07 on 1 procs for 0 steps with 1850 atoms

0.0% CPU use with 1 MPI tasks x 1 OpenMP threads

MPI task timing breakdown:
Section |  min time  |  avg time  |  max time  |%varavg| %total
---------------------------------------------------------------
Pair    | 0          | 0          | 0          |   0.0 |  0.00
Neigh   | 0          | 0          | 0          |   0.0 |  0.00
Comm    | 0          | 0          | 0          |   0.0 |  0.00
Output  | 0          | 0          | 0          |   0.0 |  0.00
Modify  | 0          | 0          | 0          |   0.0 |  0.00
Other   |            | 2.52e-07   |            |       |100.00

Nlocal:           1850 ave        1850 max        1850 min
Histogram: 1 0 0 0 0 0 0 0 0 0
Nghost:              0 ave           0 max           0 min
Histogram: 1 0 0 0 0 0 0 0 0 0
Neighs:           7017 ave        7017 max        7017 min
Histogram: 1 0 0 0 0 0 0 0 0 0

Total # of neighbors = 7017
Ave neighs/atom = 3.792973
Neighbor list builds = 0
Dangerous builds = 0
Generated 0 of 0 mixed pair_coeff terms from geometric mixing rule
Neighbor list info ...
  update: every = 1 steps, delay = 0 steps, check = yes
  max neighbors/atom: 2000, page size: 100000
  master list distance cutoff = 0.00185
  ghost atom cutoff = 0.00185
  binsize = 0.000925, bins = 18 18 76
  3 neighbor lists, perpetual/occasional/extra = 1 2 0
  (1) pair granular, perpetual
      attributes: half, newton off, size, history
      pair build: half/size/bin/atomonly/newtoff
      stencil: full/bin/3d
      bin: standard
  (2) compute property/local, occasional
      attributes: half, newton off, size
      pair build: half/size/bin/atomonly/newtoff
      stencil: full/bin/3d
      bin: standard
  (3) compute pair/local, occasional
      attributes: half, newton off, size
      pair build: half/size/bin/atomonly/newtoff
      stencil: full/bin/3d
      bin: standard
Setting up Verlet run ...
  Unit style    : si
  Current step  : 4000000
  Time step     : 2e-07
Per MPI rank memory allocation (min/avg/max) = 14.26 | 14.26 | 14.26 Mbytes
   Step          Time         Atoms        KinEng     c_granularTemp c_solidVolume    c_maxSpeed  
   4000000   0.8                 1850   2.2279466e-26  1.8939866e+08  3.9676221e-06  1.8590528e-11
   4000001   0.8000002           1850   2.2279423e-26  1.8939866e+08  3.9676221e-06  1.8590956e-11
Loop time of 0.0063788 on 1 procs for 1 steps with 1850 atoms

100.0% CPU use with 1 MPI tasks x 1 OpenMP threads

MPI task timing breakdown:
Section |  min time  |  avg time  |  max time  |%varavg| %total
---------------------------------------------------------------
Pair    | 0.00020431 | 0.00020431 | 0.00020431 |   0.0 |  3.20
Neigh   | 0          | 0          | 0          |   0.0 |  0.00
Comm    | 8.8e-08    | 8.8e-08    | 8.8e-08    |   0.0 |  0.00
Output  | 0.0061093  | 0.0061093  | 0.0061093  |   0.0 | 95.77
Modify  | 6.1277e-05 | 6.1277e-05 | 6.1277e-05 |   0.0 |  0.96
Other   |            | 3.835e-06  |            |       |  0.06

Nlocal:           1850 ave        1850 max        1850 min
Histogram: 1 0 0 0 0 0 0 0 0 0
Nghost:              0 ave           0 max           0 min
Histogram: 1 0 0 0 0 0 0 0 0 0
Neighs:           7017 ave        7017 max        7017 min
Histogram: 1 0 0 0 0 0 0 0 0 0

Total # of neighbors = 7017
Ave neighs/atom = 3.792973
Neighbor list builds = 0
Dangerous builds = 0
System init for write_data ...
Generated 0 of 0 mixed pair_coeff terms from geometric mixing rule
System init for write_restart ...
Generated 0 of 0 mixed pair_coeff terms from geometric mixing rule
seed Ntarget Nfinal dp_m density_kgm3 Dtube_m D_over_dp solidVolume_m3 bedHeight_m bedVolume_m3 packingFraction porosity minParticleBottom_m kineticEnergy_J maxSpeed_ms
113117 1850 1850 0.0016 1600 0.016 10 3.96762208197362e-06 0.036595365840706 7.35793487875794e-06 0.539230388329201 0.460769611670799 -1.20930869960576e-06 2.22794231540248e-26 1.85909557874862e-11
Packing generation completed: co2_13x_seed_113117
ACCEPT only if Nfinal=Ntarget, the bed is settled, and overlap/geometry checks pass.
For the 20-packing pilot, change only seed_realization.
CO2 diffusion and particle LDF adsorption are added later in the pore-network solver, not here.
Total wall time: 0:22:05
