Authorization required, but no authorization protocol specified

Authorization required, but no authorization protocol specified

Authorization required, but no authorization protocol specified

Authorization required, but no authorization protocol specified

LAMMPS (22 Jul 2025 - Update 5)
OMP_NUM_THREADS environment is not set. Defaulting to 1 thread.
  using 1 OpenMP thread(s) per MPI task
OMP_NUM_THREADS environment is not set. Defaulting to 1 thread.
  using 1 OpenMP thread(s) per MPI task
CO2 sorbent = commercial zeolite 13X (mechanical packing only)
Realization seed = 129121
Target particle count = 1850
Bead diameter [m] = 0.0016
Tube diameter [m] = 0.016
Tube-to-particle diameter ratio = 10
Target solid volume [m^3] = 3.96762208197367e-06
Created orthogonal box = (-0.008 -0.008 0) to (0.008 0.008 0.07)
  1 by 1 by 1 MPI processor grid
Generated 0 of 0 mixed pair_coeff terms from geometric mixing rule
Particle insertion: 303 every 319275 steps, 1850 by step 1915651
Neighbor list info ...
  update: every = 1 steps, delay = 0 steps, check = yes
  max neighbors/atom: 2000, page size: 100000
  master list distance cutoff = 0.00185
  ghost atom cutoff = 0.00185
  binsize = 0.000925, bins = 18 18 76
  1 neighbor lists, perpetual/occasional/extra = 1 0 0
  (1) pair granular, perpetual
      attributes: half, newton off, size, history
      pair build: half/size/bin/atomonly/newtoff
      stencil: full/bin/3d
      bin: standard
Setting up Verlet run ...
  Unit style    : si
  Current step  : 0
  Time step     : 2e-07
Per MPI rank memory allocation (min/avg/max) = 7.438 | 7.438 | 7.438 Mbytes
   Step          Time         Atoms        KinEng     c_granularTemp c_solidVolume    c_maxSpeed  
         0   0                      0  -0              0              0             -1e+20        
WARNING: Fewer insertions than requested (src/GRANULAR/fix_pour.cpp:691)
     10000   0.002                193  -0              5.4286176e+15  4.1391949e-07  0.6044868    
     20000   0.004                193  -0              5.3191076e+15  4.1391949e-07  0.58932094   
     30000   0.006                193  -0              5.2233466e+15  4.1391949e-07  0.57501374   
     40000   0.008                193  -0              5.1397255e+15  4.1391949e-07  0.5615166    
     50000   0.01                 193  -0              5.0668178e+15  4.1391949e-07  0.54878364   
     60000   0.012                193  -0              5.003359e+15   4.1391949e-07  0.5367716    
     70000   0.014                193  -0              4.9482286e+15  4.1391949e-07  0.52543966   
     80000   0.016                193  -0              4.9004341e+15  4.1391949e-07  0.51474933   
     90000   0.018                193  -0              4.8590965e+15  4.1391949e-07  0.50466426   
    100000   0.02                 193  -0              4.8234373e+15  4.1391949e-07  0.49515019   
    110000   0.022                193  -0              4.7927679e+15  4.1391949e-07  0.48617479   
    120000   0.024                193  -0              4.7664788e+15  4.1391949e-07  0.47770757   
    130000   0.026                193  -0              4.7440312e+15  4.1391949e-07  0.46971975   
    140000   0.028                193  -0              4.7249485e+15  4.1391949e-07  0.46218418   
    150000   0.03                 193  -0              4.70881e+15    4.1391949e-07  0.45507527   
    160000   0.032                193  -0              4.6952438e+15  4.1391949e-07  0.44836886   
    170000   0.034                193  -0              4.6839218e+15  4.1391949e-07  0.44204215   
    180000   0.036                193  -0              4.6745545e+15  4.1391949e-07  0.43607364   
    190000   0.038                193  -0              4.6668867e+15  4.1391949e-07  0.43044307   
    200000   0.04                 193  -0              4.6606935e+15  4.1391949e-07  0.42513129   
    210000   0.042                193  -0              4.655777e+15   4.1391949e-07  0.42012025   
    220000   0.044                193  -0              4.651963e+15   4.1391949e-07  0.41539294   
    230000   0.046                193  -0              4.6490984e+15  4.1391949e-07  0.41093327   
    240000   0.048                193  -0              4.6470487e+15  4.1391949e-07  0.40672611   
    250000   0.05                 193  -0              4.645696e+15   4.1391949e-07  0.40275714   
    260000   0.052                193  -0              4.6449368e+15  4.1391949e-07  0.3990129    
    270000   0.054                193  -0              4.6446808e+15  4.1391949e-07  0.39548064   
    280000   0.056                193  -0              4.6448487e+15  4.1391949e-07  0.39214838   
    290000   0.058                193  -0              4.6453716e+15  4.1391949e-07  0.38900479   
    300000   0.06                 193  -0              4.6461892e+15  4.1391949e-07  0.38603918   
    310000   0.062                193  -0              4.6472491e+15  4.1391949e-07  0.38324148   
WARNING: Fewer insertions than requested (src/GRANULAR/fix_pour.cpp:691)
    320000   0.064                439  -0              5.4181555e+15  9.41506e-07    0.62239512   
    330000   0.066                439  -0              5.2993923e+15  9.41506e-07    0.60621532   
    340000   0.068                439  -0              5.2110013e+15  9.41506e-07    0.59095159   
    350000   0.07                 439  -0              5.1405416e+15  9.41506e-07    0.57655207   
    360000   0.072                439  -0              5.0774357e+15  9.41506e-07    0.56296782   
    370000   0.074                439  -0              5.0264691e+15  9.41506e-07    0.5501527    
    380000   0.076                439  -0              4.9811499e+15  9.41506e-07    0.53806315   
    390000   0.078                439  -0              4.9460991e+15  9.41506e-07    0.52665809   
    400000   0.08                 439  -0              4.9148395e+15  9.41506e-07    0.51589876   
    410000   0.082                439  -0              4.8846226e+15  9.41506e-07    0.50234521   
    420000   0.084                439  -0              4.8593029e+15  9.41506e-07    0.49296244   
    430000   0.086                439  -0              4.8028743e+15  9.41506e-07    0.47409823   
    440000   0.088                439  -0              4.7728561e+15  9.41506e-07    0.46631      
    450000   0.09                 439  -0              4.7401517e+15  9.41506e-07    0.45896311   
    460000   0.092                439  -0              4.714754e+15   9.41506e-07    0.45203254   
    470000   0.094                439  -0              4.666875e+15   9.41506e-07    0.44549471   
    480000   0.096                439  -0              4.5683575e+15  9.41506e-07    0.43932735   
    490000   0.098                439  -0              4.5369517e+15  9.41506e-07    0.43350947   
    500000   0.1                  439  -0              4.4901223e+15  9.41506e-07    0.42802125   
    510000   0.102                439  -0              4.4430522e+15  9.41506e-07    0.42284402   
    520000   0.104                439  -0              4.4030446e+15  9.41506e-07    0.41796014   
    530000   0.106                439  -0              4.3800627e+15  9.41506e-07    0.41335298   
    540000   0.108                439  -0              4.3446645e+15  9.41506e-07    0.40900688   
    550000   0.11                 439  -0              4.2941279e+15  9.41506e-07    0.40490701   
    560000   0.112                439  -0              4.2566671e+15  9.41506e-07    0.40103944   
    570000   0.114                439  -0              4.2336394e+15  9.41506e-07    0.39467145   
    580000   0.116                439  -0              4.2017055e+15  9.41506e-07    0.39138328   
    590000   0.118                439  -0              4.1768912e+15  9.41506e-07    0.38828144   
    600000   0.12                 439  -0              4.1641532e+15  9.41506e-07    0.38535538   
    610000   0.122                439  -0              4.1535239e+15  9.41506e-07    0.38259512   
    620000   0.124                439  -0              4.1287915e+15  9.41506e-07    0.37999127   
    630000   0.126                439  -0              4.1056909e+15  9.41506e-07    0.37753495   
WARNING: Fewer insertions than requested (src/GRANULAR/fix_pour.cpp:691)
    640000   0.128                674  -0              4.4903636e+15  1.4455012e-06  0.61774998   
    650000   0.13                 674  -0              4.4066866e+15  1.4455012e-06  0.60200217   
    660000   0.132                674  -0              4.3384735e+15  1.4455012e-06  0.58625385   
    670000   0.134                674  -0              4.2733861e+15  1.4455012e-06  0.57212031   
    680000   0.136                674  -0              4.2313745e+15  1.4455012e-06  0.55878699   
    690000   0.138                674  -0              4.1977576e+15  1.4455012e-06  0.54212329   
    700000   0.14                 674  -0              4.1630481e+15  1.4455012e-06  0.53048835   
    710000   0.142                674  -0              4.1288476e+15  1.4455012e-06  0.51951216   
    720000   0.144                674  -0              4.0934068e+15  1.4455012e-06  0.50915743   
    730000   0.146                674  -0              4.0680406e+15  1.4455012e-06  0.49938896   
    740000   0.148                674  -0              4.0157834e+15  1.4455012e-06  0.49017358   
    750000   0.15                 674  -0              3.9143277e+15  1.4455012e-06  0.48147995   
    760000   0.152                674  -0              3.8518893e+15  1.4455012e-06  0.47327854   
    770000   0.154                674  -0              3.7896406e+15  1.4455012e-06  0.46554148   
    780000   0.156                674  -0              3.7338103e+15  1.4455012e-06  0.45824248   
    790000   0.158                674  -0              3.6705473e+15  1.4455012e-06  0.45135675   
    800000   0.16                 674  -0              3.5870438e+15  1.4455012e-06  0.44486087   
    810000   0.162                674  -0              3.4996483e+15  1.4455012e-06  0.43273182   
    820000   0.164                674  -0              3.4250732e+15  1.4455012e-06  0.42729045   
    830000   0.166                674  -0              3.3460763e+15  1.4455012e-06  0.42215717   
    840000   0.168                674  -0              3.2911294e+15  1.4455012e-06  0.39914171   
    850000   0.17                 674  -0              3.2620628e+15  1.4455012e-06  0.3955919    
    860000   0.172                674  -0              3.1941626e+15  1.4455012e-06  0.39224405   
    870000   0.174                674  -0              3.1291598e+15  1.4455012e-06  0.38908664   
    880000   0.176                674  -0              3.0281144e+15  1.4455012e-06  0.3861088    
    890000   0.178                674  -0              2.9675707e+15  1.4455012e-06  0.38330029   
    900000   0.18                 674  -0              2.9232573e+15  1.4455012e-06  0.38065146   
    910000   0.182                674  -0              2.8736396e+15  1.4455012e-06  0.37815322   
    920000   0.184                674  -0              2.7825684e+15  1.4455012e-06  0.37579697   
    930000   0.186                674  -0              2.7140834e+15  1.4455012e-06  0.37357463   
    940000   0.188                674  -0              2.6588373e+15  1.4455012e-06  0.37147856   
    950000   0.19                 674  -0              2.6209595e+15  1.4455012e-06  0.36950158   
WARNING: Fewer insertions than requested (src/GRANULAR/fix_pour.cpp:691)
    960000   0.192                900  -0              3.2111927e+15  1.9301945e-06  0.61110921   
    970000   0.194                900  -0              3.155588e+15   1.9301945e-06  0.5955684    
    980000   0.196                900  -0              3.0919509e+15  1.9301945e-06  0.58090748   
    990000   0.198                900  -0              3.0457683e+15  1.9301945e-06  0.56707664   
   1000000   0.2                  900  -0              2.9930362e+15  1.9301945e-06  0.55402888   
   1010000   0.202                900  -0              2.9414732e+15  1.9301945e-06  0.54171986   
   1020000   0.204                900  -0              2.87349e+15    1.9301945e-06  0.53010777   
   1030000   0.206                900  -0              2.8217117e+15  1.9301945e-06  0.51915313   
   1040000   0.208                900  -0              2.7804914e+15  1.9301945e-06  0.50881872   
   1050000   0.21                 900  -0              2.7278925e+15  1.9301945e-06  0.49906944   
   1060000   0.212                900  -0              2.6659864e+15  1.9301945e-06  0.48987214   
   1070000   0.214                900  -0              2.613004e+15   1.9301945e-06  0.43795579   
   1080000   0.216                900  -0              2.569175e+15   1.9301945e-06  0.43221865   
   1090000   0.218                900  -0              2.5052644e+15  1.9301945e-06  0.42680634   
   1100000   0.22                 900  -0              2.4298917e+15  1.9301945e-06  0.42170047   
   1110000   0.222                900  -0              2.3557103e+15  1.9301945e-06  0.41688368   
   1120000   0.224                900  -0              2.2993838e+15  1.9301945e-06  0.41233961   
   1130000   0.226                900  -0              2.2456422e+15  1.9301945e-06  0.40805282   
   1140000   0.228                900  -0              2.1938771e+15  1.9301945e-06  0.4036624    
   1150000   0.23                 900  -0              2.1499421e+15  1.9301945e-06  0.39986475   
   1160000   0.232                900  -0              2.0983116e+15  1.9301945e-06  0.39628232   
   1170000   0.234                900  -0              2.0587352e+15  1.9301945e-06  0.39290291   
   1180000   0.236                900  -0              2.010066e+15   1.9301945e-06  0.389715     
   1190000   0.238                900  -0              1.9713747e+15  1.9301945e-06  0.38670773   
   1200000   0.24                 900  -0              1.9456774e+15  1.9301945e-06  0.38387088   
   1210000   0.242                900  -0              1.9231215e+15  1.9301945e-06  0.38119476   
   1220000   0.244                900  -0              1.9025139e+15  1.9301945e-06  0.37867028   
   1230000   0.246                900  -0              1.8669954e+15  1.9301945e-06  0.37628884   
   1240000   0.248                900  -0              1.8437971e+15  1.9301945e-06  0.37404233   
   1250000   0.25                 900  -0              1.8356698e+15  1.9301945e-06  0.37192309   
   1260000   0.252                900  -0              1.8052682e+15  1.9301945e-06  0.36992392   
   1270000   0.254                900  -0              1.7623265e+15  1.9301945e-06  0.36803801   
WARNING: Fewer insertions than requested (src/GRANULAR/fix_pour.cpp:691)
   1280000   0.256               1116  -0              2.4351132e+15  2.3934412e-06  0.61903627   
   1290000   0.258               1116  -0              2.3709888e+15  2.3934412e-06  0.59469627   
   1300000   0.26                1116  -0              2.2940814e+15  2.3934412e-06  0.58008473   
   1310000   0.262               1116  -0              2.2312811e+15  2.3934412e-06  0.56630047   
   1320000   0.264               1116  -0              2.1593047e+15  2.3934412e-06  0.55329666   
   1330000   0.266               1116  -0              2.1136588e+15  2.3934412e-06  0.524544     
   1340000   0.268               1116  -0              2.059503e+15   2.3934412e-06  0.50946577   
   1350000   0.27                1116  -0              2.0134953e+15  2.3934412e-06  0.49962757   
   1360000   0.272               1116  -0              1.9534299e+15  2.3934412e-06  0.49035033   
   1370000   0.274               1116  -0              1.8910643e+15  2.3934412e-06  0.48160207   
   1380000   0.276               1116  -0              1.8393726e+15  2.3934412e-06  0.47335261   
   1390000   0.278               1116  -0              1.7911059e+15  2.3934412e-06  0.46557349   
   1400000   0.28                1116  -0              1.7449365e+15  2.3934412e-06  0.45823787   
   1410000   0.282               1116  -0              1.6973582e+15  2.3934412e-06  0.45122206   
   1420000   0.284               1116  -0              1.6514413e+15  2.3934412e-06  0.4447338    
   1430000   0.286               1116  -0              1.6000796e+15  2.3934412e-06  0.4386129    
   1440000   0.288               1116  -0              1.552106e+15   2.3934412e-06  0.43283856   
   1450000   0.29                1116  -0              1.5178011e+15  2.3934412e-06  0.42739115   
   1460000   0.292               1116  -0              1.4864688e+15  2.3934412e-06  0.42225217   
   1470000   0.294               1116  -0              1.4623532e+15  2.3934412e-06  0.41740414   
   1480000   0.296               1116  -0              1.4412554e+15  2.3934412e-06  0.41283061   
   1490000   0.298               1116  -0              1.4229251e+15  2.3934412e-06  0.40851602   
   1500000   0.3                 1116  -0              1.4003866e+15  2.3934412e-06  0.40444571   
   1510000   0.302               1116  -0              1.3796105e+15  2.3934412e-06  0.40060586   
   1520000   0.304               1116  -0              1.3696466e+15  2.3934412e-06  0.39698342   
   1530000   0.306               1116  -0              1.3523326e+15  2.3934412e-06  0.39356607   
   1540000   0.308               1116  -0              1.3250127e+15  2.3934412e-06  0.39034221   
   1550000   0.31                1116  -0              1.303925e+15   2.3934412e-06  0.37598888   
   1560000   0.312               1116  -0              1.2471639e+15  2.3934412e-06  0.37208097   
   1570000   0.314               1116  -0              1.1795679e+15  2.3934412e-06  0.35991246   
   1580000   0.316               1116  -0              1.1010574e+15  2.3934412e-06  0.35859401   
   1590000   0.318               1116  -0              1.0553663e+15  2.3934412e-06  0.35735021   
WARNING: Fewer insertions than requested (src/GRANULAR/fix_pour.cpp:691)
   1600000   0.32                1361  -0              1.8258654e+15  2.9188831e-06  0.61911866   
   1610000   0.322               1361  -0              1.7606056e+15  2.9188831e-06  0.60312436   
   1620000   0.324               1361  -0              1.7002344e+15  2.9188831e-06  0.58803564   
   1630000   0.326               1361  -0              1.6441005e+15  2.9188831e-06  0.5712284    
   1640000   0.328               1361  -0              1.5983556e+15  2.9188831e-06  0.55794558   
   1650000   0.33                1361  -0              1.5498339e+15  2.9188831e-06  0.54541481   
   1660000   0.332               1361  -0              1.5065454e+15  2.9188831e-06  0.53359351   
   1670000   0.334               1361  -0              1.4611072e+15  2.9188831e-06  0.52244151   
   1680000   0.336               1361  -0              1.403846e+15   2.9188831e-06  0.51192092   
   1690000   0.338               1361  -0              1.3645863e+15  2.9188831e-06  0.50199599   
   1700000   0.34                1361  -0              1.3338528e+15  2.9188831e-06  0.492633     
   1710000   0.342               1361  -0              1.3029781e+15  2.9188831e-06  0.48380012   
   1720000   0.344               1361  -0              1.280112e+15   2.9188831e-06  0.47546735   
   1730000   0.346               1361  -0              1.2613168e+15  2.9188831e-06  0.46760637   
   1740000   0.348               1361  -0              1.2554897e+15  2.9188831e-06  0.46019046   
   1750000   0.35                1361  -0              1.2404743e+15  2.9188831e-06  0.45319443   
   1760000   0.352               1361  -0              1.2275045e+15  2.9188831e-06  0.4465945    
   1770000   0.354               1361  -0              1.2062787e+15  2.9188831e-06  0.43772753   
   1780000   0.356               1361  -0              1.1793941e+15  2.9188831e-06  0.40593602   
   1790000   0.358               1361  -0              1.1598618e+15  2.9188831e-06  0.40017864   
   1800000   0.36                1361  -0              1.1220423e+15  2.9188831e-06  0.38793459   
   1810000   0.362               1361  -0              1.0862114e+15  2.9188831e-06  0.38159035   
   1820000   0.364               1361  -0              1.0378054e+15  2.9188831e-06  0.37904453   
   1830000   0.366               1361  -0              9.8473566e+14  2.9188831e-06  0.37653623   
   1840000   0.368               1361  -0              9.5071521e+14  2.9188831e-06  0.37426588   
   1850000   0.37                1361  -0              9.1663778e+14  2.9188831e-06  0.36619273   
   1860000   0.372               1361  -0              8.8320687e+14  2.9188831e-06  0.36451436   
   1870000   0.374               1361  -0              8.4266723e+14  2.9188831e-06  0.36293146   
   1880000   0.376               1361  -0              8.0993763e+14  2.9188831e-06  0.36143858   
   1890000   0.378               1361  -0              7.6867539e+14  2.9188831e-06  0.36003058   
   1900000   0.38                1361  -0              7.3753802e+14  2.9188831e-06  0.35521011   
   1910000   0.382               1361  -0              7.1770726e+14  2.9188831e-06  0.3541579    
WARNING: Fewer insertions than requested (src/GRANULAR/fix_pour.cpp:691)
   1920000   0.384               1565  -0              1.2728014e+15  3.3563938e-06  0.61916035   
   1930000   0.386               1565  -0              1.2157376e+15  3.3563938e-06  0.60316369   
   1940000   0.388               1565  -0              1.18279e+15    3.3563938e-06  0.58807274   
   1950000   0.39                1565  -0              1.1353055e+15  3.3563938e-06  0.57383621   
   1960000   0.392               1565  -0              1.0968536e+15  3.3563938e-06  0.56040574   
   1970000   0.394               1565  -0              1.0639568e+15  3.3563938e-06  0.54773567   
   1980000   0.396               1565  -0              1.0414961e+15  3.3563938e-06  0.53578297   
   1990000   0.398               1565  -0              1.0206987e+15  3.3563938e-06  0.52450701   
   2000000   0.4                 1565  -0              1.0046088e+15  3.3563938e-06  0.51386948   
   2010000   0.402               1565  -0              9.8014916e+14  3.3563938e-06  0.50383422   
   2020000   0.404               1565  -0              9.531011e+14   3.3563938e-06  0.47185369   
   2030000   0.406               1565  -0              9.3502843e+14  3.3563938e-06  0.4641973    
   2040000   0.408               1565  -0              9.1123827e+14  3.3563938e-06  0.45697441   
   2050000   0.41                1565  -0              8.881622e+14   3.3563938e-06  0.4370855    
   2060000   0.412               1565  -0              8.5210684e+14  3.3563938e-06  0.43139763   
   2070000   0.414               1565  -0              8.1034078e+14  3.3563938e-06  0.424125     
   2080000   0.416               1565  -0              7.7112505e+14  3.3563938e-06  0.40288234   
   2090000   0.418               1565  -0              7.3173142e+14  3.3563938e-06  0.39777714   
   2100000   0.42                1565  -0              6.9443751e+14  3.3563938e-06  0.3813167    
   2110000   0.422               1565  -0              6.6416727e+14  3.3563938e-06  0.37878544   
   2120000   0.424               1565  -0              6.2661299e+14  3.3563938e-06  0.37348431   
   2130000   0.426               1565  -0              5.8332644e+14  3.3563938e-06  0.37139654   
   2140000   0.428               1565  -0              5.6260448e+14  3.3563938e-06  0.36942707   
   2150000   0.43                1565  -0              5.3513651e+14  3.3563938e-06  0.36392639   
   2160000   0.432               1565  -0              5.0888958e+14  3.3563938e-06  0.36238068   
   2170000   0.434               1565  -0              4.8572414e+14  3.3563938e-06  0.36092249   
   2180000   0.436               1565  -0              4.5974222e+14  3.3563938e-06  0.35954686   
   2190000   0.438               1565  -0              4.3420495e+14  3.3563938e-06  0.3566797    
   2200000   0.44                1565  -0              4.1031823e+14  3.3563938e-06  0.35179827   
   2210000   0.442               1565  -0              3.7004494e+14  3.3563938e-06  0.34691984   
   2220000   0.444               1565  -0              3.615185e+14   3.3563938e-06  0.34633701   
   2230000   0.446               1565  -0              3.4657261e+14  3.3563938e-06  0.34322193   
WARNING: Fewer insertions than requested (src/GRANULAR/fix_pour.cpp:691)
   2240000   0.448               1795  -0              1.0443124e+15  3.8496657e-06  0.61565967   
   2250000   0.45                1795  -0              1.0071971e+15  3.8496657e-06  0.59986121   
   2260000   0.452               1795  -0              9.8629543e+14  3.8496657e-06  0.57402303   
   2270000   0.454               1795  -0              9.6340956e+14  3.8496657e-06  0.56058198   
   2280000   0.456               1795  -0              9.4140414e+14  3.8496657e-06  0.52141899   
   2290000   0.458               1795  -0              9.2635488e+14  3.8496657e-06  0.5109563    
   2300000   0.46                1795  -0              9.1225967e+14  3.8496657e-06  0.49320942   
   2310000   0.462               1795  -0              8.994244e+14   3.8496657e-06  0.48433387   
   2320000   0.464               1795  -0              8.695103e+14   3.8496657e-06  0.47596161   
   2330000   0.466               1795  -0              8.3106583e+14  3.8496657e-06  0.46659259   
   2340000   0.468               1795  -0              7.8824257e+14  3.8496657e-06  0.43611808   
   2350000   0.47                1795  -0              7.365797e+14   3.8496657e-06  0.42059211   
   2360000   0.472               1795  -0              6.9673741e+14  3.8496657e-06  0.41582153   
   2370000   0.474               1795  -0              6.5015843e+14  3.8496657e-06  0.40113108   
   2380000   0.476               1795  -0              6.1784095e+14  3.8496657e-06  0.3974789    
   2390000   0.478               1795  -0              5.820282e+14   3.8496657e-06  0.3940335    
   2400000   0.48                1795  -0              5.4883795e+14  3.8496657e-06  0.38326427   
   2410000   0.482               1795  -0              5.1153648e+14  3.8496657e-06  0.37641984   
   2420000   0.484               1795  -0              4.8070846e+14  3.8496657e-06  0.37416074   
   2430000   0.486               1795  -0              4.471658e+14   3.8496657e-06  0.36831461   
   2440000   0.488               1795  -0              4.2202046e+14  3.8496657e-06  0.36652044   
   2450000   0.49                1795  -0              3.88723e+14    3.8496657e-06  0.36071065   
   2460000   0.492               1795  -0              3.6135754e+14  3.8496657e-06  0.35649285   
   2470000   0.494               1795  -0              3.2943342e+14  3.8496657e-06  0.35493397   
   2480000   0.496               1795  -0              3.0566939e+14  3.8496657e-06  0.35067389   
   2490000   0.498               1795  -0              2.8784382e+14  3.8496657e-06  0.34802233   
   2500000   0.5                 1795  -0              2.7821556e+14  3.8496657e-06  0.34202111   
   2510000   0.502               1795  -0              2.692448e+14   3.8496657e-06  0.34171564   
   2520000   0.504               1795  -0              2.6021047e+14  3.8496657e-06  0.33703185   
   2530000   0.506               1795  -0              2.529286e+14   3.8496657e-06  0.33700887   
   2540000   0.508               1795  -0              2.3943698e+14  3.8496657e-06  0.33698719   
   2550000   0.51                1795  -0              2.3130648e+14  3.8496657e-06  0.33184016   
   2560000   0.512               1850  -0              3.5390765e+14  3.9676221e-06  0.5992802    
   2570000   0.514               1850  -0              3.4067071e+14  3.9676221e-06  0.58440912   
   2580000   0.516               1850  -0              3.2952013e+14  3.9676221e-06  0.56705946   
   2590000   0.518               1850  -0              3.0949202e+14  3.9676221e-06  0.55401267   
   2600000   0.52                1850  -0              2.7826438e+14  3.9676221e-06  0.50150678   
   2610000   0.522               1850  -0              2.5810261e+14  3.9676221e-06  0.49213827   
   2620000   0.524               1850  -0              2.4615763e+14  3.9676221e-06  0.48130588   
   2630000   0.526               1850  -0              2.3816022e+14  3.9676221e-06  0.47311433   
   2640000   0.528               1850  -0              2.2921878e+14  3.9676221e-06  0.46538657   
   2650000   0.53                1850  -0              2.1133431e+14  3.9676221e-06  0.40176019   
   2660000   0.532               1850  -0              2.0342698e+14  3.9676221e-06  0.39807239   
   2670000   0.534               1850  -0              1.9379991e+14  3.9676221e-06  0.39459338   
   2680000   0.536               1850  -0              1.8643257e+14  3.9676221e-06  0.39131136   
   2690000   0.538               1850  -0              1.6050086e+14  3.9676221e-06  0.38821515   
   2700000   0.54                1850  -0              1.4458825e+14  3.9676221e-06  0.36952084   
   2710000   0.542               1850  -0              1.3418802e+14  3.9676221e-06  0.36765838   
   2720000   0.544               1850  -0              1.2214649e+14  3.9676221e-06  0.36590137   
   2730000   0.546               1850  -0              1.0462401e+14  3.9676221e-06  0.362461     
   2740000   0.548               1850  -0              8.7627858e+13  3.9676221e-06  0.35816533   
   2750000   0.55                1850  -0              7.9431446e+13  3.9676221e-06  0.34917585   
   2760000   0.552               1850  -0              7.5115849e+13  3.9676221e-06  0.34846529   
   2770000   0.554               1850  -0              7.231793e+13   3.9676221e-06  0.34519827   
   2780000   0.556               1850  -0              7.1286209e+13  3.9676221e-06  0.34143919   
   2790000   0.558               1850  -0              7.0760006e+13  3.9676221e-06  0.33967358   
   2800000   0.56                1850  -0              6.6165799e+13  3.9676221e-06  0.33607835   
   2810000   0.562               1850  -0              6.2514829e+13  3.9676221e-06  0.32240983   
   2820000   0.564               1850  -0              6.1843848e+13  3.9676221e-06  0.32321472   
   2830000   0.566               1850  -0              6.2121606e+13  3.9676221e-06  0.32397404   
   2840000   0.568               1850  -0              6.2617901e+13  3.9676221e-06  0.32469037   
   2850000   0.57                1850  -0              6.3075682e+13  3.9676221e-06  0.32536615   
   2860000   0.572               1850  -0              6.2034704e+13  3.9676221e-06  0.32413077   
   2870000   0.574               1850  -0              6.0931867e+13  3.9676221e-06  0.32039233   
   2880000   0.576               1850  -0              6.1164886e+13  3.9676221e-06  0.32131145   
   2890000   0.578               1850  -0              5.9737167e+13  3.9676221e-06  0.32115198   
   2900000   0.58                1850  -0              5.9536297e+13  3.9676221e-06  0.32202809   
   2910000   0.582               1850  -0              5.3823511e+13  3.9676221e-06  0.31910775   
   2920000   0.584               1850  -0              5.1458036e+13  3.9676221e-06  0.3200996    
   2930000   0.586               1850  -0              4.9832696e+13  3.9676221e-06  0.31833778   
   2940000   0.588               1850  -0              4.462436e+13   3.9676221e-06  0.31885468   
   2950000   0.59                1850  -0              4.3097205e+13  3.9676221e-06  0.31986086   
   2960000   0.592               1850  -0              4.0346828e+13  3.9676221e-06  0.31779108   
   2970000   0.594               1850  -0              3.8969505e+13  3.9676221e-06  0.31885748   
   2980000   0.596               1850  -0              3.7859911e+13  3.9676221e-06  0.31933999   
   2990000   0.598               1850  -0              2.8770316e+13  3.9676221e-06  0.31646187   
   3000000   0.6                 1850  -0              2.8500859e+13  3.9676221e-06  0.31760353   
Loop time of 364.512 on 1 procs for 3000000 steps with 1850 atoms

100.0% CPU use with 1 MPI tasks x 1 OpenMP threads

MPI task timing breakdown:
Section |  min time  |  avg time  |  max time  |%varavg| %total
---------------------------------------------------------------
Pair    | 263.33     | 263.33     | 263.33     |   0.0 | 72.24
Neigh   | 0.60076    | 0.60076    | 0.60076    |   0.0 |  0.16
Comm    | 0.063179   | 0.063179   | 0.063179   |   0.0 |  0.02
Output  | 0.13524    | 0.13524    | 0.13524    |   0.0 |  0.04
Modify  | 96.002     | 96.002     | 96.002     |   0.0 | 26.34
Other   |            | 4.377      |            |       |  1.20

Nlocal:           1850 ave        1850 max        1850 min
Histogram: 1 0 0 0 0 0 0 0 0 0
Nghost:              0 ave           0 max           0 min
Histogram: 1 0 0 0 0 0 0 0 0 0
Neighs:           7007 ave        7007 max        7007 min
Histogram: 1 0 0 0 0 0 0 0 0 0

Total # of neighbors = 7007
Ave neighs/atom = 3.7875676
Neighbor list builds = 2109
Dangerous builds = 0
Generated 0 of 0 mixed pair_coeff terms from geometric mixing rule
Setting up Verlet run ...
  Unit style    : si
  Current step  : 0
  Time step     : 2e-07
Per MPI rank memory allocation (min/avg/max) = 14.72 | 14.72 | 14.72 Mbytes
   Step          Time         Atoms        KinEng     c_granularTemp c_solidVolume    c_maxSpeed  
         0   0                   1850   2.0750713e-06  2.8223016e+13  3.9676221e-06  0.31502242   
     10000   0.002               1850   1.1677306e-06  1.618677e+13   3.9676221e-06  0.25240395   
     20000   0.004               1850   6.459291e-07   9.1671026e+12  3.9676221e-06  0.20433317   
     30000   0.006               1850   3.7416904e-07  5.4923524e+12  3.9676221e-06  0.16969722   
     40000   0.008               1850   2.2434267e-07  3.3701486e+12  3.9676221e-06  0.14369431   
     50000   0.01                1850   1.7196091e-07  2.6184247e+12  3.9676221e-06  0.12438801   
     60000   0.012               1850   1.3222676e-07  2.0483513e+12  3.9676221e-06  0.10996239   
     70000   0.014               1850   8.5008965e-08  1.4158564e+12  3.9676221e-06  0.098946286  
     80000   0.016               1850   5.6698985e-08  1.020194e+12   3.9676221e-06  0.090836299  
     90000   0.018               1850   4.4363828e-08  8.4730955e+11  3.9676221e-06  0.084892632  
    100000   0.02                1850   3.791979e-08   7.2535198e+11  3.9676221e-06  0.080451538  
    110000   0.022               1850   3.7567027e-08  7.0749505e+11  3.9676221e-06  0.077133164  
    120000   0.024               1850   3.2816889e-08  6.3114482e+11  3.9676221e-06  0.074653683  
    130000   0.026               1850   1.8871148e-08  4.2880844e+11  3.9676221e-06  0.050942741  
    140000   0.028               1850   1.5652415e-08  3.6660884e+11  3.9676221e-06  0.041386084  
    150000   0.03                1850   1.536854e-08   3.5532668e+11  3.9676221e-06  0.040453431  
    160000   0.032               1850   1.672311e-08   3.7136769e+11  3.9676221e-06  0.041551177  
    170000   0.034               1850   1.6634175e-08  3.7651519e+11  3.9676221e-06  0.042953721  
    180000   0.036               1850   1.6848891e-08  3.8994325e+11  3.9676221e-06  0.044955904  
    190000   0.038               1850   1.3458243e-08  3.2554016e+11  3.9676221e-06  0.044475527  
    200000   0.04                1850   1.3380295e-08  3.1512336e+11  3.9676221e-06  0.046328656  
    210000   0.042               1850   1.2113853e-08  2.6583918e+11  3.9676221e-06  0.048273268  
    220000   0.044               1850   1.2605217e-08  2.5384634e+11  3.9676221e-06  0.045692684  
    230000   0.046               1850   1.1137095e-08  2.2320445e+11  3.9676221e-06  0.046226936  
    240000   0.048               1850   8.0409326e-09  1.7183188e+11  3.9676221e-06  0.033221702  
    250000   0.05                1850   8.7977305e-09  1.8806739e+11  3.9676221e-06  0.035207279  
    260000   0.052               1850   7.2123566e-09  1.6940911e+11  3.9676221e-06  0.03138638   
    270000   0.054               1850   7.3035312e-09  1.7224637e+11  3.9676221e-06  0.033332449  
    280000   0.056               1850   5.2318987e-09  1.3189357e+11  3.9676221e-06  0.028510338  
    290000   0.058               1850   2.8756992e-09  8.378326e+10   3.9676221e-06  0.017459978  
    300000   0.06                1850   2.8303133e-09  8.0199349e+10  3.9676221e-06  0.018982568  
    310000   0.062               1850   2.8454276e-09  8.3588923e+10  3.9676221e-06  0.020672084  
    320000   0.064               1850   2.930004e-09   8.9772751e+10  3.9676221e-06  0.022373963  
    330000   0.066               1850   3.2580846e-09  1.0091182e+11  3.9676221e-06  0.024336337  
    340000   0.068               1850   3.6506832e-09  1.1560158e+11  3.9676221e-06  0.026382787  
    350000   0.07                1850   4.6369509e-09  1.2508805e+11  3.9676221e-06  0.028618227  
    360000   0.072               1850   5.71024e-09    1.4322434e+11  3.9676221e-06  0.034097414  
    370000   0.074               1850   4.2196064e-09  1.0414609e+11  3.9676221e-06  0.035970134  
    380000   0.076               1850   4.4193518e-09  1.0728394e+11  3.9676221e-06  0.037826445  
    390000   0.078               1850   2.0734459e-09  5.6196314e+10  3.9676221e-06  0.021177661  
    400000   0.08                1850   6.9013921e-10  2.1783525e+10  3.9676221e-06  0.012534882  
    410000   0.082               1850   6.2604392e-10  1.954442e+10   3.9676221e-06  0.014020827  
    420000   0.084               1850   6.516428e-10   2.0743518e+10  3.9676221e-06  0.014400794  
    430000   0.086               1850   8.0842783e-10  2.4811325e+10  3.9676221e-06  0.015527077  
    440000   0.088               1850   8.6522764e-10  2.6785517e+10  3.9676221e-06  0.016829196  
    450000   0.09                1850   9.7202929e-10  2.9037608e+10  3.9676221e-06  0.018162011  
    460000   0.092               1850   1.066636e-09   3.1282705e+10  3.9676221e-06  0.019606781  
    470000   0.094               1850   1.2264771e-09  3.5272415e+10  3.9676221e-06  0.021136079  
    480000   0.096               1850   1.4148098e-09  3.990543e+10   3.9676221e-06  0.022803199  
    490000   0.098               1850   1.5256728e-09  4.3160812e+10  3.9676221e-06  0.024555614  
    500000   0.1                 1850   1.5152811e-09  4.4055412e+10  3.9676221e-06  0.026509953  
    510000   0.102               1850   1.6687651e-09  4.8175392e+10  3.9676221e-06  0.028483166  
    520000   0.104               1850   1.8978134e-09  5.3824623e+10  3.9676221e-06  0.030616519  
    530000   0.106               1850   2.1509579e-09  6.0529438e+10  3.9676221e-06  0.032764181  
    540000   0.108               1850   2.4582357e-09  6.8246213e+10  3.9676221e-06  0.035081974  
    550000   0.11                1850   2.800336e-09   7.6773535e+10  3.9676221e-06  0.037500571  
    560000   0.112               1850   3.1711816e-09  8.6128592e+10  3.9676221e-06  0.039945877  
    570000   0.114               1850   3.5754788e-09  9.6279199e+10  3.9676221e-06  0.042443727  
    580000   0.116               1850   4.0095826e-09  1.0715204e+11  3.9676221e-06  0.044957737  
    590000   0.118               1850   4.4799292e-09  1.1861484e+11  3.9676221e-06  0.047521887  
    600000   0.12                1850   1.8489207e-09  6.0671639e+10  3.9676221e-06  0.025889134  
    610000   0.122               1850   1.8177768e-09  6.0141499e+10  3.9676221e-06  0.024786661  
    620000   0.124               1850   1.8607913e-09  6.1610597e+10  3.9676221e-06  0.024316196  
    630000   0.126               1850   1.961799e-09   6.4324498e+10  3.9676221e-06  0.024415816  
    640000   0.128               1850   1.0769666e-09  3.9669218e+10  3.9676221e-06  0.024510138  
    650000   0.13                1850   1.1895582e-09  4.2517994e+10  3.9676221e-06  0.025859248  
    660000   0.132               1850   1.2733583e-09  4.4523735e+10  3.9676221e-06  0.027224444  
    670000   0.134               1850   1.4135284e-09  4.8549899e+10  3.9676221e-06  0.028697268  
    680000   0.136               1850   1.5641235e-09  5.299046e+10   3.9676221e-06  0.030187689  
    690000   0.138               1850   1.7289055e-09  5.7839384e+10  3.9676221e-06  0.031739918  
    700000   0.14                1850   3.8188773e-11  1.2553324e+10  3.9676221e-06  0.0045100028 
    710000   0.142               1850   5.3793227e-12  8.5166792e+09  3.9676221e-06  0.001257294  
    720000   0.144               1850   5.8459067e-12  8.3947968e+09  3.9676221e-06  0.0015143268 
    730000   0.146               1850   2.8456111e-11  8.856541e+09   3.9676221e-06  0.004034516  
    740000   0.148               1850   1.4200169e-12  8.1784649e+09  3.9676221e-06  0.00049597973
    750000   0.15                1850   4.6490614e-13  8.073115e+09   3.9676221e-06  0.0004935594 
    760000   0.152               1850   4.242362e-13   7.9811117e+09  3.9676221e-06  0.00049078685
    770000   0.154               1850   4.0992879e-13  7.8791914e+09  3.9676221e-06  0.00048762452
    780000   0.156               1850   4.0371763e-13  7.7676447e+09  3.9676221e-06  0.00048406293
    790000   0.158               1850   3.9720677e-13  7.6465105e+09  3.9676221e-06  0.00048022449
    800000   0.16                1850   3.8898771e-13  7.5161779e+09  3.9676221e-06  0.00047608556
    810000   0.162               1850   3.8316827e-13  7.3775317e+09  3.9676221e-06  0.00047164478
    820000   0.164               1850   3.7445212e-13  7.2306648e+09  3.9676221e-06  0.00046684526
    830000   0.166               1850   3.6617942e-13  7.0764156e+09  3.9676221e-06  0.00046173077
    840000   0.168               1850   3.5853534e-13  6.9153687e+09  3.9676221e-06  0.00045634971
    850000   0.17                1850   3.4859453e-13  6.7478585e+09  3.9676221e-06  0.00045072509
    860000   0.172               1850   3.4031694e-13  6.5748227e+09  3.9676221e-06  0.00044483578
    870000   0.174               1850   3.3082671e-13  6.3966184e+09  3.9676221e-06  0.00043866313
    880000   0.176               1850   3.2059294e-13  6.2138867e+09  3.9676221e-06  0.00043222318
    890000   0.178               1850   3.1161362e-13  6.0273945e+09  3.9676221e-06  0.00042555493
    900000   0.18                1850   3.0094538e-13  5.8374826e+09  3.9676221e-06  0.00041868399
    910000   0.182               1850   2.9102088e-13  5.6449479e+09  3.9676221e-06  0.00041160583
    920000   0.184               1850   2.8113265e-13  5.4503076e+09  3.9676221e-06  0.00040430858
    930000   0.186               1850   2.7014382e-13  5.2540275e+09  3.9676221e-06  0.00039680045
    940000   0.188               1850   2.6031846e-13  5.0568471e+09  3.9676221e-06  0.00038910909
    950000   0.19                1850   2.4970193e-13  4.8591273e+09  3.9676221e-06  0.00038125864
    960000   0.192               1850   2.3912314e-13  4.6614509e+09  3.9676221e-06  0.00037325333
    970000   0.194               1850   2.2922639e-13  4.4643651e+09  3.9676221e-06  0.00036508812
    980000   0.196               1850   2.1844072e-13  4.268205e+09   3.9676221e-06  0.00035676761
    990000   0.198               1850   2.0841742e-13  4.0735579e+09  3.9676221e-06  0.00034831019
   1000000   0.2                 1850   1.9837345e-13  3.8807794e+09  3.9676221e-06  0.00033973476
   1010000   0.202               1850   1.8803785e-13  3.6902465e+09  3.9676221e-06  0.00033104947
   1020000   0.204               1850   1.785329e-13   3.5024324e+09  3.9676221e-06  0.00032225423
   1030000   0.206               1850   1.6859858e-13  3.3175821e+09  3.9676221e-06  0.00031335282
   1040000   0.208               1850   1.5902423e-13  3.136092e+09   3.9676221e-06  0.0003043566 
   1050000   0.21                1850   1.4989784e-13  2.9582747e+09  3.9676221e-06  0.00029527899
   1060000   0.212               1850   1.4047669e-13  2.7843495e+09  3.9676221e-06  0.00028612789
   1070000   0.214               1850   1.3175197e-13  2.6146624e+09  3.9676221e-06  0.0002769062 
   1080000   0.216               1850   1.2305015e-13  2.4493946e+09  3.9676221e-06  0.00026761758
   1090000   0.218               1850   1.1445848e-13  2.2887722e+09  3.9676221e-06  0.00025826931
   1100000   0.22                1850   1.064864e-13   2.1330369e+09  3.9676221e-06  0.00024886948
   1110000   0.222               1850   9.8400939e-14  1.9823056e+09  3.9676221e-06  0.00023942408
   1120000   0.224               1850   9.0793113e-14  1.8367908e+09  3.9676221e-06  0.00022993675
   1130000   0.226               1850   8.3519268e-14  1.6966245e+09  3.9676221e-06  0.00022041142
   1140000   0.228               1850   7.6280099e-14  1.5619102e+09  3.9676221e-06  0.00021085286
   1150000   0.23                1850   6.963312e-14   1.4328096e+09  3.9676221e-06  0.00020126547
   1160000   0.232               1850   6.3098375e-14  1.3093819e+09  3.9676221e-06  0.0001916526 
   1170000   0.234               1850   5.6863115e-14  1.1917308e+09  3.9676221e-06  0.0001820172 
   1180000   0.236               1850   5.1105143e-14  1.0799473e+09  3.9676221e-06  0.00017236292
   1190000   0.238               1850   4.5429442e-14  9.7406283e+08  3.9676221e-06  0.0001626934 
   1200000   0.24                1850   4.0232514e-14  8.7416708e+08  3.9676221e-06  0.00015301077
   1210000   0.242               1850   3.5326746e-14  7.8029099e+08  3.9676221e-06  0.00014331595
   1220000   0.244               1850   3.0629602e-14  6.9246667e+08  3.9676221e-06  0.00013361056
   1230000   0.246               1850   2.6424773e-14  6.1075055e+08  3.9676221e-06  0.0001238976 
   1240000   0.248               1850   2.2401957e-14  5.351421e+08   3.9676221e-06  0.00011418009
   1250000   0.25                1850   1.8742669e-14  4.6567772e+08  3.9676221e-06  0.00010445897
   1260000   0.252               1850   1.5473223e-14  4.0237589e+08  3.9676221e-06  9.4733655e-05
   1270000   0.254               1850   1.2400742e-14  3.4523238e+08  3.9676221e-06  8.5004291e-05
   1280000   0.256               1850   9.7682074e-15  2.9427681e+08  3.9676221e-06  7.5273028e-05
   1290000   0.258               1850   7.4136262e-15  2.4950134e+08  3.9676221e-06  6.5542353e-05
   1300000   0.26                1850   5.3476348e-15  2.1091068e+08  3.9676221e-06  5.5812884e-05
   1310000   0.262               1850   3.6979145e-15  1.7851773e+08  3.9676221e-06  4.6083348e-05
   1320000   0.264               1850   2.2802233e-15  1.5230714e+08  3.9676221e-06  3.6352871e-05
   1330000   0.266               1850   1.2350915e-15  1.3229017e+08  3.9676221e-06  2.6622667e-05
   1340000   0.268               1850   5.3134876e-16  1.1846239e+08  3.9676221e-06  1.6894907e-05
   1350000   0.27                1850   8.845589e-17   1.1081452e+08  3.9676221e-06  7.1701326e-06
   1360000   0.272               1850   4.3392011e-17  1.0935526e+08  3.9676221e-06  3.7961708e-06
   1370000   0.274               1850   2.785584e-16   1.1407096e+08  3.9676221e-06  1.2274948e-05
   1380000   0.276               1850   8.3471544e-16  1.2496105e+08  3.9676221e-06  2.1995956e-05
   1390000   0.278               1850   1.7582825e-15  1.4202487e+08  3.9676221e-06  3.1713976e-05
   1400000   0.28                1850   2.9488754e-15  1.6524855e+08  3.9676221e-06  4.1428107e-05
   1410000   0.282               1850   4.5020883e-15  1.9463418e+08  3.9676221e-06  5.113887e-05 
   1420000   0.284               1850   6.3740393e-15  2.3017078e+08  3.9676221e-06  6.0847132e-05
   1430000   0.286               1850   8.5404269e-15  2.7184779e+08  3.9676221e-06  7.0552505e-05
   1440000   0.288               1850   1.1071575e-14  3.1966107e+08  3.9676221e-06  8.0253385e-05
   1450000   0.29                1850   1.3890154e-14  3.7359181e+08  3.9676221e-06  8.9948334e-05
   1460000   0.292               1850   1.7037879e-14  4.336288e+08   3.9676221e-06  9.9636974e-05
   1470000   0.294               1850   2.0522928e-14  4.9975491e+08  3.9676221e-06  0.00010931928
   1480000   0.296               1850   2.429513e-14   5.719444e+08   3.9676221e-06  0.0001189944 
   1490000   0.298               1850   2.8412577e-14  6.5017664e+08  3.9676221e-06  0.00012866044
   1500000   0.3                 1850   3.2834731e-14  7.3441762e+08  3.9676221e-06  0.00013831536
   1510000   0.302               1850   3.7560459e-14  8.2463106e+08  3.9676221e-06  0.00014795762
   1520000   0.304               1850   4.2620597e-14  9.2077695e+08  3.9676221e-06  0.00015758589
   1530000   0.306               1850   4.7966999e-14  1.0228013e+09  3.9676221e-06  0.00016719819
   1540000   0.308               1850   5.3630234e-14  1.1306488e+09  3.9676221e-06  0.0001767919 
   1550000   0.31                1850   5.9600335e-14  1.2442517e+09  3.9676221e-06  0.00018636413
   1560000   0.312               1850   6.5852397e-14  1.3635308e+09  3.9676221e-06  0.00019591203
   1570000   0.314               1850   7.2416033e-14  1.488401e+09   3.9676221e-06  0.00020543262
   1580000   0.316               1850   7.9257469e-14  1.6187596e+09  3.9676221e-06  0.00021492237
   1590000   0.318               1850   8.6379762e-14  1.7544941e+09  3.9676221e-06  0.00022437736
   1600000   0.32                1850   9.378879e-14   1.8954785e+09  3.9676221e-06  0.00023379356
   1610000   0.322               1850   1.0145228e-13  2.0415685e+09  3.9676221e-06  0.00024316673
   1620000   0.324               1850   1.0938527e-13  2.1926079e+09  3.9676221e-06  0.00025249207
   1630000   0.326               1850   1.175681e-13   2.3484205e+09  3.9676221e-06  0.00026176416
   1640000   0.328               1850   1.2598382e-13  2.5088127e+09  3.9676221e-06  0.00027097733
   1650000   0.33                1850   1.3463955e-13  2.6735737e+09  3.9676221e-06  0.00028012614
   1660000   0.332               1850   1.4350485e-13  2.8424704e+09  3.9676221e-06  0.00028920485
   1670000   0.334               1850   1.5257648e-13  3.015251e+09   3.9676221e-06  0.00029820692
   1680000   0.336               1850   1.6184209e-13  3.1916422e+09  3.9676221e-06  0.00030712489
   1690000   0.338               1850   1.7127322e-13  3.3713475e+09  3.9676221e-06  0.00031595116
   1700000   0.34                1850   1.8086833e-13  3.5540505e+09  3.9676221e-06  0.0003246786 
   1710000   0.342               1850   1.9060122e-13  3.7394101e+09  3.9676221e-06  0.00033330005
   1720000   0.344               1850   2.0045279e-13  3.927063e+09   3.9676221e-06  0.00034180742
   1730000   0.346               1850   2.1041021e-13  4.1166239e+09  3.9676221e-06  0.00035019147
   1740000   0.348               1850   2.204398e-13   4.3076831e+09  3.9676221e-06  0.00035844267
   1750000   0.35                1850   2.3052741e-13  4.4998104e+09  3.9676221e-06  0.00036655227
   1760000   0.352               1850   2.4064928e-13  4.6925528e+09  3.9676221e-06  0.00037451189
   1770000   0.354               1850   2.5077571e-13  4.8854362e+09  3.9676221e-06  0.00038231233
   1780000   0.356               1850   2.6088827e-13  5.0779676e+09  3.9676221e-06  0.0003899431 
   1790000   0.358               1850   2.7095174e-13  5.2696344e+09  3.9676221e-06  0.00039739326
   1800000   0.36                1850   2.8094038e-13  5.4599072e+09  3.9676221e-06  0.00040465277
   1810000   0.362               1850   2.9083039e-13  5.6482419e+09  3.9676221e-06  0.00041171251
   1820000   0.364               1850   3.0058725e-13  5.8340799e+09  3.9676221e-06  0.00041856285
   1830000   0.366               1850   3.1018601e-13  6.0168532e+09  3.9676221e-06  0.00042519296
   1840000   0.368               1850   3.195922e-13   6.1959841e+09  3.9676221e-06  0.00043159134
   1850000   0.37                1850   3.2877298e-13  6.3708898e+09  3.9676221e-06  0.00043774749
   1860000   0.372               1850   3.3770362e-13  6.5409851e+09  3.9676221e-06  0.00044365225
   1870000   0.374               1850   3.4635035e-13  6.7056849e+09  3.9676221e-06  0.00044929656
   1880000   0.376               1850   3.5468462e-13  6.8644084e+09  3.9676221e-06  0.00045467031
   1890000   0.378               1850   3.6267514e-13  7.0165821e+09  3.9676221e-06  0.00045976274
   1900000   0.38                1850   3.7028824e-13  7.1616433e+09  3.9676221e-06  0.00046456396
   1910000   0.382               1850   3.7750006e-13  7.2990447e+09  3.9676221e-06  0.00046906581
   1920000   0.384               1850   3.8428249e-13  7.428257e+09   3.9676221e-06  0.00047326082
   1930000   0.386               1850   3.9060893e-13  7.5487735e+09  3.9676221e-06  0.00047714093
   1940000   0.388               1850   3.9645438e-13  7.6601133e+09  3.9676221e-06  0.00048069738
   1950000   0.39                1850   4.01791e-13    7.7618251e+09  3.9676221e-06  0.00048392224
   1960000   0.392               1850   4.0659959e-13  7.8534908e+09  3.9676221e-06  0.00048680941
   1970000   0.394               1850   4.1086184e-13  7.9347286e+09  3.9676221e-06  0.00048935408
   1980000   0.396               1850   4.1455908e-13  8.0051961e+09  3.9676221e-06  0.00049155128
   1990000   0.398               1850   4.1767622e-13  8.0645931e+09  3.9676221e-06  0.00049339555
   2000000   0.4                 1850   4.2019652e-13  8.1126643e+09  3.9676221e-06  0.000494882  
   2010000   0.402               1850   4.2210977e-13  8.149201e+09   3.9676221e-06  0.00049600757
   2020000   0.404               1850   4.2341026e-13  8.1740436e+09  3.9676221e-06  0.00049677082
   2030000   0.406               1850   4.2409171e-13  8.1870821e+09  3.9676221e-06  0.00049717065
   2040000   0.408               1850   4.2415156e-13  8.1882578e+09  3.9676221e-06  0.00049720562
   2050000   0.41                1850   4.2358721e-13  8.1775633e+09  3.9676221e-06  0.00049687466
   2060000   0.412               1850   4.224003e-13   8.1550428e+09  3.9676221e-06  0.00049617826
   2070000   0.414               1850   4.205984e-13   8.120792e+09   3.9676221e-06  0.00049511865
   2080000   0.416               1850   4.1818935e-13  8.0749567e+09  3.9676221e-06  0.00049369877
   2090000   0.418               1850   4.1518352e-13  8.017732e+09   3.9676221e-06  0.00049192131
   2100000   0.42                1850   4.1159241e-13  7.9493606e+09  3.9676221e-06  0.00048978912
   2110000   0.422               1850   4.0742979e-13  7.8701307e+09  3.9676221e-06  0.00048730627
   2120000   0.424               1850   4.0271492e-13  7.7803734e+09  3.9676221e-06  0.00048447839
   2130000   0.426               1850   3.97468e-13    7.6804606e+09  3.9676221e-06  0.00048131193
   2140000   0.428               1850   3.9171045e-13  7.5708014e+09  3.9676221e-06  0.00047781325
   2150000   0.43                1850   3.8546493e-13  7.4518391e+09  3.9676221e-06  0.00047398864
   2160000   0.432               1850   3.787549e-13   7.3240478e+09  3.9676221e-06  0.00046984511
   2170000   0.434               1850   3.7160766e-13  7.187929e+09   3.9676221e-06  0.00046539093
   2180000   0.436               1850   3.6405174e-13  7.0440074e+09  3.9676221e-06  0.00046063516
   2190000   0.438               1850   3.5611562e-13  6.8928278e+09  3.9676221e-06  0.00045558679
   2200000   0.44                1850   3.4782847e-13  6.7349509e+09  3.9676221e-06  0.00045025454
   2210000   0.442               1850   3.3921922e-13  6.5709497e+09  3.9676221e-06  0.00044464743
   2220000   0.444               1850   3.3031863e-13  6.4014057e+09  3.9676221e-06  0.00043877527
   2230000   0.446               1850   3.2115847e-13  6.2269056e+09  3.9676221e-06  0.00043264852
   2240000   0.448               1850   3.1176959e-13  6.0480378e+09  3.9676221e-06  0.00042627756
   2250000   0.45                1850   3.0218268e-13  5.8653889e+09  3.9676221e-06  0.00041967235
   2260000   0.452               1850   2.9242751e-13  5.6795407e+09  3.9676221e-06  0.00041284274
   2270000   0.454               1850   2.8253403e-13  5.4910677e+09  3.9676221e-06  0.00040579901
   2280000   0.456               1850   2.7253261e-13  5.300534e+09   3.9676221e-06  0.00039855181
   2290000   0.458               1850   2.624523e-13   5.1084912e+09  3.9676221e-06  0.00039111167
   2300000   0.46                1850   2.5232122e-13  4.915476e+09   3.9676221e-06  0.00038348862
   2310000   0.462               1850   2.4216625e-13  4.7220086e+09  3.9676221e-06  0.00037569234
   2320000   0.464               1850   2.3201337e-13  4.5285909e+09  3.9676221e-06  0.00036773257
   2330000   0.466               1850   2.2188839e-13  4.3357052e+09  3.9676221e-06  0.00035961918
   2340000   0.468               1850   2.1181571e-13  4.1438131e+09  3.9676221e-06  0.00035136187
   2350000   0.47                1850   2.0181838e-13  3.9533542e+09  3.9676221e-06  0.00034296986
   2360000   0.472               1850   1.9191815e-13  3.7647463e+09  3.9676221e-06  0.00033445181
   2370000   0.474               1850   1.8213538e-13  3.5783841e+09  3.9676221e-06  0.00032581625
   2380000   0.476               1850   1.7248985e-13  3.3946394e+09  3.9676221e-06  0.0003170716 
   2390000   0.478               1850   1.6300009e-13  3.2138611e+09  3.9676221e-06  0.00030822613
   2400000   0.48                1850   1.5368316e-13  3.0363751e+09  3.9676221e-06  0.0002992876 
   2410000   0.482               1850   1.4455494e-13  2.8624847e+09  3.9676221e-06  0.00029026323
   2420000   0.484               1850   1.3562997e-13  2.6924711e+09  3.9676221e-06  0.0002811599 
   2430000   0.486               1850   1.2692192e-13  2.5265938e+09  3.9676221e-06  0.00027198434
   2440000   0.488               1850   1.1844353e-13  2.3650913e+09  3.9676221e-06  0.00026274303
   2450000   0.49                1850   1.1020624e-13  2.2081821e+09  3.9676221e-06  0.00025344205
   2460000   0.492               1850   1.022205e-13   2.0560651e+09  3.9676221e-06  0.00024408695
   2470000   0.494               1850   9.4495672e-14  1.908921e+09   3.9676221e-06  0.00023468293
   2480000   0.496               1850   8.7040278e-14  1.7669127e+09  3.9676221e-06  0.00022523492
   2490000   0.498               1850   7.9862161e-14  1.6301866e+09  3.9676221e-06  0.00021574764
   2500000   0.5                 1850   7.2968202e-14  1.4988737e+09  3.9676221e-06  0.0002062255 
   2510000   0.502               1850   6.6364513e-14  1.3730904e+09  3.9676221e-06  0.00019667245
   2520000   0.504               1850   6.0056457e-14  1.2529395e+09  3.9676221e-06  0.00018709207
   2530000   0.506               1850   5.4048715e-14  1.1385114e+09  3.9676221e-06  0.0001774877 
   2540000   0.508               1850   4.8345526e-14  1.0298849e+09  3.9676221e-06  0.0001678625 
   2550000   0.51                1850   4.2950504e-14  9.271284e+08   3.9676221e-06  0.00015821937
   2560000   0.512               1850   3.786672e-14   8.3030067e+08  3.9676221e-06  0.00014856086
   2570000   0.514               1850   3.3096816e-14  7.3945179e+08  3.9676221e-06  0.00013888924
   2580000   0.516               1850   2.8642957e-14  6.5462408e+08  3.9676221e-06  0.00012920653
   2590000   0.518               1850   2.4507046e-14  5.7585291e+08  3.9676221e-06  0.00011951462
   2600000   0.52                1850   2.0690652e-14  5.0316749e+08  3.9676221e-06  0.00010981522
   2610000   0.522               1850   1.7195002e-14  4.3659159e+08  3.9676221e-06  0.00010010982
   2620000   0.524               1850   1.4021118e-14  3.7614425e+08  3.9676221e-06  9.0399658e-05
   2630000   0.526               1850   1.1169755e-14  3.2184042e+08  3.9676221e-06  8.068583e-05 
   2640000   0.528               1850   8.6415193e-15  2.736915e+08   3.9676221e-06  7.0969311e-05
   2650000   0.53                1850   6.4368851e-15  2.3170589e+08  3.9676221e-06  6.1250999e-05
   2660000   0.532               1850   4.5561432e-15  1.9588947e+08  3.9676221e-06  5.1531661e-05
   2670000   0.534               1850   2.9995025e-15  1.6624596e+08  3.9676221e-06  4.1811905e-05
   2680000   0.536               1850   1.7670579e-15  1.4277731e+08  3.9676221e-06  3.2092256e-05
   2690000   0.538               1850   8.5882558e-16  1.2548396e+08  3.9676221e-06  2.2373192e-05
   2700000   0.54                1850   2.7478448e-16  1.1436507e+08  3.9676221e-06  1.2655171e-05
   2710000   0.542               1850   1.481884e-17   1.0941872e+08  3.9676221e-06  2.9386234e-06
   2720000   0.544               1850   7.8778788e-17  1.1064196e+08  3.9676221e-06  6.7760788e-06
   2730000   0.546               1850   4.6646526e-16  1.1803093e+08  3.9676221e-06  1.6488582e-05
   2740000   0.548               1850   1.177613e-15   1.3158078e+08  3.9676221e-06  2.6198525e-05
   2750000   0.55                1850   2.2119275e-15  1.5128566e+08  3.9676221e-06  3.5905493e-05
   2760000   0.552               1850   3.5690283e-15  1.7713855e+08  3.9676221e-06  4.5608991e-05
   2770000   0.554               1850   5.2484715e-15  2.0913106e+08  3.9676221e-06  5.530852e-05 
   2780000   0.556               1850   7.2497447e-15  2.4725326e+08  3.9676221e-06  6.5003521e-05
   2790000   0.558               1850   9.5722174e-15  2.9149326e+08  3.9676221e-06  7.4693337e-05
   2800000   0.56                1850   1.2215152e-14  3.4183694e+08  3.9676221e-06  8.4377185e-05
   2810000   0.562               1850   1.5177656e-14  3.9826748e+08  3.9676221e-06  9.4054142e-05
   2820000   0.564               1850   1.8458668e-14  4.6076491e+08  3.9676221e-06  0.00010372317
   2830000   0.566               1850   2.2056955e-14  5.2930554e+08  3.9676221e-06  0.00011338311
   2840000   0.568               1850   2.5971047e-14  6.038614e+08   3.9676221e-06  0.00012303263
   2850000   0.57                1850   3.0199216e-14  6.843996e+08   3.9676221e-06  0.00013267022
   2860000   0.572               1850   3.473943e-14   7.7088162e+08  3.9676221e-06  0.00014229411
   2870000   0.574               1850   3.9589318e-14  8.632626e+08   3.9676221e-06  0.00015190239
   2880000   0.576               1850   4.474615e-14   9.6149053e+08  3.9676221e-06  0.0001614929 
   2890000   0.578               1850   5.0206787e-14  1.0655054e+09  3.9676221e-06  0.00017106328
   2900000   0.58                1850   5.5967611e-14  1.1752385e+09  3.9676221e-06  0.00018061091
   2910000   0.582               1850   6.2024489e-14  1.2906111e+09  3.9676221e-06  0.00019013287
   2920000   0.584               1850   6.8372716e-14  1.4115341e+09  3.9676221e-06  0.00019962596
   2930000   0.586               1850   7.5006997e-14  1.5379068e+09  3.9676221e-06  0.00020908674
   2940000   0.588               1850   8.1921389e-14  1.6696155e+09  3.9676221e-06  0.00021851147
   2950000   0.59                1850   8.9109234e-14  1.8065336e+09  3.9676221e-06  0.00022789613
   2960000   0.592               1850   9.6563085e-14  1.9485193e+09  3.9676221e-06  0.00023723631
   2970000   0.594               1850   1.0427469e-13  2.0954158e+09  3.9676221e-06  0.00024652732
   2980000   0.596               1850   1.1223492e-13  2.2470497e+09  3.9676221e-06  0.00025576411
   2990000   0.598               1850   1.2043379e-13  2.4032301e+09  3.9676221e-06  0.00026494137
   3000000   0.6                 1850   1.2886034e-13  2.5637481e+09  3.9676221e-06  0.00027405342
   3010000   0.602               1850   1.3750257e-13  2.7283756e+09  3.9676221e-06  0.00028309423
   3020000   0.604               1850   1.4634747e-13  2.8968648e+09  3.9676221e-06  0.0002920574 
   3030000   0.606               1850   1.5538093e-13  3.0689472e+09  3.9676221e-06  0.00030093621
   3040000   0.608               1850   1.6458778e-13  3.2443336e+09  3.9676221e-06  0.00030972367
   3050000   0.61                1850   1.7395172e-13  3.422713e+09   3.9676221e-06  0.00031841239
   3060000   0.612               1850   1.8345529e-13  3.6037529e+09  3.9676221e-06  0.0003269947 
   3070000   0.614               1850   1.9307985e-13  3.7870985e+09  3.9676221e-06  0.00033546258
   3080000   0.616               1850   2.0280563e-13  3.972373e+09   3.9676221e-06  0.0003438077 
   3090000   0.618               1850   2.1261171e-13  4.159178e+09   3.9676221e-06  0.0003520215 
   3100000   0.62                1850   2.2247608e-13  4.3470933e+09  3.9676221e-06  0.00036009515
   3110000   0.622               1850   2.3237561e-13  4.5356778e+09  3.9676221e-06  0.00036801954
   3120000   0.624               1850   2.4228607e-13  4.7244703e+09  3.9676221e-06  0.00037578533
   3130000   0.626               1850   2.5218223e-13  4.9129901e+09  3.9676221e-06  0.00038338299
   3140000   0.628               1850   2.6203793e-13  5.1007387e+09  3.9676221e-06  0.00039080282
   3150000   0.63                1850   2.7182619e-13  5.2872011e+09  3.9676221e-06  0.00039803499
   3160000   0.632               1850   2.8151922e-13  5.4718473e+09  3.9676221e-06  0.00040506958
   3170000   0.634               1850   2.9108854e-13  5.6541344e+09  3.9676221e-06  0.00041189656
   3180000   0.636               1850   3.0050507e-13  5.833509e+09   3.9676221e-06  0.00041850583
   3190000   0.638               1850   3.0973937e-13  6.0094092e+09  3.9676221e-06  0.00042488737
   3200000   0.64                1850   3.1876168e-13  6.1812677e+09  3.9676221e-06  0.00043103116
   3210000   0.642               1850   3.2754212e-13  6.3485142e+09  3.9676221e-06  0.00043692731
   3220000   0.644               1850   3.3605077e-13  6.5105789e+09  3.9676221e-06  0.00044256602
   3230000   0.646               1850   3.4425793e-13  6.6668954e+09  3.9676221e-06  0.00044793767
   3240000   0.648               1850   3.5213421e-13  6.8169042e+09  3.9676221e-06  0.00045303288
   3250000   0.65                1850   3.5965082e-13  6.9600562e+09  3.9676221e-06  0.00045784254
   3260000   0.652               1850   3.6677971e-13  7.0958162e+09  3.9676221e-06  0.00046235789
   3270000   0.654               1850   3.734937e-13   7.2236665e+09  3.9676221e-06  0.00046657048
   3280000   0.656               1850   3.7976672e-13  7.3431105e+09  3.9676221e-06  0.00047047231
   3290000   0.658               1850   3.8557398e-13  7.4536763e+09  3.9676221e-06  0.00047405582
   3300000   0.66                1850   3.9089219e-13  7.5549203e+09  3.9676221e-06  0.00047731394
   3310000   0.662               1850   3.9569974e-13  7.6464303e+09  3.9676221e-06  0.00048024019
   3320000   0.664               1850   3.9997679e-13  7.7278289e+09  3.9676221e-06  0.00048282863
   3330000   0.666               1850   4.0370547e-13  7.7987763e+09  3.9676221e-06  0.00048507394
   3340000   0.668               1850   4.0687003e-13  7.8589733e+09  3.9676221e-06  0.00048697142
   3350000   0.67                1850   4.0945698e-13  7.9081636e+09  3.9676221e-06  0.00048851709
   3360000   0.672               1850   4.1145523e-13  7.946136e+09   3.9676221e-06  0.00048970768
   3370000   0.674               1850   4.128561e-13   7.9727258e+09  3.9676221e-06  0.00049054062
   3380000   0.676               1850   4.1365343e-13  7.987817e+09   3.9676221e-06  0.00049101407
   3390000   0.678               1850   4.1384365e-13  7.9913424e+09  3.9676221e-06  0.00049112695
   3400000   0.68                1850   4.134258e-13   7.9832849e+09  3.9676221e-06  0.00049087895
   3410000   0.682               1850   4.1240155e-13  7.9636771e+09  3.9676221e-06  0.0004902705 
   3420000   0.684               1850   4.1077518e-13  7.9326014e+09  3.9676221e-06  0.00048930282
   3430000   0.686               1850   4.0855355e-13  7.8901892e+09  3.9676221e-06  0.00048797785
   3440000   0.688               1850   4.0574603e-13  7.8366199e+09  3.9676221e-06  0.00048629831
   3450000   0.69                1850   4.0236438e-13  7.7721192e+09  3.9676221e-06  0.00048426756
   3460000   0.692               1850   3.9842278e-13  7.6969573e+09  3.9676221e-06  0.00048188976
   3470000   0.694               1850   3.9393759e-13  7.6114468e+09  3.9676221e-06  0.00047916968
   3480000   0.696               1850   3.8892729e-13  7.51594e+09    3.9676221e-06  0.00047611276
   3490000   0.698               1850   3.8341226e-13  7.4108265e+09  3.9676221e-06  0.00047272504
   3500000   0.7                 1850   3.774147e-13   7.2965294e+09  3.9676221e-06  0.00046901314
   3510000   0.702               1850   3.7095843e-13  7.1735029e+09  3.9676221e-06  0.00046498424
   3520000   0.704               1850   3.6406872e-13  7.0422282e+09  3.9676221e-06  0.00046064599
   3530000   0.706               1850   3.5677209e-13  6.9032105e+09  3.9676221e-06  0.00045600651
   3540000   0.708               1850   3.4909608e-13  6.756975e+09   3.9676221e-06  0.00045107431
   3550000   0.71                1850   3.4106915e-13  6.6040636e+09  3.9676221e-06  0.00044585826
   3560000   0.712               1850   3.3272043e-13  6.4450311e+09  3.9676221e-06  0.00044036758
   3570000   0.714               1850   3.2407959e-13  6.2804418e+09  3.9676221e-06  0.00043461172
   3580000   0.716               1850   3.1517655e-13  6.1108659e+09  3.9676221e-06  0.00042860038
   3590000   0.718               1850   3.0604142e-13  5.9368762e+09  3.9676221e-06  0.00042234339
   3600000   0.72                1850   2.9670426e-13  5.7590451e+09  3.9676221e-06  0.00041585074
   3610000   0.722               1850   2.8719494e-13  5.5779412e+09  3.9676221e-06  0.00040913251
   3620000   0.724               1850   2.7754303e-13  5.3941269e+09  3.9676221e-06  0.00040219878
   3630000   0.726               1850   2.677776e-13   5.2081553e+09  3.9676221e-06  0.00039505969
   3640000   0.728               1850   2.5792713e-13  5.0205685e+09  3.9676221e-06  0.00038772527
   3650000   0.73                1850   2.480194e-13   4.8318947e+09  3.9676221e-06  0.00038020552
   3660000   0.732               1850   2.3808134e-13  4.6426469e+09  3.9676221e-06  0.00037251029
   3670000   0.734               1850   2.2813905e-13  4.453321e+09   3.9676221e-06  0.00036464932
   3680000   0.736               1850   2.1821761e-13  4.2643944e+09  3.9676221e-06  0.00035663214
   3690000   0.738               1850   2.0834108e-13  4.0763249e+09  3.9676221e-06  0.00034846811
   3700000   0.74                1850   1.9853242e-13  3.8895495e+09  3.9676221e-06  0.00034016631
   3710000   0.742               1850   1.8881351e-13  3.7044842e+09  3.9676221e-06  0.00033173563
   3720000   0.744               1850   1.7920506e-13  3.5215229e+09  3.9676221e-06  0.00032318464
   3730000   0.746               1850   1.697266e-13   3.3410378e+09  3.9676221e-06  0.00031452165
   3740000   0.748               1850   1.6039653e-13  3.1633785e+09  3.9676221e-06  0.00030575465
   3750000   0.75                1850   1.5123206e-13  2.9888727e+09  3.9676221e-06  0.00029689133
   3760000   0.752               1850   1.4224925e-13  2.8178261e+09  3.9676221e-06  0.00028793905
   3770000   0.754               1850   1.3346303e-13  2.6505228e+09  3.9676221e-06  0.00027890486
   3780000   0.756               1850   1.2488723e-13  2.4872258e+09  3.9676221e-06  0.00026979543
   3790000   0.758               1850   1.1653458e-13  2.3281777e+09  3.9676221e-06  0.00026061715
   3800000   0.76                1850   1.0841679e-13  2.1736013e+09  3.9676221e-06  0.00025137602
   3810000   0.762               1850   1.0054456e-13  2.0237003e+09  3.9676221e-06  0.00024207774
   3820000   0.764               1850   9.2927621e-14  1.8786603e+09  3.9676221e-06  0.00023272765
   3830000   0.766               1850   8.5574828e-14  1.7386493e+09  3.9676221e-06  0.00022333078
   3840000   0.768               1850   7.8494139e-14  1.6038193e+09  3.9676221e-06  0.00021389183
   3850000   0.77                1850   7.1692714e-14  1.4743066e+09  3.9676221e-06  0.00020441515
   3860000   0.772               1850   6.5176958e-14  1.3502331e+09  3.9676221e-06  0.00019490484
   3870000   0.774               1850   5.8952555e-14  1.2317072e+09  3.9676221e-06  0.00018536464
   3880000   0.776               1850   5.302454e-14   1.1188248e+09  3.9676221e-06  0.00017579804
   3890000   0.778               1850   4.7397332e-14  1.0116701e+09  3.9676221e-06  0.00016620823
   3900000   0.78                1850   4.2074794e-14  9.1031683e+08  3.9676221e-06  0.00015659813
   3910000   0.782               1850   3.7060285e-14  8.1482886e+08  3.9676221e-06  0.00014697042
   3920000   0.784               1850   3.2356689e-14  7.2526131e+08  3.9676221e-06  0.00013732753
   3930000   0.786               1850   2.796648e-14   6.416613e+08   3.9676221e-06  0.00012767165
   3940000   0.788               1850   2.389175e-14   5.6406877e+08  3.9676221e-06  0.00011800477
   3950000   0.79                1850   2.0134254e-14  4.9251725e+08  3.9676221e-06  0.00010832865
   3960000   0.792               1850   1.6695453e-14  4.2703457e+08  3.9676221e-06  9.8644906e-05
   3970000   0.794               1850   1.3576539e-14  3.6764355e+08  3.9676221e-06  8.8954944e-05
   3980000   0.796               1850   1.0778478e-14  3.1436259e+08  3.9676221e-06  7.9260037e-05
   3990000   0.798               1850   8.3020285e-15  2.6720625e+08  3.9676221e-06  6.9561296e-05
   4000000   0.8                 1850   6.1477787e-15  2.2618574e+08  3.9676221e-06  5.9859717e-05
Loop time of 1039.39 on 1 procs for 4000000 steps with 1850 atoms

100.0% CPU use with 1 MPI tasks x 1 OpenMP threads

MPI task timing breakdown:
Section |  min time  |  avg time  |  max time  |%varavg| %total
---------------------------------------------------------------
Pair    | 795.72     | 795.72     | 795.72     |   0.0 | 76.56
Neigh   | 0.031564   | 0.031564   | 0.031564   |   0.0 |  0.00
Comm    | 0.09038    | 0.09038    | 0.09038    |   0.0 |  0.01
Output  | 0.36676    | 0.36676    | 0.36676    |   0.0 |  0.04
Modify  | 233.05     | 233.05     | 233.05     |   0.0 | 22.42
Other   |            | 10.13      |            |       |  0.98

Nlocal:           1850 ave        1850 max        1850 min
Histogram: 1 0 0 0 0 0 0 0 0 0
Nghost:              0 ave           0 max           0 min
Histogram: 1 0 0 0 0 0 0 0 0 0
Neighs:           7078 ave        7078 max        7078 min
Histogram: 1 0 0 0 0 0 0 0 0 0

Total # of neighbors = 7078
Ave neighs/atom = 3.8259459
Neighbor list builds = 52
Dangerous builds = 0
Generated 0 of 0 mixed pair_coeff terms from geometric mixing rule
Setting up Verlet run ...
  Unit style    : si
  Current step  : 4000000
  Time step     : 2e-07
Per MPI rank memory allocation (min/avg/max) = 13 | 13 | 13 Mbytes
   Step          Time         Atoms        KinEng     c_granularTemp c_solidVolume    c_maxSpeed  
   4000000   0.8                 1850   6.1477787e-15  2.2618574e+08  3.9676221e-06  5.9859717e-05
Loop time of 2.23e-07 on 1 procs for 0 steps with 1850 atoms

0.0% CPU use with 1 MPI tasks x 1 OpenMP threads

MPI task timing breakdown:
Section |  min time  |  avg time  |  max time  |%varavg| %total
---------------------------------------------------------------
Pair    | 0          | 0          | 0          |   0.0 |  0.00
Neigh   | 0          | 0          | 0          |   0.0 |  0.00
Comm    | 0          | 0          | 0          |   0.0 |  0.00
Output  | 0          | 0          | 0          |   0.0 |  0.00
Modify  | 0          | 0          | 0          |   0.0 |  0.00
Other   |            | 2.23e-07   |            |       |100.00

Nlocal:           1850 ave        1850 max        1850 min
Histogram: 1 0 0 0 0 0 0 0 0 0
Nghost:              0 ave           0 max           0 min
Histogram: 1 0 0 0 0 0 0 0 0 0
Neighs:           7077 ave        7077 max        7077 min
Histogram: 1 0 0 0 0 0 0 0 0 0

Total # of neighbors = 7077
Ave neighs/atom = 3.8254054
Neighbor list builds = 0
Dangerous builds = 0
Generated 0 of 0 mixed pair_coeff terms from geometric mixing rule
Neighbor list info ...
  update: every = 1 steps, delay = 0 steps, check = yes
  max neighbors/atom: 2000, page size: 100000
  master list distance cutoff = 0.00185
  ghost atom cutoff = 0.00185
  binsize = 0.000925, bins = 18 18 76
  3 neighbor lists, perpetual/occasional/extra = 1 2 0
  (1) pair granular, perpetual
      attributes: half, newton off, size, history
      pair build: half/size/bin/atomonly/newtoff
      stencil: full/bin/3d
      bin: standard
  (2) compute property/local, occasional
      attributes: half, newton off, size
      pair build: half/size/bin/atomonly/newtoff
      stencil: full/bin/3d
      bin: standard
  (3) compute pair/local, occasional
      attributes: half, newton off, size
      pair build: half/size/bin/atomonly/newtoff
      stencil: full/bin/3d
      bin: standard
Setting up Verlet run ...
  Unit style    : si
  Current step  : 4000000
  Time step     : 2e-07
Per MPI rank memory allocation (min/avg/max) = 14.26 | 14.26 | 14.26 Mbytes
   Step          Time         Atoms        KinEng     c_granularTemp c_solidVolume    c_maxSpeed  
   4000000   0.8                 1850   6.1477787e-15  2.2618574e+08  3.9676221e-06  5.9859717e-05
   4000001   0.8000002           1850   6.1475794e-15  2.2618195e+08  3.9676221e-06  5.9858747e-05
Loop time of 0.00636398 on 1 procs for 1 steps with 1850 atoms

84.3% CPU use with 1 MPI tasks x 1 OpenMP threads

MPI task timing breakdown:
Section |  min time  |  avg time  |  max time  |%varavg| %total
---------------------------------------------------------------
Pair    | 0.00021834 | 0.00021834 | 0.00021834 |   0.0 |  3.43
Neigh   | 0          | 0          | 0          |   0.0 |  0.00
Comm    | 1.28e-07   | 1.28e-07   | 1.28e-07   |   0.0 |  0.00
Output  | 0.0060795  | 0.0060795  | 0.0060795  |   0.0 | 95.53
Modify  | 6.2379e-05 | 6.2379e-05 | 6.2379e-05 |   0.0 |  0.98
Other   |            | 3.621e-06  |            |       |  0.06

Nlocal:           1850 ave        1850 max        1850 min
Histogram: 1 0 0 0 0 0 0 0 0 0
Nghost:              0 ave           0 max           0 min
Histogram: 1 0 0 0 0 0 0 0 0 0
Neighs:           7077 ave        7077 max        7077 min
Histogram: 1 0 0 0 0 0 0 0 0 0

Total # of neighbors = 7077
Ave neighs/atom = 3.8254054
Neighbor list builds = 0
Dangerous builds = 0
System init for write_data ...
Generated 0 of 0 mixed pair_coeff terms from geometric mixing rule
System init for write_restart ...
Generated 0 of 0 mixed pair_coeff terms from geometric mixing rule
seed Ntarget Nfinal dp_m density_kgm3 Dtube_m D_over_dp solidVolume_m3 bedHeight_m bedVolume_m3 packingFraction porosity minParticleBottom_m kineticEnergy_J maxSpeed_ms
129121 1850 1850 0.0016 1600 0.016 10 3.96762208197362e-06 0.0364398957155942 7.32667575537208e-06 0.541531004571135 0.458468995428865 -1.12204378631658e-06 6.14757944081343e-15 5.98587469555085e-05
Packing generation completed: co2_13x_seed_129121
ACCEPT only if Nfinal=Ntarget, the bed is settled, and overlap/geometry checks pass.
For the 20-packing pilot, change only seed_realization.
CO2 diffusion and particle LDF adsorption are added later in the pore-network solver, not here.
Total wall time: 0:23:23
