Authorization required, but no authorization protocol specified

Authorization required, but no authorization protocol specified

Authorization required, but no authorization protocol specified

Authorization required, but no authorization protocol specified

LAMMPS (22 Jul 2025 - Update 5)
OMP_NUM_THREADS environment is not set. Defaulting to 1 thread.
  using 1 OpenMP thread(s) per MPI task
OMP_NUM_THREADS environment is not set. Defaulting to 1 thread.
  using 1 OpenMP thread(s) per MPI task
CO2 sorbent = commercial zeolite 13X (mechanical packing only)
Realization seed = 61417
Target particle count = 1850
Bead diameter [m] = 0.0016
Tube diameter [m] = 0.016
Tube-to-particle diameter ratio = 10
Target solid volume [m^3] = 3.96762208197367e-06
Created orthogonal box = (-0.008 -0.008 0) to (0.008 0.008 0.07)
  1 by 1 by 1 MPI processor grid
Generated 0 of 0 mixed pair_coeff terms from geometric mixing rule
Particle insertion: 303 every 319275 steps, 1850 by step 1915651
Neighbor list info ...
  update: every = 1 steps, delay = 0 steps, check = yes
  max neighbors/atom: 2000, page size: 100000
  master list distance cutoff = 0.00185
  ghost atom cutoff = 0.00185
  binsize = 0.000925, bins = 18 18 76
  1 neighbor lists, perpetual/occasional/extra = 1 0 0
  (1) pair granular, perpetual
      attributes: half, newton off, size, history
      pair build: half/size/bin/atomonly/newtoff
      stencil: full/bin/3d
      bin: standard
Setting up Verlet run ...
  Unit style    : si
  Current step  : 0
  Time step     : 2e-07
Per MPI rank memory allocation (min/avg/max) = 7.438 | 7.438 | 7.438 Mbytes
   Step          Time         Atoms        KinEng     c_granularTemp c_solidVolume    c_maxSpeed  
         0   0                      0  -0              0              0             -1e+20        
WARNING: Fewer insertions than requested (src/GRANULAR/fix_pour.cpp:691)
     10000   0.002                199  -0              4.8656049e+15  4.2678746e-07  0.60676743   
     20000   0.004                199  -0              4.7888443e+15  4.2678746e-07  0.59147244   
     30000   0.006                199  -0              4.7238801e+15  4.2678746e-07  0.57704343   
     40000   0.008                199  -0              4.6692247e+15  4.2678746e-07  0.56343136   
     50000   0.01                 199  -0              4.6235648e+15  4.2678746e-07  0.55058999   
     60000   0.012                199  -0              4.5857418e+15  4.2678746e-07  0.53847568   
     70000   0.014                199  -0              4.5547342e+15  4.2678746e-07  0.52704726   
     80000   0.016                199  -0              4.5296417e+15  4.2678746e-07  0.51626591   
     90000   0.018                199  -0              4.5096719e+15  4.2678746e-07  0.50609497   
    100000   0.02                 199  -0              4.4941273e+15  4.2678746e-07  0.4964999    
    110000   0.022                199  -0              4.4823949e+15  4.2678746e-07  0.48744808   
    120000   0.024                199  -0              4.4739363e+15  4.2678746e-07  0.47890877   
    130000   0.026                199  -0              4.4682788e+15  4.2678746e-07  0.47085294   
    140000   0.028                199  -0              4.4650086e+15  4.2678746e-07  0.46325321   
    150000   0.03                 199  -0              4.4637628e+15  4.2678746e-07  0.45608377   
    160000   0.032                199  -0              4.4642246e+15  4.2678746e-07  0.44932026   
    170000   0.034                199  -0              4.4661171e+15  4.2678746e-07  0.44293968   
    180000   0.036                199  -0              4.4691991e+15  4.2678746e-07  0.43692036   
    190000   0.038                199  -0              4.4732605e+15  4.2678746e-07  0.43124185   
    200000   0.04                 199  -0              4.4781189e+15  4.2678746e-07  0.42588484   
    210000   0.042                199  -0              4.4836161e+15  4.2678746e-07  0.42083114   
    220000   0.044                199  -0              4.4896155e+15  4.2678746e-07  0.41606357   
    230000   0.046                199  -0              4.4959991e+15  4.2678746e-07  0.41156594   
    240000   0.048                199  -0              4.5026656e+15  4.2678746e-07  0.40732295   
    250000   0.05                 199  -0              4.5095279e+15  4.2678746e-07  0.4033202    
    260000   0.052                199  -0              4.516512e+15   4.2678746e-07  0.39954407   
    270000   0.054                199  -0              4.5235547e+15  4.2678746e-07  0.39598175   
    280000   0.056                199  -0              4.5306029e+15  4.2678746e-07  0.39262111   
    290000   0.058                199  -0              4.5376117e+15  4.2678746e-07  0.38945075   
    300000   0.06                 199  -0              4.5445437e+15  4.2678746e-07  0.38645989   
    310000   0.062                199  -0              4.5513682e+15  4.2678746e-07  0.38363837   
WARNING: Fewer insertions than requested (src/GRANULAR/fix_pour.cpp:691)
    320000   0.064                383  -0              4.8941268e+15  8.21405e-07    0.60714362   
    330000   0.066                383  -0              4.8314721e+15  8.21405e-07    0.59182733   
    340000   0.068                383  -0              4.7756313e+15  8.21405e-07    0.57737823   
    350000   0.07                 383  -0              4.7342039e+15  8.21405e-07    0.55850251   
    360000   0.072                383  -0              4.701162e+15   8.21405e-07    0.5459402    
    370000   0.074                383  -0              4.6767218e+15  8.21405e-07    0.53408915   
    380000   0.076                383  -0              4.6558842e+15  8.21405e-07    0.52290909   
    390000   0.078                383  -0              4.6380388e+15  8.21405e-07    0.51236203   
    400000   0.08                 383  -0              4.6253683e+15  8.21405e-07    0.50241213   
    410000   0.082                383  -0              4.617176e+15   8.21405e-07    0.49302557   
    420000   0.084                383  -0              4.6093006e+15  8.21405e-07    0.48417047   
    430000   0.086                383  -0              4.5905467e+15  8.21405e-07    0.46817812   
    440000   0.088                383  -0              4.5465959e+15  8.21405e-07    0.46072984   
    450000   0.09                 383  -0              4.5297345e+15  8.21405e-07    0.43655452   
    460000   0.092                383  -0              4.5042763e+15  8.21405e-07    0.43089076   
    470000   0.094                383  -0              4.4754228e+15  8.21405e-07    0.42554818   
    480000   0.096                383  -0              4.4344477e+15  8.21405e-07    0.41450563   
    490000   0.098                383  -0              4.3868896e+15  8.21405e-07    0.4100962    
    500000   0.1                  383  -0              4.3561755e+15  8.21405e-07    0.40593643   
    510000   0.102                383  -0              4.3544558e+15  8.21405e-07    0.40201218   
    520000   0.104                383  -0              4.3342575e+15  8.21405e-07    0.39831011   
    530000   0.106                383  -0              4.3014602e+15  8.21405e-07    0.39481765   
    540000   0.108                383  -0              4.2709286e+15  8.21405e-07    0.39152292   
    550000   0.11                 383  -0              4.2511506e+15  8.21405e-07    0.38841474   
    560000   0.112                383  -0              4.195753e+15   8.21405e-07    0.38548254   
    570000   0.114                383  -0              4.1805637e+15  8.21405e-07    0.38271635   
    580000   0.116                383  -0              4.162227e+15   8.21405e-07    0.37733082   
    590000   0.118                383  -0              4.1448098e+15  8.21405e-07    0.37502618   
    600000   0.12                 383  -0              4.1264212e+15  8.21405e-07    0.37285201   
    610000   0.122                383  -0              4.0723829e+15  8.21405e-07    0.37080095   
    620000   0.124                383  -0              4.020342e+15   8.21405e-07    0.36886601   
    630000   0.126                383  -0              3.9822602e+15  8.21405e-07    0.36704063   
WARNING: Fewer insertions than requested (src/GRANULAR/fix_pour.cpp:691)
    640000   0.128                655  -0              4.8102486e+15  1.4047527e-06  0.62019868   
    650000   0.13                 655  -0              4.7105782e+15  1.4047527e-06  0.60414323   
    660000   0.132                655  -0              4.6374419e+15  1.4047527e-06  0.58899682   
    670000   0.134                655  -0              4.5728877e+15  1.4047527e-06  0.57470797   
    680000   0.136                655  -0              4.5172488e+15  1.4047527e-06  0.56122814   
    690000   0.138                655  -0              4.4557291e+15  1.4047527e-06  0.54851152   
    700000   0.14                 655  -0              4.410017e+15   1.4047527e-06  0.53427901   
    710000   0.142                655  -0              4.3667964e+15  1.4047527e-06  0.5230882    
    720000   0.144                655  -0              4.324595e+15   1.4047527e-06  0.512531     
    730000   0.146                655  -0              4.2914733e+15  1.4047527e-06  0.50257153   
    740000   0.148                655  -0              4.2554304e+15  1.4047527e-06  0.49317595   
    750000   0.15                 655  -0              4.2186891e+15  1.4047527e-06  0.48431233   
    760000   0.152                655  -0              4.1826149e+15  1.4047527e-06  0.47595056   
    770000   0.154                655  -0              4.1283945e+15  1.4047527e-06  0.46806221   
    780000   0.156                655  -0              4.0729638e+15  1.4047527e-06  0.4606205    
    790000   0.158                655  -0              3.9885623e+15  1.4047527e-06  0.45360012   
    800000   0.16                 655  -0              3.8872495e+15  1.4047527e-06  0.44697722   
    810000   0.162                655  -0              3.8275199e+15  1.4047527e-06  0.4407293    
    820000   0.164                655  -0              3.7330023e+15  1.4047527e-06  0.43483513   
    830000   0.166                655  -0              3.6550728e+15  1.4047527e-06  0.42927468   
    840000   0.168                655  -0              3.6042643e+15  1.4047527e-06  0.42402905   
    850000   0.17                 655  -0              3.5585976e+15  1.4047527e-06  0.41908043   
    860000   0.172                655  -0              3.4960787e+15  1.4047527e-06  0.41441198   
    870000   0.174                655  -0              3.4282923e+15  1.4047527e-06  0.41000786   
    880000   0.176                655  -0              3.3381039e+15  1.4047527e-06  0.40585309   
    890000   0.178                655  -0              3.279939e+15   1.4047527e-06  0.40193355   
    900000   0.18                 655  -0              3.2025419e+15  1.4047527e-06  0.39823594   
    910000   0.182                655  -0              3.1418257e+15  1.4047527e-06  0.39474767   
    920000   0.184                655  -0              3.0462015e+15  1.4047527e-06  0.39145691   
    930000   0.186                655  -0              2.9598678e+15  1.4047527e-06  0.38835247   
    940000   0.188                655  -0              2.9005752e+15  1.4047527e-06  0.38542379   
    950000   0.19                 655  -0              2.8276877e+15  1.4047527e-06  0.38266093   
WARNING: Fewer insertions than requested (src/GRANULAR/fix_pour.cpp:691)
    960000   0.192                826  -0              3.1461556e+15  1.7714896e-06  0.62069433   
    970000   0.194                826  -0              3.0943169e+15  1.7714896e-06  0.60461082   
    980000   0.196                826  -0              3.0640728e+15  1.7714896e-06  0.58943794   
    990000   0.198                826  -0              3.0311191e+15  1.7714896e-06  0.57512412   
   1000000   0.2                  826  -0              3.0037178e+15  1.7714896e-06  0.56162072   
   1010000   0.202                826  -0              2.9524556e+15  1.7714896e-06  0.54888187   
   1020000   0.204                826  -0              2.8906718e+15  1.7714896e-06  0.53686427   
   1030000   0.206                826  -0              2.8418849e+15  1.7714896e-06  0.52552709   
   1040000   0.208                826  -0              2.7775899e+15  1.7714896e-06  0.5148318    
   1050000   0.21                 826  -0              2.6990609e+15  1.7714896e-06  0.50474206   
   1060000   0.212                826  -0              2.6440163e+15  1.7714896e-06  0.49522359   
   1070000   0.214                826  -0              2.594543e+15   1.7714896e-06  0.48193178   
   1080000   0.216                826  -0              2.5460775e+15  1.7714896e-06  0.47370479   
   1090000   0.218                826  -0              2.522446e+15   1.7714896e-06  0.4659436    
   1100000   0.22                 826  -0              2.485885e+15   1.7714896e-06  0.45862183   
   1110000   0.222                826  -0              2.4410573e+15  1.7714896e-06  0.45171462   
   1120000   0.224                826  -0              2.3827171e+15  1.7714896e-06  0.44519848   
   1130000   0.226                826  -0              2.3041925e+15  1.7714896e-06  0.43905127   
   1140000   0.228                826  -0              2.2321137e+15  1.7714896e-06  0.41474453   
   1150000   0.23                 826  -0              2.1548298e+15  1.7714896e-06  0.3987434    
   1160000   0.232                826  -0              2.0389815e+15  1.7714896e-06  0.39521865   
   1170000   0.234                826  -0              1.9639143e+15  1.7714896e-06  0.39189421   
   1180000   0.236                826  -0              1.8988323e+15  1.7714896e-06  0.38875866   
   1190000   0.238                826  -0              1.8445439e+15  1.7714896e-06  0.38580124   
   1200000   0.24                 826  -0              1.7934964e+15  1.7714896e-06  0.38301183   
   1210000   0.242                826  -0              1.7598131e+15  1.7714896e-06  0.38038085   
   1220000   0.244                826  -0              1.7257074e+15  1.7714896e-06  0.37789929   
   1230000   0.246                826  -0              1.6919205e+15  1.7714896e-06  0.37555866   
   1240000   0.248                826  -0              1.6646628e+15  1.7714896e-06  0.37335092   
   1250000   0.25                 826  -0              1.6197679e+15  1.7714896e-06  0.36649729   
   1260000   0.252                826  -0              1.5967549e+15  1.7714896e-06  0.36478864   
   1270000   0.254                826  -0              1.5525346e+15  1.7714896e-06  0.36317851   
WARNING: Fewer insertions than requested (src/GRANULAR/fix_pour.cpp:691)
   1280000   0.256               1021  -0              2.16942e+15    2.1896985e-06  0.62115146   
   1290000   0.258               1021  -0              2.1142641e+15  2.1896985e-06  0.60504207   
   1300000   0.26                1021  -0              2.0573106e+15  2.1896985e-06  0.5873227    
   1310000   0.262               1021  -0              2.007408e+15   2.1896985e-06  0.57312864   
   1320000   0.264               1021  -0              1.9629729e+15  2.1896985e-06  0.54053485   
   1330000   0.266               1021  -0              1.9308698e+15  2.1896985e-06  0.52898985   
   1340000   0.268               1021  -0              1.9054819e+15  2.1896985e-06  0.51387931   
   1350000   0.27                1021  -0              1.8723732e+15  2.1896985e-06  0.5038435    
   1360000   0.272               1021  -0              1.8417959e+15  2.1896985e-06  0.48326283   
   1370000   0.274               1021  -0              1.8159074e+15  2.1896985e-06  0.47496048   
   1380000   0.276               1021  -0              1.7685733e+15  2.1896985e-06  0.46039371   
   1390000   0.278               1021  -0              1.7153318e+15  2.1896985e-06  0.45336624   
   1400000   0.28                1021  -0              1.6803472e+15  2.1896985e-06  0.44673831   
   1410000   0.282               1021  -0              1.6320042e+15  2.1896985e-06  0.44048718   
   1420000   0.284               1021  -0              1.57878e+15    2.1896985e-06  0.4345914    
   1430000   0.286               1021  -0              1.5143102e+15  2.1896985e-06  0.42903076   
   1440000   0.288               1021  -0              1.4538103e+15  2.1896985e-06  0.42378617   
   1450000   0.29                1021  -0              1.4198516e+15  2.1896985e-06  0.41883965   
   1460000   0.292               1021  -0              1.4097124e+15  2.1896985e-06  0.41417424   
   1470000   0.294               1021  -0              1.3894063e+15  2.1896985e-06  0.40977393   
   1480000   0.296               1021  -0              1.3766918e+15  2.1896985e-06  0.40562364   
   1490000   0.298               1021  -0              1.368516e+15   2.1896985e-06  0.40170914   
   1500000   0.3                 1021  -0              1.3586987e+15  2.1896985e-06  0.39801702   
   1510000   0.302               1021  -0              1.3560013e+15  2.1896985e-06  0.3936764    
   1520000   0.304               1021  -0              1.3516481e+15  2.1896985e-06  0.39044561   
   1530000   0.306               1021  -0              1.3438565e+15  2.1896985e-06  0.38739781   
   1540000   0.308               1021  -0              1.3194602e+15  2.1896985e-06  0.38452262   
   1550000   0.31                1021  -0              1.3032013e+15  2.1896985e-06  0.38181028   
   1560000   0.312               1021  -0              1.2653734e+15  2.1896985e-06  0.37925156   
   1570000   0.314               1021  -0              1.2190594e+15  2.1896985e-06  0.37683775   
   1580000   0.316               1021  -0              1.1927859e+15  2.1896985e-06  0.37456065   
   1590000   0.318               1021  -0              1.1650045e+15  2.1896985e-06  0.36121014   
WARNING: Fewer insertions than requested (src/GRANULAR/fix_pour.cpp:691)
   1600000   0.32                1270  -0              2.0354031e+15  2.7237189e-06  0.60983673   
   1610000   0.322               1270  -0              1.9838976e+15  2.7237189e-06  0.59436796   
   1620000   0.324               1270  -0              1.92047e+15    2.7237189e-06  0.57977501   
   1630000   0.326               1270  -0              1.8685631e+15  2.7237189e-06  0.56600829   
   1640000   0.328               1270  -0              1.8216368e+15  2.7237189e-06  0.55302102   
   1650000   0.33                1270  -0              1.7657737e+15  2.7237189e-06  0.54076907   
   1660000   0.332               1270  -0              1.7113556e+15  2.7237189e-06  0.52816144   
   1670000   0.334               1270  -0              1.6700782e+15  2.7237189e-06  0.517317     
   1680000   0.336               1270  -0              1.6213627e+15  2.7237189e-06  0.50708655   
   1690000   0.338               1270  -0              1.5776266e+15  2.7237189e-06  0.49743534   
   1700000   0.34                1270  -0              1.5391537e+15  2.7237189e-06  0.48833056   
   1710000   0.342               1270  -0              1.4981009e+15  2.7237189e-06  0.47974128   
   1720000   0.344               1270  -0              1.4572039e+15  2.7237189e-06  0.47163831   
   1730000   0.346               1270  -0              1.4329861e+15  2.7237189e-06  0.46399412   
   1740000   0.348               1270  -0              1.4106746e+15  2.7237189e-06  0.45678274   
   1750000   0.35                1270  -0              1.3846878e+15  2.7237189e-06  0.44997964   
   1760000   0.352               1270  -0              1.3615986e+15  2.7237189e-06  0.44356173   
   1770000   0.354               1270  -0              1.3452069e+15  2.7237189e-06  0.4375072    
   1780000   0.356               1270  -0              1.3319228e+15  2.7237189e-06  0.43179546   
   1790000   0.358               1270  -0              1.3138481e+15  2.7237189e-06  0.42640711   
   1800000   0.36                1270  -0              1.294048e+15   2.7237189e-06  0.42118073   
   1810000   0.362               1270  -0              1.2758987e+15  2.7237189e-06  0.40296283   
   1820000   0.364               1270  -0              1.2408361e+15  2.7237189e-06  0.39479378   
   1830000   0.366               1270  -0              1.2058559e+15  2.7237189e-06  0.39150041   
   1840000   0.368               1270  -0              1.1621385e+15  2.7237189e-06  0.37854076   
   1850000   0.37                1270  -0              1.1280367e+15  2.7237189e-06  0.37616454   
   1860000   0.372               1270  -0              1.0856311e+15  2.7237189e-06  0.37392316   
   1870000   0.374               1270  -0              1.0492528e+15  2.7237189e-06  0.36669896   
   1880000   0.376               1270  -0              9.9662815e+14  2.7237189e-06  0.36322311   
   1890000   0.378               1270  -0              9.4738854e+14  2.7237189e-06  0.36171317   
   1900000   0.38                1270  -0              9.1245086e+14  2.7237189e-06  0.36028913   
   1910000   0.382               1270  -0              8.7007992e+14  2.7237189e-06  0.35524148   
WARNING: Fewer insertions than requested (src/GRANULAR/fix_pour.cpp:691)
   1920000   0.384               1465  -0              1.3599541e+15  3.1419278e-06  0.6117596    
   1930000   0.386               1465  -0              1.3019131e+15  3.1419278e-06  0.58614568   
   1940000   0.388               1465  -0              1.2404917e+15  3.1419278e-06  0.57201826   
   1950000   0.39                1465  -0              1.1812517e+15  3.1419278e-06  0.55869072   
   1960000   0.392               1465  -0              1.1312944e+15  3.1419278e-06  0.54611776   
   1970000   0.394               1465  -0              1.0924884e+15  3.1419278e-06  0.53425666   
   1980000   0.396               1465  -0              1.0714e+15     3.1419278e-06  0.52306711   
   1990000   0.398               1465  -0              1.0520637e+15  3.1419278e-06  0.51251111   
   2000000   0.4                 1465  -0              1.0385999e+15  3.1419278e-06  0.50255276   
   2010000   0.402               1465  -0              1.0212984e+15  3.1419278e-06  0.49315824   
   2020000   0.404               1465  -0              1.0062253e+15  3.1419278e-06  0.48429563   
   2030000   0.406               1465  -0              9.9384989e+14  3.1419278e-06  0.4759348    
   2040000   0.408               1465  -0              9.878419e+14   3.1419278e-06  0.46804735   
   2050000   0.41                1465  -0              9.6979438e+14  3.1419278e-06  0.43639511   
   2060000   0.412               1465  -0              9.4724071e+14  3.1419278e-06  0.43074634   
   2070000   0.414               1465  -0              9.1956946e+14  3.1419278e-06  0.42541739   
   2080000   0.416               1465  -0              8.9831075e+14  3.1419278e-06  0.42039015   
   2090000   0.418               1465  -0              8.592447e+14   3.1419278e-06  0.41564755   
   2100000   0.42                1465  -0              8.1840237e+14  3.1419278e-06  0.41117347   
   2110000   0.422               1465  -0              7.6881411e+14  3.1419278e-06  0.40266093   
   2120000   0.424               1465  -0              7.4033806e+14  3.1419278e-06  0.39011884   
   2130000   0.426               1465  -0              7.1913795e+14  3.1419278e-06  0.3870895    
   2140000   0.428               1465  -0              6.7582769e+14  3.1419278e-06  0.36779263   
   2150000   0.43                1465  -0              6.4748333e+14  3.1419278e-06  0.36602802   
   2160000   0.432               1465  -0              6.1964413e+14  3.1419278e-06  0.36436332   
   2170000   0.434               1465  -0              6.0428856e+14  3.1419278e-06  0.36279287   
   2180000   0.436               1465  -0              5.6902167e+14  3.1419278e-06  0.35964959   
   2190000   0.438               1465  -0              5.4936881e+14  3.1419278e-06  0.35834603   
   2200000   0.44                1465  -0              5.2893313e+14  3.1419278e-06  0.35382571   
   2210000   0.442               1465  -0              5.0376218e+14  3.1419278e-06  0.35285189   
   2220000   0.444               1465  -0              4.8486864e+14  3.1419278e-06  0.35035937   
   2230000   0.446               1465  -0              4.5934054e+14  3.1419278e-06  0.34696382   
WARNING: Fewer insertions than requested (src/GRANULAR/fix_pour.cpp:691)
   2240000   0.448               1686  -0              1.0601149e+15  3.6158977e-06  0.61571002   
   2250000   0.45                1686  -0              1.022649e+15   3.6158977e-06  0.59990871   
   2260000   0.452               1686  -0              1.0005137e+15  3.6158977e-06  0.58500205   
   2270000   0.454               1686  -0              9.7331557e+14  3.6158977e-06  0.57022783   
   2280000   0.456               1686  -0              9.4727311e+14  3.6158977e-06  0.55700165   
   2290000   0.458               1686  -0              9.2724817e+14  3.6158977e-06  0.54452432   
   2300000   0.46                1686  -0              9.0691091e+14  3.6158977e-06  0.51743297   
   2310000   0.462               1686  -0              8.9231388e+14  3.6158977e-06  0.50719596   
   2320000   0.464               1686  -0              8.7880034e+14  3.6158977e-06  0.49753855   
   2330000   0.466               1686  -0              8.6151374e+14  3.6158977e-06  0.48842793   
   2340000   0.468               1686  -0              8.4102077e+14  3.6158977e-06  0.46364349   
   2350000   0.47                1686  -0              8.1424167e+14  3.6158977e-06  0.45645195   
   2360000   0.472               1686  -0              7.9335505e+14  3.6158977e-06  0.44966759   
   2370000   0.474               1686  -0              7.6660658e+14  3.6158977e-06  0.44326735   
   2380000   0.476               1686  -0              7.3560851e+14  3.6158977e-06  0.42034308   
   2390000   0.478               1686  -0              7.0149237e+14  3.6158977e-06  0.41029917   
   2400000   0.48                1686  -0              6.7825167e+14  3.6158977e-06  0.39338534   
   2410000   0.482               1686  -0              6.3218421e+14  3.6158977e-06  0.3847129    
   2420000   0.484               1686  -0              6.0380862e+14  3.6158977e-06  0.37729819   
   2430000   0.486               1686  -0              5.7080726e+14  3.6158977e-06  0.37499539   
   2440000   0.488               1686  -0              5.510913e+14   3.6158977e-06  0.37122489   
   2450000   0.49                1686  -0              5.2274855e+14  3.6158977e-06  0.36926561   
   2460000   0.492               1686  -0              5.0234496e+14  3.6158977e-06  0.36741729   
   2470000   0.494               1686  -0              4.7436619e+14  3.6158977e-06  0.35968259   
   2480000   0.496               1686  -0              4.3761202e+14  3.6158977e-06  0.35593329   
   2490000   0.498               1686  -0              4.1302241e+14  3.6158977e-06  0.35462823   
   2500000   0.5                 1686  -0              3.9082114e+14  3.6158977e-06  0.3522309    
   2510000   0.502               1686  -0              3.6940797e+14  3.6158977e-06  0.35134737   
   2520000   0.504               1686  -0              3.4963003e+14  3.6158977e-06  0.34557509   
   2530000   0.506               1686  -0              3.3263987e+14  3.6158977e-06  0.34259329   
   2540000   0.508               1686  -0              3.1850575e+14  3.6158977e-06  0.33885237   
   2550000   0.51                1686  -0              3.0402655e+14  3.6158977e-06  0.33827998   
   2560000   0.512               1850  -0              7.6119942e+14  3.9676221e-06  0.61516858   
   2570000   0.514               1850  -0              7.3565746e+14  3.9676221e-06  0.59939793   
   2580000   0.516               1850  -0              7.0778367e+14  3.9676221e-06  0.58452019   
   2590000   0.518               1850  -0              6.8888356e+14  3.9676221e-06  0.5704848    
   2600000   0.52                1850  -0              6.658018e+14   3.9676221e-06  0.55724408   
   2610000   0.522               1850  -0              6.4440492e+14  3.9676221e-06  0.54179287   
   2620000   0.524               1850  -0              6.2109942e+14  3.9676221e-06  0.50019133   
   2630000   0.526               1850  -0              5.9327953e+14  3.9676221e-06  0.48101865   
   2640000   0.528               1850  -0              5.6366288e+14  3.9676221e-06  0.46390584   
   2650000   0.53                1850  -0              5.3345667e+14  3.9676221e-06  0.45667436   
   2660000   0.532               1850  -0              4.9604593e+14  3.9676221e-06  0.43609903   
   2670000   0.534               1850  -0              4.5448651e+14  3.9676221e-06  0.40262623   
   2680000   0.536               1850  -0              4.2855953e+14  3.9676221e-06  0.3988894    
   2690000   0.538               1850  -0              4.0143725e+14  3.9676221e-06  0.39536414   
   2700000   0.54                1850  -0              3.6434179e+14  3.9676221e-06  0.38467182   
   2710000   0.542               1850  -0              3.3478246e+14  3.9676221e-06  0.36840823   
   2720000   0.544               1850  -0              3.0931424e+14  3.9676221e-06  0.36660876   
   2730000   0.546               1850  -0              2.8868449e+14  3.9676221e-06  0.36491118   
   2740000   0.548               1850  -0              2.5613611e+14  3.9676221e-06  0.36330972   
   2750000   0.55                1850  -0              2.417224e+14   3.9676221e-06  0.36179892   
   2760000   0.552               1850  -0              2.3253616e+14  3.9676221e-06  0.36037367   
   2770000   0.554               1850  -0              2.2502733e+14  3.9676221e-06  0.35200335   
   2780000   0.556               1850  -0              2.1796498e+14  3.9676221e-06  0.35113271   
   2790000   0.558               1850  -0              2.1013403e+14  3.9676221e-06  0.34325936   
   2800000   0.56                1850  -0              2.0931735e+14  3.9676221e-06  0.34288378   
   2810000   0.562               1850  -0              2.0181333e+14  3.9676221e-06  0.34166168   
   2820000   0.564               1850  -0              1.9421969e+14  3.9676221e-06  0.33685274   
   2830000   0.566               1850  -0              1.856057e+14   3.9676221e-06  0.33575714   
   2840000   0.568               1850  -0              1.7807475e+14  3.9676221e-06  0.33349346   
   2850000   0.57                1850  -0              1.7117746e+14  3.9676221e-06  0.32960738   
   2860000   0.572               1850  -0              1.6471695e+14  3.9676221e-06  0.32764858   
   2870000   0.574               1850  -0              1.6055292e+14  3.9676221e-06  0.32585131   
   2880000   0.576               1850  -0              1.540443e+14   3.9676221e-06  0.32634347   
   2890000   0.578               1850  -0              1.5127513e+14  3.9676221e-06  0.32692565   
   2900000   0.58                1850  -0              1.4178347e+14  3.9676221e-06  0.32644923   
   2910000   0.582               1850  -0              1.3019137e+14  3.9676221e-06  0.32475449   
   2920000   0.584               1850  -0              1.2177155e+14  3.9676221e-06  0.32214699   
   2930000   0.586               1850  -0              1.1068486e+14  3.9676221e-06  0.32125501   
   2940000   0.588               1850  -0              1.0185006e+14  3.9676221e-06  0.32142345   
   2950000   0.59                1850  -0              8.9627384e+13  3.9676221e-06  0.32080145   
   2960000   0.592               1850  -0              8.212503e+13   3.9676221e-06  0.31786089   
   2970000   0.594               1850  -0              7.1741935e+13  3.9676221e-06  0.31849412   
   2980000   0.596               1850  -0              6.9230434e+13  3.9676221e-06  0.31952072   
   2990000   0.598               1850  -0              6.2494332e+13  3.9676221e-06  0.31755464   
   3000000   0.6                 1850  -0              5.9975725e+13  3.9676221e-06  0.31828311   
Loop time of 334.529 on 1 procs for 3000000 steps with 1850 atoms

100.0% CPU use with 1 MPI tasks x 1 OpenMP threads

MPI task timing breakdown:
Section |  min time  |  avg time  |  max time  |%varavg| %total
---------------------------------------------------------------
Pair    | 238.58     | 238.58     | 238.58     |   0.0 | 71.32
Neigh   | 0.56172    | 0.56172    | 0.56172    |   0.0 |  0.17
Comm    | 0.063796   | 0.063796   | 0.063796   |   0.0 |  0.02
Output  | 0.12649    | 0.12649    | 0.12649    |   0.0 |  0.04
Modify  | 91.152     | 91.152     | 91.152     |   0.0 | 27.25
Other   |            | 4.046      |            |       |  1.21

Nlocal:           1850 ave        1850 max        1850 min
Histogram: 1 0 0 0 0 0 0 0 0 0
Nghost:              0 ave           0 max           0 min
Histogram: 1 0 0 0 0 0 0 0 0 0
Neighs:           6897 ave        6897 max        6897 min
Histogram: 1 0 0 0 0 0 0 0 0 0

Total # of neighbors = 6897
Ave neighs/atom = 3.7281081
Neighbor list builds = 2127
Dangerous builds = 0
Generated 0 of 0 mixed pair_coeff terms from geometric mixing rule
Setting up Verlet run ...
  Unit style    : si
  Current step  : 0
  Time step     : 2e-07
Per MPI rank memory allocation (min/avg/max) = 14.72 | 14.72 | 14.72 Mbytes
   Step          Time         Atoms        KinEng     c_granularTemp c_solidVolume    c_maxSpeed  
         0   0                   1850   4.3691945e-06  5.9009542e+13  3.9676221e-06  0.31345708   
     10000   0.002               1850   2.1353584e-06  3.0325511e+13  3.9676221e-06  0.24976717   
     20000   0.004               1850   1.2653009e-06  1.8571772e+13  3.9676221e-06  0.20364539   
     30000   0.006               1850   7.909446e-07   1.2079982e+13  3.9676221e-06  0.16861373   
     40000   0.008               1850   5.0551653e-07  8.104042e+12   3.9676221e-06  0.14296957   
     50000   0.01                1850   3.3459414e-07  5.61223e+12    3.9676221e-06  0.12351426   
     60000   0.012               1850   2.177524e-07   3.8086334e+12  3.9676221e-06  0.10927639   
     70000   0.014               1850   1.6314183e-07  2.9242185e+12  3.9676221e-06  0.098671026  
     80000   0.016               1850   1.1245909e-07  2.2328765e+12  3.9676221e-06  0.090680429  
     90000   0.018               1850   8.5537048e-08  1.8086566e+12  3.9676221e-06  0.084776166  
    100000   0.02                1850   6.6699256e-08  1.4483503e+12  3.9676221e-06  0.080364516  
    110000   0.022               1850   5.2569742e-08  1.1379255e+12  3.9676221e-06  0.077068141  
    120000   0.024               1850   5.246157e-08   1.1007064e+12  3.9676221e-06  0.074605098  
    130000   0.026               1850   4.6343412e-08  9.8641235e+11  3.9676221e-06  0.072756905  
    140000   0.028               1850   4.5620705e-08  9.5584969e+11  3.9676221e-06  0.071383753  
    150000   0.03                1850   3.9647599e-08  8.4329927e+11  3.9676221e-06  0.070357737  
    160000   0.032               1850   3.8355119e-08  8.2190512e+11  3.9676221e-06  0.069591101  
    170000   0.034               1850   3.0283056e-08  7.3835976e+11  3.9676221e-06  0.051008624  
    180000   0.036               1850   2.8588839e-08  7.0250523e+11  3.9676221e-06  0.048538656  
    190000   0.038               1850   2.9043052e-08  7.1904034e+11  3.9676221e-06  0.051134802  
    200000   0.04                1850   2.0315951e-08  5.4105001e+11  3.9676221e-06  0.044151195  
    210000   0.042               1850   1.9992251e-08  5.1156649e+11  3.9676221e-06  0.049928355  
    220000   0.044               1850   2.1309033e-08  5.1934357e+11  3.9676221e-06  0.054289469  
    230000   0.046               1850   2.2752486e-08  5.2332464e+11  3.9676221e-06  0.057567099  
    240000   0.048               1850   1.6660741e-08  4.3994343e+11  3.9676221e-06  0.044576331  
    250000   0.05                1850   1.7323261e-08  4.532819e+11   3.9676221e-06  0.046877151  
    260000   0.052               1850   1.941762e-08   4.9751845e+11  3.9676221e-06  0.049277974  
    270000   0.054               1850   1.9362695e-08  4.9908513e+11  3.9676221e-06  0.052475856  
    280000   0.056               1850   1.4486451e-08  3.827532e+11   3.9676221e-06  0.055532616  
    290000   0.058               1850   1.3613525e-08  3.2325319e+11  3.9676221e-06  0.058309911  
    300000   0.06                1850   6.761914e-09   1.8643083e+11  3.9676221e-06  0.035098323  
    310000   0.062               1850   7.418113e-09   1.8684752e+11  3.9676221e-06  0.036995808  
    320000   0.064               1850   6.1053963e-09  1.5781352e+11  3.9676221e-06  0.038751354  
    330000   0.066               1850   6.3858557e-09  1.5960293e+11  3.9676221e-06  0.040698847  
    340000   0.068               1850   6.6422599e-09  1.5095758e+11  3.9676221e-06  0.042732994  
    350000   0.07                1850   6.4401398e-09  1.3905015e+11  3.9676221e-06  0.044852723  
    360000   0.072               1850   6.8120731e-09  1.4116402e+11  3.9676221e-06  0.047049809  
    370000   0.074               1850   4.5492388e-09  1.0347827e+11  3.9676221e-06  0.026051264  
    380000   0.076               1850   3.4929139e-09  7.5817357e+10  3.9676221e-06  0.026511556  
    390000   0.078               1850   2.4411593e-09  5.5536275e+10  3.9676221e-06  0.01872129   
    400000   0.08                1850   2.4929822e-09  5.6224688e+10  3.9676221e-06  0.020160119  
    410000   0.082               1850   2.0111995e-09  4.8001497e+10  3.9676221e-06  0.021571989  
    420000   0.084               1850   1.2644822e-09  3.0905607e+10  3.9676221e-06  0.014725433  
    430000   0.086               1850   1.2644327e-09  2.9501514e+10  3.9676221e-06  0.016503346  
    440000   0.088               1850   1.1098536e-09  2.6278222e+10  3.9676221e-06  0.018327395  
    450000   0.09                1850   1.2871708e-09  3.014561e+10   3.9676221e-06  0.020616196  
    460000   0.092               1850   7.6628697e-10  2.2749323e+10  3.9676221e-06  0.01311361   
    470000   0.094               1850   7.1034488e-10  2.3869362e+10  3.9676221e-06  0.01324677   
    480000   0.096               1850   7.4931733e-10  2.3496399e+10  3.9676221e-06  0.014240789  
    490000   0.098               1850   6.0055664e-10  1.6535814e+10  3.9676221e-06  0.010924653  
    500000   0.1                 1850   5.4926382e-10  1.4082842e+10  3.9676221e-06  0.0096329068 
    510000   0.102               1850   5.3873661e-10  1.364131e+10   3.9676221e-06  0.0094967891 
    520000   0.104               1850   4.4184386e-10  1.1289094e+10  3.9676221e-06  0.010148991  
    530000   0.106               1850   4.7758224e-10  1.2060228e+10  3.9676221e-06  0.010842509  
    540000   0.108               1850   5.302453e-10   1.3252029e+10  3.9676221e-06  0.011595193  
    550000   0.11                1850   5.450902e-10   1.3830739e+10  3.9676221e-06  0.012388288  
    560000   0.112               1850   6.0669755e-10  1.5327975e+10  3.9676221e-06  0.013237735  
    570000   0.114               1850   3.5317527e-10  1.0632263e+10  3.9676221e-06  0.012442299  
    580000   0.116               1850   4.0660378e-10  1.2033424e+10  3.9676221e-06  0.013499158  
    590000   0.118               1850   4.4574803e-10  1.3401158e+10  3.9676221e-06  0.014652021  
    600000   0.12                1850   5.2967532e-10  1.5783274e+10  3.9676221e-06  0.015962304  
    610000   0.122               1850   6.1654809e-10  1.840994e+10   3.9676221e-06  0.01736519   
    620000   0.124               1850   7.2509337e-10  2.1610781e+10  3.9676221e-06  0.018897667  
    630000   0.126               1850   8.5250638e-10  2.5392154e+10  3.9676221e-06  0.020550491  
    640000   0.128               1850   1.0019655e-09  2.9819837e+10  3.9676221e-06  0.022334113  
    650000   0.13                1850   1.1754155e-09  3.4974147e+10  3.9676221e-06  0.024245794  
    660000   0.132               1850   4.1682283e-10  1.073369e+10   3.9676221e-06  0.011440523  
    670000   0.134               1850   3.077793e-10   7.280134e+09   3.9676221e-06  0.011255312  
    680000   0.136               1850   2.7131227e-10  5.9857945e+09  3.9676221e-06  0.012048546  
    690000   0.138               1850   2.860808e-10   6.1031591e+09  3.9676221e-06  0.012903916  
    700000   0.14                1850   3.3633867e-10  7.1846521e+09  3.9676221e-06  0.013814017  
    710000   0.142               1850   4.1309928e-10  8.9682122e+09  3.9676221e-06  0.014785174  
    720000   0.144               1850   5.1142092e-10  1.1306393e+10  3.9676221e-06  0.01582209   
    730000   0.146               1850   6.2914393e-10  1.4128786e+10  3.9676221e-06  0.016928762  
    740000   0.148               1850   6.2836733e-10  1.4026452e+10  3.9676221e-06  0.018108286  
    750000   0.15                1850   6.4478066e-10  1.3332137e+10  3.9676221e-06  0.019372434  
    760000   0.152               1850   7.6429999e-10  1.605336e+10   3.9676221e-06  0.020698159  
    770000   0.154               1850   8.3990123e-10  1.7279286e+10  3.9676221e-06  0.022102781  
    780000   0.156               1850   9.6800017e-10  1.9920683e+10  3.9676221e-06  0.02361377   
    790000   0.158               1850   1.0893115e-09  2.2281912e+10  3.9676221e-06  0.025192323  
    800000   0.16                1850   1.2382302e-09  2.5292729e+10  3.9676221e-06  0.026855476  
    810000   0.162               1850   4.2915151e-10  1.2229699e+10  3.9676221e-06  0.014960161  
    820000   0.164               1850   4.1321266e-10  1.3331267e+10  3.9676221e-06  0.013917246  
    830000   0.166               1850   4.1042224e-10  1.3559224e+10  3.9676221e-06  0.013952818  
    840000   0.168               1850   4.0964522e-10  1.4144113e+10  3.9676221e-06  0.013811481  
    850000   0.17                1850   4.3969007e-10  1.4977611e+10  3.9676221e-06  0.014357148  
    860000   0.172               1850   4.2361782e-10  1.5026601e+10  3.9676221e-06  0.014734635  
    870000   0.174               1850   4.4566517e-10  1.5976908e+10  3.9676221e-06  0.015425052  
    880000   0.176               1850   4.9822231e-10  1.7593831e+10  3.9676221e-06  0.01639965   
    890000   0.178               1850   5.6237596e-10  1.9664088e+10  3.9676221e-06  0.017479191  
    900000   0.18                1850   6.4053789e-10  2.2237614e+10  3.9676221e-06  0.018690372  
    910000   0.182               1850   7.3431234e-10  2.5339155e+10  3.9676221e-06  0.020047079  
    920000   0.184               1850   8.4608146e-10  2.9032185e+10  3.9676221e-06  0.02154881   
    930000   0.186               1850   1.6769249e-10  8.917879e+09   3.9676221e-06  0.0076538386 
    940000   0.188               1850   1.0890645e-10  5.6197383e+09  3.9676221e-06  0.0044213738 
    950000   0.19                1850   8.9165103e-11  4.1031333e+09  3.9676221e-06  0.0045636307 
    960000   0.192               1850   9.7520758e-11  4.8644371e+09  3.9676221e-06  0.0042262044 
    970000   0.194               1850   1.4950847e-10  7.5577772e+09  3.9676221e-06  0.0055377224 
    980000   0.196               1850   2.3537167e-10  1.179156e+10   3.9676221e-06  0.0084483405 
    990000   0.198               1850   1.4859908e-10  7.6543714e+09  3.9676221e-06  0.0055373941 
   1000000   0.2                 1850   1.7873702e-10  8.1660514e+09  3.9676221e-06  0.0067931913 
   1010000   0.202               1850   2.3888812e-10  1.0405185e+10  3.9676221e-06  0.007452803  
   1020000   0.204               1850   2.4849381e-10  1.1456711e+10  3.9676221e-06  0.0086342931 
   1030000   0.206               1850   2.9410485e-10  1.3553838e+10  3.9676221e-06  0.0095950085 
   1040000   0.208               1850   3.7585629e-10  1.682364e+10   3.9676221e-06  0.011492242  
   1050000   0.21                1850   4.4016284e-10  2.0019819e+10  3.9676221e-06  0.013417599  
   1060000   0.212               1850   6.4158505e-10  2.6185288e+10  3.9676221e-06  0.016447353  
   1070000   0.214               1850   8.8053098e-10  3.3310144e+10  3.9676221e-06  0.020540872  
   1080000   0.216               1850   6.2521024e-10  2.7974867e+10  3.9676221e-06  0.014047234  
   1090000   0.218               1850   3.6422558e-10  1.1968324e+10  3.9676221e-06  0.011221828  
   1100000   0.22                1850   1.6427928e-10  4.2779846e+09  3.9676221e-06  0.0046775177 
   1110000   0.222               1850   1.4747616e-10  3.7958468e+09  3.9676221e-06  0.0047365117 
   1120000   0.224               1850   1.6698124e-10  4.1546969e+09  3.9676221e-06  0.0050131632 
   1130000   0.226               1850   1.7314169e-10  4.252611e+09   3.9676221e-06  0.0052442519 
   1140000   0.228               1850   1.8662752e-10  4.5241976e+09  3.9676221e-06  0.0055286795 
   1150000   0.23                1850   2.0265186e-10  4.8690718e+09  3.9676221e-06  0.0058105686 
   1160000   0.232               1850   2.2307861e-10  5.3188455e+09  3.9676221e-06  0.0061408042 
   1170000   0.234               1850   2.4855066e-10  5.8808698e+09  3.9676221e-06  0.00651036   
   1180000   0.236               1850   2.5874992e-10  6.0438023e+09  3.9676221e-06  0.006940362  
   1190000   0.238               1850   2.9901944e-10  6.9536492e+09  3.9676221e-06  0.0074124741 
   1200000   0.24                1850   3.4611215e-10  8.0086528e+09  3.9676221e-06  0.0079091713 
   1210000   0.242               1850   4.0220258e-10  9.2841934e+09  3.9676221e-06  0.0084757041 
   1220000   0.244               1850   4.6822181e-10  1.0776781e+10  3.9676221e-06  0.0091067792 
   1230000   0.246               1850   5.4581911e-10  1.2546478e+10  3.9676221e-06  0.0097906843 
   1240000   0.248               1850   5.3151236e-10  1.21202e+10    3.9676221e-06  0.010506343  
   1250000   0.25                1850   6.0909712e-10  1.3715904e+10  3.9676221e-06  0.011352234  
   1260000   0.252               1850   7.0078624e-10  1.5725318e+10  3.9676221e-06  0.012260942  
   1270000   0.254               1850   4.5088647e-10  9.694608e+09   3.9676221e-06  0.010768242  
   1280000   0.256               1850   1.8113149e-10  4.3565306e+09  3.9676221e-06  0.005299756  
   1290000   0.258               1850   1.3093482e-10  3.2851024e+09  3.9676221e-06  0.0049340786 
   1300000   0.26                1850   1.024016e-10   2.7755557e+09  3.9676221e-06  0.0041398773 
   1310000   0.262               1850   9.5943076e-11  2.6412374e+09  3.9676221e-06  0.0040246457 
   1320000   0.264               1850   9.357328e-11   2.5846805e+09  3.9676221e-06  0.0039640843 
   1330000   0.266               1850   9.4348993e-11  2.6021473e+09  3.9676221e-06  0.0039922848 
   1340000   0.268               1850   9.7941717e-11  2.6857808e+09  3.9676221e-06  0.0040752422 
   1350000   0.27                1850   1.03988e-10    2.8279871e+09  3.9676221e-06  0.0042085701 
   1360000   0.272               1850   1.1245217e-10  3.0279559e+09  3.9676221e-06  0.0043855299 
   1370000   0.274               1850   1.2347001e-10  3.2886543e+09  3.9676221e-06  0.0046062479 
   1380000   0.276               1850   7.634917e-12   5.9459599e+08  3.9676221e-06  0.0012054784 
   1390000   0.278               1850   2.4044153e-13  3.4417396e+08  3.9676221e-06  0.00021600323
   1400000   0.28                1850   3.6427519e-14  3.3818962e+08  3.9676221e-06  3.8123721e-05
   1410000   0.282               1850   1.481124e-14   3.375214e+08   3.9676221e-06  2.8406575e-05
   1420000   0.284               1850   6.072376e-15   3.3725362e+08  3.9676221e-06  2.9119826e-05
   1430000   0.286               1850   4.0141737e-15  3.3718165e+08  3.9676221e-06  3.1042881e-05
   1440000   0.288               1850   3.1331679e-15  3.3715306e+08  3.9676221e-06  3.3391719e-05
   1450000   0.29                1850   3.1416447e-15  3.371465e+08   3.9676221e-06  3.6035095e-05
   1460000   0.292               1850   3.3882244e-15  3.3714501e+08  3.9676221e-06  3.8865146e-05
   1470000   0.294               1850   3.790248e-15   3.3714777e+08  3.9676221e-06  4.1881831e-05
   1480000   0.296               1850   4.2485731e-15  3.3715214e+08  3.9676221e-06  4.513399e-05 
   1490000   0.298               1850   4.7878438e-15  3.3715842e+08  3.9676221e-06  4.8638691e-05
   1500000   0.3                 1850   5.4316103e-15  3.3716686e+08  3.9676221e-06  5.2418364e-05
   1510000   0.302               1850   6.1911294e-15  3.3717776e+08  3.9676221e-06  5.6493291e-05
   1520000   0.304               1850   7.0750995e-15  3.3719135e+08  3.9676221e-06  6.0886031e-05
   1530000   0.306               1850   8.1021623e-15  3.3720802e+08  3.9676221e-06  6.5620776e-05
   1540000   0.308               1850   9.2955195e-15  3.3722828e+08  3.9676221e-06  7.0724004e-05
   1550000   0.31                1850   1.0681883e-14  3.372527e+08   3.9676221e-06  7.6224604e-05
   1560000   0.312               1850   1.2292706e-14  3.3728195e+08  3.9676221e-06  8.2153615e-05
   1570000   0.314               1850   1.4164031e-14  3.373168e+08   3.9676221e-06  8.8544281e-05
   1580000   0.316               1850   1.6338022e-14  3.3735817e+08  3.9676221e-06  9.5432426e-05
   1590000   0.318               1850   1.8863534e-14  3.3740711e+08  3.9676221e-06  0.00010285666
   1600000   0.32                1850   2.1797406e-14  3.3746483e+08  3.9676221e-06  0.00011085866
   1610000   0.322               1850   2.5205628e-14  3.3753277e+08  3.9676221e-06  0.00011948332
   1620000   0.324               1850   2.9164883e-14  3.3761256e+08  3.9676221e-06  0.00012877907
   1630000   0.326               1850   3.3764234e-14  3.3770613e+08  3.9676221e-06  0.0001387981 
   1640000   0.328               1850   3.9107156e-14  3.3781571e+08  3.9676221e-06  0.00014959665
   1650000   0.33                1850   4.5313853e-14  3.3794387e+08  3.9676221e-06  0.00016123538
   1660000   0.332               1850   5.252395e-14   3.3809363e+08  3.9676221e-06  0.00017377965
   1670000   0.334               1850   6.0899652e-14  3.3826847e+08  3.9676221e-06  0.00018729988
   1680000   0.336               1850   7.0629385e-14  3.3847246e+08  3.9676221e-06  0.00020187202
   1690000   0.338               1850   8.1932028e-14  3.3871029e+08  3.9676221e-06  0.00021757789
   1700000   0.34                1850   9.5061844e-14  3.3898744e+08  3.9676221e-06  0.00023450569
   1710000   0.342               1850   1.103142e-13   3.3931027e+08  3.9676221e-06  0.00025275049
   1720000   0.344               1850   1.2803221e-13  3.3968617e+08  3.9676221e-06  0.00027241473
   1730000   0.346               1850   1.4861445e-13  3.401237e+08   3.9676221e-06  0.00029360885
   1740000   0.348               1850   1.7252392e-13  3.4063283e+08  3.9676221e-06  0.00031645186
   1750000   0.35                1850   2.0029845e-13  3.4122513e+08  3.9676221e-06  0.00034107204
   1760000   0.352               1850   2.3256285e-13  3.4191406e+08  3.9676221e-06  0.00036760763
   1770000   0.354               1850   2.7004285e-13  3.4271522e+08  3.9676221e-06  0.00039620762
   1780000   0.356               1850   3.1358156e-13  3.4364676e+08  3.9676221e-06  0.00042703262
   1790000   0.358               1850   4.6940188e-15  3.3701597e+08  3.9676221e-06  3.5145529e-05
   1800000   0.36                1850   1.445365e-15   3.3692119e+08  3.9676221e-06  2.0279359e-05
   1810000   0.362               1850   8.6444078e-16  3.369023e+08   3.9676221e-06  2.027775e-05 
   1820000   0.364               1850   7.456239e-16   3.3689366e+08  3.9676221e-06  2.0281353e-05
   1830000   0.366               1850   7.1330465e-16  3.3688736e+08  3.9676221e-06  2.027441e-05 
   1840000   0.368               1850   7.0721554e-16  3.3688183e+08  3.9676221e-06  2.0271847e-05
   1850000   0.37                1850   7.0575523e-16  3.3687643e+08  3.9676221e-06  2.0267113e-05
   1860000   0.372               1850   7.0480158e-16  3.3687106e+08  3.9676221e-06  2.0263288e-05
   1870000   0.374               1850   7.042874e-16   3.3686569e+08  3.9676221e-06  2.0259386e-05
   1880000   0.376               1850   7.0395221e-16  3.3686034e+08  3.9676221e-06  2.0255328e-05
   1890000   0.378               1850   7.0366688e-16  3.3685498e+08  3.9676221e-06  2.0251377e-05
   1900000   0.38                1850   7.03384e-16    3.3684963e+08  3.9676221e-06  2.0247395e-05
   1910000   0.382               1850   7.0310051e-16  3.3684428e+08  3.9676221e-06  2.0243419e-05
   1920000   0.384               1850   7.0282322e-16  3.3683893e+08  3.9676221e-06  2.0239434e-05
   1930000   0.386               1850   7.0254619e-16  3.3683359e+08  3.9676221e-06  2.0235459e-05
   1940000   0.388               1850   7.0227017e-16  3.3682825e+08  3.9676221e-06  2.0231482e-05
   1950000   0.39                1850   7.0199391e-16  3.368229e+08   3.9676221e-06  2.0227507e-05
   1960000   0.392               1850   7.017181e-16   3.3681757e+08  3.9676221e-06  2.0223533e-05
   1970000   0.394               1850   7.0144226e-16  3.3681223e+08  3.9676221e-06  2.0219559e-05
   1980000   0.396               1850   7.0116675e-16  3.3680689e+08  3.9676221e-06  2.0215587e-05
   1990000   0.398               1850   7.0089132e-16  3.3680156e+08  3.9676221e-06  2.0211617e-05
   2000000   0.4                 1850   7.0061588e-16  3.3679623e+08  3.9676221e-06  2.0207645e-05
   2010000   0.402               1850   7.0034062e-16  3.367909e+08   3.9676221e-06  2.0203675e-05
   2020000   0.404               1850   7.0006556e-16  3.3678558e+08  3.9676221e-06  2.0199707e-05
   2030000   0.406               1850   6.9979048e-16  3.3678025e+08  3.9676221e-06  2.0195738e-05
   2040000   0.408               1850   6.9951555e-16  3.3677493e+08  3.9676221e-06  2.019177e-05 
   2050000   0.41                1850   6.9924069e-16  3.3676961e+08  3.9676221e-06  2.0187803e-05
   2060000   0.412               1850   6.9896597e-16  3.3676429e+08  3.9676221e-06  2.0183837e-05
   2070000   0.414               1850   6.9869139e-16  3.3675898e+08  3.9676221e-06  2.0179872e-05
   2080000   0.416               1850   6.9841689e-16  3.3675367e+08  3.9676221e-06  2.0175908e-05
   2090000   0.418               1850   6.9814246e-16  3.3674835e+08  3.9676221e-06  2.0171943e-05
   2100000   0.42                1850   6.9786821e-16  3.3674304e+08  3.9676221e-06  2.0167981e-05
   2110000   0.422               1850   6.9759402e-16  3.3673774e+08  3.9676221e-06  2.0164019e-05
   2120000   0.424               1850   6.9731997e-16  3.3673243e+08  3.9676221e-06  2.0160057e-05
   2130000   0.426               1850   6.9704599e-16  3.3672713e+08  3.9676221e-06  2.0156097e-05
   2140000   0.428               1850   6.9677213e-16  3.3672183e+08  3.9676221e-06  2.0152137e-05
   2150000   0.43                1850   6.9649836e-16  3.3671653e+08  3.9676221e-06  2.0148177e-05
   2160000   0.432               1850   6.9622471e-16  3.3671123e+08  3.9676221e-06  2.0144219e-05
   2170000   0.434               1850   6.9595123e-16  3.3670594e+08  3.9676221e-06  2.0140262e-05
   2180000   0.436               1850   6.9567781e-16  3.3670064e+08  3.9676221e-06  2.0136305e-05
   2190000   0.438               1850   6.9540447e-16  3.3669535e+08  3.9676221e-06  2.0132349e-05
   2200000   0.44                1850   6.9513123e-16  3.3669006e+08  3.9676221e-06  2.0128394e-05
   2210000   0.442               1850   6.9485813e-16  3.3668478e+08  3.9676221e-06  2.0124439e-05
   2220000   0.444               1850   6.9458513e-16  3.3667949e+08  3.9676221e-06  2.0120486e-05
   2230000   0.446               1850   6.9431223e-16  3.3667421e+08  3.9676221e-06  2.0116533e-05
   2240000   0.448               1850   6.9403944e-16  3.3666893e+08  3.9676221e-06  2.011258e-05 
   2250000   0.45                1850   6.9376678e-16  3.3666365e+08  3.9676221e-06  2.0108629e-05
   2260000   0.452               1850   6.9349419e-16  3.3665838e+08  3.9676221e-06  2.0104678e-05
   2270000   0.454               1850   6.9322174e-16  3.366531e+08   3.9676221e-06  2.0100729e-05
   2280000   0.456               1850   6.9294941e-16  3.3664783e+08  3.9676221e-06  2.009678e-05 
   2290000   0.458               1850   6.9267714e-16  3.3664256e+08  3.9676221e-06  2.0092831e-05
   2300000   0.46                1850   6.9240502e-16  3.3663729e+08  3.9676221e-06  2.0088884e-05
   2310000   0.462               1850   6.92133e-16    3.3663203e+08  3.9676221e-06  2.0084938e-05
   2320000   0.464               1850   6.918611e-16   3.3662676e+08  3.9676221e-06  2.0080992e-05
   2330000   0.466               1850   6.915893e-16   3.366215e+08   3.9676221e-06  2.0077048e-05
   2340000   0.468               1850   6.9131757e-16  3.3661624e+08  3.9676221e-06  2.0073103e-05
   2350000   0.47                1850   6.9104596e-16  3.3661098e+08  3.9676221e-06  2.0069159e-05
   2360000   0.472               1850   6.9077444e-16  3.3660573e+08  3.9676221e-06  2.0065216e-05
   2370000   0.474               1850   6.9050307e-16  3.3660048e+08  3.9676221e-06  2.0061275e-05
   2380000   0.476               1850   6.902318e-16   3.3659522e+08  3.9676221e-06  2.0057333e-05
   2390000   0.478               1850   6.899606e-16   3.3658998e+08  3.9676221e-06  2.0053393e-05
   2400000   0.48                1850   6.8968952e-16  3.3658473e+08  3.9676221e-06  2.0049453e-05
   2410000   0.482               1850   6.8941855e-16  3.3657948e+08  3.9676221e-06  2.0045514e-05
   2420000   0.484               1850   6.8914764e-16  3.3657424e+08  3.9676221e-06  2.0041575e-05
   2430000   0.486               1850   6.8887687e-16  3.36569e+08    3.9676221e-06  2.0037637e-05
   2440000   0.488               1850   6.8860628e-16  3.3656376e+08  3.9676221e-06  2.0033702e-05
   2450000   0.49                1850   6.883357e-16   3.3655852e+08  3.9676221e-06  2.0029765e-05
   2460000   0.492               1850   6.8806529e-16  3.3655329e+08  3.9676221e-06  2.0025831e-05
   2470000   0.494               1850   6.8779492e-16  3.3654806e+08  3.9676221e-06  2.0021896e-05
   2480000   0.496               1850   6.8752468e-16  3.3654283e+08  3.9676221e-06  2.0017962e-05
   2490000   0.498               1850   6.8725456e-16  3.365376e+08   3.9676221e-06  2.0014029e-05
   2500000   0.5                 1850   6.8698465e-16  3.3653237e+08  3.9676221e-06  2.0010099e-05
   2510000   0.502               1850   6.8671469e-16  3.3652715e+08  3.9676221e-06  2.0006167e-05
   2520000   0.504               1850   6.8644488e-16  3.3652192e+08  3.9676221e-06  2.0002236e-05
   2530000   0.506               1850   6.8617522e-16  3.365167e+08   3.9676221e-06  1.9998307e-05
   2540000   0.508               1850   6.8590562e-16  3.3651148e+08  3.9676221e-06  1.9994378e-05
   2550000   0.51                1850   6.8563616e-16  3.3650627e+08  3.9676221e-06  1.999045e-05 
   2560000   0.512               1850   6.8536676e-16  3.3650105e+08  3.9676221e-06  1.9986522e-05
   2570000   0.514               1850   6.8509755e-16  3.3649584e+08  3.9676221e-06  1.9982597e-05
   2580000   0.516               1850   6.8482835e-16  3.3649063e+08  3.9676221e-06  1.997867e-05 
   2590000   0.518               1850   6.845593e-16   3.3648542e+08  3.9676221e-06  1.9974745e-05
   2600000   0.52                1850   6.8429034e-16  3.3648022e+08  3.9676221e-06  1.9970821e-05
   2610000   0.522               1850   6.840215e-16   3.3647501e+08  3.9676221e-06  1.9966898e-05
   2620000   0.524               1850   6.8375275e-16  3.3646981e+08  3.9676221e-06  1.9962975e-05
   2630000   0.526               1850   6.8348413e-16  3.3646461e+08  3.9676221e-06  1.9959053e-05
   2640000   0.528               1850   6.8321562e-16  3.3645941e+08  3.9676221e-06  1.9955132e-05
   2650000   0.53                1850   6.8294719e-16  3.3645422e+08  3.9676221e-06  1.9951212e-05
   2660000   0.532               1850   6.8267882e-16  3.3644902e+08  3.9676221e-06  1.9947291e-05
   2670000   0.534               1850   6.8241058e-16  3.3644383e+08  3.9676221e-06  1.9943372e-05
   2680000   0.536               1850   6.821425e-16   3.3643864e+08  3.9676221e-06  1.9939454e-05
   2690000   0.538               1850   6.8187448e-16  3.3643345e+08  3.9676221e-06  1.9935537e-05
   2700000   0.54                1850   6.8160658e-16  3.3642827e+08  3.9676221e-06  1.993162e-05 
   2710000   0.542               1850   6.8133878e-16  3.3642308e+08  3.9676221e-06  1.9927704e-05
   2720000   0.544               1850   6.810711e-16   3.364179e+08   3.9676221e-06  1.9923789e-05
   2730000   0.546               1850   6.8080354e-16  3.3641272e+08  3.9676221e-06  1.9919875e-05
   2740000   0.548               1850   6.8053608e-16  3.3640755e+08  3.9676221e-06  1.9915962e-05
   2750000   0.55                1850   6.802687e-16   3.3640237e+08  3.9676221e-06  1.9912049e-05
   2760000   0.552               1850   6.8000143e-16  3.363972e+08   3.9676221e-06  1.9908137e-05
   2770000   0.554               1850   6.797343e-16   3.3639203e+08  3.9676221e-06  1.9904227e-05
   2780000   0.556               1850   6.7946724e-16  3.3638686e+08  3.9676221e-06  1.9900316e-05
   2790000   0.558               1850   6.7920028e-16  3.3638169e+08  3.9676221e-06  1.9896406e-05
   2800000   0.56                1850   6.7893345e-16  3.3637652e+08  3.9676221e-06  1.9892498e-05
   2810000   0.562               1850   6.786667e-16   3.3637136e+08  3.9676221e-06  1.9888589e-05
   2820000   0.564               1850   6.7840007e-16  3.363662e+08   3.9676221e-06  1.9884682e-05
   2830000   0.566               1850   6.7813358e-16  3.3636104e+08  3.9676221e-06  1.9880776e-05
   2840000   0.568               1850   6.7786715e-16  3.3635588e+08  3.9676221e-06  1.9876871e-05
   2850000   0.57                1850   6.7760078e-16  3.3635073e+08  3.9676221e-06  1.9872965e-05
   2860000   0.572               1850   6.773346e-16   3.3634557e+08  3.9676221e-06  1.9869061e-05
   2870000   0.574               1850   6.7706848e-16  3.3634042e+08  3.9676221e-06  1.9865157e-05
   2880000   0.576               1850   6.7680243e-16  3.3633527e+08  3.9676221e-06  1.9861254e-05
   2890000   0.578               1850   6.7653653e-16  3.3633013e+08  3.9676221e-06  1.9857352e-05
   2900000   0.58                1850   6.7627072e-16  3.3632498e+08  3.9676221e-06  1.9853451e-05
   2910000   0.582               1850   6.7600502e-16  3.3631984e+08  3.9676221e-06  1.984955e-05 
   2920000   0.584               1850   6.7573945e-16  3.363147e+08   3.9676221e-06  1.9845651e-05
   2930000   0.586               1850   6.7547397e-16  3.3630956e+08  3.9676221e-06  1.9841752e-05
   2940000   0.588               1850   6.7520853e-16  3.3630442e+08  3.9676221e-06  1.9837853e-05
   2950000   0.59                1850   6.7494327e-16  3.3629929e+08  3.9676221e-06  1.9833956e-05
   2960000   0.592               1850   6.7467816e-16  3.3629415e+08  3.9676221e-06  1.9830061e-05
   2970000   0.594               1850   6.7441308e-16  3.3628902e+08  3.9676221e-06  1.9826165e-05
   2980000   0.596               1850   6.7414808e-16  3.3628389e+08  3.9676221e-06  1.9822269e-05
   2990000   0.598               1850   6.7388321e-16  3.3627877e+08  3.9676221e-06  1.9818375e-05
   3000000   0.6                 1850   6.7361847e-16  3.3627364e+08  3.9676221e-06  1.9814481e-05
   3010000   0.602               1850   6.7335379e-16  3.3626852e+08  3.9676221e-06  1.9810588e-05
   3020000   0.604               1850   6.7308924e-16  3.362634e+08   3.9676221e-06  1.9806696e-05
   3030000   0.606               1850   6.7282478e-16  3.3625828e+08  3.9676221e-06  1.9802805e-05
   3040000   0.608               1850   6.7256049e-16  3.3625316e+08  3.9676221e-06  1.9798915e-05
   3050000   0.61                1850   6.7229626e-16  3.3624805e+08  3.9676221e-06  1.9795025e-05
   3060000   0.612               1850   6.720321e-16   3.3624293e+08  3.9676221e-06  1.9791136e-05
   3070000   0.614               1850   6.7176806e-16  3.3623782e+08  3.9676221e-06  1.9787248e-05
   3080000   0.616               1850   6.7150416e-16  3.3623271e+08  3.9676221e-06  1.9783361e-05
   3090000   0.618               1850   6.7124033e-16  3.3622761e+08  3.9676221e-06  1.9779474e-05
   3100000   0.62                1850   6.7097661e-16  3.362225e+08   3.9676221e-06  1.9775588e-05
   3110000   0.622               1850   6.7071304e-16  3.362174e+08   3.9676221e-06  1.9771703e-05
   3120000   0.624               1850   6.704495e-16   3.362123e+08   3.9676221e-06  1.9767819e-05
   3130000   0.626               1850   6.7018607e-16  3.362072e+08   3.9676221e-06  1.9763935e-05
   3140000   0.628               1850   6.6992276e-16  3.362021e+08   3.9676221e-06  1.9760052e-05
   3150000   0.63                1850   6.6965955e-16  3.3619701e+08  3.9676221e-06  1.975617e-05 
   3160000   0.632               1850   6.6939645e-16  3.3619192e+08  3.9676221e-06  1.9752288e-05
   3170000   0.634               1850   6.6913348e-16  3.3618683e+08  3.9676221e-06  1.9748408e-05
   3180000   0.636               1850   6.6887058e-16  3.3618174e+08  3.9676221e-06  1.9744528e-05
   3190000   0.638               1850   6.6860779e-16  3.3617665e+08  3.9676221e-06  1.9740649e-05
   3200000   0.64                1850   6.6834512e-16  3.3617156e+08  3.9676221e-06  1.9736771e-05
   3210000   0.642               1850   6.6808255e-16  3.3616648e+08  3.9676221e-06  1.9732894e-05
   3220000   0.644               1850   6.6782007e-16  3.361614e+08   3.9676221e-06  1.9729017e-05
   3230000   0.646               1850   6.6755771e-16  3.3615632e+08  3.9676221e-06  1.9725141e-05
   3240000   0.648               1850   6.6729543e-16  3.3615125e+08  3.9676221e-06  1.9721266e-05
   3250000   0.65                1850   6.6703329e-16  3.3614617e+08  3.9676221e-06  1.9717392e-05
   3260000   0.652               1850   6.6677123e-16  3.361411e+08   3.9676221e-06  1.9713518e-05
   3270000   0.654               1850   6.6650922e-16  3.3613603e+08  3.9676221e-06  1.9709645e-05
   3280000   0.656               1850   6.6624734e-16  3.3613096e+08  3.9676221e-06  1.9705772e-05
   3290000   0.658               1850   6.6598557e-16  3.3612589e+08  3.9676221e-06  1.9701901e-05
   3300000   0.66                1850   6.6572394e-16  3.3612083e+08  3.9676221e-06  1.969803e-05 
   3310000   0.662               1850   6.6546241e-16  3.3611576e+08  3.9676221e-06  1.9694161e-05
   3320000   0.664               1850   6.6520092e-16  3.361107e+08   3.9676221e-06  1.9690291e-05
   3330000   0.666               1850   6.6493957e-16  3.3610564e+08  3.9676221e-06  1.9686423e-05
   3340000   0.668               1850   6.6467834e-16  3.3610059e+08  3.9676221e-06  1.9682555e-05
   3350000   0.67                1850   6.6441724e-16  3.3609553e+08  3.9676221e-06  1.9678689e-05
   3360000   0.672               1850   6.641562e-16   3.3609048e+08  3.9676221e-06  1.9674823e-05
   3370000   0.674               1850   6.6389522e-16  3.3608543e+08  3.9676221e-06  1.9670957e-05
   3380000   0.676               1850   6.6363444e-16  3.3608038e+08  3.9676221e-06  1.9667093e-05
   3390000   0.678               1850   6.6337368e-16  3.3607533e+08  3.9676221e-06  1.9663229e-05
   3400000   0.68                1850   6.6311304e-16  3.3607029e+08  3.9676221e-06  1.9659366e-05
   3410000   0.682               1850   6.6285253e-16  3.3606524e+08  3.9676221e-06  1.9655503e-05
   3420000   0.684               1850   6.6259212e-16  3.360602e+08   3.9676221e-06  1.9651642e-05
   3430000   0.686               1850   6.6233184e-16  3.3605516e+08  3.9676221e-06  1.9647782e-05
   3440000   0.688               1850   6.6207162e-16  3.3605013e+08  3.9676221e-06  1.9643922e-05
   3450000   0.69                1850   6.618115e-16   3.3604509e+08  3.9676221e-06  1.9640063e-05
   3460000   0.692               1850   6.6155146e-16  3.3604006e+08  3.9676221e-06  1.9636204e-05
   3470000   0.694               1850   6.6129151e-16  3.3603503e+08  3.9676221e-06  1.9632345e-05
   3480000   0.696               1850   6.6103178e-16  3.3603e+08     3.9676221e-06  1.962849e-05 
   3490000   0.698               1850   6.6077203e-16  3.3602497e+08  3.9676221e-06  1.9624633e-05
   3500000   0.7                 1850   6.6051242e-16  3.3601995e+08  3.9676221e-06  1.9620777e-05
   3510000   0.702               1850   6.6025292e-16  3.3601492e+08  3.9676221e-06  1.9616923e-05
   3520000   0.704               1850   6.5999354e-16  3.360099e+08   3.9676221e-06  1.9613069e-05
   3530000   0.706               1850   6.5973423e-16  3.3600488e+08  3.9676221e-06  1.9609216e-05
   3540000   0.708               1850   6.5947502e-16  3.3599987e+08  3.9676221e-06  1.9605363e-05
   3550000   0.71                1850   6.5921593e-16  3.3599485e+08  3.9676221e-06  1.9601511e-05
   3560000   0.712               1850   6.5895698e-16  3.3598984e+08  3.9676221e-06  1.9597661e-05
   3570000   0.714               1850   6.5869807e-16  3.3598483e+08  3.9676221e-06  1.9593811e-05
   3580000   0.716               1850   6.5843926e-16  3.3597982e+08  3.9676221e-06  1.9589961e-05
   3590000   0.718               1850   6.5818056e-16  3.3597481e+08  3.9676221e-06  1.9586112e-05
   3600000   0.72                1850   6.57922e-16    3.359698e+08   3.9676221e-06  1.9582265e-05
   3610000   0.722               1850   6.5766352e-16  3.359648e+08   3.9676221e-06  1.9578418e-05
   3620000   0.724               1850   6.5740513e-16  3.359598e+08   3.9676221e-06  1.9574571e-05
   3630000   0.726               1850   6.5714683e-16  3.359548e+08   3.9676221e-06  1.9570725e-05
   3640000   0.728               1850   6.5688865e-16  3.359498e+08   3.9676221e-06  1.9566881e-05
   3650000   0.73                1850   6.5663059e-16  3.3594481e+08  3.9676221e-06  1.9563037e-05
   3660000   0.732               1850   6.5637261e-16  3.3593981e+08  3.9676221e-06  1.9559193e-05
   3670000   0.734               1850   6.561147e-16   3.3593482e+08  3.9676221e-06  1.955535e-05 
   3680000   0.736               1850   6.5585694e-16  3.3592983e+08  3.9676221e-06  1.9551509e-05
   3690000   0.738               1850   6.5559928e-16  3.3592484e+08  3.9676221e-06  1.9547668e-05
   3700000   0.74                1850   6.5534175e-16  3.3591986e+08  3.9676221e-06  1.9543828e-05
   3710000   0.742               1850   6.5508427e-16  3.3591487e+08  3.9676221e-06  1.9539988e-05
   3720000   0.744               1850   6.5482689e-16  3.3590989e+08  3.9676221e-06  1.9536149e-05
   3730000   0.746               1850   6.5456962e-16  3.3590491e+08  3.9676221e-06  1.9532311e-05
   3740000   0.748               1850   6.5431246e-16  3.3589993e+08  3.9676221e-06  1.9528474e-05
   3750000   0.75                1850   6.540554e-16   3.3589496e+08  3.9676221e-06  1.9524638e-05
   3760000   0.752               1850   6.5379845e-16  3.3588998e+08  3.9676221e-06  1.9520802e-05
   3770000   0.754               1850   6.5354158e-16  3.3588501e+08  3.9676221e-06  1.9516967e-05
   3780000   0.756               1850   6.5328485e-16  3.3588004e+08  3.9676221e-06  1.9513133e-05
   3790000   0.758               1850   6.5302817e-16  3.3587507e+08  3.9676221e-06  1.9509299e-05
   3800000   0.76                1850   6.5277161e-16  3.3587011e+08  3.9676221e-06  1.9505467e-05
   3810000   0.762               1850   6.5251511e-16  3.3586514e+08  3.9676221e-06  1.9501634e-05
   3820000   0.764               1850   6.522588e-16   3.3586018e+08  3.9676221e-06  1.9497803e-05
   3830000   0.766               1850   6.5200252e-16  3.3585522e+08  3.9676221e-06  1.9493973e-05
   3840000   0.768               1850   6.5174636e-16  3.3585026e+08  3.9676221e-06  1.9490143e-05
   3850000   0.77                1850   6.5149026e-16  3.358453e+08   3.9676221e-06  1.9486313e-05
   3860000   0.772               1850   6.512343e-16   3.3584035e+08  3.9676221e-06  1.9482485e-05
   3870000   0.774               1850   6.5097844e-16  3.358354e+08   3.9676221e-06  1.9478657e-05
   3880000   0.776               1850   6.5072269e-16  3.3583045e+08  3.9676221e-06  1.9474831e-05
   3890000   0.778               1850   6.5046703e-16  3.358255e+08   3.9676221e-06  1.9471005e-05
   3900000   0.78                1850   6.5021144e-16  3.3582055e+08  3.9676221e-06  1.9467179e-05
   3910000   0.782               1850   6.4995601e-16  3.358156e+08   3.9676221e-06  1.9463355e-05
   3920000   0.784               1850   6.4970068e-16  3.3581066e+08  3.9676221e-06  1.9459531e-05
   3930000   0.786               1850   6.4944539e-16  3.3580572e+08  3.9676221e-06  1.9455708e-05
   3940000   0.788               1850   6.4919023e-16  3.3580078e+08  3.9676221e-06  1.9451885e-05
   3950000   0.79                1850   6.4893517e-16  3.3579584e+08  3.9676221e-06  1.9448064e-05
   3960000   0.792               1850   6.4868022e-16  3.3579091e+08  3.9676221e-06  1.9444243e-05
   3970000   0.794               1850   6.4842543e-16  3.3578598e+08  3.9676221e-06  1.9440424e-05
   3980000   0.796               1850   6.4817065e-16  3.3578105e+08  3.9676221e-06  1.9436604e-05
   3990000   0.798               1850   6.4791599e-16  3.3577612e+08  3.9676221e-06  1.9432786e-05
   4000000   0.8                 1850   6.4766148e-16  3.3577119e+08  3.9676221e-06  1.9428969e-05
Loop time of 1029.29 on 1 procs for 4000000 steps with 1850 atoms

100.0% CPU use with 1 MPI tasks x 1 OpenMP threads

MPI task timing breakdown:
Section |  min time  |  avg time  |  max time  |%varavg| %total
---------------------------------------------------------------
Pair    | 785.47     | 785.47     | 785.47     |   0.0 | 76.31
Neigh   | 0.038258   | 0.038258   | 0.038258   |   0.0 |  0.00
Comm    | 0.088887   | 0.088887   | 0.088887   |   0.0 |  0.01
Output  | 0.30591    | 0.30591    | 0.30591    |   0.0 |  0.03
Modify  | 233.57     | 233.57     | 233.57     |   0.0 | 22.69
Other   |            | 9.816      |            |       |  0.95

Nlocal:           1850 ave        1850 max        1850 min
Histogram: 1 0 0 0 0 0 0 0 0 0
Nghost:              0 ave           0 max           0 min
Histogram: 1 0 0 0 0 0 0 0 0 0
Neighs:           7054 ave        7054 max        7054 min
Histogram: 1 0 0 0 0 0 0 0 0 0

Total # of neighbors = 7054
Ave neighs/atom = 3.812973
Neighbor list builds = 64
Dangerous builds = 0
Generated 0 of 0 mixed pair_coeff terms from geometric mixing rule
Setting up Verlet run ...
  Unit style    : si
  Current step  : 4000000
  Time step     : 2e-07
Per MPI rank memory allocation (min/avg/max) = 13 | 13 | 13 Mbytes
   Step          Time         Atoms        KinEng     c_granularTemp c_solidVolume    c_maxSpeed  
   4000000   0.8                 1850   6.4766148e-16  3.3577119e+08  3.9676221e-06  1.9428969e-05
Loop time of 2.28e-07 on 1 procs for 0 steps with 1850 atoms

438.6% CPU use with 1 MPI tasks x 1 OpenMP threads

MPI task timing breakdown:
Section |  min time  |  avg time  |  max time  |%varavg| %total
---------------------------------------------------------------
Pair    | 0          | 0          | 0          |   0.0 |  0.00
Neigh   | 0          | 0          | 0          |   0.0 |  0.00
Comm    | 0          | 0          | 0          |   0.0 |  0.00
Output  | 0          | 0          | 0          |   0.0 |  0.00
Modify  | 0          | 0          | 0          |   0.0 |  0.00
Other   |            | 2.28e-07   |            |       |100.00

Nlocal:           1850 ave        1850 max        1850 min
Histogram: 1 0 0 0 0 0 0 0 0 0
Nghost:              0 ave           0 max           0 min
Histogram: 1 0 0 0 0 0 0 0 0 0
Neighs:           7054 ave        7054 max        7054 min
Histogram: 1 0 0 0 0 0 0 0 0 0

Total # of neighbors = 7054
Ave neighs/atom = 3.812973
Neighbor list builds = 0
Dangerous builds = 0
Generated 0 of 0 mixed pair_coeff terms from geometric mixing rule
Neighbor list info ...
  update: every = 1 steps, delay = 0 steps, check = yes
  max neighbors/atom: 2000, page size: 100000
  master list distance cutoff = 0.00185
  ghost atom cutoff = 0.00185
  binsize = 0.000925, bins = 18 18 76
  3 neighbor lists, perpetual/occasional/extra = 1 2 0
  (1) pair granular, perpetual
      attributes: half, newton off, size, history
      pair build: half/size/bin/atomonly/newtoff
      stencil: full/bin/3d
      bin: standard
  (2) compute property/local, occasional
      attributes: half, newton off, size
      pair build: half/size/bin/atomonly/newtoff
      stencil: full/bin/3d
      bin: standard
  (3) compute pair/local, occasional
      attributes: half, newton off, size
      pair build: half/size/bin/atomonly/newtoff
      stencil: full/bin/3d
      bin: standard
Setting up Verlet run ...
  Unit style    : si
  Current step  : 4000000
  Time step     : 2e-07
Per MPI rank memory allocation (min/avg/max) = 14.26 | 14.26 | 14.26 Mbytes
   Step          Time         Atoms        KinEng     c_granularTemp c_solidVolume    c_maxSpeed  
   4000000   0.8                 1850   6.4766148e-16  3.3577119e+08  3.9676221e-06  1.9428969e-05
   4000001   0.8000002           1850   6.4766146e-16  3.3577119e+08  3.9676221e-06  1.9428968e-05
Loop time of 0.00627219 on 1 procs for 1 steps with 1850 atoms

99.9% CPU use with 1 MPI tasks x 1 OpenMP threads

MPI task timing breakdown:
Section |  min time  |  avg time  |  max time  |%varavg| %total
---------------------------------------------------------------
Pair    | 0.00021112 | 0.00021112 | 0.00021112 |   0.0 |  3.37
Neigh   | 0          | 0          | 0          |   0.0 |  0.00
Comm    | 1.05e-07   | 1.05e-07   | 1.05e-07   |   0.0 |  0.00
Output  | 0.0059961  | 0.0059961  | 0.0059961  |   0.0 | 95.60
Modify  | 6.0938e-05 | 6.0938e-05 | 6.0938e-05 |   0.0 |  0.97
Other   |            | 3.977e-06  |            |       |  0.06

Nlocal:           1850 ave        1850 max        1850 min
Histogram: 1 0 0 0 0 0 0 0 0 0
Nghost:              0 ave           0 max           0 min
Histogram: 1 0 0 0 0 0 0 0 0 0
Neighs:           7054 ave        7054 max        7054 min
Histogram: 1 0 0 0 0 0 0 0 0 0

Total # of neighbors = 7054
Ave neighs/atom = 3.812973
Neighbor list builds = 0
Dangerous builds = 0
System init for write_data ...
Generated 0 of 0 mixed pair_coeff terms from geometric mixing rule
System init for write_restart ...
Generated 0 of 0 mixed pair_coeff terms from geometric mixing rule
seed Ntarget Nfinal dp_m density_kgm3 Dtube_m D_over_dp solidVolume_m3 bedHeight_m bedVolume_m3 packingFraction porosity minParticleBottom_m kineticEnergy_J maxSpeed_ms
61417 1850 1850 0.0016 1600 0.016 10 3.96762208197362e-06 0.0365365205290172 7.34610332682835e-06 0.540098866767046 0.459901133232954 -1.54281567818742e-06 6.47661458582789e-16 1.94289683542196e-05
Packing generation completed: co2_13x_seed_61417
ACCEPT only if Nfinal=Ntarget, the bed is settled, and overlap/geometry checks pass.
For the 20-packing pilot, change only seed_realization.
CO2 diffusion and particle LDF adsorption are added later in the pore-network solver, not here.
Total wall time: 0:22:43
