Authorization required, but no authorization protocol specified

Authorization required, but no authorization protocol specified

Authorization required, but no authorization protocol specified

Authorization required, but no authorization protocol specified

LAMMPS (22 Jul 2025 - Update 5)
OMP_NUM_THREADS environment is not set. Defaulting to 1 thread.
  using 1 OpenMP thread(s) per MPI task
OMP_NUM_THREADS environment is not set. Defaulting to 1 thread.
  using 1 OpenMP thread(s) per MPI task
CO2 sorbent = commercial zeolite 13X (mechanical packing only)
Realization seed = 27183
Target particle count = 1850
Bead diameter [m] = 0.0016
Tube diameter [m] = 0.016
Tube-to-particle diameter ratio = 10
Target solid volume [m^3] = 3.96762208197367e-06
Created orthogonal box = (-0.008 -0.008 0) to (0.008 0.008 0.07)
  1 by 1 by 1 MPI processor grid
Generated 0 of 0 mixed pair_coeff terms from geometric mixing rule
Particle insertion: 303 every 319275 steps, 1850 by step 1915651
Neighbor list info ...
  update: every = 1 steps, delay = 0 steps, check = yes
  max neighbors/atom: 2000, page size: 100000
  master list distance cutoff = 0.00185
  ghost atom cutoff = 0.00185
  binsize = 0.000925, bins = 18 18 76
  1 neighbor lists, perpetual/occasional/extra = 1 0 0
  (1) pair granular, perpetual
      attributes: half, newton off, size, history
      pair build: half/size/bin/atomonly/newtoff
      stencil: full/bin/3d
      bin: standard
Setting up Verlet run ...
  Unit style    : si
  Current step  : 0
  Time step     : 2e-07
Per MPI rank memory allocation (min/avg/max) = 7.438 | 7.438 | 7.438 Mbytes
   Step          Time         Atoms        KinEng     c_granularTemp c_solidVolume    c_maxSpeed  
         0   0                      0  -0              0              0             -1e+20        
WARNING: Fewer insertions than requested (src/GRANULAR/fix_pour.cpp:691)
     10000   0.002                194  -0              5.2845839e+15  4.1606415e-07  0.60682895   
     20000   0.004                194  -0              5.1806953e+15  4.1606415e-07  0.59153048   
     30000   0.006                194  -0              5.0905158e+15  4.1606415e-07  0.57709818   
     40000   0.008                194  -0              5.0124079e+15  4.1606415e-07  0.56348302   
     50000   0.01                 194  -0              4.9449217e+15  4.1606415e-07  0.55063873   
     60000   0.012                194  -0              4.8867737e+15  4.1606415e-07  0.53852166   
     70000   0.014                194  -0              4.8368281e+15  4.1606415e-07  0.52709064   
     80000   0.016                194  -0              4.7940803e+15  4.1606415e-07  0.51630682   
     90000   0.018                194  -0              4.7576418e+15  4.1606415e-07  0.50613357   
    100000   0.02                 194  -0              4.7267276e+15  4.1606415e-07  0.49653631   
    110000   0.022                194  -0              4.7006441e+15  4.1606415e-07  0.48748244   
    120000   0.024                194  -0              4.6787787e+15  4.1606415e-07  0.47894118   
    130000   0.026                194  -0              4.6605911e+15  4.1606415e-07  0.47088351   
    140000   0.028                194  -0              4.6456045e+15  4.1606415e-07  0.46328206   
    150000   0.03                 194  -0              4.6333988e+15  4.1606415e-07  0.45611098   
    160000   0.032                194  -0              4.623604e+15   4.1606415e-07  0.44934593   
    170000   0.034                194  -0              4.6158942e+15  4.1606415e-07  0.4429639    
    180000   0.036                194  -0              4.6099831e+15  4.1606415e-07  0.43694321   
    190000   0.038                194  -0              4.605619e+15   4.1606415e-07  0.4312634    
    200000   0.04                 194  -0              4.6025808e+15  4.1606415e-07  0.42590517   
    210000   0.042                194  -0              4.6006747e+15  4.1606415e-07  0.42085032   
    220000   0.044                194  -0              4.5997311e+15  4.1606415e-07  0.41608167   
    230000   0.046                194  -0              4.5996015e+15  4.1606415e-07  0.41158301   
    240000   0.048                194  -0              4.6001559e+15  4.1606415e-07  0.40733906   
    250000   0.05                 194  -0              4.6012813e+15  4.1606415e-07  0.40333539   
    260000   0.052                194  -0              4.6028791e+15  4.1606415e-07  0.3995584    
    270000   0.054                194  -0              4.6048635e+15  4.1606415e-07  0.39599526   
    280000   0.056                194  -0              4.6071601e+15  4.1606415e-07  0.39263387   
    290000   0.058                194  -0              4.6097046e+15  4.1606415e-07  0.38946278   
    300000   0.06                 194  -0              4.6124412e+15  4.1606415e-07  0.38647124   
    310000   0.062                194  -0              4.6153223e+15  4.1606415e-07  0.38364908   
WARNING: Fewer insertions than requested (src/GRANULAR/fix_pour.cpp:691)
    320000   0.064                392  -0              4.9869117e+15  8.4070695e-07  0.62227932   
    330000   0.066                392  -0              4.9064185e+15  8.4070695e-07  0.60566967   
    340000   0.068                392  -0              4.8475087e+15  8.4070695e-07  0.59043684   
    350000   0.07                 392  -0              4.7986528e+15  8.4070695e-07  0.57606646   
    360000   0.072                392  -0              4.7549413e+15  8.4070695e-07  0.56250971   
    370000   0.074                392  -0              4.7251224e+15  8.4070695e-07  0.54972052   
    380000   0.076                392  -0              4.7020489e+15  8.4070695e-07  0.53765544   
    390000   0.078                392  -0              4.6846456e+15  8.4070695e-07  0.52627346   
    400000   0.08                 392  -0              4.6667504e+15  8.4070695e-07  0.51553592   
    410000   0.082                392  -0              4.6542029e+15  8.4070695e-07  0.50540631   
    420000   0.084                392  -0              4.6435575e+15  8.4070695e-07  0.49585023   
    430000   0.086                392  -0              4.6225476e+15  8.4070695e-07  0.4868352    
    440000   0.088                392  -0              4.5975476e+15  8.4070695e-07  0.47833059   
    450000   0.09                 392  -0              4.5039195e+15  8.4070695e-07  0.47030749   
    460000   0.092                392  -0              4.4739271e+15  8.4070695e-07  0.46273865   
    470000   0.094                392  -0              4.4443733e+15  8.4070695e-07  0.45559834   
    480000   0.096                392  -0              4.4062296e+15  8.4070695e-07  0.44886231   
    490000   0.098                392  -0              4.3731402e+15  8.4070695e-07  0.44250766   
    500000   0.1                  392  -0              4.3565615e+15  8.4070695e-07  0.4365128    
    510000   0.102                392  -0              4.2991209e+15  8.4070695e-07  0.43085736   
    520000   0.104                392  -0              4.2554381e+15  8.4070695e-07  0.42552213   
    530000   0.106                392  -0              4.2414654e+15  8.4070695e-07  0.42048896   
    540000   0.108                392  -0              4.2159754e+15  8.4070695e-07  0.4143644    
    550000   0.11                 392  -0              4.210395e+15   8.4070695e-07  0.40996296   
    560000   0.112                392  -0              4.1756529e+15  8.4070695e-07  0.40581074   
    570000   0.114                392  -0              4.1387095e+15  8.4070695e-07  0.4018936    
    580000   0.116                392  -0              4.1163829e+15  8.4070695e-07  0.39819825   
    590000   0.118                392  -0              4.0622541e+15  8.4070695e-07  0.39471212   
    600000   0.12                 392  -0              4.0138883e+15  8.4070695e-07  0.39142337   
    610000   0.122                392  -0              3.9665886e+15  8.4070695e-07  0.38832082   
    620000   0.124                392  -0              3.9355492e+15  8.4070695e-07  0.38539394   
    630000   0.126                392  -0              3.9175132e+15  8.4070695e-07  0.38263277   
WARNING: Fewer insertions than requested (src/GRANULAR/fix_pour.cpp:691)
    640000   0.128                616  -0              4.6235666e+15  1.3211109e-06  0.62049109   
    650000   0.13                 616  -0              4.5419255e+15  1.3211109e-06  0.60441909   
    660000   0.132                616  -0              4.4699706e+15  1.3211109e-06  0.58925706   
    670000   0.134                616  -0              4.415907e+15   1.3211109e-06  0.57495348   
    680000   0.136                616  -0              4.3715633e+15  1.3211109e-06  0.56145975   
    690000   0.138                616  -0              4.3340446e+15  1.3211109e-06  0.54873001   
    700000   0.14                 616  -0              4.2879819e+15  1.3211109e-06  0.53672101   
    710000   0.142                616  -0              4.2290094e+15  1.3211109e-06  0.52539194   
    720000   0.144                616  -0              4.1576975e+15  1.3211109e-06  0.5147043    
    730000   0.146                616  -0              4.0933913e+15  1.3211109e-06  0.50462178   
    740000   0.148                616  -0              4.0398234e+15  1.3211109e-06  0.49511012   
    750000   0.15                 616  -0              3.9783833e+15  1.3211109e-06  0.48613699   
    760000   0.152                616  -0              3.8946522e+15  1.3211109e-06  0.47767191   
    770000   0.154                616  -0              3.8522662e+15  1.3211109e-06  0.46968611   
    780000   0.156                616  -0              3.8035607e+15  1.3211109e-06  0.46215245   
    790000   0.158                616  -0              3.741228e+15   1.3211109e-06  0.45504533   
    800000   0.16                 616  -0              3.7010025e+15  1.3211109e-06  0.44834061   
    810000   0.162                616  -0              3.631003e+15   1.3211109e-06  0.4420155    
    820000   0.164                616  -0              3.5720004e+15  1.3211109e-06  0.43604851   
    830000   0.166                616  -0              3.5228944e+15  1.3211109e-06  0.42710224   
    840000   0.168                616  -0              3.456732e+15   1.3211109e-06  0.42197961   
    850000   0.17                 616  -0              3.4089666e+15  1.3211109e-06  0.41714702   
    860000   0.172                616  -0              3.355062e+15   1.3211109e-06  0.41258804   
    870000   0.174                616  -0              3.322218e+15   1.3211109e-06  0.40828718   
    880000   0.176                616  -0              3.2679304e+15  1.3211109e-06  0.39885519   
    890000   0.178                616  -0              3.1812189e+15  1.3211109e-06  0.39533098   
    900000   0.18                 616  -0              3.0804434e+15  1.3211109e-06  0.39200639   
    910000   0.182                616  -0              2.9977961e+15  1.3211109e-06  0.38887011   
    920000   0.184                616  -0              2.9095816e+15  1.3211109e-06  0.38591148   
    930000   0.186                616  -0              2.8316486e+15  1.3211109e-06  0.38312041   
    940000   0.188                616  -0              2.7521073e+15  1.3211109e-06  0.38048743   
    950000   0.19                 616  -0              2.7021035e+15  1.3211109e-06  0.37800358   
WARNING: Fewer insertions than requested (src/GRANULAR/fix_pour.cpp:691)
    960000   0.192                800  -0              3.3255074e+15  1.7157285e-06  0.62275647   
    970000   0.194                800  -0              3.248549e+15   1.7157285e-06  0.6065562    
    980000   0.196                800  -0              3.1881287e+15  1.7157285e-06  0.59127317   
    990000   0.198                800  -0              3.1505841e+15  1.7157285e-06  0.57685544   
   1000000   0.2                  800  -0              3.0975647e+15  1.7157285e-06  0.56325402   
   1010000   0.202                800  -0              3.0470966e+15  1.7157285e-06  0.5504227    
   1020000   0.204                800  -0              2.9917626e+15  1.7157285e-06  0.53718774   
   1030000   0.206                800  -0              2.9408384e+15  1.7157285e-06  0.52583224   
   1040000   0.208                800  -0              2.8827545e+15  1.7157285e-06  0.51511968   
   1050000   0.21                 800  -0              2.7915641e+15  1.7157285e-06  0.50501364   
   1060000   0.212                800  -0              2.7073867e+15  1.7157285e-06  0.49547979   
   1070000   0.214                800  -0              2.6297163e+15  1.7157285e-06  0.48648574   
   1080000   0.216                800  -0              2.5633919e+15  1.7157285e-06  0.47800091   
   1090000   0.218                800  -0              2.4881616e+15  1.7157285e-06  0.46999648   
   1100000   0.22                 800  -0              2.4124187e+15  1.7157285e-06  0.46244524   
   1110000   0.222                800  -0              2.3681586e+15  1.7157285e-06  0.45532155   
   1120000   0.224                800  -0              2.3096716e+15  1.7157285e-06  0.44860119   
   1130000   0.226                800  -0              2.2687306e+15  1.7157285e-06  0.44226133   
   1140000   0.228                800  -0              2.2131649e+15  1.7157285e-06  0.43628041   
   1150000   0.23                 800  -0              2.1810251e+15  1.7157285e-06  0.43063813   
   1160000   0.232                800  -0              2.1234388e+15  1.7157285e-06  0.42531531   
   1170000   0.234                800  -0              2.0200819e+15  1.7157285e-06  0.42029386   
   1180000   0.236                800  -0              1.9595683e+15  1.7157285e-06  0.41555671   
   1190000   0.238                800  -0              1.9021767e+15  1.7157285e-06  0.41108777   
   1200000   0.24                 800  -0              1.8412298e+15  1.7157285e-06  0.40687186   
   1210000   0.242                800  -0              1.8075194e+15  1.7157285e-06  0.40289464   
   1220000   0.244                800  -0              1.7885254e+15  1.7157285e-06  0.39914261   
   1230000   0.246                800  -0              1.7646889e+15  1.7157285e-06  0.39560301   
   1240000   0.248                800  -0              1.7436433e+15  1.7157285e-06  0.39226382   
   1250000   0.25                 800  -0              1.7179755e+15  1.7157285e-06  0.38048554   
   1260000   0.252                800  -0              1.6865318e+15  1.7157285e-06  0.37800164   
   1270000   0.254                800  -0              1.6665349e+15  1.7157285e-06  0.37565843   
WARNING: Fewer insertions than requested (src/GRANULAR/fix_pour.cpp:691)
   1280000   0.256                981  -0              2.2828712e+15  2.103912e-06   0.61823865   
   1290000   0.258                981  -0              2.2190794e+15  2.103912e-06   0.60178222   
   1300000   0.26                 981  -0              2.1806483e+15  2.103912e-06   0.58676948   
   1310000   0.262                981  -0              2.1230359e+15  2.103912e-06   0.57260674   
   1320000   0.264                981  -0              2.0698495e+15  2.103912e-06   0.55924588   
   1330000   0.266                981  -0              2.0157855e+15  2.103912e-06   0.54664149   
   1340000   0.268                981  -0              1.9725358e+15  2.103912e-06   0.53461122   
   1350000   0.27                 981  -0              1.9178683e+15  2.103912e-06   0.52340161   
   1360000   0.272                981  -0              1.8708237e+15  2.103912e-06   0.51282666   
   1370000   0.274                981  -0              1.8117676e+15  2.103912e-06   0.50119065   
   1380000   0.276                981  -0              1.7727271e+15  2.103912e-06   0.49132286   
   1390000   0.278                981  -0              1.7364838e+15  2.103912e-06   0.48256416   
   1400000   0.28                 981  -0              1.6940113e+15  2.103912e-06   0.47430137   
   1410000   0.282                981  -0              1.6308824e+15  2.103912e-06   0.4665064    
   1420000   0.284                981  -0              1.5818848e+15  2.103912e-06   0.45915277   
   1430000   0.286                981  -0              1.5094033e+15  2.103912e-06   0.45221549   
   1440000   0.288                981  -0              1.4742966e+15  2.103912e-06   0.44567099   
   1450000   0.29                 981  -0              1.4414172e+15  2.103912e-06   0.43949703   
   1460000   0.292                981  -0              1.4101877e+15  2.103912e-06   0.43367263   
   1470000   0.294                981  -0              1.3828912e+15  2.103912e-06   0.428178     
   1480000   0.296                981  -0              1.364578e+15   2.103912e-06   0.42299446   
   1490000   0.298                981  -0              1.3530176e+15  2.103912e-06   0.41810441   
   1500000   0.3                  981  -0              1.3459882e+15  2.103912e-06   0.41349123   
   1510000   0.302                981  -0              1.320632e+15   2.103912e-06   0.40063237   
   1520000   0.304                981  -0              1.2994731e+15  2.103912e-06   0.39700843   
   1530000   0.306                981  -0              1.2689899e+15  2.103912e-06   0.39358967   
   1540000   0.308                981  -0              1.230617e+15   2.103912e-06   0.39036447   
   1550000   0.31                 981  -0              1.1902902e+15  2.103912e-06   0.38732188   
   1560000   0.312                981  -0              1.1639659e+15  2.103912e-06   0.38445155   
   1570000   0.314                981  -0              1.1532797e+15  2.103912e-06   0.36949382   
   1580000   0.316                981  -0              1.1402145e+15  2.103912e-06   0.36212785   
   1590000   0.318                981  -0              1.107992e+15   2.103912e-06   0.36068367   
WARNING: Fewer insertions than requested (src/GRANULAR/fix_pour.cpp:691)
   1600000   0.32                1197  -0              1.7479752e+15  2.5671587e-06  0.61986237   
   1610000   0.322               1197  -0              1.715637e+15   2.5671587e-06  0.59782984   
   1620000   0.324               1197  -0              1.675303e+15   2.5671587e-06  0.58304088   
   1630000   0.326               1197  -0              1.631655e+15   2.5671587e-06  0.56559063   
   1640000   0.328               1197  -0              1.6008089e+15  2.5671587e-06  0.55262701   
   1650000   0.33                1197  -0              1.5659372e+15  2.5671587e-06  0.53696302   
   1660000   0.332               1197  -0              1.5378372e+15  2.5671587e-06  0.52562025   
   1670000   0.334               1197  -0              1.502001e+15   2.5671587e-06  0.51491968   
   1680000   0.336               1197  -0              1.4609505e+15  2.5671587e-06  0.50482497   
   1690000   0.338               1197  -0              1.4244537e+15  2.5671587e-06  0.4953018    
   1700000   0.34                1197  -0              1.397322e+15   2.5671587e-06  0.48631782   
   1710000   0.342               1197  -0              1.3600366e+15  2.5671587e-06  0.4778425    
   1720000   0.344               1197  -0              1.317992e+15   2.5671587e-06  0.46984704   
   1730000   0.346               1197  -0              1.2684822e+15  2.5671587e-06  0.46230427   
   1740000   0.348               1197  -0              1.2448553e+15  2.5671587e-06  0.45518856   
   1750000   0.35                1197  -0              1.2306282e+15  2.5671587e-06  0.44847573   
   1760000   0.352               1197  -0              1.2142076e+15  2.5671587e-06  0.44214297   
   1770000   0.354               1197  -0              1.2039924e+15  2.5671587e-06  0.43616876   
   1780000   0.356               1197  -0              1.2017059e+15  2.5671587e-06  0.4305328    
   1790000   0.358               1197  -0              1.193153e+15   2.5671587e-06  0.42521594   
   1800000   0.36                1197  -0              1.1798954e+15  2.5671587e-06  0.42020011   
   1810000   0.362               1197  -0              1.1651704e+15  2.5671587e-06  0.41546827   
   1820000   0.364               1197  -0              1.1446384e+15  2.5671587e-06  0.39954348   
   1830000   0.366               1197  -0              1.1202304e+15  2.5671587e-06  0.39597838   
   1840000   0.368               1197  -0              1.1030765e+15  2.5671587e-06  0.37380274   
   1850000   0.37                1197  -0              1.0775559e+15  2.5671587e-06  0.37169433   
   1860000   0.372               1197  -0              1.0516613e+15  2.5671587e-06  0.36704402   
   1870000   0.374               1197  -0              1.0343233e+15  2.5671587e-06  0.36531472   
   1880000   0.376               1197  -0              1.0157716e+15  2.5671587e-06  0.36368405   
   1890000   0.378               1197  -0              9.9037053e+14  2.5671587e-06  0.36155034   
   1900000   0.38                1197  -0              9.6599695e+14  2.5671587e-06  0.3588935    
   1910000   0.382               1197  -0              9.3916136e+14  2.5671587e-06  0.35763274   
WARNING: Fewer insertions than requested (src/GRANULAR/fix_pour.cpp:691)
   1920000   0.384               1411  -0              1.6230858e+15  3.0261161e-06  0.61665936   
   1930000   0.386               1411  -0              1.5701226e+15  3.0261161e-06  0.6008043    
   1940000   0.388               1411  -0              1.4998437e+15  3.0261161e-06  0.58584693   
   1950000   0.39                1411  -0              1.4396674e+15  3.0261161e-06  0.57173643   
   1960000   0.392               1411  -0              1.3931854e+15  3.0261161e-06  0.55398594   
   1970000   0.394               1411  -0              1.351638e+15   3.0261161e-06  0.54167935   
   1980000   0.396               1411  -0              1.3082628e+15  3.0261161e-06  0.53006955   
   1990000   0.398               1411  -0              1.2622894e+15  3.0261161e-06  0.51234441   
   2000000   0.4                 1411  -0              1.2289276e+15  3.0261161e-06  0.49306273   
   2010000   0.402               1411  -0              1.2010074e+15  3.0261161e-06  0.48420552   
   2020000   0.404               1411  -0              1.1798917e+15  3.0261161e-06  0.46431544   
   2030000   0.406               1411  -0              1.1612636e+15  3.0261161e-06  0.45703695   
   2040000   0.408               1411  -0              1.1435832e+15  3.0261161e-06  0.45017457   
   2050000   0.41                1411  -0              1.1239138e+15  3.0261161e-06  0.44370446   
   2060000   0.412               1411  -0              1.1047346e+15  3.0261161e-06  0.43760417   
   2070000   0.414               1411  -0              1.0830257e+15  3.0261161e-06  0.43185249   
   2080000   0.416               1411  -0              1.0676819e+15  3.0261161e-06  0.42642946   
   2090000   0.418               1411  -0              1.0425663e+15  3.0261161e-06  0.39803574   
   2100000   0.42                1411  -0              1.0121647e+15  3.0261161e-06  0.39452516   
   2110000   0.422               1411  -0              9.7298897e+14  3.0261161e-06  0.38964629   
   2120000   0.424               1411  -0              9.3933622e+14  3.0261161e-06  0.38663243   
   2130000   0.426               1411  -0              8.9997512e+14  3.0261161e-06  0.38379036   
   2140000   0.428               1411  -0              8.6300678e+14  3.0261161e-06  0.37695354   
   2150000   0.43                1411  -0              8.187668e+14   3.0261161e-06  0.37467025   
   2160000   0.432               1411  -0              7.7348715e+14  3.0261161e-06  0.36948143   
   2170000   0.434               1411  -0              7.3846315e+14  3.0261161e-06  0.36762121   
   2180000   0.436               1411  -0              7.0822266e+14  3.0261161e-06  0.36125683   
   2190000   0.438               1411  -0              6.5478094e+14  3.0261161e-06  0.3598619    
   2200000   0.44                1411  -0              6.1002435e+14  3.0261161e-06  0.35454128   
   2210000   0.442               1411  -0              5.5509507e+14  3.0261161e-06  0.35352694   
   2220000   0.444               1411  -0              5.2306589e+14  3.0261161e-06  0.35187637   
   2230000   0.446               1411  -0              4.826725e+14   3.0261161e-06  0.34634284   
WARNING: Fewer insertions than requested (src/GRANULAR/fix_pour.cpp:691)
   2240000   0.448               1629  -0              1.1498996e+15  3.4936521e-06  0.61662156   
   2250000   0.45                1629  -0              1.1130676e+15  3.4936521e-06  0.59998949   
   2260000   0.452               1629  -0              1.0715582e+15  3.4936521e-06  0.58507826   
   2270000   0.454               1629  -0              1.0424992e+15  3.4936521e-06  0.57101128   
   2280000   0.456               1629  -0              1.0141884e+15  3.4936521e-06  0.55514881   
   2290000   0.458               1629  -0              9.9691272e+14  3.4936521e-06  0.54277639   
   2300000   0.46                1629  -0              9.7013166e+14  3.4936521e-06  0.53110447   
   2310000   0.462               1629  -0              9.4761423e+14  3.4936521e-06  0.5200934    
   2320000   0.464               1629  -0              9.3175832e+14  3.4936521e-06  0.50970576   
   2330000   0.466               1629  -0              9.1906741e+14  3.4936521e-06  0.49990625   
   2340000   0.468               1629  -0              8.9535047e+14  3.4936521e-06  0.48890493   
   2350000   0.47                1629  -0              8.657058e+14   3.4936521e-06  0.45851385   
   2360000   0.472               1629  -0              8.3099001e+14  3.4936521e-06  0.45161275   
   2370000   0.474               1629  -0              8.0272607e+14  3.4936521e-06  0.42399328   
   2380000   0.476               1629  -0              7.4036183e+14  3.4936521e-06  0.41903612   
   2390000   0.478               1629  -0              7.0581935e+14  3.4936521e-06  0.41436058   
   2400000   0.48                1629  -0              6.7524388e+14  3.4936521e-06  0.39517588   
   2410000   0.482               1629  -0              6.4917852e+14  3.4936521e-06  0.38248794   
   2420000   0.484               1629  -0              6.224163e+14   3.4936521e-06  0.37807279   
   2430000   0.486               1629  -0              6.0067402e+14  3.4936521e-06  0.37369707   
   2440000   0.488               1629  -0              5.7657277e+14  3.4936521e-06  0.37159681   
   2450000   0.49                1629  -0              5.4712763e+14  3.4936521e-06  0.3696156    
   2460000   0.492               1629  -0              5.2268373e+14  3.4936521e-06  0.36312686   
   2470000   0.494               1629  -0              5.0941017e+14  3.4936521e-06  0.36162642   
   2480000   0.496               1629  -0              4.8905284e+14  3.4936521e-06  0.36021093   
   2490000   0.498               1629  -0              4.6582607e+14  3.4936521e-06  0.35857968   
   2500000   0.5                 1629  -0              4.3588931e+14  3.4936521e-06  0.35733669   
   2510000   0.502               1629  -0              3.9198557e+14  3.4936521e-06  0.35040691   
   2520000   0.504               1629  -0              3.7388282e+14  3.4936521e-06  0.34749424   
   2530000   0.506               1629  -0              3.5160849e+14  3.4936521e-06  0.34618899   
   2540000   0.508               1629  -0              3.34514e+14    3.4936521e-06  0.34308164   
   2550000   0.51                1629  -0              3.2569156e+14  3.4936521e-06  0.34048856   
WARNING: Fewer insertions than requested (src/GRANULAR/fix_pour.cpp:691)
   2560000   0.512               1841  -0              9.0696275e+14  3.9483201e-06  0.61271944   
   2570000   0.514               1841  -0              8.7920111e+14  3.9483201e-06  0.59708746   
   2580000   0.516               1841  -0              8.5841089e+14  3.9483201e-06  0.58234054   
   2590000   0.518               1841  -0              8.4096166e+14  3.9483201e-06  0.56842856   
   2600000   0.52                1841  -0              8.2108197e+14  3.9483201e-06  0.55530426   
   2610000   0.522               1841  -0              7.9743268e+14  3.9483201e-06  0.54292303   
   2620000   0.524               1841  -0              7.848498e+14   3.9483201e-06  0.53010102   
   2630000   0.526               1841  -0              7.5105472e+14  3.9483201e-06  0.50738      
   2640000   0.528               1841  -0              7.2950765e+14  3.9483201e-06  0.49771217   
   2650000   0.53                1841  -0              7.0147855e+14  3.9483201e-06  0.47038246   
   2660000   0.532               1841  -0              6.5949493e+14  3.9483201e-06  0.44354513   
   2670000   0.534               1841  -0              6.0441379e+14  3.9483201e-06  0.42413246   
   2680000   0.536               1841  -0              5.6352311e+14  3.9483201e-06  0.41917798   
   2690000   0.538               1841  -0              5.1871349e+14  3.9483201e-06  0.3880681    
   2700000   0.54                1841  -0              4.9040894e+14  3.9483201e-06  0.37900385   
   2710000   0.542               1841  -0              4.7534852e+14  3.9483201e-06  0.37660447   
   2720000   0.544               1841  -0              4.4903264e+14  3.9483201e-06  0.37434095   
   2730000   0.546               1841  -0              4.2602804e+14  3.9483201e-06  0.37220559   
   2740000   0.548               1841  -0              3.990779e+14   3.9483201e-06  0.37019112   
   2750000   0.55                1841  -0              3.7534564e+14  3.9483201e-06  0.36743922   
   2760000   0.552               1841  -0              3.4675488e+14  3.9483201e-06  0.36241669   
   2770000   0.554               1841  -0              3.1442733e+14  3.9483201e-06  0.35480737   
   2780000   0.556               1841  -0              2.9964319e+14  3.9483201e-06  0.35304381   
   2790000   0.558               1841  -0              2.7880351e+14  3.9483201e-06  0.34743489   
   2800000   0.56                1841  -0              2.7147835e+14  3.9483201e-06  0.3468229    
   2810000   0.562               1841  -0              2.5861652e+14  3.9483201e-06  0.3414567    
   2820000   0.564               1841  -0              2.5091812e+14  3.9483201e-06  0.33860744   
   2830000   0.566               1841  -0              2.4263882e+14  3.9483201e-06  0.33728723   
   2840000   0.568               1841  -0              2.3441058e+14  3.9483201e-06  0.33584577   
   2850000   0.57                1841  -0              2.258059e+14   3.9483201e-06  0.33359028   
   2860000   0.572               1841  -0              2.1188297e+14  3.9483201e-06  0.32975994   
   2870000   0.574               1841  -0              2.0781796e+14  3.9483201e-06  0.32787855   
   2880000   0.576               1850  -0              2.1906352e+14  3.9676221e-06  0.5132019    
   2890000   0.578               1850  -0              2.0781747e+14  3.9676221e-06  0.50320444   
   2900000   0.58                1850  -0              1.9828443e+14  3.9676221e-06  0.41129762   
   2910000   0.582               1850  -0              1.9349664e+14  3.9676221e-06  0.4070125    
   2920000   0.584               1850  -0              1.8531175e+14  3.9676221e-06  0.40297526   
   2930000   0.586               1850  -0              1.8181466e+14  3.9676221e-06  0.39917142   
   2940000   0.588               1850  -0              1.7269409e+14  3.9676221e-06  0.39558737   
   2950000   0.59                1850  -0              1.6144106e+14  3.9676221e-06  0.39221029   
   2960000   0.592               1850  -0              1.5172355e+14  3.9676221e-06  0.37642477   
   2970000   0.594               1850  -0              1.3619471e+14  3.9676221e-06  0.37413759   
   2980000   0.596               1850  -0              1.2032265e+14  3.9676221e-06  0.36620921   
   2990000   0.598               1850  -0              1.0880231e+14  3.9676221e-06  0.36450034   
   3000000   0.6                 1850  -0              9.0613523e+13  3.9676221e-06  0.35983312   
Loop time of 322.084 on 1 procs for 3000000 steps with 1850 atoms

100.0% CPU use with 1 MPI tasks x 1 OpenMP threads

MPI task timing breakdown:
Section |  min time  |  avg time  |  max time  |%varavg| %total
---------------------------------------------------------------
Pair    | 229.56     | 229.56     | 229.56     |   0.0 | 71.27
Neigh   | 0.56056    | 0.56056    | 0.56056    |   0.0 |  0.17
Comm    | 0.065588   | 0.065588   | 0.065588   |   0.0 |  0.02
Output  | 0.11115    | 0.11115    | 0.11115    |   0.0 |  0.03
Modify  | 87.849     | 87.849     | 87.849     |   0.0 | 27.28
Other   |            | 3.937      |            |       |  1.22

Nlocal:           1850 ave        1850 max        1850 min
Histogram: 1 0 0 0 0 0 0 0 0 0
Nghost:              0 ave           0 max           0 min
Histogram: 1 0 0 0 0 0 0 0 0 0
Neighs:           6877 ave        6877 max        6877 min
Histogram: 1 0 0 0 0 0 0 0 0 0

Total # of neighbors = 6877
Ave neighs/atom = 3.7172973
Neighbor list builds = 2173
Dangerous builds = 0
Generated 0 of 0 mixed pair_coeff terms from geometric mixing rule
Setting up Verlet run ...
  Unit style    : si
  Current step  : 0
  Time step     : 2e-07
Per MPI rank memory allocation (min/avg/max) = 14.72 | 14.72 | 14.72 Mbytes
   Step          Time         Atoms        KinEng     c_granularTemp c_solidVolume    c_maxSpeed  
         0   0                   1850   6.4602183e-06  8.8181588e+13  3.9676221e-06  0.35219495   
     10000   0.002               1850   3.5845535e-06  5.0091252e+13  3.9676221e-06  0.28015355   
     20000   0.004               1850   2.1324205e-06  3.05126e+13    3.9676221e-06  0.22632775   
     30000   0.006               1850   1.3761859e-06  1.9894414e+13  3.9676221e-06  0.18174435   
     40000   0.008               1850   8.83624e-07    1.3007393e+13  3.9676221e-06  0.1528189    
     50000   0.01                1850   6.4465995e-07  9.5969839e+12  3.9676221e-06  0.13120587   
     60000   0.012               1850   4.80507e-07    7.3220215e+12  3.9676221e-06  0.11505668   
     70000   0.014               1850   3.5185547e-07  5.4875208e+12  3.9676221e-06  0.10299004   
     80000   0.016               1850   2.7924163e-07  4.4403382e+12  3.9676221e-06  0.093973872  
     90000   0.018               1850   2.1257452e-07  3.4922707e+12  3.9676221e-06  0.087237018  
    100000   0.02                1850   1.8643206e-07  2.9930822e+12  3.9676221e-06  0.082203257  
    110000   0.022               1850   1.4845599e-07  2.4110069e+12  3.9676221e-06  0.078442044  
    120000   0.024               1850   1.2273621e-07  1.9954921e+12  3.9676221e-06  0.075631674  
    130000   0.026               1850   1.135271e-07   1.8631212e+12  3.9676221e-06  0.073531773  
    140000   0.028               1850   1.111035e-07   1.8402234e+12  3.9676221e-06  0.071962733  
    150000   0.03                1850   9.7314874e-08  1.6411223e+12  3.9676221e-06  0.070790349  
    160000   0.032               1850   9.3368977e-08  1.6075246e+12  3.9676221e-06  0.069914347  
    170000   0.034               1850   8.8810068e-08  1.5831487e+12  3.9676221e-06  0.069259801  
    180000   0.036               1850   8.6340764e-08  1.4921551e+12  3.9676221e-06  0.068770725  
    190000   0.038               1850   8.7398615e-08  1.5076732e+12  3.9676221e-06  0.068405289  
    200000   0.04                1850   8.5831683e-08  1.4888941e+12  3.9676221e-06  0.068132236  
    210000   0.042               1850   8.522484e-08   1.4833832e+12  3.9676221e-06  0.067928212  
    220000   0.044               1850   7.9775781e-08  1.4001521e+12  3.9676221e-06  0.067775765  
    230000   0.046               1850   7.633031e-08   1.314837e+12   3.9676221e-06  0.067661857  
    240000   0.048               1850   7.6475114e-08  1.3068757e+12  3.9676221e-06  0.067576746  
    250000   0.05                1850   7.6368229e-08  1.2961957e+12  3.9676221e-06  0.067513151  
    260000   0.052               1850   7.7917321e-08  1.3069214e+12  3.9676221e-06  0.067465632  
    270000   0.054               1850   7.0783141e-08  1.1867186e+12  3.9676221e-06  0.067430127  
    280000   0.056               1850   7.076147e-08   1.1770488e+12  3.9676221e-06  0.067403597  
    290000   0.058               1850   7.1686306e-08  1.1898379e+12  3.9676221e-06  0.067383775  
    300000   0.06                1850   7.1489738e-08  1.1699908e+12  3.9676221e-06  0.067368963  
    310000   0.062               1850   7.1888428e-08  1.1707625e+12  3.9676221e-06  0.067357896  
    320000   0.064               1850   6.7387454e-08  1.0437828e+12  3.9676221e-06  0.067349626  
    330000   0.066               1850   6.6790828e-08  1.0164702e+12  3.9676221e-06  0.067343448  
    340000   0.068               1850   6.8004114e-08  1.0286957e+12  3.9676221e-06  0.067338831  
    350000   0.07                1850   6.7313048e-08  1.004093e+12   3.9676221e-06  0.067335381  
    360000   0.072               1850   6.4415581e-08  9.3110349e+11  3.9676221e-06  0.067332804  
    370000   0.074               1850   6.4624184e-08  9.2875184e+11  3.9676221e-06  0.067330878  
    380000   0.076               1850   6.5371543e-08  9.4501459e+11  3.9676221e-06  0.067329439  
    390000   0.078               1850   6.4965426e-08  9.4814712e+11  3.9676221e-06  0.067328363  
    400000   0.08                1850   6.3566572e-08  9.1880723e+11  3.9676221e-06  0.06732756   
    410000   0.082               1850   6.3263641e-08  9.1191374e+11  3.9676221e-06  0.067326959  
    420000   0.084               1850   6.4217992e-08  9.3037321e+11  3.9676221e-06  0.067326511  
    430000   0.086               1850   6.2140099e-08  8.8800787e+11  3.9676221e-06  0.067326176  
    440000   0.088               1850   5.7666558e-08  8.24753e+11    3.9676221e-06  0.067325825  
    450000   0.09                1850   5.4281653e-08  7.902121e+11   3.9676221e-06  0.067325663  
    460000   0.092               1850   5.3924103e-08  7.7674985e+11  3.9676221e-06  0.067325542  
    470000   0.094               1850   5.4601962e-08  7.9091249e+11  3.9676221e-06  0.067325452  
    480000   0.096               1850   5.5639874e-08  8.063871e+11   3.9676221e-06  0.067325384  
    490000   0.098               1850   5.1571874e-08  7.3083361e+11  3.9676221e-06  0.067325334  
    500000   0.1                 1850   4.9894483e-08  7.0470203e+11  3.9676221e-06  0.067325296  
    510000   0.102               1850   4.9839992e-08  7.0631526e+11  3.9676221e-06  0.067325268  
    520000   0.104               1850   5.0077406e-08  7.1448708e+11  3.9676221e-06  0.067325247  
    530000   0.106               1850   5.0029171e-08  7.1937956e+11  3.9676221e-06  0.067325232  
    540000   0.108               1850   5.0177575e-08  7.1136942e+11  3.9676221e-06  0.06732522   
    550000   0.11                1850   5.0425342e-08  7.1506102e+11  3.9676221e-06  0.067325211  
    560000   0.112               1850   5.055592e-08   7.1805903e+11  3.9676221e-06  0.067325204  
    570000   0.114               1850   4.7995004e-08  6.7373561e+11  3.9676221e-06  0.0673252    
    580000   0.116               1850   4.7597351e-08  6.7064912e+11  3.9676221e-06  0.067325196  
    590000   0.118               1850   4.7566375e-08  6.7558557e+11  3.9676221e-06  0.067325193  
    600000   0.12                1850   4.7601543e-08  6.8381123e+11  3.9676221e-06  0.067325191  
    610000   0.122               1850   4.7595581e-08  6.7178952e+11  3.9676221e-06  0.06732519   
    620000   0.124               1850   4.72445e-08    6.536001e+11   3.9676221e-06  0.067325188  
    630000   0.126               1850   4.7226583e-08  6.5229559e+11  3.9676221e-06  0.067325188  
    640000   0.128               1850   4.727612e-08   6.5648436e+11  3.9676221e-06  0.067325187  
    650000   0.13                1850   4.1275592e-08  5.9282578e+11  3.9676221e-06  0.067325186  
    660000   0.132               1850   4.1569572e-08  6.043999e+11   3.9676221e-06  0.067325186  
    670000   0.134               1850   4.1558695e-08  5.9015164e+11  3.9676221e-06  0.067325186  
    680000   0.136               1850   4.1612567e-08  5.7514873e+11  3.9676221e-06  0.067325186  
    690000   0.138               1850   4.1759465e-08  5.6516261e+11  3.9676221e-06  0.067325186  
    700000   0.14                1850   3.4593315e-08  4.755698e+11   3.9676221e-06  0.067325185  
    710000   0.142               1850   3.493915e-08   4.7784824e+11  3.9676221e-06  0.067325185  
    720000   0.144               1850   3.2543955e-08  4.4670936e+11  3.9676221e-06  0.067325185  
    730000   0.146               1850   3.2446768e-08  4.4636036e+11  3.9676221e-06  0.067325185  
    740000   0.148               1850   3.2565143e-08  4.4948102e+11  3.9676221e-06  0.067325185  
    750000   0.15                1850   3.2887834e-08  4.512173e+11   3.9676221e-06  0.067325185  
    760000   0.152               1850   3.326631e-08   4.5424642e+11  3.9676221e-06  0.067325185  
    770000   0.154               1850   3.3575083e-08  4.5921007e+11  3.9676221e-06  0.067325185  
    780000   0.156               1850   3.3961501e-08  4.6492876e+11  3.9676221e-06  0.067325185  
    790000   0.158               1850   3.2897851e-08  4.4317544e+11  3.9676221e-06  0.067325185  
    800000   0.16                1850   3.2921423e-08  4.3992999e+11  3.9676221e-06  0.067325185  
    810000   0.162               1850   3.2134472e-08  4.2786585e+11  3.9676221e-06  0.067325185  
    820000   0.164               1850   3.2096928e-08  4.2648173e+11  3.9676221e-06  0.067325185  
    830000   0.166               1850   3.0979077e-08  4.1121606e+11  3.9676221e-06  0.067325185  
    840000   0.168               1850   2.5498964e-08  3.475751e+11   3.9676221e-06  0.067325185  
    850000   0.17                1850   2.5779486e-08  3.5306354e+11  3.9676221e-06  0.067325185  
    860000   0.172               1850   2.4834298e-08  3.3844123e+11  3.9676221e-06  0.067325185  
    870000   0.174               1850   2.4775709e-08  3.3721833e+11  3.9676221e-06  0.067325185  
    880000   0.176               1850   2.4895342e-08  3.3967628e+11  3.9676221e-06  0.067325185  
    890000   0.178               1850   2.532537e-08   3.4854533e+11  3.9676221e-06  0.067325185  
    900000   0.18                1850   2.541493e-08   3.5052196e+11  3.9676221e-06  0.067325185  
    910000   0.182               1850   2.5134244e-08  3.3983777e+11  3.9676221e-06  0.067325185  
    920000   0.184               1850   2.5043543e-08  3.3868288e+11  3.9676221e-06  0.067325185  
    930000   0.186               1850   2.4568651e-08  3.306792e+11   3.9676221e-06  0.067325185  
    940000   0.188               1850   2.4647659e-08  3.3108719e+11  3.9676221e-06  0.067325185  
    950000   0.19                1850   2.4797366e-08  3.3388449e+11  3.9676221e-06  0.067325185  
    960000   0.192               1850   2.4740218e-08  3.3400599e+11  3.9676221e-06  0.067325185  
    970000   0.194               1850   2.4925714e-08  3.3695999e+11  3.9676221e-06  0.067325185  
    980000   0.196               1850   2.3955086e-08  3.1662148e+11  3.9676221e-06  0.067325185  
    990000   0.198               1850   2.3693388e-08  3.1180391e+11  3.9676221e-06  0.067325185  
   1000000   0.2                 1850   2.3614027e-08  3.1036892e+11  3.9676221e-06  0.067325185  
   1010000   0.202               1850   2.3635511e-08  3.1081036e+11  3.9676221e-06  0.067325185  
   1020000   0.204               1850   2.3713904e-08  3.1228968e+11  3.9676221e-06  0.067325185  
   1030000   0.206               1850   2.382676e-08   3.1441986e+11  3.9676221e-06  0.067325185  
   1040000   0.208               1850   2.3961445e-08  3.1696213e+11  3.9676221e-06  0.067325185  
   1050000   0.21                1850   2.3865731e-08  3.1560179e+11  3.9676221e-06  0.067325185  
   1060000   0.212               1850   2.3883745e-08  3.1576994e+11  3.9676221e-06  0.067325185  
   1070000   0.214               1850   2.3930218e-08  3.1673716e+11  3.9676221e-06  0.067325185  
   1080000   0.216               1850   2.4033812e-08  3.1877632e+11  3.9676221e-06  0.067325185  
   1090000   0.218               1850   2.4101192e-08  3.2018558e+11  3.9676221e-06  0.067325185  
   1100000   0.22                1850   2.4208312e-08  3.2234024e+11  3.9676221e-06  0.067325185  
   1110000   0.222               1850   2.4329996e-08  3.2479611e+11  3.9676221e-06  0.067325185  
   1120000   0.224               1850   2.4468106e-08  3.2758123e+11  3.9676221e-06  0.067325185  
   1130000   0.226               1850   1.7308636e-08  2.3866743e+11  3.9676221e-06  0.067325185  
   1140000   0.228               1850   1.7255958e-08  2.3744733e+11  3.9676221e-06  0.067325185  
   1150000   0.23                1850   1.7430783e-08  2.409313e+11   3.9676221e-06  0.067325185  
   1160000   0.232               1850   1.7723865e-08  2.4670995e+11  3.9676221e-06  0.067325185  
   1170000   0.234               1850   1.8091018e-08  2.5388871e+11  3.9676221e-06  0.067325185  
   1180000   0.236               1850   1.6404241e-08  2.2570766e+11  3.9676221e-06  0.067325185  
   1190000   0.238               1850   1.6307099e-08  2.2419099e+11  3.9676221e-06  0.067325185  
   1200000   0.24                1850   1.6240577e-08  2.1904824e+11  3.9676221e-06  0.067325185  
   1210000   0.242               1850   1.630574e-08   2.1924432e+11  3.9676221e-06  0.067325185  
   1220000   0.244               1850   1.6424376e-08  2.2176735e+11  3.9676221e-06  0.067325185  
   1230000   0.246               1850   1.6558348e-08  2.2461783e+11  3.9676221e-06  0.067325185  
   1240000   0.248               1850   1.6712348e-08  2.2789641e+11  3.9676221e-06  0.067325185  
   1250000   0.25                1850   9.7986826e-09  1.424849e+11   3.9676221e-06  0.067325185  
   1260000   0.252               1850   1.0028487e-08  1.4754296e+11  3.9676221e-06  0.067325185  
   1270000   0.254               1850   1.0359329e-08  1.5427498e+11  3.9676221e-06  0.067325185  
   1280000   0.256               1850   1.0736357e-08  1.6189799e+11  3.9676221e-06  0.067325185  
   1290000   0.258               1850   9.8064202e-09  1.4272163e+11  3.9676221e-06  0.067325185  
   1300000   0.26                1850   9.928297e-09   1.4518224e+11  3.9676221e-06  0.067325185  
   1310000   0.262               1850   1.0185682e-08  1.4925401e+11  3.9676221e-06  0.067325185  
   1320000   0.264               1850   1.0518758e-08  1.5589929e+11  3.9676221e-06  0.067325185  
   1330000   0.266               1850   1.0923942e-08  1.6413009e+11  3.9676221e-06  0.067325185  
   1340000   0.268               1850   7.7661025e-09  1.3122063e+11  3.9676221e-06  0.049002559  
   1350000   0.27                1850   4.5847395e-09  9.0345202e+10  3.9676221e-06  0.035645179  
   1360000   0.272               1850   3.5289629e-09  7.0086964e+10  3.9676221e-06  0.037739024  
   1370000   0.274               1850   3.3411548e-09  6.6008426e+10  3.9676221e-06  0.039655296  
   1380000   0.276               1850   3.5624003e-09  6.9409732e+10  3.9676221e-06  0.041767608  
   1390000   0.278               1850   3.8381064e-09  7.4174642e+10  3.9676221e-06  0.04387998   
   1400000   0.28                1850   4.1559775e-09  7.9920494e+10  3.9676221e-06  0.046006486  
   1410000   0.282               1850   4.5090091e-09  8.6469609e+10  3.9676221e-06  0.048129791  
   1420000   0.284               1850   4.8934422e-09  9.3707355e+10  3.9676221e-06  0.050237614  
   1430000   0.286               1850   5.3016748e-09  1.0151865e+11  3.9676221e-06  0.05229626   
   1440000   0.288               1850   5.7283268e-09  1.0979582e+11  3.9676221e-06  0.054285162  
   1450000   0.29                1850   6.1824713e-09  1.1841994e+11  3.9676221e-06  0.056256716  
   1460000   0.292               1850   5.8978259e-09  1.0667768e+11  3.9676221e-06  0.058447903  
   1470000   0.294               1850   6.2927708e-09  1.1109291e+11  3.9676221e-06  0.060461674  
   1480000   0.296               1850   6.6317434e-09  1.1551294e+11  3.9676221e-06  0.062076094  
   1490000   0.298               1850   6.9037085e-09  1.1906535e+11  3.9676221e-06  0.063338873  
   1500000   0.3                 1850   8.331286e-10   1.7650755e+10  3.9676221e-06  0.017520517  
   1510000   0.302               1850   3.7542285e-10  8.8894294e+09  3.9676221e-06  0.01414426   
   1520000   0.304               1850   4.1784546e-10  1.03842e+10    3.9676221e-06  0.015096735  
   1530000   0.306               1850   5.5491128e-10  1.2729758e+10  3.9676221e-06  0.017542097  
   1540000   0.308               1850   7.0606941e-10  1.5536694e+10  3.9676221e-06  0.019861464  
   1550000   0.31                1850   8.7280354e-10  1.8612192e+10  3.9676221e-06  0.022135407  
   1560000   0.312               1850   6.3992641e-10  1.7529148e+10  3.9676221e-06  0.019258794  
   1570000   0.314               1850   6.8603804e-10  2.0782539e+10  3.9676221e-06  0.019909953  
   1580000   0.316               1850   8.9716677e-10  2.4361209e+10  3.9676221e-06  0.022858059  
   1590000   0.318               1850   1.0301358e-09  2.8120987e+10  3.9676221e-06  0.024500331  
   1600000   0.32                1850   1.2286594e-09  3.2387299e+10  3.9676221e-06  0.026759645  
   1610000   0.322               1850   1.4799749e-09  3.7089031e+10  3.9676221e-06  0.029369676  
   1620000   0.324               1850   1.7096191e-09  3.5560585e+10  3.9676221e-06  0.031465755  
   1630000   0.326               1850   3.3924244e-10  6.272922e+09   3.9676221e-06  0.013492639  
   1640000   0.328               1850   1.1201743e-10  2.2977809e+09  3.9676221e-06  0.0078141537 
   1650000   0.33                1850   2.0784181e-10  3.6719055e+09  3.9676221e-06  0.010978959  
   1660000   0.332               1850   1.1447819e-11  4.8539487e+08  3.9676221e-06  0.0012154625 
   1670000   0.334               1850   1.6341536e-12  1.4726071e+08  3.9676221e-06  0.00035480514
   1680000   0.336               1850   1.3976013e-12  1.2439805e+08  3.9676221e-06  0.00085944179
   1690000   0.338               1850   6.0398338e-12  2.2619653e+08  3.9676221e-06  0.0018677577 
   1700000   0.34                1850   1.3001953e-11  3.7899023e+08  3.9676221e-06  0.0027502395 
   1710000   0.342               1850   2.1468293e-11  5.6581833e+08  3.9676221e-06  0.0035365074 
   1720000   0.344               1850   3.117662e-11   7.7920007e+08  3.9676221e-06  0.0042625958 
   1730000   0.346               1850   4.2006482e-11  1.0169798e+09  3.9676221e-06  0.0049480018 
   1740000   0.348               1850   5.3999334e-11  1.2804317e+09  3.9676221e-06  0.0056100519 
   1750000   0.35                1850   9.4371995e-12  2.9673104e+08  3.9676221e-06  0.0022478018 
   1760000   0.352               1850   2.5415074e-13  99853574       3.9676221e-06  0.00014859366
   1770000   0.354               1850   4.973461e-13   1.0354625e+08  3.9676221e-06  0.00043474629
   1780000   0.356               1850   5.6112579e-14  94553859       3.9676221e-06  5.7916988e-05
   1790000   0.358               1850   1.0969296e-14  93670447       3.9676221e-06  2.4495682e-05
   1800000   0.36                1850   2.6759296e-15  93483609       3.9676221e-06  9.3853365e-06
   1810000   0.362               1850   1.9505262e-15  93458734       3.9676221e-06  7.6542118e-06
   1820000   0.364               1850   7.5763585e-16  93430819       3.9676221e-06  5.2795213e-06
   1830000   0.366               1850   2.4988623e-16  93416144       3.9676221e-06  3.7419565e-06
   1840000   0.368               1850   1.436239e-16   93410296       3.9676221e-06  2.629461e-06 
   1850000   0.37                1850   4.530292e-17   93405363       3.9676221e-06  1.3693285e-06
   1860000   0.372               1850   3.3688643e-17  93402485       3.9676221e-06  1.3377693e-06
   1870000   0.374               1850   1.8743766e-17  93399632       3.9676221e-06  1.3055292e-06
   1880000   0.376               1850   4.2490706e-18  93396806       3.9676221e-06  1.2733879e-06
   1890000   0.378               1850   6.0507661e-18  93394437       3.9676221e-06  1.2419235e-06
   1900000   0.38                1850   4.0935332e-18  93392023       3.9676221e-06  1.2108626e-06
   1910000   0.382               1850   2.4795269e-18  93389675       3.9676221e-06  1.179931e-06 
   1920000   0.384               1850   2.7043597e-18  93387430       3.9676221e-06  1.1487275e-06
   1930000   0.386               1850   2.2972238e-18  93385226       3.9676221e-06  1.1173266e-06
   1940000   0.388               1850   2.0573391e-18  93383085       3.9676221e-06  1.0858864e-06
   1950000   0.39                1850   1.9575081e-18  93381004       3.9676221e-06  1.0544642e-06
   1960000   0.392               1850   1.8148382e-18  93378981       3.9676221e-06  1.0230617e-06
   1970000   0.394               1850   1.6927414e-18  93377017       3.9676221e-06  9.9162306e-07
   1980000   0.396               1850   1.5875977e-18  93375113       3.9676221e-06  9.6011534e-07
   1990000   0.398               1850   1.4816261e-18  93373268       3.9676221e-06  9.2853421e-07
   2000000   0.4                 1850   1.3807908e-18  93371482       3.9676221e-06  8.9690852e-07
   2010000   0.402               1850   1.2854117e-18  93369756       3.9676221e-06  8.6524694e-07
   2020000   0.404               1850   1.1922758e-18  93368091       3.9676221e-06  8.335551e-07 
   2030000   0.406               1850   1.1032574e-18  93366486       3.9676221e-06  8.0184348e-07
   2040000   0.408               1850   1.0176277e-18  93364942       3.9676221e-06  7.7010174e-07
   2050000   0.41                1850   9.3528394e-19  93363459       3.9676221e-06  7.3832284e-07
   2060000   0.412               1850   8.5646322e-19  93362037       3.9676221e-06  7.065179e-07 
   2070000   0.414               1850   7.8100145e-19  93360677       3.9676221e-06  6.746839e-07 
   2080000   0.416               1850   7.089795e-19   93359378       3.9676221e-06  6.4282342e-07
   2090000   0.418               1850   6.4039777e-19  93358141       3.9676221e-06  6.1094177e-07
   2100000   0.42                1850   5.7525855e-19  93356967       3.9676221e-06  5.7903806e-07
   2110000   0.422               1850   5.1357582e-19  93355854       3.9676221e-06  5.4711395e-07
   2120000   0.424               1850   4.5535771e-19  93354805       3.9676221e-06  5.151717e-07 
   2130000   0.426               1850   4.006111e-19   93353817       3.9676221e-06  4.8321136e-07
   2140000   0.428               1850   3.4934296e-19  93352893       3.9676221e-06  4.5123385e-07
   2150000   0.43                1850   3.015621e-19   93352031       3.9676221e-06  4.1924129e-07
   2160000   0.432               1850   2.5727934e-19  93351233       3.9676221e-06  3.8723815e-07
   2170000   0.434               1850   2.1649577e-19  93350497       3.9676221e-06  3.5522243e-07
   2180000   0.436               1850   1.7921871e-19  93349825       3.9676221e-06  3.2319701e-07
   2190000   0.438               1850   1.4545151e-19  93349216       3.9676221e-06  2.9116205e-07
   2200000   0.44                1850   1.1520034e-19  93348671       3.9676221e-06  2.5912095e-07
   2210000   0.442               1850   8.8468678e-20  93348189       3.9676221e-06  2.2707556e-07
   2220000   0.444               1850   6.5258029e-20  93347770       3.9676221e-06  1.9502602e-07
   2230000   0.446               1850   4.5570364e-20  93347415       3.9676221e-06  1.6297342e-07
   2240000   0.448               1850   2.9407784e-20  93347124       3.9676221e-06  1.3092018e-07
   2250000   0.45                1850   1.6770366e-20  93346896       3.9676221e-06  9.8865916e-08
   2260000   0.452               1850   7.6591901e-21  93346732       3.9676221e-06  6.6813818e-08
   2270000   0.454               1850   2.0739588e-21  93346631       3.9676221e-06  3.4767444e-08
   2280000   0.456               1850   1.2765121e-23  93346594       3.9676221e-06  2.7248295e-09
   2290000   0.458               1850   1.4744065e-21  93346620       3.9676221e-06  2.9314372e-08
   2300000   0.46                1850   6.4575378e-21  93346710       3.9676221e-06  6.1349123e-08
   2310000   0.462               1850   1.49568e-20    93346863       3.9676221e-06  9.3367269e-08
   2320000   0.464               1850   2.6968368e-20  93347080       3.9676221e-06  1.2537265e-07
   2330000   0.466               1850   4.2487924e-20  93347360       3.9676221e-06  1.5736506e-07
   2340000   0.468               1850   6.1510782e-20  93347703       3.9676221e-06  1.8934385e-07
   2350000   0.47                1850   8.4031542e-20  93348109       3.9676221e-06  2.2130783e-07
   2360000   0.472               1850   1.100429e-19   93348578       3.9676221e-06  2.532542e-07 
   2370000   0.474               1850   1.3954122e-19  93349110       3.9676221e-06  2.8518515e-07
   2380000   0.476               1850   1.725136e-19   93349705       3.9676221e-06  3.170935e-07 
   2390000   0.478               1850   2.0895384e-19  93350362       3.9676221e-06  3.4898025e-07
   2400000   0.48                1850   2.4885238e-19  93351081       3.9676221e-06  3.8084353e-07
   2410000   0.482               1850   2.9220294e-19  93351863       3.9676221e-06  4.1268432e-07
   2420000   0.484               1850   3.3899071e-19  93352707       3.9676221e-06  4.4449777e-07
   2430000   0.486               1850   3.8920392e-19  93353612       3.9676221e-06  4.7628214e-07
   2440000   0.488               1850   4.4283222e-19  93354579       3.9676221e-06  5.0803695e-07
   2450000   0.49                1850   4.9986449e-19  93355608       3.9676221e-06  5.3976142e-07
   2460000   0.492               1850   5.6028757e-19  93356697       3.9676221e-06  5.7145389e-07
   2470000   0.494               1850   6.2409239e-19  93357848       3.9676221e-06  6.0311502e-07
   2480000   0.496               1850   6.9125712e-19  93359059       3.9676221e-06  6.3473948e-07
   2490000   0.498               1850   7.6177117e-19  93360331       3.9676221e-06  6.6632785e-07
   2500000   0.5                 1850   8.3562025e-19  93361662       3.9676221e-06  6.9787908e-07
   2510000   0.502               1850   9.1278264e-19  93363054       3.9676221e-06  7.293893e-07 
   2520000   0.504               1850   9.9324553e-19  93364505       3.9676221e-06  7.608587e-07 
   2530000   0.506               1850   1.0769943e-18  93366015       3.9676221e-06  7.9228677e-07
   2540000   0.508               1850   1.1640067e-18  93367584       3.9676221e-06  8.2367037e-07
   2550000   0.51                1850   1.2542674e-18  93369212       3.9676221e-06  8.5500918e-07
   2560000   0.512               1850   1.3477511e-18  93370898       3.9676221e-06  8.8629959e-07
   2570000   0.514               1850   1.4444438e-18  93372641       3.9676221e-06  9.1754217e-07
   2580000   0.516               1850   1.5443234e-18  93374443       3.9676221e-06  9.487348e-07 
   2590000   0.518               1850   1.6473703e-18  93376301       3.9676221e-06  9.7987644e-07
   2600000   0.52                1850   1.7535703e-18  93378216       3.9676221e-06  1.0109678e-06
   2610000   0.522               1850   1.8628842e-18  93380187       3.9676221e-06  1.0420022e-06
   2620000   0.524               1850   1.9753001e-18  93382214       3.9676221e-06  1.0729816e-06
   2630000   0.526               1850   2.0907932e-18  93384297       3.9676221e-06  1.1039039e-06
   2640000   0.528               1850   2.2093353e-18  93386435       3.9676221e-06  1.1347665e-06
   2650000   0.53                1850   2.3309087e-18  93388627       3.9676221e-06  1.1655699e-06
   2660000   0.532               1850   2.4554894e-18  93390874       3.9676221e-06  1.1963128e-06
   2670000   0.534               1850   2.5830558e-18  93393174       3.9676221e-06  1.2269945e-06
   2680000   0.536               1850   2.7135684e-18  93395528       3.9676221e-06  1.2576103e-06
   2690000   0.538               1850   2.8470055e-18  93397934       3.9676221e-06  1.2881602e-06
   2700000   0.54                1850   2.9833396e-18  93400392       3.9676221e-06  1.3186425e-06
   2710000   0.542               1850   3.1225572e-18  93402903       3.9676221e-06  1.3490589e-06
   2720000   0.544               1850   3.2646111e-18  93405464       3.9676221e-06  1.3794039e-06
   2730000   0.546               1850   3.409483e-18   93408077       3.9676221e-06  1.4096782e-06
   2740000   0.548               1850   3.5571403e-18  93410739       3.9676221e-06  1.4398797e-06
   2750000   0.55                1850   3.7075464e-18  93413452       3.9676221e-06  1.4700057e-06
   2760000   0.552               1850   3.8606808e-18  93416213       3.9676221e-06  1.5000566e-06
   2770000   0.554               1850   4.01651e-18    93419023       3.9676221e-06  1.5300307e-06
   2780000   0.556               1850   4.1750154e-18  93421881       3.9676221e-06  1.5599287e-06
   2790000   0.558               1850   4.3361463e-18  93424787       3.9676221e-06  1.5897458e-06
   2800000   0.56                1850   4.4998629e-18  93427739       3.9676221e-06  1.6194791e-06
   2810000   0.562               1850   4.6661485e-18  93430738       3.9676221e-06  1.6491304e-06
   2820000   0.564               1850   4.8349686e-18  93433783       3.9676221e-06  1.6786979e-06
   2830000   0.566               1850   5.0062917e-18  93436872       3.9676221e-06  1.7081806e-06
   2840000   0.568               1850   5.1800814e-18  93440006       3.9676221e-06  1.7375768e-06
   2850000   0.57                1850   5.3563095e-18  93443184       3.9676221e-06  1.7668861e-06
   2860000   0.572               1850   5.5349401e-18  93446405       3.9676221e-06  1.7961069e-06
   2870000   0.574               1850   5.7159217e-18  93449669       3.9676221e-06  1.8252352e-06
   2880000   0.576               1850   5.8992267e-18  93452974       3.9676221e-06  1.8542712e-06
   2890000   0.578               1850   6.0848225e-18  93456321       3.9676221e-06  1.883214e-06 
   2900000   0.58                1850   6.2726778e-18  93459709       3.9676221e-06  1.912063e-06 
   2910000   0.582               1850   6.4627583e-18  93463136       3.9676221e-06  1.9408174e-06
   2920000   0.584               1850   6.6550051e-18  93466603       3.9676221e-06  1.9694724e-06
   2930000   0.586               1850   6.8493855e-18  93470108       3.9676221e-06  1.9980277e-06
   2940000   0.588               1850   7.0458752e-18  93473652       3.9676221e-06  2.026484e-06 
   2950000   0.59                1850   7.2444242e-18  93477232       3.9676221e-06  2.0548383e-06
   2960000   0.592               1850   7.4449963e-18  93480849       3.9676221e-06  2.0830896e-06
   2970000   0.594               1850   7.6475538e-18  93484502       3.9676221e-06  2.111237e-06 
   2980000   0.596               1850   7.8520709e-18  93488190       3.9676221e-06  2.1392809e-06
   2990000   0.598               1850   8.0585169e-18  93491912       3.9676221e-06  2.1672214e-06
   3000000   0.6                 1850   8.2668084e-18  93495668       3.9676221e-06  2.1950512e-06
   3010000   0.602               1850   8.476912e-18   93499457       3.9676221e-06  2.2227701e-06
   3020000   0.604               1850   8.6887959e-18  93503278       3.9676221e-06  2.2503782e-06
   3030000   0.606               1850   8.902422e-18   93507130       3.9676221e-06  2.2778745e-06
   3040000   0.608               1850   9.1177679e-18  93511013       3.9676221e-06  2.3052603e-06
   3050000   0.61                1850   9.3347562e-18  93514926       3.9676221e-06  2.3325298e-06
   3060000   0.612               1850   9.5533578e-18  93518868       3.9676221e-06  2.3596834e-06
   3070000   0.614               1850   9.7735281e-18  93522839       3.9676221e-06  2.3867196e-06
   3080000   0.616               1850   9.995228e-18   93526837       3.9676221e-06  2.4136376e-06
   3090000   0.618               1850   1.0218414e-17  93530862       3.9676221e-06  2.4404362e-06
   3100000   0.62                1850   1.0443044e-17  93534913       3.9676221e-06  2.4671143e-06
   3110000   0.622               1850   1.0669084e-17  93538989       3.9676221e-06  2.4936717e-06
   3120000   0.624               1850   1.0896496e-17  93543090       3.9676221e-06  2.520108e-06 
   3130000   0.626               1850   1.1125232e-17  93547214       3.9676221e-06  2.5464213e-06
   3140000   0.628               1850   1.1355214e-17  93551361       3.9676221e-06  2.5726065e-06
   3150000   0.63                1850   1.1586416e-17  93555531       3.9676221e-06  2.5986648e-06
   3160000   0.632               1850   1.1818815e-17  93559721       3.9676221e-06  2.6245973e-06
   3170000   0.634               1850   1.2052338e-17  93563932       3.9676221e-06  2.6503996e-06
   3180000   0.636               1850   1.2286938e-17  93568163       3.9676221e-06  2.6760705e-06
   3190000   0.638               1850   1.2522583e-17  93572412       3.9676221e-06  2.7016102e-06
   3200000   0.64                1850   1.2759223e-17  93576680       3.9676221e-06  2.7270169e-06
   3210000   0.642               1850   1.2996814e-17  93580964       3.9676221e-06  2.7522899e-06
   3220000   0.644               1850   1.3235314e-17  93585265       3.9676221e-06  2.7774282e-06
   3230000   0.646               1850   1.3474675e-17  93589582       3.9676221e-06  2.8024305e-06
   3240000   0.648               1850   1.3714857e-17  93593913       3.9676221e-06  2.8272965e-06
   3250000   0.65                1850   1.3955808e-17  93598258       3.9676221e-06  2.8520242e-06
   3260000   0.652               1850   1.4197469e-17  93602616       3.9676221e-06  2.8766113e-06
   3270000   0.654               1850   1.4439833e-17  93606986       3.9676221e-06  2.9010606e-06
   3280000   0.656               1850   1.4682804e-17  93611367       3.9676221e-06  2.925366e-06 
   3290000   0.658               1850   1.4926361e-17  93615759       3.9676221e-06  2.9495291e-06
   3300000   0.66                1850   1.5170446e-17  93620161       3.9676221e-06  2.9735475e-06
   3310000   0.662               1850   1.5415011e-17  93624571       3.9676221e-06  2.9974202e-06
   3320000   0.664               1850   1.5660028e-17  93628990       3.9676221e-06  3.0211479e-06
   3330000   0.666               1850   1.5905439e-17  93633415       3.9676221e-06  3.0447283e-06
   3340000   0.668               1850   1.6151198e-17  93637847       3.9676221e-06  3.0681606e-06
   3350000   0.67                1850   1.6397254e-17  93642284       3.9676221e-06  3.0914432e-06
   3360000   0.672               1850   1.6643553e-17  93646725       3.9676221e-06  3.1145746e-06
   3370000   0.674               1850   1.6890066e-17  93651171       3.9676221e-06  3.1375552e-06
   3380000   0.676               1850   1.7136729e-17  93655619       3.9676221e-06  3.1603827e-06
   3390000   0.678               1850   1.73835e-17    93660069       3.9676221e-06  3.1830564e-06
   3400000   0.68                1850   1.7630333e-17  93664520       3.9676221e-06  3.2055752e-06
   3410000   0.682               1850   1.7877179e-17  93668972       3.9676221e-06  3.2279382e-06
   3420000   0.684               1850   1.8123994e-17  93673423       3.9676221e-06  3.2501445e-06
   3430000   0.686               1850   1.8370732e-17  93677872       3.9676221e-06  3.2721933e-06
   3440000   0.688               1850   1.8617349e-17  93682319       3.9676221e-06  3.2940837e-06
   3450000   0.69                1850   1.8863797e-17  93686764       3.9676221e-06  3.3158149e-06
   3460000   0.692               1850   1.9110033e-17  93691204       3.9676221e-06  3.337386e-06 
   3470000   0.694               1850   1.9355992e-17  93695639       3.9676221e-06  3.3587945e-06
   3480000   0.696               1850   1.9601633e-17  93700069       3.9676221e-06  3.38004e-06  
   3490000   0.698               1850   1.9846923e-17  93704492       3.9676221e-06  3.4011227e-06
   3500000   0.7                 1850   2.0091796e-17  93708908       3.9676221e-06  3.4220401e-06
   3510000   0.702               1850   2.033624e-17   93713316       3.9676221e-06  3.4427941e-06
   3520000   0.704               1850   2.0580184e-17  93717714       3.9676221e-06  3.4633815e-06
   3530000   0.706               1850   2.0823558e-17  93722103       3.9676221e-06  3.4837997e-06
   3540000   0.708               1850   2.1066328e-17  93726481       3.9676221e-06  3.5040487e-06
   3550000   0.71                1850   2.1308469e-17  93730848       3.9676221e-06  3.5241293e-06
   3560000   0.712               1850   2.154991e-17   93735202       3.9676221e-06  3.5440386e-06
   3570000   0.714               1850   2.1790631e-17  93739543       3.9676221e-06  3.5637778e-06
   3580000   0.716               1850   2.2030584e-17  93743869       3.9676221e-06  3.5833458e-06
   3590000   0.718               1850   2.2269719e-17  93748182       3.9676221e-06  3.6027413e-06
   3600000   0.72                1850   2.2508006e-17  93752478       3.9676221e-06  3.6219648e-06
   3610000   0.722               1850   2.2745346e-17  93756758       3.9676221e-06  3.641011e-06 
   3620000   0.724               1850   2.2981727e-17  93761020       3.9676221e-06  3.6598816e-06
   3630000   0.726               1850   2.3217096e-17  93765265       3.9676221e-06  3.6785754e-06
   3640000   0.728               1850   2.3451426e-17  93769491       3.9676221e-06  3.6970927e-06
   3650000   0.73                1850   2.3684655e-17  93773696       3.9676221e-06  3.7154314e-06
   3660000   0.732               1850   2.3916748e-17  93777882       3.9676221e-06  3.7335913e-06
   3670000   0.734               1850   2.4147657e-17  93782046       3.9676221e-06  3.7515714e-06
   3680000   0.736               1850   2.4377351e-17  93786188       3.9676221e-06  3.7693717e-06
   3690000   0.738               1850   2.4605769e-17  93790307       3.9676221e-06  3.7869902e-06
   3700000   0.74                1850   2.4832869e-17  93794402       3.9676221e-06  3.8044261e-06
   3710000   0.742               1850   2.5058629e-17  93798474       3.9676221e-06  3.8216804e-06
   3720000   0.744               1850   2.5282991e-17  93802519       3.9676221e-06  3.838751e-06 
   3730000   0.746               1850   2.5505908e-17  93806539       3.9676221e-06  3.8556367e-06
   3740000   0.748               1850   2.5727335e-17  93810532       3.9676221e-06  3.8723367e-06
   3750000   0.75                1850   2.594724e-17   93814498       3.9676221e-06  3.8888509e-06
   3760000   0.752               1850   2.6165579e-17  93818435       3.9676221e-06  3.9051785e-06
   3770000   0.754               1850   2.6382312e-17  93822344       3.9676221e-06  3.9213187e-06
   3780000   0.756               1850   2.65974e-17    93826223       3.9676221e-06  3.937271e-06 
   3790000   0.758               1850   2.6810803e-17  93830071       3.9676221e-06  3.9530347e-06
   3800000   0.76                1850   2.7022476e-17  93833888       3.9676221e-06  3.9686087e-06
   3810000   0.762               1850   2.7232405e-17  93837674       3.9676221e-06  3.9839943e-06
   3820000   0.764               1850   2.7440522e-17  93841426       3.9676221e-06  3.9991887e-06
   3830000   0.766               1850   2.7646787e-17  93845146       3.9676221e-06  4.0141911e-06
   3840000   0.768               1850   2.7851168e-17  93848831       3.9676221e-06  4.0290014e-06
   3850000   0.77                1850   2.8053639e-17  93852482       3.9676221e-06  4.0436198e-06
   3860000   0.772               1850   2.8254137e-17  93856097       3.9676221e-06  4.0580439e-06
   3870000   0.774               1850   2.8452617e-17  93859676       3.9676221e-06  4.0722724e-06
   3880000   0.776               1850   2.8649067e-17  93863219       3.9676221e-06  4.0863067e-06
   3890000   0.778               1850   2.8843438e-17  93866724       3.9676221e-06  4.1001451e-06
   3900000   0.78                1850   2.9035697e-17  93870191       3.9676221e-06  4.1137874e-06
   3910000   0.782               1850   2.9225809e-17  93873619       3.9676221e-06  4.1272329e-06
   3920000   0.784               1850   2.9413737e-17  93877008       3.9676221e-06  4.1404812e-06
   3930000   0.786               1850   2.9599445e-17  93880357       3.9676221e-06  4.1535314e-06
   3940000   0.788               1850   2.9782911e-17  93883666       3.9676221e-06  4.1663839e-06
   3950000   0.79                1850   2.9964083e-17  93886933       3.9676221e-06  4.1790369e-06
   3960000   0.792               1850   3.0142944e-17  93890158       3.9676221e-06  4.1914911e-06
   3970000   0.794               1850   3.0319444e-17  93893341       3.9676221e-06  4.2037447e-06
   3980000   0.796               1850   3.0493548e-17  93896481       3.9676221e-06  4.215797e-06 
   3990000   0.798               1850   3.0665262e-17  93899577       3.9676221e-06  4.2276503e-06
   4000000   0.8                 1850   3.0834515e-17  93902629       3.9676221e-06  4.2393012e-06
Loop time of 1050.04 on 1 procs for 4000000 steps with 1850 atoms

100.0% CPU use with 1 MPI tasks x 1 OpenMP threads

MPI task timing breakdown:
Section |  min time  |  avg time  |  max time  |%varavg| %total
---------------------------------------------------------------
Pair    | 809.63     | 809.63     | 809.63     |   0.0 | 77.10
Neigh   | 0.1055     | 0.1055     | 0.1055     |   0.0 |  0.01
Comm    | 0.091049   | 0.091049   | 0.091049   |   0.0 |  0.01
Output  | 0.35528    | 0.35528    | 0.35528    |   0.0 |  0.03
Modify  | 230.4      | 230.4      | 230.4      |   0.0 | 21.94
Other   |            | 9.455      |            |       |  0.90

Nlocal:           1850 ave        1850 max        1850 min
Histogram: 1 0 0 0 0 0 0 0 0 0
Nghost:              0 ave           0 max           0 min
Histogram: 1 0 0 0 0 0 0 0 0 0
Neighs:           7081 ave        7081 max        7081 min
Histogram: 1 0 0 0 0 0 0 0 0 0

Total # of neighbors = 7081
Ave neighs/atom = 3.8275676
Neighbor list builds = 176
Dangerous builds = 0
Generated 0 of 0 mixed pair_coeff terms from geometric mixing rule
Setting up Verlet run ...
  Unit style    : si
  Current step  : 4000000
  Time step     : 2e-07
Per MPI rank memory allocation (min/avg/max) = 13 | 13 | 13 Mbytes
   Step          Time         Atoms        KinEng     c_granularTemp c_solidVolume    c_maxSpeed  
   4000000   0.8                 1850   3.0834515e-17  93902629       3.9676221e-06  4.2393012e-06
Loop time of 2.18e-07 on 1 procs for 0 steps with 1850 atoms

0.0% CPU use with 1 MPI tasks x 1 OpenMP threads

MPI task timing breakdown:
Section |  min time  |  avg time  |  max time  |%varavg| %total
---------------------------------------------------------------
Pair    | 0          | 0          | 0          |   0.0 |  0.00
Neigh   | 0          | 0          | 0          |   0.0 |  0.00
Comm    | 0          | 0          | 0          |   0.0 |  0.00
Output  | 0          | 0          | 0          |   0.0 |  0.00
Modify  | 0          | 0          | 0          |   0.0 |  0.00
Other   |            | 2.18e-07   |            |       |100.00

Nlocal:           1850 ave        1850 max        1850 min
Histogram: 1 0 0 0 0 0 0 0 0 0
Nghost:              0 ave           0 max           0 min
Histogram: 1 0 0 0 0 0 0 0 0 0
Neighs:           7081 ave        7081 max        7081 min
Histogram: 1 0 0 0 0 0 0 0 0 0

Total # of neighbors = 7081
Ave neighs/atom = 3.8275676
Neighbor list builds = 0
Dangerous builds = 0
Generated 0 of 0 mixed pair_coeff terms from geometric mixing rule
Neighbor list info ...
  update: every = 1 steps, delay = 0 steps, check = yes
  max neighbors/atom: 2000, page size: 100000
  master list distance cutoff = 0.00185
  ghost atom cutoff = 0.00185
  binsize = 0.000925, bins = 18 18 76
  3 neighbor lists, perpetual/occasional/extra = 1 2 0
  (1) pair granular, perpetual
      attributes: half, newton off, size, history
      pair build: half/size/bin/atomonly/newtoff
      stencil: full/bin/3d
      bin: standard
  (2) compute property/local, occasional
      attributes: half, newton off, size
      pair build: half/size/bin/atomonly/newtoff
      stencil: full/bin/3d
      bin: standard
  (3) compute pair/local, occasional
      attributes: half, newton off, size
      pair build: half/size/bin/atomonly/newtoff
      stencil: full/bin/3d
      bin: standard
Setting up Verlet run ...
  Unit style    : si
  Current step  : 4000000
  Time step     : 2e-07
Per MPI rank memory allocation (min/avg/max) = 14.26 | 14.26 | 14.26 Mbytes
   Step          Time         Atoms        KinEng     c_granularTemp c_solidVolume    c_maxSpeed  
   4000000   0.8                 1850   3.0834515e-17  93902629       3.9676221e-06  4.2393012e-06
   4000001   0.8000002           1850   3.0834532e-17  93902629       3.9676221e-06  4.2393024e-06
Loop time of 0.00636655 on 1 procs for 1 steps with 1850 atoms

100.0% CPU use with 1 MPI tasks x 1 OpenMP threads

MPI task timing breakdown:
Section |  min time  |  avg time  |  max time  |%varavg| %total
---------------------------------------------------------------
Pair    | 0.00020885 | 0.00020885 | 0.00020885 |   0.0 |  3.28
Neigh   | 0          | 0          | 0          |   0.0 |  0.00
Comm    | 1.09e-07   | 1.09e-07   | 1.09e-07   |   0.0 |  0.00
Output  | 0.0060946  | 0.0060946  | 0.0060946  |   0.0 | 95.73
Modify  | 5.9494e-05 | 5.9494e-05 | 5.9494e-05 |   0.0 |  0.93
Other   |            | 3.524e-06  |            |       |  0.06

Nlocal:           1850 ave        1850 max        1850 min
Histogram: 1 0 0 0 0 0 0 0 0 0
Nghost:              0 ave           0 max           0 min
Histogram: 1 0 0 0 0 0 0 0 0 0
Neighs:           7081 ave        7081 max        7081 min
Histogram: 1 0 0 0 0 0 0 0 0 0

Total # of neighbors = 7081
Ave neighs/atom = 3.8275676
Neighbor list builds = 0
Dangerous builds = 0
System init for write_data ...
Generated 0 of 0 mixed pair_coeff terms from geometric mixing rule
System init for write_restart ...
Generated 0 of 0 mixed pair_coeff terms from geometric mixing rule
seed Ntarget Nfinal dp_m density_kgm3 Dtube_m D_over_dp solidVolume_m3 bedHeight_m bedVolume_m3 packingFraction porosity minParticleBottom_m kineticEnergy_J maxSpeed_ms
27183 1850 1850 0.0016 1600 0.016 10 3.96762208197362e-06 0.0362952686640096 7.2975967612749e-06 0.543688862479772 0.456311137520228 -1.47616839404408e-06 3.08345321864406e-17 4.23930238142598e-06
Packing generation completed: co2_13x_seed_27183
ACCEPT only if Nfinal=Ntarget, the bed is settled, and overlap/geometry checks pass.
For the 20-packing pilot, change only seed_realization.
CO2 diffusion and particle LDF adsorption are added later in the pore-network solver, not here.
Total wall time: 0:22:52
