Authorization required, but no authorization protocol specified

Authorization required, but no authorization protocol specified

Authorization required, but no authorization protocol specified

Authorization required, but no authorization protocol specified

LAMMPS (22 Jul 2025 - Update 5)
OMP_NUM_THREADS environment is not set. Defaulting to 1 thread.
  using 1 OpenMP thread(s) per MPI task
OMP_NUM_THREADS environment is not set. Defaulting to 1 thread.
  using 1 OpenMP thread(s) per MPI task
CO2 sorbent = commercial zeolite 13X (mechanical packing only)
Realization seed = 90709
Target particle count = 1850
Bead diameter [m] = 0.0016
Tube diameter [m] = 0.016
Tube-to-particle diameter ratio = 10
Target solid volume [m^3] = 3.96762208197367e-06
Created orthogonal box = (-0.008 -0.008 0) to (0.008 0.008 0.07)
  1 by 1 by 1 MPI processor grid
Generated 0 of 0 mixed pair_coeff terms from geometric mixing rule
Particle insertion: 303 every 319275 steps, 1850 by step 1915651
Neighbor list info ...
  update: every = 1 steps, delay = 0 steps, check = yes
  max neighbors/atom: 2000, page size: 100000
  master list distance cutoff = 0.00185
  ghost atom cutoff = 0.00185
  binsize = 0.000925, bins = 18 18 76
  1 neighbor lists, perpetual/occasional/extra = 1 0 0
  (1) pair granular, perpetual
      attributes: half, newton off, size, history
      pair build: half/size/bin/atomonly/newtoff
      stencil: full/bin/3d
      bin: standard
Setting up Verlet run ...
  Unit style    : si
  Current step  : 0
  Time step     : 2e-07
Per MPI rank memory allocation (min/avg/max) = 7.438 | 7.438 | 7.438 Mbytes
   Step          Time         Atoms        KinEng     c_granularTemp c_solidVolume    c_maxSpeed  
         0   0                      0  -0              0              0             -1e+20        
WARNING: Fewer insertions than requested (src/GRANULAR/fix_pour.cpp:691)
     10000   0.002                226  -0              4.6898479e+15  4.8469329e-07  0.60953567   
     20000   0.004                226  -0              4.6260341e+15  4.8469329e-07  0.59408394   
     30000   0.006                226  -0              4.5729452e+15  4.8469329e-07  0.57950707   
     40000   0.008                226  -0              4.5291915e+15  4.8469329e-07  0.56575552   
     50000   0.01                 226  -0              4.4935481e+15  4.8469329e-07  0.55278256   
     60000   0.012                226  -0              4.4649359e+15  4.8469329e-07  0.54054411   
     70000   0.014                226  -0              4.4424052e+15  4.8469329e-07  0.52899858   
     80000   0.016                226  -0              4.4251208e+15  4.8469329e-07  0.51810674   
     90000   0.018                226  -0              4.4123488e+15  4.8469329e-07  0.50783158   
    100000   0.02                 226  -0              4.4034448e+15  4.8469329e-07  0.49813819   
    110000   0.022                226  -0              4.3978439e+15  4.8469329e-07  0.48899362   
    120000   0.024                226  -0              4.395051e+15   4.8469329e-07  0.48036679   
    130000   0.026                226  -0              4.3946331e+15  4.8469329e-07  0.47222841   
    140000   0.028                226  -0              4.3962117e+15  4.8469329e-07  0.46455081   
    150000   0.03                 226  -0              4.3994568e+15  4.8469329e-07  0.4573079    
    160000   0.032                226  -0              4.4040808e+15  4.8469329e-07  0.45047508   
    170000   0.034                226  -0              4.4098338e+15  4.8469329e-07  0.44402912   
    180000   0.036                226  -0              4.4164986e+15  4.8469329e-07  0.43794812   
    190000   0.038                226  -0              4.4238876e+15  4.8469329e-07  0.43221141   
    200000   0.04                 226  -0              4.4318386e+15  4.8469329e-07  0.42679951   
    210000   0.042                226  -0              4.4402118e+15  4.8469329e-07  0.42169402   
    220000   0.044                226  -0              4.4488874e+15  4.8469329e-07  0.4168776    
    230000   0.046                226  -0              4.4577628e+15  4.8469329e-07  0.41233388   
    240000   0.048                226  -0              4.4667507e+15  4.8469329e-07  0.40804741   
    250000   0.05                 226  -0              4.4757769e+15  4.8469329e-07  0.40400364   
    260000   0.052                226  -0              4.4847793e+15  4.8469329e-07  0.40018882   
    270000   0.054                226  -0              4.4937054e+15  4.8469329e-07  0.39658999   
    280000   0.056                226  -0              4.5025119e+15  4.8469329e-07  0.39319491   
    290000   0.058                226  -0              4.5111632e+15  4.8469329e-07  0.38999207   
    300000   0.06                 226  -0              4.5196302e+15  4.8469329e-07  0.38697056   
    310000   0.062                226  -0              4.5278897e+15  4.8469329e-07  0.38412013   
WARNING: Fewer insertions than requested (src/GRANULAR/fix_pour.cpp:691)
    320000   0.064                434  -0              4.8366097e+15  9.3078269e-07  0.62325821   
    330000   0.066                434  -0              4.7564184e+15  9.3078269e-07  0.60702954   
    340000   0.068                434  -0              4.7059622e+15  9.3078269e-07  0.58962596   
    350000   0.07                 434  -0              4.6656202e+15  9.3078269e-07  0.53880151   
    360000   0.072                434  -0              4.6411367e+15  9.3078269e-07  0.52735464   
    370000   0.074                434  -0              4.6203727e+15  9.3078269e-07  0.49477873   
    380000   0.076                434  -0              4.6052219e+15  9.3078269e-07  0.4857814    
    390000   0.078                434  -0              4.5910567e+15  9.3078269e-07  0.47123787   
    400000   0.08                 434  -0              4.5814752e+15  9.3078269e-07  0.44983814   
    410000   0.082                434  -0              4.5763098e+15  9.3078269e-07  0.43702586   
    420000   0.084                434  -0              4.5605532e+15  9.3078269e-07  0.43128699   
    430000   0.086                434  -0              4.4862286e+15  9.3078269e-07  0.42469533   
    440000   0.088                434  -0              4.4657928e+15  9.3078269e-07  0.41557042   
    450000   0.09                 434  -0              4.4615585e+15  9.3078269e-07  0.41105255   
    460000   0.092                434  -0              4.4144331e+15  9.3078269e-07  0.40676245   
    470000   0.094                434  -0              4.4040951e+15  9.3078269e-07  0.40273723   
    480000   0.096                434  -0              4.3757638e+15  9.3078269e-07  0.39894493   
    490000   0.098                434  -0              4.3625702e+15  9.3078269e-07  0.39537195   
    500000   0.1                  434  -0              4.3202783e+15  9.3078269e-07  0.39200548   
    510000   0.102                434  -0              4.2789872e+15  9.3078269e-07  0.38883345   
    520000   0.104                434  -0              4.2702863e+15  9.3078269e-07  0.38584452   
    530000   0.106                434  -0              4.2368661e+15  9.3078269e-07  0.383028     
    540000   0.108                434  -0              4.2311944e+15  9.3078269e-07  0.38037386   
    550000   0.11                 434  -0              4.2057389e+15  9.3078269e-07  0.37787263   
    560000   0.112                434  -0              4.1875871e+15  9.3078269e-07  0.37551541   
    570000   0.114                434  -0              4.1563842e+15  9.3078269e-07  0.37329382   
    580000   0.116                434  -0              4.150073e+15   9.3078269e-07  0.37119998   
    590000   0.118                434  -0              4.1516078e+15  9.3078269e-07  0.36922648   
    600000   0.12                 434  -0              4.1450831e+15  9.3078269e-07  0.36736632   
    610000   0.122                434  -0              4.11045e+15    9.3078269e-07  0.36561293   
    620000   0.124                434  -0              4.0893776e+15  9.3078269e-07  0.36396013   
    630000   0.126                434  -0              4.0643292e+15  9.3078269e-07  0.3624021    
WARNING: Fewer insertions than requested (src/GRANULAR/fix_pour.cpp:691)
    640000   0.128                668  -0              4.5843475e+15  1.4326333e-06  0.62215274   
    650000   0.13                 668  -0              4.5254044e+15  1.4326333e-06  0.60598666   
    660000   0.132                668  -0              4.4574918e+15  1.4326333e-06  0.58985303   
    670000   0.134                668  -0              4.4190809e+15  1.4326333e-06  0.57551571   
    680000   0.136                668  -0              4.3586211e+15  1.4326333e-06  0.56199014   
    690000   0.138                668  -0              4.3226383e+15  1.4326333e-06  0.54923037   
    700000   0.14                 668  -0              4.2726389e+15  1.4326333e-06  0.53719304   
    710000   0.142                668  -0              4.2318444e+15  1.4326333e-06  0.52583725   
    720000   0.144                668  -0              4.195633e+15   1.4326333e-06  0.5151244    
    730000   0.146                668  -0              4.1628823e+15  1.4326333e-06  0.50501809   
    740000   0.148                668  -0              4.1210352e+15  1.4326333e-06  0.49548399   
    750000   0.15                 668  -0              4.0874214e+15  1.4326333e-06  0.4864897    
    760000   0.152                668  -0              4.0139688e+15  1.4326333e-06  0.47800464   
    770000   0.154                668  -0              3.9404236e+15  1.4326333e-06  0.44731824   
    780000   0.156                668  -0              3.8662935e+15  1.4326333e-06  0.44102201   
    790000   0.158                668  -0              3.7840696e+15  1.4326333e-06  0.43508473   
    800000   0.16                 668  -0              3.7148041e+15  1.4326333e-06  0.4294859    
    810000   0.162                668  -0              3.6407538e+15  1.4326333e-06  0.42420618   
    820000   0.164                668  -0              3.5377684e+15  1.4326333e-06  0.41922735   
    830000   0.166                668  -0              3.4540553e+15  1.4326333e-06  0.41453221   
    840000   0.168                668  -0              3.3683642e+15  1.4326333e-06  0.41010456   
    850000   0.17                 668  -0              3.3010281e+15  1.4326333e-06  0.40592912   
    860000   0.172                668  -0              3.2269959e+15  1.4326333e-06  0.39746647   
    870000   0.174                668  -0              3.152219e+15   1.4326333e-06  0.39401151   
    880000   0.176                668  -0              3.0546862e+15  1.4326333e-06  0.39075315   
    890000   0.178                668  -0              2.9615848e+15  1.4326333e-06  0.38142373   
    900000   0.18                 668  -0              2.8881175e+15  1.4326333e-06  0.37888478   
    910000   0.182                668  -0              2.8176921e+15  1.4326333e-06  0.37648984   
    920000   0.184                668  -0              2.7411158e+15  1.4326333e-06  0.37423073   
    930000   0.186                668  -0              2.6563592e+15  1.4326333e-06  0.37209973   
    940000   0.188                668  -0              2.5989971e+15  1.4326333e-06  0.37008957   
    950000   0.19                 668  -0              2.5619709e+15  1.4326333e-06  0.36819339   
WARNING: Fewer insertions than requested (src/GRANULAR/fix_pour.cpp:691)
    960000   0.192                907  -0              3.290915e+15   1.9452072e-06  0.61965209   
    970000   0.194                907  -0              3.21384e+15    1.9452072e-06  0.60362759   
    980000   0.196                907  -0              3.1353537e+15  1.9452072e-06  0.58851037   
    990000   0.198                907  -0              3.0751815e+15  1.9452072e-06  0.57424907   
   1000000   0.2                  907  -0              3.0324667e+15  1.9452072e-06  0.55729289   
   1010000   0.202                907  -0              2.9793248e+15  1.9452072e-06  0.54479907   
   1020000   0.204                907  -0              2.9226564e+15  1.9452072e-06  0.50034493   
   1030000   0.206                907  -0              2.8776057e+15  1.9452072e-06  0.49107541   
   1040000   0.208                907  -0              2.7962733e+15  1.9452072e-06  0.46823267   
   1050000   0.21                 907  -0              2.7469129e+15  1.9452072e-06  0.45875203   
   1060000   0.212                907  -0              2.6980779e+15  1.9452072e-06  0.45183744   
   1070000   0.214                907  -0              2.6209132e+15  1.9452072e-06  0.44531435   
   1080000   0.216                907  -0              2.5530588e+15  1.9452072e-06  0.43916058   
   1090000   0.218                907  -0              2.4969022e+15  1.9452072e-06  0.43335523   
   1100000   0.22                 907  -0              2.4516968e+15  1.9452072e-06  0.42787857   
   1110000   0.222                907  -0              2.4115079e+15  1.9452072e-06  0.42271198   
   1120000   0.224                907  -0              2.3770766e+15  1.9452072e-06  0.40712723   
   1130000   0.226                907  -0              2.3379052e+15  1.9452072e-06  0.4031298    
   1140000   0.228                907  -0              2.2858094e+15  1.9452072e-06  0.39935922   
   1150000   0.23                 907  -0              2.2310901e+15  1.9452072e-06  0.39580263   
   1160000   0.232                907  -0              2.1762622e+15  1.9452072e-06  0.39244784   
   1170000   0.234                907  -0              2.1177581e+15  1.9452072e-06  0.38928341   
   1180000   0.236                907  -0              2.0446906e+15  1.9452072e-06  0.38629852   
   1190000   0.238                907  -0              1.9950727e+15  1.9452072e-06  0.38348296   
   1200000   0.24                 907  -0              1.9636421e+15  1.9452072e-06  0.38082712   
   1210000   0.242                907  -0              1.9259171e+15  1.9452072e-06  0.37832194   
   1220000   0.244                907  -0              1.9024904e+15  1.9452072e-06  0.37595885   
   1230000   0.246                907  -0              1.8886396e+15  1.9452072e-06  0.37372978   
   1240000   0.248                907  -0              1.8788621e+15  1.9452072e-06  0.37162713   
   1250000   0.25                 907  -0              1.8689652e+15  1.9452072e-06  0.36964372   
   1260000   0.252                907  -0              1.8521701e+15  1.9452072e-06  0.36479763   
   1270000   0.254                907  -0              1.8067488e+15  1.9452072e-06  0.36251577   
WARNING: Fewer insertions than requested (src/GRANULAR/fix_pour.cpp:691)
   1280000   0.256               1166  -0              2.6099089e+15  2.5006742e-06  0.62008936   
   1290000   0.258               1166  -0              2.541449e+15   2.5006742e-06  0.6040401    
   1300000   0.26                1166  -0              2.4702125e+15  2.5006742e-06  0.58889953   
   1310000   0.262               1166  -0              2.3880671e+15  2.5006742e-06  0.57461619   
   1320000   0.264               1166  -0              2.3439615e+15  2.5006742e-06  0.56114155   
   1330000   0.266               1166  -0              2.2941695e+15  2.5006742e-06  0.54691615   
   1340000   0.268               1166  -0              2.2294225e+15  2.5006742e-06  0.53500985   
   1350000   0.27                1166  -0              2.1688718e+15  2.5006742e-06  0.52377766   
   1360000   0.272               1166  -0              2.1166726e+15  2.5006742e-06  0.51318142   
   1370000   0.274               1166  -0              2.0512284e+15  2.5006742e-06  0.50318513   
   1380000   0.276               1166  -0              1.9916104e+15  2.5006742e-06  0.45264978   
   1390000   0.278               1166  -0              1.94391e+15    2.5006742e-06  0.44606102   
   1400000   0.28                1166  -0              1.86438e+15    2.5006742e-06  0.42371766   
   1410000   0.282               1166  -0              1.8072235e+15  2.5006742e-06  0.41748216   
   1420000   0.284               1166  -0              1.7445243e+15  2.5006742e-06  0.41287061   
   1430000   0.286               1166  -0              1.6942298e+15  2.5006742e-06  0.4085232    
   1440000   0.288               1166  -0              1.6390766e+15  2.5006742e-06  0.40442473   
   1450000   0.29                1166  -0              1.6001604e+15  2.5006742e-06  0.40056087   
   1460000   0.292               1166  -0              1.5747961e+15  2.5006742e-06  0.39891231   
   1470000   0.294               1166  -0              1.5604408e+15  2.5006742e-06  0.39537756   
   1480000   0.296               1166  -0              1.5504932e+15  2.5006742e-06  0.39204372   
   1490000   0.298               1166  -0              1.5267132e+15  2.5006742e-06  0.38889934   
   1500000   0.3                 1166  -0              1.5126179e+15  2.5006742e-06  0.38593364   
   1510000   0.302               1166  -0              1.4976883e+15  2.5006742e-06  0.38313643   
   1520000   0.304               1166  -0              1.4799884e+15  2.5006742e-06  0.38049813   
   1530000   0.306               1166  -0              1.4495026e+15  2.5006742e-06  0.3780097    
   1540000   0.308               1166  -0              1.3954148e+15  2.5006742e-06  0.37566259   
   1550000   0.31                1166  -0              1.3208036e+15  2.5006742e-06  0.37344877   
   1560000   0.312               1166  -0              1.2533424e+15  2.5006742e-06  0.36707412   
   1570000   0.314               1166  -0              1.21723e+15    2.5006742e-06  0.36534799   
   1580000   0.316               1166  -0              1.1604527e+15  2.5006742e-06  0.36287267   
   1590000   0.318               1166  -0              1.1059356e+15  2.5006742e-06  0.36085235   
WARNING: Fewer insertions than requested (src/GRANULAR/fix_pour.cpp:691)
   1600000   0.32                1380  -0              1.7382489e+15  2.9596316e-06  0.6190617    
   1610000   0.322               1380  -0              1.6723057e+15  2.9596316e-06  0.60307063   
   1620000   0.324               1380  -0              1.6064546e+15  2.9596316e-06  0.58798495   
   1630000   0.326               1380  -0              1.538006e+15   2.9596316e-06  0.57375339   
   1640000   0.328               1380  -0              1.4905555e+15  2.9596316e-06  0.56032761   
   1650000   0.33                1380  -0              1.4544245e+15  2.9596316e-06  0.54766197   
   1660000   0.332               1380  -0              1.4022321e+15  2.9596316e-06  0.53571344   
   1670000   0.334               1380  -0              1.3660444e+15  2.9596316e-06  0.52444141   
   1680000   0.336               1380  -0              1.3233552e+15  2.9596316e-06  0.51380759   
   1690000   0.338               1380  -0              1.2941452e+15  2.9596316e-06  0.50377585   
   1700000   0.34                1380  -0              1.255072e+15   2.9596316e-06  0.4933459    
   1710000   0.342               1380  -0              1.2255537e+15  2.9596316e-06  0.48447266   
   1720000   0.344               1380  -0              1.2072534e+15  2.9596316e-06  0.47610181   
   1730000   0.346               1380  -0              1.193147e+15   2.9596316e-06  0.43448772   
   1740000   0.348               1380  -0              1.1773916e+15  2.9596316e-06  0.42889475   
   1750000   0.35                1380  -0              1.152067e+15   2.9596316e-06  0.423623     
   1760000   0.352               1380  -0              1.1277188e+15  2.9596316e-06  0.41865394   
   1770000   0.354               1380  -0              1.0995899e+15  2.9596316e-06  0.40404558   
   1780000   0.356               1380  -0              1.0761876e+15  2.9596316e-06  0.40022046   
   1790000   0.358               1380  -0              1.0407333e+15  2.9596316e-06  0.38385561   
   1800000   0.36                1380  -0              9.987472e+14   2.9596316e-06  0.37702983   
   1810000   0.362               1380  -0              9.6839028e+14  2.9596316e-06  0.37437708   
   1820000   0.364               1380  -0              9.3855599e+14  2.9596316e-06  0.37223482   
   1830000   0.366               1380  -0              8.8216934e+14  2.9596316e-06  0.36997398   
   1840000   0.368               1380  -0              8.2612661e+14  2.9596316e-06  0.36808535   
   1850000   0.37                1380  -0              7.9772207e+14  2.9596316e-06  0.3663037    
   1860000   0.372               1380  -0              7.4060795e+14  2.9596316e-06  0.36462297   
   1870000   0.374               1380  -0              6.9722955e+14  2.9596316e-06  0.36303745   
   1880000   0.376               1380  -0              6.5362546e+14  2.9596316e-06  0.36154173   
   1890000   0.378               1380  -0              6.1193038e+14  2.9596316e-06  0.35417843   
   1900000   0.38                1380  -0              5.7134373e+14  2.9596316e-06  0.35318463   
   1910000   0.382               1380  -0              5.3716728e+14  2.9596316e-06  0.35224711   
WARNING: Fewer insertions than requested (src/GRANULAR/fix_pour.cpp:691)
   1920000   0.384               1589  -0              1.1731244e+15  3.4078657e-06  0.61902325   
   1930000   0.386               1589  -0              1.1329165e+15  3.4078657e-06  0.60167479   
   1940000   0.388               1589  -0              1.0904412e+15  3.4078657e-06  0.58666814   
   1950000   0.39                1589  -0              1.0562166e+15  3.4078657e-06  0.56904493   
   1960000   0.392               1589  -0              1.031308e+15   3.4078657e-06  0.55588573   
   1970000   0.394               1589  -0              1.0174334e+15  3.4078657e-06  0.54347158   
   1980000   0.396               1589  -0              9.923046e+14   3.4078657e-06  0.5317603    
   1990000   0.398               1589  -0              9.8161495e+14  3.4078657e-06  0.51686119   
   2000000   0.4                 1589  -0              9.5944063e+14  3.4078657e-06  0.50665655   
   2010000   0.402               1589  -0              9.4765319e+14  3.4078657e-06  0.49702969   
   2020000   0.404               1589  -0              9.3496689e+14  3.4078657e-06  0.48794788   
   2030000   0.406               1589  -0              9.2348198e+14  3.4078657e-06  0.47938026   
   2040000   0.408               1589  -0              8.9154658e+14  3.4078657e-06  0.47038923   
   2050000   0.41                1589  -0              8.6526679e+14  3.4078657e-06  0.46281576   
   2060000   0.412               1589  -0              8.3118617e+14  3.4078657e-06  0.42877825   
   2070000   0.414               1589  -0              8.0241297e+14  3.4078657e-06  0.42356073   
   2080000   0.416               1589  -0              7.63012e+14    3.4078657e-06  0.41863862   
   2090000   0.418               1589  -0              7.1952747e+14  3.4078657e-06  0.41399519   
   2100000   0.42                1589  -0              6.8223217e+14  3.4078657e-06  0.40961466   
   2110000   0.422               1589  -0              6.4593315e+14  3.4078657e-06  0.37909271   
   2120000   0.424               1589  -0              6.1094118e+14  3.4078657e-06  0.37612578   
   2130000   0.426               1589  -0              5.8101533e+14  3.4078657e-06  0.36928138   
   2140000   0.428               1589  -0              5.538127e+14   3.4078657e-06  0.36698687   
   2150000   0.43                1589  -0              5.266557e+14   3.4078657e-06  0.36526558   
   2160000   0.432               1589  -0              4.9334292e+14  3.4078657e-06  0.36123085   
   2170000   0.434               1589  -0              4.5664713e+14  3.4078657e-06  0.35546359   
   2180000   0.436               1589  -0              4.3009497e+14  3.4078657e-06  0.3535912    
   2190000   0.438               1589  -0              3.9347676e+14  3.4078657e-06  0.34993856   
   2200000   0.44                1589  -0              3.581647e+14   3.4078657e-06  0.34682186   
   2210000   0.442               1589  -0              3.3513011e+14  3.4078657e-06  0.34461464   
   2220000   0.444               1589  -0              3.1696183e+14  3.4078657e-06  0.34191764   
   2230000   0.446               1589  -0              3.1226967e+14  3.4078657e-06  0.34161803   
WARNING: Fewer insertions than requested (src/GRANULAR/fix_pour.cpp:691)
   2240000   0.448               1771  -0              8.0557978e+14  3.7981939e-06  0.61637105   
   2250000   0.45                1771  -0              7.8151295e+14  3.7981939e-06  0.60053232   
   2260000   0.452               1771  -0              7.6257627e+14  3.7981939e-06  0.57978329   
   2270000   0.454               1771  -0              7.4610226e+14  3.7981939e-06  0.55796959   
   2280000   0.456               1771  -0              7.2990163e+14  3.7981939e-06  0.54543746   
   2290000   0.458               1771  -0              7.1713579e+14  3.7981939e-06  0.53361487   
   2300000   0.46                1771  -0              7.0394166e+14  3.7981939e-06  0.52246167   
   2310000   0.462               1771  -0              6.8333598e+14  3.7981939e-06  0.51193994   
   2320000   0.464               1771  -0              6.5630743e+14  3.7981939e-06  0.48593315   
   2330000   0.466               1771  -0              6.2739568e+14  3.7981939e-06  0.47715492   
   2340000   0.468               1771  -0              5.8878774e+14  3.7981939e-06  0.46919839   
   2350000   0.47                1771  -0              5.5133315e+14  3.7981939e-06  0.44118778   
   2360000   0.472               1771  -0              5.2742177e+14  3.7981939e-06  0.43526765   
   2370000   0.474               1771  -0              4.9672693e+14  3.7981939e-06  0.4240707    
   2380000   0.476               1771  -0              4.7319675e+14  3.7981939e-06  0.38590737   
   2390000   0.478               1771  -0              4.59415e+14    3.7981939e-06  0.38310891   
   2400000   0.48                1771  -0              4.4846116e+14  3.7981939e-06  0.38046969   
   2410000   0.482               1771  -0              4.3242965e+14  3.7981939e-06  0.37646751   
   2420000   0.484               1771  -0              4.0597299e+14  3.7981939e-06  0.37322723   
   2430000   0.486               1771  -0              3.872123e+14   3.7981939e-06  0.37115492   
   2440000   0.488               1771  -0              3.6418486e+14  3.7981939e-06  0.36919995   
   2450000   0.49                1771  -0              3.2854071e+14  3.7981939e-06  0.3596028    
   2460000   0.492               1771  -0              2.912819e+14   3.7981939e-06  0.35566285   
   2470000   0.494               1771  -0              2.6755321e+14  3.7981939e-06  0.35458501   
   2480000   0.496               1771  -0              2.5428588e+14  3.7981939e-06  0.348609     
   2490000   0.498               1771  -0              2.4781938e+14  3.7981939e-06  0.34793054   
   2500000   0.5                 1771  -0              2.3746541e+14  3.7981939e-06  0.34043265   
   2510000   0.502               1771  -0              2.3325302e+14  3.7981939e-06  0.34021711   
   2520000   0.504               1771  -0              2.2631518e+14  3.7981939e-06  0.33506131   
   2530000   0.506               1771  -0              2.2792738e+14  3.7981939e-06  0.3345054    
   2540000   0.508               1771  -0              2.2487418e+14  3.7981939e-06  0.33462546   
   2550000   0.51                1771  -0              2.1899785e+14  3.7981939e-06  0.33198955   
   2560000   0.512               1850  -0              3.798353e+14   3.9676221e-06  0.58625306   
   2570000   0.514               1850  -0              3.6981359e+14  3.9676221e-06  0.57211956   
   2580000   0.516               1850  -0              3.6641435e+14  3.9676221e-06  0.55878628   
   2590000   0.518               1850  -0              3.5708895e+14  3.9676221e-06  0.54620791   
   2600000   0.52                1850  -0              3.4692704e+14  3.9676221e-06  0.53434171   
   2610000   0.522               1850  -0              3.4248296e+14  3.9676221e-06  0.52314735   
   2620000   0.524               1850  -0              3.2629927e+14  3.9676221e-06  0.4980509    
   2630000   0.526               1850  -0              3.1288654e+14  3.9676221e-06  0.44075723   
   2640000   0.528               1850  -0              2.9556814e+14  3.9676221e-06  0.43486148   
   2650000   0.53                1850  -0              2.8489416e+14  3.9676221e-06  0.42929954   
   2660000   0.532               1850  -0              2.6560876e+14  3.9676221e-06  0.37969668   
   2670000   0.534               1850  -0              2.5507399e+14  3.9676221e-06  0.37725808   
   2680000   0.536               1850  -0              2.4308608e+14  3.9676221e-06  0.37495755   
   2690000   0.538               1850  -0              2.1744349e+14  3.9676221e-06  0.37278728   
   2700000   0.54                1850  -0              1.986137e+14   3.9676221e-06  0.37073988   
   2710000   0.542               1850  -0              1.8101306e+14  3.9676221e-06  0.3688084    
   2720000   0.544               1850  -0              1.742499e+14   3.9676221e-06  0.36698628   
   2730000   0.546               1850  -0              1.5646057e+14  3.9676221e-06  0.36526732   
   2740000   0.548               1850  -0              1.4195039e+14  3.9676221e-06  0.35889166   
   2750000   0.55                1850  -0              1.2652199e+14  3.9676221e-06  0.34757633   
   2760000   0.552               1850  -0              1.2092525e+14  3.9676221e-06  0.34695633   
   2770000   0.554               1850  -0              1.1788578e+14  3.9676221e-06  0.34637144   
   2780000   0.556               1850  -0              1.1573876e+14  3.9676221e-06  0.34209682   
   2790000   0.558               1850  -0              1.110937e+14   3.9676221e-06  0.33960527   
   2800000   0.56                1850  -0              1.080489e+14   3.9676221e-06  0.33648983   
   2810000   0.562               1850  -0              1.0637774e+14  3.9676221e-06  0.33649754   
   2820000   0.564               1850  -0              1.0171703e+14  3.9676221e-06  0.33360663   
   2830000   0.566               1850  -0              9.5890257e+13  3.9676221e-06  0.33017134   
   2840000   0.568               1850  -0              9.0883261e+13  3.9676221e-06  0.32442578   
   2850000   0.57                1850  -0              8.7824576e+13  3.9676221e-06  0.32511654   
   2860000   0.572               1850  -0              8.6191245e+13  3.9676221e-06  0.32576818   
   2870000   0.574               1850  -0              8.4615415e+13  3.9676221e-06  0.32391716   
   2880000   0.576               1850  -0              8.1759703e+13  3.9676221e-06  0.32400171   
   2890000   0.578               1850  -0              7.4897676e+13  3.9676221e-06  0.32289635   
   2900000   0.58                1850  -0              7.1176627e+13  3.9676221e-06  0.32195325   
   2910000   0.582               1850  -0              6.6145082e+13  3.9676221e-06  0.31639107   
   2920000   0.584               1850  -0              6.489711e+13   3.9676221e-06  0.31595184   
   2930000   0.586               1850  -0              6.0863098e+13  3.9676221e-06  0.31702306   
   2940000   0.588               1850  -0              6.0022875e+13  3.9676221e-06  0.31813295   
   2950000   0.59                1850  -0              5.8869612e+13  3.9676221e-06  0.31699773   
   2960000   0.592               1850  -0              5.8905218e+13  3.9676221e-06  0.31810905   
   2970000   0.594               1850  -0              5.6754797e+13  3.9676221e-06  0.31635039   
   2980000   0.596               1850  -0              5.4607779e+13  3.9676221e-06  0.31749836   
   2990000   0.598               1850  -0              5.1765636e+13  3.9676221e-06  0.3175999    
   3000000   0.6                 1850  -0              4.4191498e+13  3.9676221e-06  0.31701388   
Loop time of 362.836 on 1 procs for 3000000 steps with 1850 atoms

100.0% CPU use with 1 MPI tasks x 1 OpenMP threads

MPI task timing breakdown:
Section |  min time  |  avg time  |  max time  |%varavg| %total
---------------------------------------------------------------
Pair    | 261.38     | 261.38     | 261.38     |   0.0 | 72.04
Neigh   | 0.59715    | 0.59715    | 0.59715    |   0.0 |  0.16
Comm    | 0.065705   | 0.065705   | 0.065705   |   0.0 |  0.02
Output  | 0.14236    | 0.14236    | 0.14236    |   0.0 |  0.04
Modify  | 96.235     | 96.235     | 96.235     |   0.0 | 26.52
Other   |            | 4.417      |            |       |  1.22

Nlocal:           1850 ave        1850 max        1850 min
Histogram: 1 0 0 0 0 0 0 0 0 0
Nghost:              0 ave           0 max           0 min
Histogram: 1 0 0 0 0 0 0 0 0 0
Neighs:           6929 ave        6929 max        6929 min
Histogram: 1 0 0 0 0 0 0 0 0 0

Total # of neighbors = 6929
Ave neighs/atom = 3.7454054
Neighbor list builds = 2085
Dangerous builds = 0
Generated 0 of 0 mixed pair_coeff terms from geometric mixing rule
Setting up Verlet run ...
  Unit style    : si
  Current step  : 0
  Time step     : 2e-07
Per MPI rank memory allocation (min/avg/max) = 14.72 | 14.72 | 14.72 Mbytes
   Step          Time         Atoms        KinEng     c_granularTemp c_solidVolume    c_maxSpeed  
         0   0                   1850   3.2425875e-06  4.3676496e+13  3.9676221e-06  0.31349151   
     10000   0.002               1850   1.8166029e-06  2.4752057e+13  3.9676221e-06  0.25126006   
     20000   0.004               1850   9.7832376e-07  1.3720539e+13  3.9676221e-06  0.20473793   
     30000   0.006               1850   5.8539354e-07  8.4402852e+12  3.9676221e-06  0.16923706   
     40000   0.008               1850   3.3068777e-07  5.0722952e+12  3.9676221e-06  0.1430235    
     50000   0.01                1850   2.4442397e-07  3.8636993e+12  3.9676221e-06  0.12388678   
     60000   0.012               1850   1.7964805e-07  2.9487499e+12  3.9676221e-06  0.10958787   
     70000   0.014               1850   1.2095743e-07  2.1409556e+12  3.9676221e-06  0.098903763  
     80000   0.016               1850   9.4691649e-08  1.6950842e+12  3.9676221e-06  0.090920621  
     90000   0.018               1850   8.0042745e-08  1.4743117e+12  3.9676221e-06  0.084955637  
    100000   0.02                1850   6.6221037e-08  1.3062483e+12  3.9676221e-06  0.080386052  
    110000   0.022               1850   6.5860481e-08  1.3059437e+12  3.9676221e-06  0.077084233  
    120000   0.024               1850   5.0084102e-08  9.9695811e+11  3.9676221e-06  0.074617122  
    130000   0.026               1850   4.3940352e-08  8.4240971e+11  3.9676221e-06  0.072773703  
    140000   0.028               1850   4.4072759e-08  8.2546087e+11  3.9676221e-06  0.071396304  
    150000   0.03                1850   4.0307797e-08  7.5286783e+11  3.9676221e-06  0.070367115  
    160000   0.032               1850   2.525328e-08   5.2379504e+11  3.9676221e-06  0.057061657  
    170000   0.034               1850   2.3743515e-08  4.8708969e+11  3.9676221e-06  0.058604268  
    180000   0.036               1850   1.7278878e-08  3.6334233e+11  3.9676221e-06  0.041719096  
    190000   0.038               1850   1.067647e-08   2.4804262e+11  3.9676221e-06  0.034806115  
    200000   0.04                1850   8.1012603e-09  1.9013244e+11  3.9676221e-06  0.036177961  
    210000   0.042               1850   7.3382625e-09  1.6002701e+11  3.9676221e-06  0.038052638  
    220000   0.044               1850   6.8514351e-09  1.4753318e+11  3.9676221e-06  0.039826177  
    230000   0.046               1850   7.2505804e-09  1.5154026e+11  3.9676221e-06  0.041822184  
    240000   0.048               1850   7.3211035e-09  1.5457105e+11  3.9676221e-06  0.043826495  
    250000   0.05                1850   7.8144546e-09  1.663105e+11   3.9676221e-06  0.045778157  
    260000   0.052               1850   8.5364104e-09  1.7910955e+11  3.9676221e-06  0.047811995  
    270000   0.054               1850   5.6095915e-09  1.3729032e+11  3.9676221e-06  0.028256296  
    280000   0.056               1850   6.2346884e-09  1.5443413e+11  3.9676221e-06  0.030275126  
    290000   0.058               1850   6.5310426e-09  1.6115958e+11  3.9676221e-06  0.03225471   
    300000   0.06                1850   7.4960853e-09  1.8143018e+11  3.9676221e-06  0.034764548  
    310000   0.062               1850   8.3189986e-09  2.0172936e+11  3.9676221e-06  0.037040404  
    320000   0.064               1850   7.1597581e-09  1.7962641e+11  3.9676221e-06  0.035519101  
    330000   0.066               1850   7.9321272e-09  1.9666646e+11  3.9676221e-06  0.037490968  
    340000   0.068               1850   8.0133847e-09  2.0723943e+11  3.9676221e-06  0.039423106  
    350000   0.07                1850   8.8535807e-09  2.281046e+11   3.9676221e-06  0.041561745  
    360000   0.072               1850   8.2519662e-09  2.2799997e+11  3.9676221e-06  0.043617098  
    370000   0.074               1850   6.1351455e-09  1.9946044e+11  3.9676221e-06  0.031011177  
    380000   0.076               1850   6.4406038e-09  2.0594177e+11  3.9676221e-06  0.033103204  
    390000   0.078               1850   6.7456033e-09  2.2135262e+11  3.9676221e-06  0.035230013  
    400000   0.08                1850   5.9433691e-09  1.7227459e+11  3.9676221e-06  0.037454685  
    410000   0.082               1850   4.4263835e-09  1.3784589e+11  3.9676221e-06  0.025043548  
    420000   0.084               1850   4.5380145e-09  1.3033191e+11  3.9676221e-06  0.026198709  
    430000   0.086               1850   5.1509469e-09  1.3446704e+11  3.9676221e-06  0.027691319  
    440000   0.088               1850   5.4632807e-09  1.4319517e+11  3.9676221e-06  0.029333021  
    450000   0.09                1850   4.4818785e-09  1.3079433e+11  3.9676221e-06  0.028021569  
    460000   0.092               1850   4.9992843e-09  1.4404032e+11  3.9676221e-06  0.029937759  
    470000   0.094               1850   4.7056849e-09  1.4558999e+11  3.9676221e-06  0.031812209  
    480000   0.096               1850   4.1922606e-09  1.4323763e+11  3.9676221e-06  0.033935891  
    490000   0.098               1850   4.5575741e-09  1.5699826e+11  3.9676221e-06  0.036203128  
    500000   0.1                 1850   3.3992444e-09  1.1684548e+11  3.9676221e-06  0.027669842  
    510000   0.102               1850   3.6433284e-09  1.158457e+11   3.9676221e-06  0.030352912  
    520000   0.104               1850   3.9781545e-09  1.0078625e+11  3.9676221e-06  0.037604142  
    530000   0.106               1850   4.6640706e-09  1.015854e+11   3.9676221e-06  0.042639609  
    540000   0.108               1850   2.655649e-09   6.2680611e+10  3.9676221e-06  0.024630462  
    550000   0.11                1850   2.3586885e-09  5.437961e+10   3.9676221e-06  0.024255051  
    560000   0.112               1850   2.2568666e-09  5.3084337e+10  3.9676221e-06  0.025825241  
    570000   0.114               1850   2.1948599e-09  5.1343291e+10  3.9676221e-06  0.027514331  
    580000   0.116               1850   2.3050411e-09  5.4075657e+10  3.9676221e-06  0.029299439  
    590000   0.118               1850   2.5332948e-09  5.9395069e+10  3.9676221e-06  0.031166115  
    600000   0.12                1850   2.7551462e-09  6.4630206e+10  3.9676221e-06  0.033130199  
    610000   0.122               1850   3.0871707e-09  7.2409674e+10  3.9676221e-06  0.035166802  
    620000   0.124               1850   3.4508059e-09  8.1045494e+10  3.9676221e-06  0.037275153  
    630000   0.126               1850   2.2916477e-09  5.7813727e+10  3.9676221e-06  0.024516344  
    640000   0.128               1850   1.9111767e-09  5.2581071e+10  3.9676221e-06  0.025027013  
    650000   0.13                1850   1.6978271e-09  5.0859982e+10  3.9676221e-06  0.0267784    
    660000   0.132               1850   1.6099866e-09  5.1428636e+10  3.9676221e-06  0.028711107  
    670000   0.134               1850   1.7691751e-09  5.739259e+10   3.9676221e-06  0.030785379  
    680000   0.136               1850   1.9865178e-09  6.4907043e+10  3.9676221e-06  0.03297573   
    690000   0.138               1850   2.28034e-09    7.3885477e+10  3.9676221e-06  0.035416674  
    700000   0.14                1850   2.6827679e-09  8.3994915e+10  3.9676221e-06  0.038370759  
    710000   0.142               1850   3.1803453e-09  9.4481474e+10  3.9676221e-06  0.041767067  
    720000   0.144               1850   3.7659711e-09  1.0520409e+11  3.9676221e-06  0.045439822  
    730000   0.146               1850   4.2772978e-09  1.1415997e+11  3.9676221e-06  0.048857969  
    740000   0.148               1850   1.5916837e-09  5.1475985e+10  3.9676221e-06  0.028178052  
    750000   0.15                1850   7.5410487e-10  2.1478958e+10  3.9676221e-06  0.015941793  
    760000   0.152               1850   3.3067818e-10  1.1983669e+10  3.9676221e-06  0.010118971  
    770000   0.154               1850   2.2566442e-10  6.8449691e+09  3.9676221e-06  0.008538908  
    780000   0.156               1850   1.7715457e-10  4.1728015e+09  3.9676221e-06  0.009189733  
    790000   0.158               1850   2.0320468e-10  4.7079752e+09  3.9676221e-06  0.0099095741 
    800000   0.16                1850   2.3415318e-10  5.3813928e+09  3.9676221e-06  0.010635762  
    810000   0.162               1850   2.7045935e-10  6.166907e+09   3.9676221e-06  0.011406072  
    820000   0.164               1850   3.1194086e-10  7.0628072e+09  3.9676221e-06  0.012219187  
    830000   0.166               1850   1.3899692e-10  4.3962427e+09  3.9676221e-06  0.0063976051 
    840000   0.168               1850   9.332361e-11   2.8114486e+09  3.9676221e-06  0.0062502872 
    850000   0.17                1850   9.1655178e-11  2.6710147e+09  3.9676221e-06  0.006805927  
    860000   0.172               1850   1.2133052e-10  3.509658e+09   3.9676221e-06  0.0073925139 
    870000   0.174               1850   1.7521487e-10  5.0672342e+09  3.9676221e-06  0.0080411099 
    880000   0.176               1850   1.8678485e-10  4.843146e+09   3.9676221e-06  0.0087543475 
    890000   0.178               1850   1.7682996e-10  4.8890406e+09  3.9676221e-06  0.0095212762 
    900000   0.18                1850   2.2711619e-10  6.0519212e+09  3.9676221e-06  0.010349405  
    910000   0.182               1850   2.5196482e-10  6.8730239e+09  3.9676221e-06  0.011244601  
    920000   0.184               1850   2.9037574e-10  7.852854e+09   3.9676221e-06  0.012219985  
    930000   0.186               1850   2.2769042e-10  4.5190728e+09  3.9676221e-06  0.01050356   
    940000   0.188               1850   7.7529587e-11  1.8208576e+09  3.9676221e-06  0.0049204529 
    950000   0.19                1850   4.8507266e-11  1.3065294e+09  3.9676221e-06  0.005267092  
    960000   0.192               1850   8.462422e-11   1.980969e+09   3.9676221e-06  0.0056399743 
    970000   0.194               1850   1.5548776e-10  3.2913784e+09  3.9676221e-06  0.007357655  
    980000   0.196               1850   1.1742594e-10  2.9250321e+09  3.9676221e-06  0.0064681965 
    990000   0.198               1850   8.5728657e-11  2.0876188e+09  3.9676221e-06  0.0069166575 
   1000000   0.2                 1850   9.7639781e-11  2.3280134e+09  3.9676221e-06  0.0074024194 
   1010000   0.202               1850   1.3402366e-10  3.2095162e+09  3.9676221e-06  0.0079239504 
   1020000   0.204               1850   1.2364231e-10  2.8334361e+09  3.9676221e-06  0.0084807424 
   1030000   0.206               1850   1.4944569e-10  3.3833143e+09  3.9676221e-06  0.0090719534 
   1040000   0.208               1850   1.643264e-10   3.6748165e+09  3.9676221e-06  0.0097084941 
   1050000   0.21                1850   1.8615119e-10  4.1039147e+09  3.9676221e-06  0.010389877  
   1060000   0.212               1850   2.1216309e-10  4.6286134e+09  3.9676221e-06  0.011113802  
   1070000   0.214               1850   2.4242595e-10  5.2439852e+09  3.9676221e-06  0.011885245  
   1080000   0.216               1850   2.7719322e-10  5.9493842e+09  3.9676221e-06  0.012709897  
   1090000   0.218               1850   3.1684075e-10  6.7540733e+09  3.9676221e-06  0.013588723  
   1100000   0.22                1850   3.6202357e-10  7.6706749e+09  3.9676221e-06  0.014525485  
   1110000   0.222               1850   4.1344254e-10  8.7137254e+09  3.9676221e-06  0.015522885  
   1120000   0.224               1850   7.7035024e-11  1.7891045e+09  3.9676221e-06  0.0066684466 
   1130000   0.226               1850   3.4995111e-11  1.1204094e+09  3.9676221e-06  0.0044962108 
   1140000   0.228               1850   2.3582698e-11  8.160706e+08   3.9676221e-06  0.0036871352 
   1150000   0.23                1850   1.4670394e-11  6.3099953e+08  3.9676221e-06  0.0029188374 
   1160000   0.232               1850   9.4590915e-12  5.213037e+08   3.9676221e-06  0.002344983  
   1170000   0.234               1850   6.2359099e-12  4.5373801e+08  3.9676221e-06  0.0019038215 
   1180000   0.236               1850   4.2316797e-12  4.1162164e+08  3.9676221e-06  0.0015677079 
   1190000   0.238               1850   2.9753955e-12  3.8508158e+08  3.9676221e-06  0.0013139296 
   1200000   0.24                1850   2.1808408e-12  3.6817963e+08  3.9676221e-06  0.0011243352 
   1210000   0.242               1850   1.675579e-12   3.5731865e+08  3.9676221e-06  0.00098507735
   1220000   0.244               1850   1.3547084e-12  3.5031036e+08  3.9676221e-06  0.00088545686
   1230000   0.246               1850   1.1541758e-12  3.4582163e+08  3.9676221e-06  0.00081718971
   1240000   0.248               1850   1.0349921e-12  3.4304067e+08  3.9676221e-06  0.00077392374
   1250000   0.25                1850   9.7339941e-13  3.4147444e+08  3.9676221e-06  0.00075077147
   1260000   0.252               1850   9.5505765e-13  3.4082619e+08  3.9676221e-06  0.00074399855
   1270000   0.254               1850   9.7150245e-13  3.4092171e+08  3.9676221e-06  0.00075076447
   1280000   0.256               1850   1.0180261e-12  3.4166494e+08  3.9676221e-06  0.00076892765
   1290000   0.258               1850   1.0924002e-12  3.4301132e+08  3.9676221e-06  0.00079689296
   1300000   0.26                1850   1.194114e-12   3.4495188e+08  3.9676221e-06  0.00083349385
   1310000   0.262               1850   1.3239302e-12  3.475039e+08   3.9676221e-06  0.00087790216
   1320000   0.264               1850   1.483635e-12   3.5070567e+08  3.9676221e-06  0.00092955791
   1330000   0.266               1850   1.6759117e-12  3.546139e+08   3.9676221e-06  0.00098811525
   1340000   0.268               1850   1.9042958e-12  3.5930272e+08  3.9676221e-06  0.001053401  
   1350000   0.27                1850   1.5735182e-13  3.2295368e+08  3.9676221e-06  0.00023474653
   1360000   0.272               1850   7.6560006e-15  3.1963533e+08  3.9676221e-06  3.0370525e-05
   1370000   0.274               1850   4.9773364e-15  3.1958823e+08  3.9676221e-06  3.7642385e-05
   1380000   0.276               1850   5.6344179e-16  3.1948834e+08  3.9676221e-06  8.5816411e-06
   1390000   0.278               1850   4.432369e-16   3.1953146e+08  3.9676221e-06  1.251131e-05 
   1400000   0.28                1850   6.5772588e-16  3.1960363e+08  3.9676221e-06  1.7406697e-05
   1410000   0.282               1850   9.771389e-16   3.1969822e+08  3.9676221e-06  2.2222589e-05
   1420000   0.284               1850   1.3678247e-15  3.1981251e+08  3.9676221e-06  2.6883577e-05
   1430000   0.286               1850   1.8187689e-15  3.1994414e+08  3.9676221e-06  3.1403363e-05
   1440000   0.288               1850   2.3212424e-15  3.200907e+08   3.9676221e-06  3.5767008e-05
   1450000   0.29                1850   2.8660327e-15  3.2024961e+08  3.9676221e-06  3.9961093e-05
   1460000   0.292               1850   3.4441481e-15  3.2041825e+08  3.9676221e-06  4.397579e-05 
   1470000   0.294               1850   4.046292e-15   3.2059394e+08  3.9676221e-06  4.7800038e-05
   1480000   0.296               1850   4.6632807e-15  3.2077398e+08  3.9676221e-06  5.1424365e-05
   1490000   0.298               1850   5.2859965e-15  3.209557e+08   3.9676221e-06  5.483998e-05 
   1500000   0.3                 1850   5.9054729e-15  3.2113647e+08  3.9676221e-06  5.8038718e-05
   1510000   0.302               1850   6.5130519e-15  3.2131374e+08  3.9676221e-06  6.1013341e-05
   1520000   0.304               1850   7.100449e-15   3.214851e+08   3.9676221e-06  6.3757351e-05
   1530000   0.306               1850   7.6598595e-15  3.2164825e+08  3.9676221e-06  6.6265073e-05
   1540000   0.308               1850   8.1840418e-15  3.2180106e+08  3.9676221e-06  6.8531653e-05
   1550000   0.31                1850   8.6663913e-15  3.219416e+08   3.9676221e-06  7.0553051e-05
   1560000   0.312               1850   9.101006e-15   3.2206814e+08  3.9676221e-06  7.2326045e-05
   1570000   0.314               1850   9.4827507e-15  3.2217917e+08  3.9676221e-06  7.384826e-05 
   1580000   0.316               1850   9.8072894e-15  3.2227341e+08  3.9676221e-06  7.5118122e-05
   1590000   0.318               1850   1.0071127e-14  3.2234985e+08  3.9676221e-06  7.6134878e-05
   1600000   0.32                1850   1.027163e-14   3.2240772e+08  3.9676221e-06  7.6898589e-05
   1610000   0.322               1850   1.0407034e-14  3.2244648e+08  3.9676221e-06  7.7410102e-05
   1620000   0.324               1850   1.0476448e-14  3.2246589e+08  3.9676221e-06  7.7671057e-05
   1630000   0.326               1850   1.0479841e-14  3.2246593e+08  3.9676221e-06  7.7683858e-05
   1640000   0.328               1850   1.0418016e-14  3.2244684e+08  3.9676221e-06  7.7451659e-05
   1650000   0.33                1850   1.0292589e-14  3.2240909e+08  3.9676221e-06  7.6978354e-05
   1660000   0.332               1850   1.0105937e-14  3.2235338e+08  3.9676221e-06  7.6268536e-05
   1670000   0.334               1850   9.8611537e-15  3.2228062e+08  3.9676221e-06  7.5327491e-05
   1680000   0.336               1850   9.5619926e-15  3.2219191e+08  3.9676221e-06  7.4161166e-05
   1690000   0.338               1850   9.2127997e-15  3.2208852e+08  3.9676221e-06  7.2776133e-05
   1700000   0.34                1850   8.818449e-15   3.2197189e+08  3.9676221e-06  7.117958e-05 
   1710000   0.342               1850   8.3842626e-15  3.2184357e+08  3.9676221e-06  6.9379259e-05
   1720000   0.344               1850   7.9159361e-15  3.2170523e+08  3.9676221e-06  6.7383473e-05
   1730000   0.346               1850   7.419457e-15   3.2155864e+08  3.9676221e-06  6.5201033e-05
   1740000   0.348               1850   6.9010187e-15  3.2140561e+08  3.9676221e-06  6.2841214e-05
   1750000   0.35                1850   6.3669438e-15  3.2124799e+08  3.9676221e-06  6.0313746e-05
   1760000   0.352               1850   5.8235958e-15  3.2108765e+08  3.9676221e-06  5.7628752e-05
   1770000   0.354               1850   5.2773019e-15  3.2092645e+08  3.9676221e-06  5.4796725e-05
   1780000   0.356               1850   4.7342724e-15  3.207662e+08   3.9676221e-06  5.1828484e-05
   1790000   0.358               1850   4.2005275e-15  3.2060868e+08  3.9676221e-06  4.873514e-05 
   1800000   0.36                1850   3.6818254e-15  3.2045558e+08  3.9676221e-06  4.5528052e-05
   1810000   0.362               1850   3.1835975e-15  3.2030847e+08  3.9676221e-06  4.2218794e-05
   1820000   0.364               1850   2.7108887e-15  3.2016886e+08  3.9676221e-06  3.8819107e-05
   1830000   0.366               1850   2.2683049e-15  3.2003808e+08  3.9676221e-06  3.534088e-05 
   1840000   0.368               1850   1.8599642e-15  3.1991735e+08  3.9676221e-06  3.1796082e-05
   1850000   0.37                1850   1.4894595e-15  3.1980772e+08  3.9676221e-06  2.8196742e-05
   1860000   0.372               1850   1.1598261e-15  3.1971008e+08  3.9676221e-06  2.4554904e-05
   1870000   0.374               1850   8.7351895e-16  3.1962514e+08  3.9676221e-06  2.0882594e-05
   1880000   0.376               1850   6.323961e-16   3.1955347e+08  3.9676221e-06  1.7191786e-05
   1890000   0.378               1850   4.3770944e-16  3.1949541e+08  3.9676221e-06  1.3494341e-05
   1900000   0.38                1850   2.9010618e-16  3.1945117e+08  3.9676221e-06  9.8019998e-06
   1910000   0.382               1850   1.8963543e-16  3.1942075e+08  3.9676221e-06  8.5437407e-06
   1920000   0.384               1850   1.3576252e-16  3.19404e+08    3.9676221e-06  8.5430706e-06
   1930000   0.386               1850   1.2739113e-16  3.194006e+08   3.9676221e-06  8.5424e-06   
   1940000   0.388               1850   1.6289081e-16  3.1941007e+08  3.9676221e-06  8.5417299e-06
   1950000   0.39                1850   2.4013132e-16  3.1943179e+08  3.9676221e-06  8.5410601e-06
   1960000   0.392               1850   3.5652172e-16  3.1946499e+08  3.9676221e-06  1.1612827e-05
   1970000   0.394               1850   5.090542e-16   3.1950879e+08  3.9676221e-06  1.4958999e-05
   1980000   0.396               1850   6.943536e-16   3.195622e+08   3.9676221e-06  1.8214926e-05
   1990000   0.398               1850   9.08727e-16    3.1962414e+08  3.9676221e-06  2.1371499e-05
   2000000   0.4                 1850   1.1482198e-15  3.1969345e+08  3.9676221e-06  2.4420055e-05
   2010000   0.402               1850   1.4086705e-15  3.1976891e+08  3.9676221e-06  2.7352373e-05
   2020000   0.404               1850   1.6857691e-15  3.1984925e+08  3.9676221e-06  3.0160714e-05
   2030000   0.406               1850   1.9751139e-15  3.1993319e+08  3.9676221e-06  3.2837823e-05
   2040000   0.408               1850   2.272269e-15   3.2001941e+08  3.9676221e-06  3.5376953e-05
   2050000   0.41                1850   2.5728212e-15  3.2010664e+08  3.9676221e-06  3.777188e-05 
   2060000   0.412               1850   2.8724337e-15  3.2019358e+08  3.9676221e-06  4.0016912e-05
   2070000   0.414               1850   3.1668985e-15  3.2027902e+08  3.9676221e-06  4.2106905e-05
   2080000   0.416               1850   3.4521862e-15  3.2036176e+08  3.9676221e-06  4.4037265e-05
   2090000   0.418               1850   3.7244927e-15  3.204407e+08   3.9676221e-06  4.5803974e-05
   2100000   0.42                1850   3.9802775e-15  3.2051478e+08  3.9676221e-06  4.7403563e-05
   2110000   0.422               1850   4.2163058e-15  3.2058308e+08  3.9676221e-06  4.8833151e-05
   2120000   0.424               1850   4.4296765e-15  3.2064472e+08  3.9676221e-06  5.0090414e-05
   2130000   0.426               1850   4.6178545e-15  3.2069898e+08  3.9676221e-06  5.1173619e-05
   2140000   0.428               1850   4.7786889e-15  3.2074522e+08  3.9676221e-06  5.2081588e-05
   2150000   0.43                1850   4.9104317e-15  3.2078292e+08  3.9676221e-06  5.2813716e-05
   2160000   0.432               1850   5.0117503e-15  3.2081169e+08  3.9676221e-06  5.3369961e-05
   2170000   0.434               1850   5.0817326e-15  3.2083128e+08  3.9676221e-06  5.3750841e-05
   2180000   0.436               1850   5.1198867e-15  3.2084152e+08  3.9676221e-06  5.395741e-05 
   2190000   0.438               1850   5.126137e-15   3.2084241e+08  3.9676221e-06  5.3991263e-05
   2200000   0.44                1850   5.1008153e-15  3.2083404e+08  3.9676221e-06  5.385452e-05 
   2210000   0.442               1850   5.0446443e-15  3.2081662e+08  3.9676221e-06  5.3549807e-05
   2220000   0.444               1850   4.9587201e-15  3.2079047e+08  3.9676221e-06  5.308025e-05 
   2230000   0.446               1850   4.8444877e-15  3.2075602e+08  3.9676221e-06  5.244945e-05 
   2240000   0.448               1850   4.703716e-15   3.2071378e+08  3.9676221e-06  5.1661479e-05
   2250000   0.45                1850   4.538463e-15   3.2066436e+08  3.9676221e-06  5.0720837e-05
   2260000   0.452               1850   4.3510481e-15  3.2060844e+08  3.9676221e-06  4.9632461e-05
   2270000   0.454               1850   4.1440117e-15  3.2054676e+08  3.9676221e-06  4.8401683e-05
   2280000   0.456               1850   3.9200801e-15  3.2048013e+08  3.9676221e-06  4.7034215e-05
   2290000   0.458               1850   3.6821263e-15  3.2040938e+08  3.9676221e-06  4.553613e-05 
   2300000   0.46                1850   3.4331293e-15  3.203354e+08   3.9676221e-06  4.3913829e-05
   2310000   0.462               1850   3.1761355e-15  3.2025907e+08  3.9676221e-06  4.2174029e-05
   2320000   0.464               1850   2.9142165e-15  3.201813e+08   3.9676221e-06  4.0323722e-05
   2330000   0.466               1850   2.6504334e-15  3.2010297e+08  3.9676221e-06  3.8370168e-05
   2340000   0.468               1850   2.3877953e-15  3.2002499e+08  3.9676221e-06  3.6320855e-05
   2350000   0.47                1850   2.1292246e-15  3.199482e+08   3.9676221e-06  3.4183473e-05
   2360000   0.472               1850   1.8775224e-15  3.1987342e+08  3.9676221e-06  3.1965893e-05
   2370000   0.474               1850   1.6353355e-15  3.1980144e+08  3.9676221e-06  2.9676132e-05
   2380000   0.476               1850   1.40513e-15    3.1973297e+08  3.9676221e-06  2.7322346e-05
   2390000   0.478               1850   1.1891613e-15  3.1966868e+08  3.9676221e-06  2.4912771e-05
   2400000   0.48                1850   9.894541e-16   3.1960915e+08  3.9676221e-06  2.2455725e-05
   2410000   0.482               1850   8.0778077e-16  3.1955492e+08  3.9676221e-06  1.9959558e-05
   2420000   0.484               1850   6.456474e-16   3.1950642e+08  3.9676221e-06  1.7432644e-05
   2430000   0.486               1850   5.0428088e-16  3.1946402e+08  3.9676221e-06  1.4883345e-05
   2440000   0.488               1850   3.8461998e-16  3.1942798e+08  3.9676221e-06  1.2319977e-05
   2450000   0.49                1850   2.8731256e-16  3.1939849e+08  3.9676221e-06  9.750808e-06 
   2460000   0.492               1850   2.127132e-16   3.1937567e+08  3.9676221e-06  8.5069642e-06
   2470000   0.494               1850   1.6088731e-16  3.1935953e+08  3.9676221e-06  8.5062968e-06
   2480000   0.496               1850   1.316172e-16   3.1935001e+08  3.9676221e-06  8.5056296e-06
   2490000   0.498               1850   1.2441219e-16  3.1934696e+08  3.9676221e-06  8.5049628e-06
   2500000   0.5                 1850   1.3852151e-16  3.1935016e+08  3.9676221e-06  8.504296e-06 
   2510000   0.502               1850   1.729504e-16   3.1935932e+08  3.9676221e-06  8.503629e-06 
   2520000   0.504               1850   2.2647897e-16  3.1937409e+08  3.9676221e-06  8.5029621e-06
   2530000   0.506               1850   2.976826e-16   3.1939404e+08  3.9676221e-06  1.0060474e-05
   2540000   0.508               1850   3.8495573e-16  3.194187e+08   3.9676221e-06  1.2332517e-05
   2550000   0.51                1850   4.8653589e-16  3.1944757e+08  3.9676221e-06  1.4536423e-05
   2560000   0.512               1850   6.0053032e-16  3.1948007e+08  3.9676221e-06  1.6666126e-05
   2570000   0.514               1850   7.2494202e-16  3.1951563e+08  3.9676221e-06  1.8715863e-05
   2580000   0.516               1850   8.5769893e-16  3.1955364e+08  3.9676221e-06  2.0680215e-05
   2590000   0.518               1850   9.9667965e-16  3.1959347e+08  3.9676221e-06  2.255408e-05 
   2600000   0.52                1850   1.1397435e-15  3.196345e+08   3.9676221e-06  2.4332726e-05
   2610000   0.522               1850   1.2847555e-15  3.196761e+08   3.9676221e-06  2.6011769e-05
   2620000   0.524               1850   1.4296153e-15  3.1971766e+08  3.9676221e-06  2.7587206e-05
   2630000   0.526               1850   1.5722799e-15  3.1975857e+08  3.9676221e-06  2.9055401e-05
   2640000   0.528               1850   1.7107906e-15  3.1979827e+08  3.9676221e-06  3.0413115e-05
   2650000   0.53                1850   1.8432915e-15  3.198362e+08   3.9676221e-06  3.1657481e-05
   2660000   0.532               1850   1.9680552e-15  3.1987187e+08  3.9676221e-06  3.2786049e-05
   2670000   0.534               1850   2.0834956e-15  3.1990479e+08  3.9676221e-06  3.3796745e-05
   2680000   0.536               1850   2.1881885e-15  3.1993457e+08  3.9676221e-06  3.4687905e-05
   2690000   0.538               1850   2.280883e-15   3.1996082e+08  3.9676221e-06  3.5458263e-05
   2700000   0.54                1850   2.3605131e-15  3.1998325e+08  3.9676221e-06  3.6106946e-05
   2710000   0.542               1850   2.4262061e-15  3.2000158e+08  3.9676221e-06  3.6633476e-05
   2720000   0.544               1850   2.4772891e-15  3.2001563e+08  3.9676221e-06  3.7037767e-05
   2730000   0.546               1850   2.5132916e-15  3.2002526e+08  3.9676221e-06  3.732012e-05 
   2740000   0.548               1850   2.5339472e-15  3.2003038e+08  3.9676221e-06  3.7481217e-05
   2750000   0.55                1850   2.5391904e-15  3.2003098e+08  3.9676221e-06  3.7522112e-05
   2760000   0.552               1850   2.5291527e-15  3.200271e+08   3.9676221e-06  3.7444222e-05
   2770000   0.554               1850   2.5041569e-15  3.2001884e+08  3.9676221e-06  3.7249328e-05
   2780000   0.556               1850   2.4647063e-15  3.2000633e+08  3.9676221e-06  3.6939549e-05
   2790000   0.558               1850   2.4114751e-15  3.1998978e+08  3.9676221e-06  3.651734e-05 
   2800000   0.56                1850   2.3452947e-15  3.1996943e+08  3.9676221e-06  3.5985478e-05
   2810000   0.562               1850   2.2671406e-15  3.1994557e+08  3.9676221e-06  3.5347056e-05
   2820000   0.564               1850   2.1781149e-15  3.1991852e+08  3.9676221e-06  3.4605457e-05
   2830000   0.566               1850   2.0794302e-15  3.1988864e+08  3.9676221e-06  3.3764349e-05
   2840000   0.568               1850   1.9723908e-15  3.198563e+08   3.9676221e-06  3.2827663e-05
   2850000   0.57                1850   1.8583751e-15  3.1982193e+08  3.9676221e-06  3.1799583e-05
   2860000   0.572               1850   1.7388153e-15  3.1978592e+08  3.9676221e-06  3.0684526e-05
   2870000   0.574               1850   1.6151787e-15  3.1974872e+08  3.9676221e-06  2.9487129e-05
   2880000   0.576               1850   1.4889485e-15  3.1971076e+08  3.9676221e-06  2.8212225e-05
   2890000   0.578               1850   1.3616042e-15  3.1967247e+08  3.9676221e-06  2.6864833e-05
   2900000   0.58                1850   1.2346034e-15  3.1963428e+08  3.9676221e-06  2.5450128e-05
   2910000   0.582               1850   1.1093646e-15  3.1959661e+08  3.9676221e-06  2.3973438e-05
   2920000   0.584               1850   9.8724999e-16  3.1955986e+08  3.9676221e-06  2.2440218e-05
   2930000   0.586               1850   8.695493e-16   3.195244e+08   3.9676221e-06  2.0856023e-05
   2940000   0.588               1850   7.5746713e-16  3.1949059e+08  3.9676221e-06  1.9226509e-05
   2950000   0.59                1850   6.5210778e-16  3.1945875e+08  3.9676221e-06  1.7557391e-05
   2960000   0.592               1850   5.5446612e-16  3.1942917e+08  3.9676221e-06  1.5854448e-05
   2970000   0.594               1850   4.6541566e-16  3.1940212e+08  3.9676221e-06  1.4123468e-05
   2980000   0.596               1850   3.8570334e-16  3.1937781e+08  3.9676221e-06  1.2370281e-05
   2990000   0.598               1850   3.1594092e-16  3.1935641e+08  3.9676221e-06  1.0600689e-05
   3000000   0.6                 1850   2.5660267e-16  3.1933808e+08  3.9676221e-06  8.8204863e-06
   3010000   0.602               1850   2.0802168e-16  3.1932289e+08  3.9676221e-06  8.4703473e-06
   3020000   0.604               1850   1.7038963e-16  3.1931093e+08  3.9676221e-06  8.4696832e-06
   3030000   0.606               1850   1.4375843e-16  3.1930218e+08  3.9676221e-06  8.4690186e-06
   3040000   0.608               1850   1.2804247e-16  3.1929664e+08  3.9676221e-06  8.4683544e-06
   3050000   0.61                1850   1.2302366e-16  3.1929424e+08  3.9676221e-06  8.4676901e-06
   3060000   0.612               1850   1.2835728e-16  3.1929488e+08  3.9676221e-06  8.4670264e-06
   3070000   0.614               1850   1.435796e-16   3.1929841e+08  3.9676221e-06  8.4663622e-06
   3080000   0.616               1850   1.6811668e-16  3.1930468e+08  3.9676221e-06  8.4656985e-06
   3090000   0.618               1850   2.0129444e-16  3.1931349e+08  3.9676221e-06  8.4650343e-06
   3100000   0.62                1850   2.4234939e-16  3.193246e+08   3.9676221e-06  8.4643702e-06
   3110000   0.622               1850   2.9044098e-16  3.1933778e+08  3.9676221e-06  9.8816556e-06
   3120000   0.624               1850   3.4466336e-16  3.1935276e+08  3.9676221e-06  1.1369321e-05
   3130000   0.626               1850   4.0405897e-16  3.1936925e+08  3.9676221e-06  1.2801992e-05
   3140000   0.628               1850   4.6763142e-16  3.1938697e+08  3.9676221e-06  1.4175859e-05
   3150000   0.63                1850   5.3435905e-16  3.1940562e+08  3.9676221e-06  1.5487347e-05
   3160000   0.632               1850   6.0320876e-16  3.1942489e+08  3.9676221e-06  1.6733132e-05
   3170000   0.634               1850   6.7314851e-16  3.1944447e+08  3.9676221e-06  1.7910132e-05
   3180000   0.636               1850   7.4316052e-16  3.1946408e+08  3.9676221e-06  1.9015521e-05
   3190000   0.638               1850   8.1225418e-16  3.1948342e+08  3.9676221e-06  2.0046745e-05
   3200000   0.64                1850   8.794762e-16   3.1950222e+08  3.9676221e-06  2.1001502e-05
   3210000   0.642               1850   9.4392324e-16  3.1952019e+08  3.9676221e-06  2.187777e-05 
   3220000   0.644               1850   1.004751e-15   3.1953711e+08  3.9676221e-06  2.2673797e-05
   3230000   0.646               1850   1.0611837e-15  3.1955274e+08  3.9676221e-06  2.3388109e-05
   3240000   0.648               1850   1.1125218e-15  3.1956687e+08  3.9676221e-06  2.4019511e-05
   3250000   0.65                1850   1.1581485e-15  3.1957933e+08  3.9676221e-06  2.4567078e-05
   3260000   0.652               1850   1.1975357e-15  3.1958995e+08  3.9676221e-06  2.5030163e-05
   3270000   0.654               1850   1.2302484e-15  3.1959862e+08  3.9676221e-06  2.5408397e-05
   3280000   0.656               1850   1.2559474e-15  3.1960523e+08  3.9676221e-06  2.5701679e-05
   3290000   0.658               1850   1.2743916e-15  3.1960972e+08  3.9676221e-06  2.5910184e-05
   3300000   0.66                1850   1.2854377e-15  3.1961203e+08  3.9676221e-06  2.6034342e-05
   3310000   0.662               1850   1.28904e-15    3.1961216e+08  3.9676221e-06  2.6074849e-05
   3320000   0.664               1850   1.2852487e-15  3.1961012e+08  3.9676221e-06  2.6032656e-05
   3330000   0.666               1850   1.2742061e-15  3.1960596e+08  3.9676221e-06  2.5908962e-05
   3340000   0.668               1850   1.256143e-15   3.1959973e+08  3.9676221e-06  2.5705205e-05
   3350000   0.67                1850   1.2313733e-15  3.1959154e+08  3.9676221e-06  2.5423059e-05
   3360000   0.672               1850   1.2002882e-15  3.1958149e+08  3.9676221e-06  2.5064424e-05
   3370000   0.674               1850   1.1633488e-15  3.1956973e+08  3.9676221e-06  2.4631416e-05
   3380000   0.676               1850   1.1210787e-15  3.1955641e+08  3.9676221e-06  2.4126357e-05
   3390000   0.678               1850   1.0740566e-15  3.1954169e+08  3.9676221e-06  2.3551767e-05
   3400000   0.68                1850   1.0229059e-15  3.1952576e+08  3.9676221e-06  2.291035e-05 
   3410000   0.682               1850   9.6828818e-16  3.1950881e+08  3.9676221e-06  2.2204994e-05
   3420000   0.684               1850   9.1089137e-16  3.1949105e+08  3.9676221e-06  2.1438741e-05
   3430000   0.686               1850   8.5142236e-16  3.1947268e+08  3.9676221e-06  2.0614794e-05
   3440000   0.688               1850   7.9059659e-16  3.1945391e+08  3.9676221e-06  1.973649e-05 
   3450000   0.69                1850   7.2912949e-16  3.1943496e+08  3.9676221e-06  1.8807301e-05
   3460000   0.692               1850   6.6772679e-16  3.1941602e+08  3.9676221e-06  1.7830805e-05
   3470000   0.694               1850   6.0707704e-16  3.193973e+08   3.9676221e-06  1.6810696e-05
   3480000   0.696               1850   5.478422e-16   3.19379e+08    3.9676221e-06  1.5750748e-05
   3490000   0.698               1850   4.9065052e-16  3.193613e+08   3.9676221e-06  1.4654811e-05
   3500000   0.7                 1850   4.3609017e-16  3.1934437e+08  3.9676221e-06  1.3526809e-05
   3510000   0.702               1850   3.8470165e-16  3.1932838e+08  3.9676221e-06  1.2370702e-05
   3520000   0.704               1850   3.3697354e-16  3.1931345e+08  3.9676221e-06  1.1190508e-05
   3530000   0.706               1850   2.9333629e-16  3.1929973e+08  3.9676221e-06  9.9902436e-06
   3540000   0.708               1850   2.5415975e-16  3.1928731e+08  3.9676221e-06  8.773959e-06 
   3550000   0.71                1850   2.1974903e-16  3.192763e+08   3.9676221e-06  8.4345519e-06
   3560000   0.712               1850   1.9034271e-16  3.1926675e+08  3.9676221e-06  8.4338905e-06
   3570000   0.714               1850   1.6611159e-16  3.1925872e+08  3.9676221e-06  8.433229e-06 
   3580000   0.716               1850   1.4715835e-16  3.1925224e+08  3.9676221e-06  8.4325676e-06
   3590000   0.718               1850   1.3351759e-16  3.1924731e+08  3.9676221e-06  8.4319062e-06
   3600000   0.72                1850   1.251576e-16   3.1924394e+08  3.9676221e-06  8.4312448e-06
   3610000   0.722               1850   1.2198218e-16  3.1924209e+08  3.9676221e-06  8.4305833e-06
   3620000   0.724               1850   1.2383358e-16  3.1924171e+08  3.9676221e-06  8.4299223e-06
   3630000   0.726               1850   1.3049597e-16  3.1924274e+08  3.9676221e-06  8.429261e-06 
   3640000   0.728               1850   1.4169967e-16  3.1924511e+08  3.9676221e-06  8.4285999e-06
   3650000   0.73                1850   1.5712588e-16  3.1924871e+08  3.9676221e-06  8.4279385e-06
   3660000   0.732               1850   1.764119e-16   3.1925345e+08  3.9676221e-06  8.4272774e-06
   3670000   0.734               1850   1.991568e-16   3.192592e+08   3.9676221e-06  8.426617e-06 
   3680000   0.736               1850   2.2492747e-16  3.1926584e+08  3.9676221e-06  8.4259554e-06
   3690000   0.738               1850   2.5326458e-16  3.1927323e+08  3.9676221e-06  8.753733e-06 
   3700000   0.74                1850   2.8368956e-16  3.1928123e+08  3.9676221e-06  9.7145235e-06
   3710000   0.742               1850   3.1571039e-16  3.1928971e+08  3.9676221e-06  1.0632319e-05
   3720000   0.744               1850   3.4882856e-16  3.192985e+08   3.9676221e-06  1.1504782e-05
   3730000   0.746               1850   3.8254516e-16  3.1930747e+08  3.9676221e-06  1.2329746e-05
   3740000   0.748               1850   4.1636758e-16  3.1931647e+08  3.9676221e-06  1.3105224e-05
   3750000   0.75                1850   4.4981496e-16  3.1932536e+08  3.9676221e-06  1.382941e-05 
   3760000   0.752               1850   4.8242414e-16  3.1933401e+08  3.9676221e-06  1.4500681e-05
   3770000   0.754               1850   5.1375512e-16  3.1934228e+08  3.9676221e-06  1.5117602e-05
   3780000   0.756               1850   5.4339572e-16  3.1935006e+08  3.9676221e-06  1.5678929e-05
   3790000   0.758               1850   5.7096647e-16  3.1935723e+08  3.9676221e-06  1.6183613e-05
   3800000   0.76                1850   5.9612375e-16  3.1936369e+08  3.9676221e-06  1.6630791e-05
   3810000   0.762               1850   6.1856396e-16  3.1936935e+08  3.9676221e-06  1.7019795e-05
   3820000   0.764               1850   6.3802551e-16  3.1937414e+08  3.9676221e-06  1.7350146e-05
   3830000   0.766               1850   6.5429177e-16  3.1937799e+08  3.9676221e-06  1.7621559e-05
   3840000   0.768               1850   6.6719222e-16  3.1938086e+08  3.9676221e-06  1.783394e-05 
   3850000   0.77                1850   6.7660345e-16  3.193827e+08   3.9676221e-06  1.7987378e-05
   3860000   0.772               1850   6.8244941e-16  3.193835e+08   3.9676221e-06  1.808215e-05 
   3870000   0.774               1850   6.8470133e-16  3.1938324e+08  3.9676221e-06  1.8118713e-05
   3880000   0.776               1850   6.8337667e-16  3.1938193e+08  3.9676221e-06  1.8097702e-05
   3890000   0.778               1850   6.7853785e-16  3.1937959e+08  3.9676221e-06  1.8019923e-05
   3900000   0.78                1850   6.7029033e-16  3.1937626e+08  3.9676221e-06  1.7886356e-05
   3910000   0.782               1850   6.5877987e-16  3.1937196e+08  3.9676221e-06  1.7698137e-05
   3920000   0.784               1850   6.4419014e-16  3.1936677e+08  3.9676221e-06  1.7456564e-05
   3930000   0.786               1850   6.2673915e-16  3.1936073e+08  3.9676221e-06  1.7163086e-05
   3940000   0.788               1850   6.066758e-16   3.1935393e+08  3.9676221e-06  1.6819299e-05
   3950000   0.79                1850   5.8427554e-16  3.1934644e+08  3.9676221e-06  1.6426932e-05
   3960000   0.792               1850   5.5983682e-16  3.1933835e+08  3.9676221e-06  1.5987847e-05
   3970000   0.794               1850   5.3367655e-16  3.1932976e+08  3.9676221e-06  1.5504033e-05
   3980000   0.796               1850   5.0612536e-16  3.1932076e+08  3.9676221e-06  1.4977586e-05
   3990000   0.798               1850   4.7752352e-16  3.1931146e+08  3.9676221e-06  1.4410718e-05
   4000000   0.8                 1850   4.4821632e-16  3.1930194e+08  3.9676221e-06  1.3805737e-05
Loop time of 1039.93 on 1 procs for 4000000 steps with 1850 atoms

100.0% CPU use with 1 MPI tasks x 1 OpenMP threads

MPI task timing breakdown:
Section |  min time  |  avg time  |  max time  |%varavg| %total
---------------------------------------------------------------
Pair    | 799.45     | 799.45     | 799.45     |   0.0 | 76.87
Neigh   | 0.039679   | 0.039679   | 0.039679   |   0.0 |  0.00
Comm    | 0.089724   | 0.089724   | 0.089724   |   0.0 |  0.01
Output  | 0.34197    | 0.34197    | 0.34197    |   0.0 |  0.03
Modify  | 229.83     | 229.83     | 229.83     |   0.0 | 22.10
Other   |            | 10.18      |            |       |  0.98

Nlocal:           1850 ave        1850 max        1850 min
Histogram: 1 0 0 0 0 0 0 0 0 0
Nghost:              0 ave           0 max           0 min
Histogram: 1 0 0 0 0 0 0 0 0 0
Neighs:           7049 ave        7049 max        7049 min
Histogram: 1 0 0 0 0 0 0 0 0 0

Total # of neighbors = 7049
Ave neighs/atom = 3.8102703
Neighbor list builds = 66
Dangerous builds = 0
Generated 0 of 0 mixed pair_coeff terms from geometric mixing rule
Setting up Verlet run ...
  Unit style    : si
  Current step  : 4000000
  Time step     : 2e-07
Per MPI rank memory allocation (min/avg/max) = 13 | 13 | 13 Mbytes
   Step          Time         Atoms        KinEng     c_granularTemp c_solidVolume    c_maxSpeed  
   4000000   0.8                 1850   4.4821632e-16  3.1930194e+08  3.9676221e-06  1.3805737e-05
Loop time of 2.4e-07 on 1 procs for 0 steps with 1850 atoms

0.0% CPU use with 1 MPI tasks x 1 OpenMP threads

MPI task timing breakdown:
Section |  min time  |  avg time  |  max time  |%varavg| %total
---------------------------------------------------------------
Pair    | 0          | 0          | 0          |   0.0 |  0.00
Neigh   | 0          | 0          | 0          |   0.0 |  0.00
Comm    | 0          | 0          | 0          |   0.0 |  0.00
Output  | 0          | 0          | 0          |   0.0 |  0.00
Modify  | 0          | 0          | 0          |   0.0 |  0.00
Other   |            | 2.4e-07    |            |       |100.00

Nlocal:           1850 ave        1850 max        1850 min
Histogram: 1 0 0 0 0 0 0 0 0 0
Nghost:              0 ave           0 max           0 min
Histogram: 1 0 0 0 0 0 0 0 0 0
Neighs:           7049 ave        7049 max        7049 min
Histogram: 1 0 0 0 0 0 0 0 0 0

Total # of neighbors = 7049
Ave neighs/atom = 3.8102703
Neighbor list builds = 0
Dangerous builds = 0
Generated 0 of 0 mixed pair_coeff terms from geometric mixing rule
Neighbor list info ...
  update: every = 1 steps, delay = 0 steps, check = yes
  max neighbors/atom: 2000, page size: 100000
  master list distance cutoff = 0.00185
  ghost atom cutoff = 0.00185
  binsize = 0.000925, bins = 18 18 76
  3 neighbor lists, perpetual/occasional/extra = 1 2 0
  (1) pair granular, perpetual
      attributes: half, newton off, size, history
      pair build: half/size/bin/atomonly/newtoff
      stencil: full/bin/3d
      bin: standard
  (2) compute property/local, occasional
      attributes: half, newton off, size
      pair build: half/size/bin/atomonly/newtoff
      stencil: full/bin/3d
      bin: standard
  (3) compute pair/local, occasional
      attributes: half, newton off, size
      pair build: half/size/bin/atomonly/newtoff
      stencil: full/bin/3d
      bin: standard
Setting up Verlet run ...
  Unit style    : si
  Current step  : 4000000
  Time step     : 2e-07
Per MPI rank memory allocation (min/avg/max) = 14.26 | 14.26 | 14.26 Mbytes
   Step          Time         Atoms        KinEng     c_granularTemp c_solidVolume    c_maxSpeed  
   4000000   0.8                 1850   4.4821632e-16  3.1930194e+08  3.9676221e-06  1.3805737e-05
   4000001   0.8000002           1850   4.4821336e-16  3.1930194e+08  3.9676221e-06  1.3805675e-05
Loop time of 0.00637649 on 1 procs for 1 steps with 1850 atoms

100.0% CPU use with 1 MPI tasks x 1 OpenMP threads

MPI task timing breakdown:
Section |  min time  |  avg time  |  max time  |%varavg| %total
---------------------------------------------------------------
Pair    | 0.00021317 | 0.00021317 | 0.00021317 |   0.0 |  3.34
Neigh   | 0          | 0          | 0          |   0.0 |  0.00
Comm    | 9.7e-08    | 9.7e-08    | 9.7e-08    |   0.0 |  0.00
Output  | 0.0060982  | 0.0060982  | 0.0060982  |   0.0 | 95.64
Modify  | 6.1024e-05 | 6.1024e-05 | 6.1024e-05 |   0.0 |  0.96
Other   |            | 4.035e-06  |            |       |  0.06

Nlocal:           1850 ave        1850 max        1850 min
Histogram: 1 0 0 0 0 0 0 0 0 0
Nghost:              0 ave           0 max           0 min
Histogram: 1 0 0 0 0 0 0 0 0 0
Neighs:           7049 ave        7049 max        7049 min
Histogram: 1 0 0 0 0 0 0 0 0 0

Total # of neighbors = 7049
Ave neighs/atom = 3.8102703
Neighbor list builds = 0
Dangerous builds = 0
System init for write_data ...
Generated 0 of 0 mixed pair_coeff terms from geometric mixing rule
System init for write_restart ...
Generated 0 of 0 mixed pair_coeff terms from geometric mixing rule
seed Ntarget Nfinal dp_m density_kgm3 Dtube_m D_over_dp solidVolume_m3 bedHeight_m bedVolume_m3 packingFraction porosity minParticleBottom_m kineticEnergy_J maxSpeed_ms
90709 1850 1850 0.0016 1600 0.016 10 3.96762208197362e-06 0.036984838958185 7.43624309537507e-06 0.533551960457191 0.466448039542809 -1.2830478342185e-06 4.48213362995517e-16 1.38056750548756e-05
Packing generation completed: co2_13x_seed_90709
ACCEPT only if Nfinal=Ntarget, the bed is settled, and overlap/geometry checks pass.
For the 20-packing pilot, change only seed_realization.
CO2 diffusion and particle LDF adsorption are added later in the pore-network solver, not here.
Total wall time: 0:23:22
