Authorization required, but no authorization protocol specified

Authorization required, but no authorization protocol specified

Authorization required, but no authorization protocol specified

Authorization required, but no authorization protocol specified

LAMMPS (22 Jul 2025 - Update 5)
OMP_NUM_THREADS environment is not set. Defaulting to 1 thread.
  using 1 OpenMP thread(s) per MPI task
OMP_NUM_THREADS environment is not set. Defaulting to 1 thread.
  using 1 OpenMP thread(s) per MPI task
CO2 sorbent = commercial zeolite 13X (mechanical packing only)
Realization seed = 74167
Target particle count = 1850
Bead diameter [m] = 0.0016
Tube diameter [m] = 0.016
Tube-to-particle diameter ratio = 10
Target solid volume [m^3] = 3.96762208197367e-06
Created orthogonal box = (-0.008 -0.008 0) to (0.008 0.008 0.07)
  1 by 1 by 1 MPI processor grid
Generated 0 of 0 mixed pair_coeff terms from geometric mixing rule
Particle insertion: 303 every 319275 steps, 1850 by step 1915651
Neighbor list info ...
  update: every = 1 steps, delay = 0 steps, check = yes
  max neighbors/atom: 2000, page size: 100000
  master list distance cutoff = 0.00185
  ghost atom cutoff = 0.00185
  binsize = 0.000925, bins = 18 18 76
  1 neighbor lists, perpetual/occasional/extra = 1 0 0
  (1) pair granular, perpetual
      attributes: half, newton off, size, history
      pair build: half/size/bin/atomonly/newtoff
      stencil: full/bin/3d
      bin: standard
Setting up Verlet run ...
  Unit style    : si
  Current step  : 0
  Time step     : 2e-07
Per MPI rank memory allocation (min/avg/max) = 7.438 | 7.438 | 7.438 Mbytes
   Step          Time         Atoms        KinEng     c_granularTemp c_solidVolume    c_maxSpeed  
         0   0                      0  -0              0              0             -1e+20        
WARNING: Fewer insertions than requested (src/GRANULAR/fix_pour.cpp:691)
     10000   0.002                218  -0              5.6838237e+15  4.6753601e-07  0.6091554    
     20000   0.004                218  -0              5.5641524e+15  4.6753601e-07  0.5937252    
     30000   0.006                218  -0              5.4583248e+15  4.6753601e-07  0.57916865   
     40000   0.008                218  -0              5.3647793e+15  4.6753601e-07  0.56543626   
     50000   0.01                 218  -0              5.2821286e+15  4.6753601e-07  0.55248137   
     60000   0.012                218  -0              5.2091396e+15  4.6753601e-07  0.54025997   
     70000   0.014                218  -0              5.1447173e+15  4.6753601e-07  0.52873053   
     80000   0.016                218  -0              5.0878886e+15  4.6753601e-07  0.51785387   
     90000   0.018                218  -0              5.0377895e+15  4.6753601e-07  0.50759303   
    100000   0.02                 218  -0              4.9936524e+15  4.6753601e-07  0.49791314   
    110000   0.022                218  -0              4.954796e+15   4.6753601e-07  0.48878131   
    120000   0.024                218  -0              4.9206151e+15  4.6753601e-07  0.48016651   
    130000   0.026                218  -0              4.8905727e+15  4.6753601e-07  0.47203946   
    140000   0.028                218  -0              4.864192e+15   4.6753601e-07  0.46437256   
    150000   0.03                 218  -0              4.8410499e+15  4.6753601e-07  0.45713975   
    160000   0.032                218  -0              4.8207712e+15  4.6753601e-07  0.45031644   
    170000   0.034                218  -0              4.8030227e+15  4.6753601e-07  0.44387946   
    180000   0.036                218  -0              4.7875092e+15  4.6753601e-07  0.43780694   
    190000   0.038                218  -0              4.7739687e+15  4.6753601e-07  0.43207823   
    200000   0.04                 218  -0              4.7621692e+15  4.6753601e-07  0.42667387   
    210000   0.042                218  -0              4.7519047e+15  4.6753601e-07  0.42157549   
    220000   0.044                218  -0              4.7429931e+15  4.6753601e-07  0.41676578   
    230000   0.046                218  -0              4.7352728e+15  4.6753601e-07  0.41222839   
    240000   0.048                218  -0              4.7286008e+15  4.6753601e-07  0.40794789   
    250000   0.05                 218  -0              4.7228505e+15  4.6753601e-07  0.40390976   
    260000   0.052                218  -0              4.7179098e+15  4.6753601e-07  0.40010025   
    270000   0.054                218  -0              4.7136797e+15  4.6753601e-07  0.39650643   
    280000   0.056                218  -0              4.7100725e+15  4.6753601e-07  0.39311609   
    290000   0.058                218  -0              4.7070108e+15  4.6753601e-07  0.38991771   
    300000   0.06                 218  -0              4.7044261e+15  4.6753601e-07  0.38690041   
    310000   0.062                218  -0              4.7022581e+15  4.6753601e-07  0.38405395   
WARNING: Fewer insertions than requested (src/GRANULAR/fix_pour.cpp:691)
    320000   0.064                372  -0              4.8052112e+15  7.9781374e-07  0.62466948   
    330000   0.066                372  -0              4.7506042e+15  7.9781374e-07  0.60836091   
    340000   0.068                372  -0              4.7096539e+15  7.9781374e-07  0.5929757    
    350000   0.07                 372  -0              4.6740275e+15  7.9781374e-07  0.57846157   
    360000   0.072                372  -0              4.643453e+15   7.9781374e-07  0.56476922   
    370000   0.074                372  -0              4.6228149e+15  7.9781374e-07  0.5518521    
    380000   0.076                372  -0              4.6032584e+15  7.9781374e-07  0.53966633   
    390000   0.078                372  -0              4.5895455e+15  7.9781374e-07  0.5281705    
    400000   0.08                 372  -0              4.5792003e+15  7.9781374e-07  0.51732555   
    410000   0.082                372  -0              4.5734924e+15  7.9781374e-07  0.50709462   
    420000   0.084                372  -0              4.5562743e+15  7.9781374e-07  0.49744295   
    430000   0.086                372  -0              4.5126725e+15  7.9781374e-07  0.48833774   
    440000   0.088                372  -0              4.4842837e+15  7.9781374e-07  0.47974805   
    450000   0.09                 372  -0              4.4556272e+15  7.9781374e-07  0.4716447    
    460000   0.092                372  -0              4.424348e+15   7.9781374e-07  0.46400015   
    470000   0.094                372  -0              4.3728349e+15  7.9781374e-07  0.45678842   
    480000   0.096                372  -0              4.335386e+15   7.9781374e-07  0.44998501   
    490000   0.098                372  -0              4.29533e+15    7.9781374e-07  0.44356679   
    500000   0.1                  372  -0              4.2593389e+15  7.9781374e-07  0.43751197   
    510000   0.102                372  -0              4.2138202e+15  7.9781374e-07  0.43179996   
    520000   0.104                372  -0              4.1991883e+15  7.9781374e-07  0.42641135   
    530000   0.106                372  -0              4.1550635e+15  7.9781374e-07  0.42132784   
    540000   0.108                372  -0              4.1013665e+15  7.9781374e-07  0.41653215   
    550000   0.11                 372  -0              4.0357736e+15  7.9781374e-07  0.41200799   
    560000   0.112                372  -0              3.9931968e+15  7.9781374e-07  0.40773997   
    570000   0.114                372  -0              3.9536698e+15  7.9781374e-07  0.40371361   
    580000   0.116                372  -0              3.8976019e+15  7.9781374e-07  0.39991521   
    590000   0.118                372  -0              3.8618912e+15  7.9781374e-07  0.39633187   
    600000   0.12                 372  -0              3.7996863e+15  7.9781374e-07  0.39295141   
    610000   0.122                372  -0              3.7551487e+15  7.9781374e-07  0.38976235   
    620000   0.124                372  -0              3.7263928e+15  7.9781374e-07  0.38675385   
    630000   0.126                372  -0              3.6873954e+15  7.9781374e-07  0.38391568   
WARNING: Fewer insertions than requested (src/GRANULAR/fix_pour.cpp:691)
    640000   0.128                649  -0              4.5000737e+15  1.3918847e-06  0.62353603   
    650000   0.13                 649  -0              4.4046403e+15  1.3918847e-06  0.60729163   
    660000   0.132                649  -0              4.325512e+15   1.3918847e-06  0.59196696   
    670000   0.134                649  -0              4.273382e+15   1.3918847e-06  0.57750995   
    680000   0.136                649  -0              4.2069328e+15  1.3918847e-06  0.56387147   
    690000   0.138                649  -0              4.1638588e+15  1.3918847e-06  0.55100518   
    700000   0.14                 649  -0              4.1087394e+15  1.3918847e-06  0.53886736   
    710000   0.142                649  -0              4.0633292e+15  1.3918847e-06  0.52741677   
    720000   0.144                649  -0              4.0073633e+15  1.3918847e-06  0.51661449   
    730000   0.146                649  -0              3.9538904e+15  1.3918847e-06  0.50642382   
    740000   0.148                649  -0              3.9069106e+15  1.3918847e-06  0.49681013   
    750000   0.15                 649  -0              3.8701129e+15  1.3918847e-06  0.48774075   
    760000   0.152                649  -0              3.824707e+15   1.3918847e-06  0.47918486   
    770000   0.154                649  -0              3.7915851e+15  1.3918847e-06  0.4711134    
    780000   0.156                649  -0              3.7290827e+15  1.3918847e-06  0.46349893   
    790000   0.158                649  -0              3.6868636e+15  1.3918847e-06  0.45631558   
    800000   0.16                 649  -0              3.6474523e+15  1.3918847e-06  0.44953894   
    810000   0.162                649  -0              3.5781045e+15  1.3918847e-06  0.44314598   
    820000   0.164                649  -0              3.50868e+15    1.3918847e-06  0.43711498   
    830000   0.166                649  -0              3.4315201e+15  1.3918847e-06  0.43142545   
    840000   0.168                649  -0              3.3555266e+15  1.3918847e-06  0.42212463   
    850000   0.17                 649  -0              3.3059617e+15  1.3918847e-06  0.41728383   
    860000   0.172                649  -0              3.2625519e+15  1.3918847e-06  0.40847822   
    870000   0.174                649  -0              3.2102355e+15  1.3918847e-06  0.40441005   
    880000   0.176                649  -0              3.1579887e+15  1.3918847e-06  0.40057222   
    890000   0.178                649  -0              3.0807914e+15  1.3918847e-06  0.39695168   
    900000   0.18                 649  -0              3.0416272e+15  1.3918847e-06  0.39353613   
    910000   0.182                649  -0              2.9796171e+15  1.3918847e-06  0.39031396   
    920000   0.184                649  -0              2.9191707e+15  1.3918847e-06  0.38727423   
    930000   0.186                649  -0              2.8583013e+15  1.3918847e-06  0.3844066    
    940000   0.188                649  -0              2.7844695e+15  1.3918847e-06  0.38170134   
    950000   0.19                 649  -0              2.7558462e+15  1.3918847e-06  0.376833     
WARNING: Fewer insertions than requested (src/GRANULAR/fix_pour.cpp:691)
    960000   0.192                841  -0              3.4301334e+15  1.8036596e-06  0.62045233   
    970000   0.194                841  -0              3.3806437e+15  1.8036596e-06  0.60438252   
    980000   0.196                841  -0              3.3259768e+15  1.8036596e-06  0.58922256   
    990000   0.198                841  -0              3.2773268e+15  1.8036596e-06  0.57492094   
   1000000   0.2                  841  -0              3.2368379e+15  1.8036596e-06  0.53646863   
   1010000   0.202                841  -0              3.1712679e+15  1.8036596e-06  0.50949566   
   1020000   0.204                841  -0              3.1226196e+15  1.8036596e-06  0.49970805   
   1030000   0.206                841  -0              3.0657968e+15  1.8036596e-06  0.48795475   
   1040000   0.208                841  -0              2.9934398e+15  1.8036596e-06  0.47938621   
   1050000   0.21                 841  -0              2.9434923e+15  1.8036596e-06  0.47130286   
   1060000   0.212                841  -0              2.8877235e+15  1.8036596e-06  0.45339386   
   1070000   0.214                841  -0              2.8452133e+15  1.8036596e-06  0.44518276   
   1080000   0.216                841  -0              2.8019693e+15  1.8036596e-06  0.43903644   
   1090000   0.218                841  -0              2.7668214e+15  1.8036596e-06  0.43323812   
   1100000   0.22                 841  -0              2.7229954e+15  1.8036596e-06  0.42776809   
   1110000   0.222                841  -0              2.6804033e+15  1.8036596e-06  0.42260776   
   1120000   0.224                841  -0              2.6390162e+15  1.8036596e-06  0.4177396    
   1130000   0.226                841  -0              2.5972523e+15  1.8036596e-06  0.41314707   
   1140000   0.228                841  -0              2.5017261e+15  1.8036596e-06  0.40881457   
   1150000   0.23                 841  -0              2.4089859e+15  1.8036596e-06  0.40472736   
   1160000   0.232                841  -0              2.3316378e+15  1.8036596e-06  0.39739763   
   1170000   0.234                841  -0              2.2595141e+15  1.8036596e-06  0.39395651   
   1180000   0.236                841  -0              2.2006271e+15  1.8036596e-06  0.39071026   
   1190000   0.238                841  -0              2.1483095e+15  1.8036596e-06  0.38764782   
   1200000   0.24                 841  -0              2.0755e+15     1.8036596e-06  0.38475881   
   1210000   0.242                841  -0              2.0501045e+15  1.8036596e-06  0.38203338   
   1220000   0.244                841  -0              2.0287629e+15  1.8036596e-06  0.37946229   
   1230000   0.246                841  -0              1.9913151e+15  1.8036596e-06  0.37703679   
   1240000   0.248                841  -0              1.953281e+15   1.8036596e-06  0.37474863   
   1250000   0.25                 841  -0              1.919498e+15   1.8036596e-06  0.36995708   
   1260000   0.252                841  -0              1.885357e+15   1.8036596e-06  0.36806923   
   1270000   0.254                841  -0              1.8233341e+15  1.8036596e-06  0.36628835   
WARNING: Fewer insertions than requested (src/GRANULAR/fix_pour.cpp:691)
   1280000   0.256               1065  -0              2.5749663e+15  2.2840635e-06  0.62135598   
   1290000   0.258               1065  -0              2.4697597e+15  2.2840635e-06  0.60523501   
   1300000   0.26                1065  -0              2.3600861e+15  2.2840635e-06  0.59002678   
   1310000   0.262               1065  -0              2.2640149e+15  2.2840635e-06  0.57567962   
   1320000   0.264               1065  -0              2.1813219e+15  2.2840635e-06  0.56214478   
   1330000   0.266               1065  -0              2.1321525e+15  2.2840635e-06  0.54937625   
   1340000   0.268               1065  -0              2.0730408e+15  2.2840635e-06  0.53733066   
   1350000   0.27                1065  -0              2.0376603e+15  2.2840635e-06  0.52596707   
   1360000   0.272               1065  -0              1.9902673e+15  2.2840635e-06  0.51524687   
   1370000   0.274               1065  -0              1.9213406e+15  2.2840635e-06  0.50513363   
   1380000   0.276               1065  -0              1.8732632e+15  2.2840635e-06  0.49559299   
   1390000   0.278               1065  -0              1.8111235e+15  2.2840635e-06  0.48659252   
   1400000   0.28                1065  -0              1.7506545e+15  2.2840635e-06  0.47282569   
   1410000   0.282               1065  -0              1.7041037e+15  2.2840635e-06  0.46511427   
   1420000   0.284               1065  -0              1.6447374e+15  2.2840635e-06  0.45783946   
   1430000   0.286               1065  -0              1.5836887e+15  2.2840635e-06  0.45097654   
   1440000   0.288               1065  -0              1.5469555e+15  2.2840635e-06  0.44450219   
   1450000   0.29                1065  -0              1.5154768e+15  2.2840635e-06  0.4383944    
   1460000   0.292               1065  -0              1.4841078e+15  2.2840635e-06  0.43263243   
   1470000   0.294               1065  -0              1.4681802e+15  2.2840635e-06  0.42719669   
   1480000   0.296               1065  -0              1.4468248e+15  2.2840635e-06  0.42206872   
   1490000   0.298               1065  -0              1.425459e+15   2.2840635e-06  0.41723108   
   1500000   0.3                 1065  -0              1.4031592e+15  2.2840635e-06  0.40830226   
   1510000   0.302               1065  -0              1.3945794e+15  2.2840635e-06  0.40423672   
   1520000   0.304               1065  -0              1.3636278e+15  2.2840635e-06  0.39840376   
   1530000   0.306               1065  -0              1.3339887e+15  2.2840635e-06  0.394906     
   1540000   0.308               1065  -0              1.3089453e+15  2.2840635e-06  0.39160627   
   1550000   0.31                1065  -0              1.2705463e+15  2.2840635e-06  0.38024989   
   1560000   0.312               1065  -0              1.2110259e+15  2.2840635e-06  0.37777997   
   1570000   0.314               1065  -0              1.1805674e+15  2.2840635e-06  0.37206828   
   1580000   0.316               1065  -0              1.1510146e+15  2.2840635e-06  0.37006159   
   1590000   0.318               1065  -0              1.1041917e+15  2.2840635e-06  0.36816852   
WARNING: Fewer insertions than requested (src/GRANULAR/fix_pour.cpp:691)
   1600000   0.32                1273  -0              1.900465e+15   2.7301529e-06  0.61140057   
   1610000   0.322               1273  -0              1.8345574e+15  2.7301529e-06  0.59584326   
   1620000   0.324               1273  -0              1.7888019e+15  2.7301529e-06  0.58116678   
   1630000   0.326               1273  -0              1.7334245e+15  2.7301529e-06  0.56732126   
   1640000   0.328               1273  -0              1.6716438e+15  2.7301529e-06  0.55151287   
   1650000   0.33                1273  -0              1.6281412e+15  2.7301529e-06  0.53934631   
   1660000   0.332               1273  -0              1.5805711e+15  2.7301529e-06  0.52059754   
   1670000   0.334               1273  -0              1.522247e+15   2.7301529e-06  0.51016335   
   1680000   0.336               1273  -0              1.4848578e+15  2.7301529e-06  0.50032125   
   1690000   0.338               1273  -0              1.4473778e+15  2.7301529e-06  0.49103766   
   1700000   0.34                1273  -0              1.3922918e+15  2.7301529e-06  0.48228088   
   1710000   0.342               1273  -0              1.3379153e+15  2.7301529e-06  0.47377091   
   1720000   0.344               1273  -0              1.3086995e+15  2.7301529e-06  0.46600598   
   1730000   0.346               1273  -0              1.2925562e+15  2.7301529e-06  0.45868068   
   1740000   0.348               1273  -0              1.2690038e+15  2.7301529e-06  0.45177013   
   1750000   0.35                1273  -0              1.2502103e+15  2.7301529e-06  0.43139652   
   1760000   0.352               1273  -0              1.234894e+15   2.7301529e-06  0.42603075   
   1770000   0.354               1273  -0              1.222157e+15   2.7301529e-06  0.42096879   
   1780000   0.356               1273  -0              1.2044184e+15  2.7301529e-06  0.41619343   
   1790000   0.358               1273  -0              1.1863503e+15  2.7301529e-06  0.41168844   
   1800000   0.36                1273  -0              1.1480802e+15  2.7301529e-06  0.40743852   
   1810000   0.362               1273  -0              1.0970408e+15  2.7301529e-06  0.4002161    
   1820000   0.364               1273  -0              1.0539354e+15  2.7301529e-06  0.3958594    
   1830000   0.366               1273  -0              9.9857233e+14  2.7301529e-06  0.39250569   
   1840000   0.368               1273  -0              9.5662849e+14  2.7301529e-06  0.38934186   
   1850000   0.37                1273  -0              8.9015952e+14  2.7301529e-06  0.3790871    
   1860000   0.372               1273  -0              8.479366e+14   2.7301529e-06  0.37668301   
   1870000   0.374               1273  -0              8.1859223e+14  2.7301529e-06  0.36222456   
   1880000   0.376               1273  -0              7.7866415e+14  2.7301529e-06  0.3607752    
   1890000   0.378               1273  -0              7.4917464e+14  2.7301529e-06  0.35940791   
   1900000   0.38                1273  -0              6.906168e+14   2.7301529e-06  0.35811803   
   1910000   0.382               1273  -0              6.5782429e+14  2.7301529e-06  0.35690118   
WARNING: Fewer insertions than requested (src/GRANULAR/fix_pour.cpp:691)
   1920000   0.384               1474  -0              1.2702099e+15  3.1612297e-06  0.61205438   
   1930000   0.386               1474  -0              1.2231397e+15  3.1612297e-06  0.59646005   
   1940000   0.388               1474  -0              1.1768298e+15  3.1612297e-06  0.58174865   
   1950000   0.39                1474  -0              1.1108865e+15  3.1612297e-06  0.56595094   
   1960000   0.392               1474  -0              1.0625165e+15  3.1612297e-06  0.55296691   
   1970000   0.394               1474  -0              1.0400806e+15  3.1612297e-06  0.54071803   
   1980000   0.396               1474  -0              1.0145291e+15  3.1612297e-06  0.52916265   
   1990000   0.398               1474  -0              9.981181e+14   3.1612297e-06  0.51826152   
   2000000   0.4                 1474  -0              9.8604767e+14  3.1612297e-06  0.5079776    
   2010000   0.402               1474  -0              9.733796e+14   3.1612297e-06  0.49498276   
   2020000   0.404               1474  -0              9.5755672e+14  3.1612297e-06  0.48692904   
   2030000   0.406               1474  -0              9.4375737e+14  3.1612297e-06  0.47840844   
   2040000   0.408               1474  -0              9.3636457e+14  3.1612297e-06  0.47037111   
   2050000   0.41                1474  -0              9.2107e+14     3.1612297e-06  0.46278963   
   2060000   0.412               1474  -0              8.9794758e+14  3.1612297e-06  0.45164289   
   2070000   0.414               1474  -0              8.5359588e+14  3.1612297e-06  0.43512377   
   2080000   0.416               1474  -0              8.2575642e+14  3.1612297e-06  0.42954698   
   2090000   0.418               1474  -0              7.9156192e+14  3.1612297e-06  0.4099896    
   2100000   0.42                1474  -0              7.6486815e+14  3.1612297e-06  0.38449683   
   2110000   0.422               1474  -0              7.3693477e+14  3.1612297e-06  0.37757123   
   2120000   0.424               1474  -0              7.0594931e+14  3.1612297e-06  0.37524269   
   2130000   0.426               1474  -0              6.7855423e+14  3.1612297e-06  0.37095422   
   2140000   0.428               1474  -0              6.629081e+14   3.1612297e-06  0.3690061    
   2150000   0.43                1474  -0              6.5857009e+14  3.1612297e-06  0.36457786   
   2160000   0.432               1474  -0              6.3943622e+14  3.1612297e-06  0.36299526   
   2170000   0.434               1474  -0              5.9530486e+14  3.1612297e-06  0.36150227   
   2180000   0.436               1474  -0              5.5738987e+14  3.1612297e-06  0.36009381   
   2190000   0.438               1474  -0              5.1339982e+14  3.1612297e-06  0.35872617   
   2200000   0.44                1474  -0              4.8449974e+14  3.1612297e-06  0.35374173   
   2210000   0.442               1474  -0              4.6032092e+14  3.1612297e-06  0.35056979   
   2220000   0.444               1474  -0              4.2901634e+14  3.1612297e-06  0.3489641    
   2230000   0.446               1474  -0              4.1036696e+14  3.1612297e-06  0.34826553   
WARNING: Fewer insertions than requested (src/GRANULAR/fix_pour.cpp:691)
   2240000   0.448               1640  -0              7.9514607e+14  3.5172434e-06  0.61018244   
   2250000   0.45                1640  -0              7.6599653e+14  3.5172434e-06  0.5946941    
   2260000   0.452               1640  -0              7.4824479e+14  3.5172434e-06  0.55963979   
   2270000   0.454               1640  -0              7.3795047e+14  3.5172434e-06  0.5470131    
   2280000   0.456               1640  -0              7.2592755e+14  3.5172434e-06  0.5351013    
   2290000   0.458               1640  -0              7.1502957e+14  3.5172434e-06  0.52386394   
   2300000   0.46                1640  -0              7.1098e+14     3.5172434e-06  0.51326282   
   2310000   0.462               1640  -0              6.9900913e+14  3.5172434e-06  0.50326191   
   2320000   0.464               1640  -0              6.8853361e+14  3.5172434e-06  0.49382724   
   2330000   0.466               1640  -0              6.7659907e+14  3.5172434e-06  0.48492675   
   2340000   0.468               1640  -0              6.5790425e+14  3.5172434e-06  0.46313412   
   2350000   0.47                1640  -0              6.4243158e+14  3.5172434e-06  0.45593661   
   2360000   0.472               1640  -0              6.2737796e+14  3.5172434e-06  0.44914947   
   2370000   0.474               1640  -0              6.0980574e+14  3.5172434e-06  0.4083862    
   2380000   0.476               1640  -0              5.8432828e+14  3.5172434e-06  0.39237593   
   2390000   0.478               1640  -0              5.6156345e+14  3.5172434e-06  0.38921946   
   2400000   0.48                1640  -0              5.4064347e+14  3.5172434e-06  0.38624169   
   2410000   0.482               1640  -0              5.0576718e+14  3.5172434e-06  0.38343253   
   2420000   0.484               1640  -0              4.9030169e+14  3.5172434e-06  0.38078241   
   2430000   0.486               1640  -0              4.6879624e+14  3.5172434e-06  0.37828234   
   2440000   0.488               1640  -0              4.4040548e+14  3.5172434e-06  0.37592382   
   2450000   0.49                1640  -0              4.2256099e+14  3.5172434e-06  0.36340737   
   2460000   0.492               1640  -0              3.9551028e+14  3.5172434e-06  0.36083905   
   2470000   0.494               1640  -0              3.7407122e+14  3.5172434e-06  0.35946814   
   2480000   0.496               1640  -0              3.5005112e+14  3.5172434e-06  0.35817485   
   2490000   0.498               1640  -0              3.3390528e+14  3.5172434e-06  0.35145742   
   2500000   0.5                 1640  -0              3.1174933e+14  3.5172434e-06  0.35058139   
   2510000   0.502               1640  -0              2.9918657e+14  3.5172434e-06  0.34824142   
   2520000   0.504               1640  -0              2.9060745e+14  3.5172434e-06  0.34702296   
   2530000   0.506               1640  -0              2.7770863e+14  3.5172434e-06  0.34134429   
   2540000   0.508               1640  -0              2.7416609e+14  3.5172434e-06  0.34107714   
   2550000   0.51                1640  -0              2.6753596e+14  3.5172434e-06  0.34082512   
WARNING: Fewer insertions than requested (src/GRANULAR/fix_pour.cpp:691)
   2560000   0.512               1824  -0              7.5341907e+14  3.9118609e-06  0.59655511   
   2570000   0.514               1824  -0              7.4304465e+14  3.9118609e-06  0.58183833   
   2580000   0.516               1824  -0              7.292691e+14   3.9118609e-06  0.56795479   
   2590000   0.518               1824  -0              7.0989623e+14  3.9118609e-06  0.55314224   
   2600000   0.52                1824  -0              6.96914e+14    3.9118609e-06  0.54088342   
   2610000   0.522               1824  -0              6.8647462e+14  3.9118609e-06  0.52931868   
   2620000   0.524               1824  -0              6.7462812e+14  3.9118609e-06  0.51840872   
   2630000   0.526               1824  -0              6.5805076e+14  3.9118609e-06  0.5007484    
   2640000   0.528               1824  -0              6.3807594e+14  3.9118609e-06  0.47543321   
   2650000   0.53                1824  -0              6.1796848e+14  3.9118609e-06  0.4413876    
   2660000   0.532               1824  -0              5.9453551e+14  3.9118609e-06  0.43545371   
   2670000   0.534               1824  -0              5.6805528e+14  3.9118609e-06  0.42702008   
   2680000   0.536               1824  -0              5.2910761e+14  3.9118609e-06  0.40536582   
   2690000   0.538               1824  -0              4.9301629e+14  3.9118609e-06  0.39891492   
   2700000   0.54                1824  -0              4.5598636e+14  3.9118609e-06  0.39538557   
   2710000   0.542               1824  -0              4.1735319e+14  3.9118609e-06  0.38922904   
   2720000   0.544               1824  -0              3.9771811e+14  3.9118609e-06  0.38625073   
   2730000   0.546               1824  -0              3.7029331e+14  3.9118609e-06  0.36986981   
   2740000   0.548               1824  -0              3.440666e+14   3.9118609e-06  0.36798759   
   2750000   0.55                1824  -0              3.2597186e+14  3.9118609e-06  0.36621194   
   2760000   0.552               1824  -0              2.9022783e+14  3.9118609e-06  0.359029     
   2770000   0.554               1824  -0              2.735626e+14   3.9118609e-06  0.35261195   
   2780000   0.556               1824  -0              2.552895e+14   3.9118609e-06  0.3517003    
   2790000   0.558               1824  -0              2.5178991e+14  3.9118609e-06  0.34768891   
   2800000   0.56                1824  -0              2.4538515e+14  3.9118609e-06  0.34123432   
   2810000   0.562               1824  -0              2.4189847e+14  3.9118609e-06  0.34076853   
   2820000   0.564               1824  -0              2.3951062e+14  3.9118609e-06  0.33820378   
   2830000   0.566               1824  -0              2.2627563e+14  3.9118609e-06  0.33764299   
   2840000   0.568               1824  -0              2.1607876e+14  3.9118609e-06  0.3359097    
   2850000   0.57                1824  -0              2.0911943e+14  3.9118609e-06  0.3316258    
   2860000   0.572               1824  -0              1.9799937e+14  3.9118609e-06  0.3319089    
   2870000   0.574               1824  -0              1.9233568e+14  3.9118609e-06  0.32817479   
   2880000   0.576               1850  -0              2.5787112e+14  3.9676221e-06  0.58760213   
   2890000   0.578               1850  -0              2.4947327e+14  3.9676221e-06  0.54015006   
   2900000   0.58                1850  -0              2.4781206e+14  3.9676221e-06  0.52859199   
   2910000   0.582               1850  -0              2.3616582e+14  3.9676221e-06  0.4592726    
   2920000   0.584               1850  -0              2.2841209e+14  3.9676221e-06  0.43533909   
   2930000   0.586               1850  -0              2.1972785e+14  3.9676221e-06  0.42878692   
   2940000   0.588               1850  -0              1.9980687e+14  3.9676221e-06  0.41161259   
   2950000   0.59                1850  -0              1.9257849e+14  3.9676221e-06  0.40736696   
   2960000   0.592               1850  -0              1.7675517e+14  3.9676221e-06  0.40336171   
   2970000   0.594               1850  -0              1.6844975e+14  3.9676221e-06  0.39958324   
   2980000   0.596               1850  -0              1.4779778e+14  3.9676221e-06  0.39601869   
   2990000   0.598               1850  -0              1.3884894e+14  3.9676221e-06  0.39265597   
   3000000   0.6                 1850  -0              1.2610157e+14  3.9676221e-06  0.38948363   
Loop time of 335.152 on 1 procs for 3000000 steps with 1850 atoms

100.0% CPU use with 1 MPI tasks x 1 OpenMP threads

MPI task timing breakdown:
Section |  min time  |  avg time  |  max time  |%varavg| %total
---------------------------------------------------------------
Pair    | 239.45     | 239.45     | 239.45     |   0.0 | 71.45
Neigh   | 0.58178    | 0.58178    | 0.58178    |   0.0 |  0.17
Comm    | 0.063056   | 0.063056   | 0.063056   |   0.0 |  0.02
Output  | 0.12819    | 0.12819    | 0.12819    |   0.0 |  0.04
Modify  | 90.87      | 90.87      | 90.87      |   0.0 | 27.11
Other   |            | 4.06       |            |       |  1.21

Nlocal:           1850 ave        1850 max        1850 min
Histogram: 1 0 0 0 0 0 0 0 0 0
Nghost:              0 ave           0 max           0 min
Histogram: 1 0 0 0 0 0 0 0 0 0
Neighs:           6794 ave        6794 max        6794 min
Histogram: 1 0 0 0 0 0 0 0 0 0

Total # of neighbors = 6794
Ave neighs/atom = 3.6724324
Neighbor list builds = 2160
Dangerous builds = 0
Generated 0 of 0 mixed pair_coeff terms from geometric mixing rule
Setting up Verlet run ...
  Unit style    : si
  Current step  : 0
  Time step     : 2e-07
Per MPI rank memory allocation (min/avg/max) = 14.72 | 14.72 | 14.72 Mbytes
   Step          Time         Atoms        KinEng     c_granularTemp c_solidVolume    c_maxSpeed  
         0   0                   1850   9.1012507e-06  1.2191986e+14  3.9676221e-06  0.37944768   
     10000   0.002               1850   5.1486572e-06  7.0165441e+13  3.9676221e-06  0.30054234   
     20000   0.004               1850   3.1837657e-06  4.3830254e+13  3.9676221e-06  0.24158447   
     30000   0.006               1850   1.9898526e-06  2.7670476e+13  3.9676221e-06  0.19753129   
     40000   0.008               1850   1.3479263e-06  1.8978974e+13  3.9676221e-06  0.15949973   
     50000   0.01                1850   9.0985751e-07  1.295048e+13   3.9676221e-06  0.13619777   
     60000   0.012               1850   6.3821387e-07  9.1110836e+12  3.9676221e-06  0.11878661   
     70000   0.014               1850   4.8791271e-07  7.0187206e+12  3.9676221e-06  0.10577703   
     80000   0.016               1850   3.988381e-07   5.7587893e+12  3.9676221e-06  0.096056311  
     90000   0.018               1850   3.0719281e-07  4.5203269e+12  3.9676221e-06  0.088793011  
    100000   0.02                1850   2.6518966e-07  3.9544978e+12  3.9676221e-06  0.083353309  
    110000   0.022               1850   2.3232146e-07  3.4746493e+12  3.9676221e-06  0.079065902  
    120000   0.024               1850   2.1365652e-07  3.1530887e+12  3.9676221e-06  0.07609782   
    130000   0.026               1850   2.0257643e-07  2.9808376e+12  3.9676221e-06  0.073880076  
    140000   0.028               1850   1.9703945e-07  2.9115838e+12  3.9676221e-06  0.072222984  
    150000   0.03                1850   1.9303501e-07  2.8660773e+12  3.9676221e-06  0.070984808  
    160000   0.032               1850   1.9315366e-07  2.8826784e+12  3.9676221e-06  0.070059646  
    170000   0.034               1850   1.8985742e-07  2.8501032e+12  3.9676221e-06  0.069368368  
    180000   0.036               1850   1.774289e-07   2.6560917e+12  3.9676221e-06  0.068851846  
    190000   0.038               1850   1.6206834e-07  2.3837484e+12  3.9676221e-06  0.068465903  
    200000   0.04                1850   1.5956013e-07  2.347861e+12   3.9676221e-06  0.068177526  
    210000   0.042               1850   1.5417322e-07  2.2935044e+12  3.9676221e-06  0.067951939  
    220000   0.044               1850   1.5366995e-07  2.2825521e+12  3.9676221e-06  0.067793494  
    230000   0.046               1850   1.4797918e-07  2.1699822e+12  3.9676221e-06  0.067675105  
    240000   0.048               1850   1.4899655e-07  2.1737912e+12  3.9676221e-06  0.067586644  
    250000   0.05                1850   1.5141255e-07  2.2204216e+12  3.9676221e-06  0.067520547  
    260000   0.052               1850   1.4717562e-07  2.1872705e+12  3.9676221e-06  0.067465221  
    270000   0.054               1850   1.4162779e-07  2.1151834e+12  3.9676221e-06  0.06742982   
    280000   0.056               1850   1.3811924e-07  2.0452412e+12  3.9676221e-06  0.067403368  
    290000   0.058               1850   1.3933602e-07  2.0538783e+12  3.9676221e-06  0.067383603  
    300000   0.06                1850   1.4215823e-07  2.104623e+12   3.9676221e-06  0.067368835  
    310000   0.062               1850   1.3935512e-07  2.0299748e+12  3.9676221e-06  0.0673578    
    320000   0.064               1850   1.2993522e-07  1.8715671e+12  3.9676221e-06  0.067349555  
    330000   0.066               1850   1.294656e-07   1.8432529e+12  3.9676221e-06  0.067343394  
    340000   0.068               1850   1.2386304e-07  1.705164e+12   3.9676221e-06  0.067338791  
    350000   0.07                1850   1.1543372e-07  1.5694375e+12  3.9676221e-06  0.067335351  
    360000   0.072               1850   1.1227545e-07  1.5241172e+12  3.9676221e-06  0.067332159  
    370000   0.074               1850   1.1300395e-07  1.5325948e+12  3.9676221e-06  0.067330396  
    380000   0.076               1850   1.151645e-07   1.5673755e+12  3.9676221e-06  0.067329079  
    390000   0.078               1850   1.1745621e-07  1.6060648e+12  3.9676221e-06  0.067328095  
    400000   0.08                1850   1.1959338e-07  1.6444331e+12  3.9676221e-06  0.067327359  
    410000   0.082               1850   1.1067352e-07  1.5246452e+12  3.9676221e-06  0.067326809  
    420000   0.084               1850   1.0987334e-07  1.5096844e+12  3.9676221e-06  0.067326399  
    430000   0.086               1850   1.0994418e-07  1.5166259e+12  3.9676221e-06  0.067326092  
    440000   0.088               1850   1.0598413e-07  1.4609559e+12  3.9676221e-06  0.067325863  
    450000   0.09                1850   1.0598286e-07  1.4669507e+12  3.9676221e-06  0.067325691  
    460000   0.092               1850   1.0609655e-07  1.4516272e+12  3.9676221e-06  0.067325563  
    470000   0.094               1850   1.0650284e-07  1.4530721e+12  3.9676221e-06  0.067325468  
    480000   0.096               1850   1.0724185e-07  1.4700449e+12  3.9676221e-06  0.067325396  
    490000   0.098               1850   1.0812059e-07  1.4919316e+12  3.9676221e-06  0.067325343  
    500000   0.1                 1850   1.0883354e-07  1.5053698e+12  3.9676221e-06  0.067325303  
    510000   0.102               1850   1.0812922e-07  1.4833779e+12  3.9676221e-06  0.067325273  
    520000   0.104               1850   1.0840203e-07  1.4913583e+12  3.9676221e-06  0.067325251  
    530000   0.106               1850   1.0598106e-07  1.4347956e+12  3.9676221e-06  0.067325234  
    540000   0.108               1850   1.0415278e-07  1.4020719e+12  3.9676221e-06  0.067325222  
    550000   0.11                1850   9.6744299e-08  1.3051281e+12  3.9676221e-06  0.067325213  
    560000   0.112               1850   9.70564e-08    1.3077035e+12  3.9676221e-06  0.067325206  
    570000   0.114               1850   9.7306263e-08  1.3123808e+12  3.9676221e-06  0.0673252    
    580000   0.116               1850   9.0529209e-08  1.2282088e+12  3.9676221e-06  0.067325197  
    590000   0.118               1850   9.0987739e-08  1.2369043e+12  3.9676221e-06  0.067325194  
    600000   0.12                1850   8.6765632e-08  1.1942039e+12  3.9676221e-06  0.067325191  
    610000   0.122               1850   8.6685571e-08  1.2044945e+12  3.9676221e-06  0.067325189  
    620000   0.124               1850   8.6439571e-08  1.2029965e+12  3.9676221e-06  0.067325188  
    630000   0.126               1850   8.730223e-08   1.2238347e+12  3.9676221e-06  0.067325187  
    640000   0.128               1850   8.8415087e-08  1.2516245e+12  3.9676221e-06  0.067325187  
    650000   0.13                1850   8.9187192e-08  1.267574e+12   3.9676221e-06  0.067325186  
    660000   0.132               1850   8.5868989e-08  1.2199323e+12  3.9676221e-06  0.067325186  
    670000   0.134               1850   8.5191139e-08  1.1937466e+12  3.9676221e-06  0.067325186  
    680000   0.136               1850   8.5351841e-08  1.192826e+12   3.9676221e-06  0.067325186  
    690000   0.138               1850   8.6480122e-08  1.2129182e+12  3.9676221e-06  0.067325185  
    700000   0.14                1850   8.6859637e-08  1.2138316e+12  3.9676221e-06  0.067325185  
    710000   0.142               1850   8.5859271e-08  1.1960578e+12  3.9676221e-06  0.067325185  
    720000   0.144               1850   8.6365287e-08  1.2049408e+12  3.9676221e-06  0.067325185  
    730000   0.146               1850   8.4188375e-08  1.1701548e+12  3.9676221e-06  0.067325185  
    740000   0.148               1850   8.4455305e-08  1.1681793e+12  3.9676221e-06  0.067325185  
    750000   0.15                1850   8.4630208e-08  1.174257e+12   3.9676221e-06  0.067325185  
    760000   0.152               1850   8.5083572e-08  1.1875071e+12  3.9676221e-06  0.067325185  
    770000   0.154               1850   7.7368049e-08  1.0926946e+12  3.9676221e-06  0.067325185  
    780000   0.156               1850   7.009259e-08   9.913837e+11   3.9676221e-06  0.067325185  
    790000   0.158               1850   6.910522e-08   9.8214875e+11  3.9676221e-06  0.067325185  
    800000   0.16                1850   6.9854877e-08  9.9855363e+11  3.9676221e-06  0.067325185  
    810000   0.162               1850   7.0922054e-08  1.0212275e+12  3.9676221e-06  0.067325185  
    820000   0.164               1850   7.2345595e-08  1.0260722e+12  3.9676221e-06  0.067325185  
    830000   0.166               1850   6.9834905e-08  9.7940269e+11  3.9676221e-06  0.067325185  
    840000   0.168               1850   6.9859777e-08  9.7619523e+11  3.9676221e-06  0.067325185  
    850000   0.17                1850   6.8849489e-08  9.5390251e+11  3.9676221e-06  0.067325185  
    860000   0.172               1850   6.8159868e-08  9.4238647e+11  3.9676221e-06  0.067325185  
    870000   0.174               1850   6.0670602e-08  8.3243415e+11  3.9676221e-06  0.067325185  
    880000   0.176               1850   5.5379716e-08  7.7152412e+11  3.9676221e-06  0.067325185  
    890000   0.178               1850   5.5259782e-08  7.7402023e+11  3.9676221e-06  0.067325185  
    900000   0.18                1850   5.6058989e-08  7.8836286e+11  3.9676221e-06  0.067325185  
    910000   0.182               1850   5.6384412e-08  7.9176168e+11  3.9676221e-06  0.067325185  
    920000   0.184               1850   5.7205084e-08  8.0426497e+11  3.9676221e-06  0.067325185  
    930000   0.186               1850   5.6912931e-08  7.9141506e+11  3.9676221e-06  0.067325185  
    940000   0.188               1850   5.7493626e-08  7.9923119e+11  3.9676221e-06  0.067325185  
    950000   0.19                1850   4.5777983e-08  6.3617602e+11  3.9676221e-06  0.067325185  
    960000   0.192               1850   4.5875209e-08  6.368143e+11   3.9676221e-06  0.067325185  
    970000   0.194               1850   4.6397386e-08  6.4589225e+11  3.9676221e-06  0.067325185  
    980000   0.196               1850   4.6987214e-08  6.5667505e+11  3.9676221e-06  0.067325185  
    990000   0.198               1850   4.2433823e-08  5.7873733e+11  3.9676221e-06  0.067325185  
   1000000   0.2                 1850   4.2530379e-08  5.8049183e+11  3.9676221e-06  0.067325185  
   1010000   0.202               1850   4.3064694e-08  5.9160861e+11  3.9676221e-06  0.067325185  
   1020000   0.204               1850   4.3490654e-08  6.0069615e+11  3.9676221e-06  0.067325185  
   1030000   0.206               1850   3.8230834e-08  5.4631297e+11  3.9676221e-06  0.067325185  
   1040000   0.208               1850   3.1217481e-08  4.6080276e+11  3.9676221e-06  0.067325185  
   1050000   0.21                1850   3.2043396e-08  4.7879343e+11  3.9676221e-06  0.067325185  
   1060000   0.212               1850   3.1976925e-08  4.6731963e+11  3.9676221e-06  0.067325185  
   1070000   0.214               1850   3.2731935e-08  4.7785746e+11  3.9676221e-06  0.067325185  
   1080000   0.216               1850   2.8385628e-08  4.0192849e+11  3.9676221e-06  0.067325185  
   1090000   0.218               1850   2.8743155e-08  4.0668981e+11  3.9676221e-06  0.067325185  
   1100000   0.22                1850   2.9255251e-08  4.1589906e+11  3.9676221e-06  0.067325185  
   1110000   0.222               1850   2.564812e-08   3.5738288e+11  3.9676221e-06  0.067325185  
   1120000   0.224               1850   2.5816288e-08  3.5477492e+11  3.9676221e-06  0.067325185  
   1130000   0.226               1850   2.5980338e-08  3.5689393e+11  3.9676221e-06  0.067325185  
   1140000   0.228               1850   2.6365456e-08  3.6457569e+11  3.9676221e-06  0.067325185  
   1150000   0.23                1850   2.6760151e-08  3.7205766e+11  3.9676221e-06  0.067325185  
   1160000   0.232               1850   2.7215601e-08  3.8073026e+11  3.9676221e-06  0.067325185  
   1170000   0.234               1850   2.6719937e-08  3.7988194e+11  3.9676221e-06  0.067325185  
   1180000   0.236               1850   2.7541577e-08  3.9393808e+11  3.9676221e-06  0.067325185  
   1190000   0.238               1850   2.7106417e-08  3.8188251e+11  3.9676221e-06  0.067325185  
   1200000   0.24                1850   2.7446934e-08  3.8688365e+11  3.9676221e-06  0.067325185  
   1210000   0.242               1850   2.7952556e-08  3.9587129e+11  3.9676221e-06  0.067325185  
   1220000   0.244               1850   2.2613855e-08  3.3132484e+11  3.9676221e-06  0.067325185  
   1230000   0.246               1850   2.1914023e-08  3.2744964e+11  3.9676221e-06  0.067325185  
   1240000   0.248               1850   1.5268114e-08  2.2422463e+11  3.9676221e-06  0.06652144   
   1250000   0.25                1850   1.0319843e-08  1.6087828e+11  3.9676221e-06  0.063058639  
   1260000   0.252               1850   1.0884866e-08  1.7224867e+11  3.9676221e-06  0.063907102  
   1270000   0.254               1850   9.7990625e-09  1.6631022e+11  3.9676221e-06  0.056150625  
   1280000   0.256               1850   1.0075696e-08  1.715047e+11   3.9676221e-06  0.058178495  
   1290000   0.258               1850   7.5967492e-09  1.5165487e+11  3.9676221e-06  0.040291355  
   1300000   0.26                1850   8.6963395e-09  1.7360976e+11  3.9676221e-06  0.043314614  
   1310000   0.262               1850   6.5552909e-09  1.4273358e+11  3.9676221e-06  0.04088671   
   1320000   0.264               1850   5.1730006e-09  1.209706e+11   3.9676221e-06  0.031083435  
   1330000   0.266               1850   5.7417215e-09  1.3416435e+11  3.9676221e-06  0.033018832  
   1340000   0.268               1850   4.5846936e-09  1.062333e+11   3.9676221e-06  0.035306197  
   1350000   0.27                1850   5.0341809e-09  1.0920829e+11  3.9676221e-06  0.036791334  
   1360000   0.272               1850   4.9187178e-09  9.7680505e+10  3.9676221e-06  0.038916532  
   1370000   0.274               1850   4.9305983e-09  9.5334144e+10  3.9676221e-06  0.040863028  
   1380000   0.276               1850   4.958199e-09   9.5117713e+10  3.9676221e-06  0.04299449   
   1390000   0.278               1850   2.3558752e-09  5.0714436e+10  3.9676221e-06  0.01889503   
   1400000   0.28                1850   1.9828942e-09  4.3199073e+10  3.9676221e-06  0.020215609  
   1410000   0.282               1850   1.8517283e-09  4.1420614e+10  3.9676221e-06  0.021431735  
   1420000   0.284               1850   1.0256081e-09  2.721565e+10   3.9676221e-06  0.015832054  
   1430000   0.286               1850   1.0525049e-09  2.6318117e+10  3.9676221e-06  0.017688223  
   1440000   0.288               1850   1.1678429e-09  2.8123257e+10  3.9676221e-06  0.019755545  
   1450000   0.29                1850   1.251743e-09   3.170687e+10   3.9676221e-06  0.020845538  
   1460000   0.292               1850   1.445334e-09   3.7240024e+10  3.9676221e-06  0.022664343  
   1470000   0.294               1850   1.6529123e-09  4.2473208e+10  3.9676221e-06  0.024832296  
   1480000   0.296               1850   1.8990815e-09  4.9294872e+10  3.9676221e-06  0.026902153  
   1490000   0.298               1850   2.2425549e-09  4.9970368e+10  3.9676221e-06  0.029004148  
   1500000   0.3                 1850   1.8424212e-09  4.3242553e+10  3.9676221e-06  0.028077288  
   1510000   0.302               1850   2.0745829e-09  3.904399e+10   3.9676221e-06  0.029204477  
   1520000   0.304               1850   2.0922686e-09  3.8533095e+10  3.9676221e-06  0.028811772  
   1530000   0.306               1850   1.5071499e-09  2.9254091e+10  3.9676221e-06  0.028432464  
   1540000   0.308               1850   6.5521606e-11  3.8092678e+09  3.9676221e-06  0.0042493569 
   1550000   0.31                1850   3.3976966e-11  8.9500337e+08  3.9676221e-06  0.0033397491 
   1560000   0.312               1850   2.289204e-11   5.3337782e+08  3.9676221e-06  0.003380798  
   1570000   0.314               1850   2.4622226e-11  5.1896674e+08  3.9676221e-06  0.0034611836 
   1580000   0.316               1850   2.2395071e-11  4.6111713e+08  3.9676221e-06  0.0035668577 
   1590000   0.318               1850   2.5588983e-11  5.2086483e+08  3.9676221e-06  0.0036435524 
   1600000   0.32                1850   2.4902247e-11  5.0967415e+08  3.9676221e-06  0.0037417443 
   1610000   0.322               1850   2.6843214e-11  5.4533264e+08  3.9676221e-06  0.0038952881 
   1620000   0.324               1850   2.9681954e-11  6.0082351e+08  3.9676221e-06  0.0040896269 
   1630000   0.326               1850   2.7107895e-11  6.3951797e+08  3.9676221e-06  0.0039522235 
   1640000   0.328               1850   3.2225453e-11  7.2395174e+08  3.9676221e-06  0.0043311074 
   1650000   0.33                1850   3.8601615e-11  8.306654e+08   3.9676221e-06  0.0047371973 
   1660000   0.332               1850   4.2749261e-11  9.5153314e+08  3.9676221e-06  0.0049911662 
   1670000   0.334               1850   4.9173332e-11  1.0957697e+09  3.9676221e-06  0.0053532462 
   1680000   0.336               1850   5.6996033e-11  1.2640164e+09  3.9676221e-06  0.00576358   
   1690000   0.338               1850   1.1188759e-11  4.3145094e+08  3.9676221e-06  0.0020280542 
   1700000   0.34                1850   8.7398782e-12  2.8140754e+08  3.9676221e-06  0.0017116564 
   1710000   0.342               1850   1.0995096e-12  42303187       3.9676221e-06  0.00065734981
   1720000   0.344               1850   1.8500025e-12  58193087       3.9676221e-06  0.0009846177 
   1730000   0.346               1850   8.0366152e-13  41476983       3.9676221e-06  0.0004701012 
   1740000   0.348               1850   2.0596302e-13  25949836       3.9676221e-06  0.00012648902
   1750000   0.35                1850   7.5173217e-14  22113767       3.9676221e-06  5.962992e-05 
   1760000   0.352               1850   3.0218981e-14  21000395       3.9676221e-06  3.3187737e-05
   1770000   0.354               1850   1.8369769e-14  20893634       3.9676221e-06  4.7501523e-05
   1780000   0.356               1850   8.8705221e-15  20638754       3.9676221e-06  4.751208e-05 
   1790000   0.358               1850   3.8654043e-15  20467941       3.9676221e-06  2.2991498e-05
   1800000   0.36                1850   2.1395408e-15  20408242       3.9676221e-06  1.5871064e-05
   1810000   0.362               1850   2.2455455e-15  20402495       3.9676221e-06  1.8882443e-05
   1820000   0.364               1850   7.7639278e-16  20359179       3.9676221e-06  9.6760131e-06
   1830000   0.366               1850   5.9478342e-16  20348230       3.9676221e-06  9.3434115e-06
   1840000   0.368               1850   8.0092178e-16  20354550       3.9676221e-06  1.0155435e-05
   1850000   0.37                1850   4.557083e-16   20339597       3.9676221e-06  9.3228786e-06
   1860000   0.372               1850   2.2412715e-16  20331222       3.9676221e-06  9.3164782e-06
   1870000   0.374               1850   2.3935297e-16  20330042       3.9676221e-06  9.3173411e-06
   1880000   0.376               1850   2.2109715e-16  20328360       3.9676221e-06  9.304884e-06 
   1890000   0.378               1850   1.86347e-16    20326747       3.9676221e-06  9.3065667e-06
   1900000   0.38                1850   1.7318663e-16  20326110       3.9676221e-06  9.3086186e-06
   1910000   0.382               1850   1.7073333e-16  20325907       3.9676221e-06  9.301225e-06 
   1920000   0.384               1850   1.5448971e-16  20325619       3.9676221e-06  9.3082529e-06
   1930000   0.386               1850   1.4979923e-16  20326106       3.9676221e-06  9.3102485e-06
   1940000   0.388               1850   1.525855e-16   20327225       3.9676221e-06  9.3121386e-06
   1950000   0.39                1850   1.5159501e-16  20328573       3.9676221e-06  9.3213683e-06
   1960000   0.392               1850   1.5103666e-16  20330279       3.9676221e-06  9.3271576e-06
   1970000   0.394               1850   1.5105181e-16  20332362       3.9676221e-06  9.3367421e-06
   1980000   0.396               1850   1.5057143e-16  20334801       3.9676221e-06  9.3478215e-06
   1990000   0.398               1850   1.5044026e-16  20337617       3.9676221e-06  9.3598492e-06
   2000000   0.4                 1850   1.5096117e-16  20340817       3.9676221e-06  9.3739462e-06
   2010000   0.402               1850   1.5158013e-16  20344388       3.9676221e-06  9.3893396e-06
   2020000   0.404               1850   1.5203643e-16  20348322       3.9676221e-06  9.4066555e-06
   2030000   0.406               1850   1.5253135e-16  20352629       3.9676221e-06  9.4250321e-06
   2040000   0.408               1850   1.5315163e-16  20357313       3.9676221e-06  9.4456313e-06
   2050000   0.41                1850   1.5381863e-16  20362376       3.9676221e-06  9.4672693e-06
   2060000   0.412               1850   1.545729e-16   20367823       3.9676221e-06  9.4907953e-06
   2070000   0.414               1850   1.5539423e-16  20373656       3.9676221e-06  9.5159404e-06
   2080000   0.416               1850   1.5625571e-16  20379878       3.9676221e-06  9.5424503e-06
   2090000   0.418               1850   1.5717621e-16  20386493       3.9676221e-06  9.5708305e-06
   2100000   0.42                1850   1.5815014e-16  20393506       3.9676221e-06  9.6006687e-06
   2110000   0.422               1850   1.5918396e-16  20400921       3.9676221e-06  9.6321084e-06
   2120000   0.424               1850   1.6028042e-16  20408743       3.9676221e-06  9.6652702e-06
   2130000   0.426               1850   1.6143303e-16  20416977       3.9676221e-06  9.6999513e-06
   2140000   0.428               1850   1.6264619e-16  20425628       3.9676221e-06  9.7363209e-06
   2150000   0.43                1850   1.6391647e-16  20434703       3.9676221e-06  9.774283e-06 
   2160000   0.432               1850   1.6524774e-16  20444206       3.9676221e-06  9.8139154e-06
   2170000   0.434               1850   1.6663934e-16  20454144       3.9676221e-06  9.8551664e-06
   2180000   0.436               1850   1.6809313e-16  20464523       3.9676221e-06  9.8980687e-06
   2190000   0.438               1850   1.696104e-16   20475351       3.9676221e-06  9.9426398e-06
   2200000   0.44                1850   1.7119091e-16  20486634       3.9676221e-06  9.9888534e-06
   2210000   0.442               1850   1.7283698e-16  20498379       3.9676221e-06  1.003676e-05 
   2220000   0.444               1850   1.745481e-16   20510595       3.9676221e-06  1.0086322e-05
   2230000   0.446               1850   1.763265e-16   20523289       3.9676221e-06  1.0137579e-05
   2240000   0.448               1850   1.7817283e-16  20536470       3.9676221e-06  1.019052e-05 
   2250000   0.45                1850   1.8008867e-16  20550145       3.9676221e-06  1.0245163e-05
   2260000   0.452               1850   1.820755e-16   20564325       3.9676221e-06  1.0301522e-05
   2270000   0.454               1850   1.841339e-16   20579018       3.9676221e-06  1.0359588e-05
   2280000   0.456               1850   1.8626582e-16  20594234       3.9676221e-06  1.0419387e-05
   2290000   0.458               1850   1.8847204e-16  20609983       3.9676221e-06  1.0480913e-05
   2300000   0.46                1850   1.9075465e-16  20626274       3.9676221e-06  1.0544191e-05
   2310000   0.462               1850   1.9311481e-16  20643120       3.9676221e-06  1.0609221e-05
   2320000   0.464               1850   1.9555401e-16  20660530       3.9676221e-06  1.0676013e-05
   2330000   0.466               1850   1.9807425e-16  20678517       3.9676221e-06  1.0744586e-05
   2340000   0.468               1850   2.0067644e-16  20697092       3.9676221e-06  1.0814934e-05
   2350000   0.47                1850   2.0336282e-16  20716266       3.9676221e-06  1.0887081e-05
   2360000   0.472               1850   2.0613513e-16  20736054       3.9676221e-06  1.0961039e-05
   2370000   0.474               1850   2.0899492e-16  20756467       3.9676221e-06  1.103681e-05 
   2380000   0.476               1850   2.119445e-16   20777519       3.9676221e-06  1.111442e-05 
   2390000   0.478               1850   2.1498521e-16  20799223       3.9676221e-06  1.1193863e-05
   2400000   0.48                1850   2.1811952e-16  20821595       3.9676221e-06  1.1275167e-05
   2410000   0.482               1850   2.2134935e-16  20844648       3.9676221e-06  1.1358339e-05
   2420000   0.484               1850   2.2467686e-16  20868398       3.9676221e-06  1.1443395e-05
   2430000   0.486               1850   2.2810411e-16  20892860       3.9676221e-06  1.1530344e-05
   2440000   0.488               1850   2.316332e-16   20918050       3.9676221e-06  1.1619197e-05
   2450000   0.49                1850   2.352667e-16   20943984       3.9676221e-06  1.1709974e-05
   2460000   0.492               1850   2.390069e-16   20970681       3.9676221e-06  1.1802688e-05
   2470000   0.494               1850   2.4285621e-16  20998156       3.9676221e-06  1.1897352e-05
   2480000   0.496               1850   2.4681727e-16  21026429       3.9676221e-06  1.1993985e-05
   2490000   0.498               1850   2.5089262e-16  21055517       3.9676221e-06  1.2092599e-05
   2500000   0.5                 1850   2.550848e-16   21085440       3.9676221e-06  1.2193209e-05
   2510000   0.502               1850   2.5939702e-16  21116217       3.9676221e-06  1.229584e-05 
   2520000   0.504               1850   2.6383138e-16  21147868       3.9676221e-06  1.2400493e-05
   2530000   0.506               1850   2.6839108e-16  21180414       3.9676221e-06  1.250719e-05 
   2540000   0.508               1850   2.7307927e-16  21213876       3.9676221e-06  1.2615954e-05
   2550000   0.51                1850   2.7789882e-16  21248277       3.9676221e-06  1.2726796e-05
   2560000   0.512               1850   2.8285314e-16  21283638       3.9676221e-06  1.283974e-05 
   2570000   0.514               1850   2.879451e-16   21319983       3.9676221e-06  1.2954796e-05
   2580000   0.516               1850   2.9317813e-16  21357335       3.9676221e-06  1.3071984e-05
   2590000   0.518               1850   2.9855584e-16  21395719       3.9676221e-06  1.3191327e-05
   2600000   0.52                1850   3.0408181e-16  21435161       3.9676221e-06  1.3312847e-05
   2610000   0.522               1850   3.0975937e-16  21475685       3.9676221e-06  1.3436555e-05
   2620000   0.524               1850   3.1559221e-16  21517318       3.9676221e-06  1.3562472e-05
   2630000   0.526               1850   3.215845e-16   21560088       3.9676221e-06  1.3690625e-05
   2640000   0.528               1850   3.2774e-16     21604022       3.9676221e-06  1.3821031e-05
   2650000   0.53                1850   3.3406233e-16  21649149       3.9676221e-06  1.3953703e-05
   2660000   0.532               1850   3.4055611e-16  21695499       3.9676221e-06  1.4088672e-05
   2670000   0.534               1850   3.472255e-16   21743102       3.9676221e-06  1.4225958e-05
   2680000   0.536               1850   3.5407461e-16  21791989       3.9676221e-06  1.4365578e-05
   2690000   0.538               1850   3.6110795e-16  21842191       3.9676221e-06  1.4507556e-05
   2700000   0.54                1850   3.6833042e-16  21893742       3.9676221e-06  1.4651919e-05
   2710000   0.542               1850   3.7574657e-16  21946675       3.9676221e-06  1.4798689e-05
   2720000   0.544               1850   3.833611e-16   22001026       3.9676221e-06  1.4947885e-05
   2730000   0.546               1850   3.9117915e-16  22056828       3.9676221e-06  1.5099535e-05
   2740000   0.548               1850   3.9920591e-16  22114119       3.9676221e-06  1.5253665e-05
   2750000   0.55                1850   4.0744644e-16  22172936       3.9676221e-06  1.5410296e-05
   2760000   0.552               1850   4.1590623e-16  22233318       3.9676221e-06  1.5569456e-05
   2770000   0.554               1850   4.2459068e-16  22295303       3.9676221e-06  1.5731167e-05
   2780000   0.556               1850   4.3350534e-16  22358933       3.9676221e-06  1.5895454e-05
   2790000   0.558               1850   4.4265596e-16  22424249       3.9676221e-06  1.6062342e-05
   2800000   0.56                1850   4.5204916e-16  22491293       3.9676221e-06  1.623187e-05 
   2810000   0.562               1850   4.6169044e-16  22560109       3.9676221e-06  1.6404053e-05
   2820000   0.564               1850   4.7158618e-16  22630742       3.9676221e-06  1.6578921e-05
   2830000   0.566               1850   4.8174308e-16  22703238       3.9676221e-06  1.6756506e-05
   2840000   0.568               1850   4.9216796e-16  22777644       3.9676221e-06  1.693684e-05 
   2850000   0.57                1850   5.0286686e-16  22854009       3.9676221e-06  1.711994e-05 
   2860000   0.572               1850   5.13847e-16    22932382       3.9676221e-06  1.7305838e-05
   2870000   0.574               1850   5.2511583e-16  23012815       3.9676221e-06  1.749457e-05 
   2880000   0.576               1850   5.3668088e-16  23095360       3.9676221e-06  1.7686169e-05
   2890000   0.578               1850   5.4854901e-16  23180071       3.9676221e-06  1.7880656e-05
   2900000   0.58                1850   5.6072835e-16  23267002       3.9676221e-06  1.8078066e-05
   2910000   0.582               1850   5.7322723e-16  23356212       3.9676221e-06  1.827844e-05 
   2920000   0.584               1850   5.8605253e-16  23447756       3.9676221e-06  1.8481788e-05
   2930000   0.586               1850   5.9921362e-16  23541696       3.9676221e-06  1.8688161e-05
   2940000   0.588               1850   6.1271888e-16  23638092       3.9676221e-06  1.8897587e-05
   2950000   0.59                1850   6.2657801e-16  23737008       3.9676221e-06  1.9110115e-05
   2960000   0.592               1850   6.4079804e-16  23838506       3.9676221e-06  1.9325748e-05
   2970000   0.594               1850   6.5538963e-16  23942655       3.9676221e-06  1.9544542e-05
   2980000   0.596               1850   6.7036181e-16  24049520       3.9676221e-06  1.9766526e-05
   2990000   0.598               1850   6.8572426e-16  24159173       3.9676221e-06  1.9991735e-05
   3000000   0.6                 1850   7.0148748e-16  24271683       3.9676221e-06  2.0220211e-05
   3010000   0.602               1850   7.1766149e-16  24387125       3.9676221e-06  2.0451989e-05
   3020000   0.604               1850   7.3425645e-16  24505573       3.9676221e-06  2.06871e-05  
   3030000   0.606               1850   7.5128318e-16  24627105       3.9676221e-06  2.0925582e-05
   3040000   0.608               1850   7.6875332e-16  24751798       3.9676221e-06  2.1167483e-05
   3050000   0.61                1850   7.8667743e-16  24879736       3.9676221e-06  2.141283e-05 
   3060000   0.612               1850   8.0506767e-16  25010999       3.9676221e-06  2.1661669e-05
   3070000   0.614               1850   8.2393653e-16  25145675       3.9676221e-06  2.1914047e-05
   3080000   0.616               1850   8.4329561e-16  25283850       3.9676221e-06  2.2169997e-05
   3090000   0.618               1850   8.6315673e-16  25425614       3.9676221e-06  2.2429549e-05
   3100000   0.62                1850   8.8353411e-16  25571059       3.9676221e-06  2.2692763e-05
   3110000   0.622               1850   9.0444031e-16  25720280       3.9676221e-06  2.2959672e-05
   3120000   0.624               1850   9.2588966e-16  25873374       3.9676221e-06  2.3230328e-05
   3130000   0.626               1850   9.4789509e-16  26030439       3.9676221e-06  2.3504762e-05
   3140000   0.628               1850   9.7047107e-16  26191578       3.9676221e-06  2.3783021e-05
   3150000   0.63                1850   9.9363256e-16  26356895       3.9676221e-06  2.4065153e-05
   3160000   0.632               1850   1.0173941e-15  26526499       3.9676221e-06  2.4351198e-05
   3170000   0.634               1850   1.0417725e-15  26700497       3.9676221e-06  2.4641217e-05
   3180000   0.636               1850   1.0667818e-15  26879005       3.9676221e-06  2.4935238e-05
   3190000   0.638               1850   1.0924388e-15  27062137       3.9676221e-06  2.5233313e-05
   3200000   0.64                1850   1.1187611e-15  27250011       3.9676221e-06  2.5535502e-05
   3210000   0.642               1850   1.1457647e-15  27442751       3.9676221e-06  2.5841841e-05
   3220000   0.644               1850   1.1734674e-15  27640480       3.9676221e-06  2.6152381e-05
   3230000   0.646               1850   1.2018869e-15  27843327       3.9676221e-06  2.6467171e-05
   3240000   0.648               1850   1.2310417e-15  28051424       3.9676221e-06  2.6786261e-05
   3250000   0.65                1850   1.260951e-15   28264904       3.9676221e-06  2.7109707e-05
   3260000   0.652               1850   1.2916345e-15  28483907       3.9676221e-06  2.7437563e-05
   3270000   0.654               1850   1.3231107e-15  28708574       3.9676221e-06  2.7769868e-05
   3280000   0.656               1850   1.3554009e-15  28939051       3.9676221e-06  2.8106684e-05
   3290000   0.658               1850   1.3885271e-15  29175486       3.9676221e-06  2.8448076e-05
   3300000   0.66                1850   1.4225086e-15  29418033       3.9676221e-06  2.8794077e-05
   3310000   0.662               1850   1.4573682e-15  29666849       3.9676221e-06  2.9144752e-05
   3320000   0.664               1850   1.4931293e-15  29922095       3.9676221e-06  2.9500164e-05
   3330000   0.666               1850   1.5298143e-15  30183934       3.9676221e-06  2.9860362e-05
   3340000   0.668               1850   1.5674463e-15  30452538       3.9676221e-06  3.02254e-05  
   3350000   0.67                1850   1.6060505e-15  30728079       3.9676221e-06  3.0595343e-05
   3360000   0.672               1850   1.6456518e-15  31010736       3.9676221e-06  3.0970249e-05
   3370000   0.674               1850   1.6862759e-15  31300691       3.9676221e-06  3.135018e-05 
   3380000   0.676               1850   1.7279479e-15  31598131       3.9676221e-06  3.1735186e-05
   3390000   0.678               1850   1.7706956e-15  31903249       3.9676221e-06  3.2125336e-05
   3400000   0.68                1850   1.8145476e-15  32216241       3.9676221e-06  3.2520701e-05
   3410000   0.682               1850   1.8595309e-15  32537309       3.9676221e-06  3.2921333e-05
   3420000   0.684               1850   1.9056736e-15  32866660       3.9676221e-06  3.3327288e-05
   3430000   0.686               1850   1.953008e-15   33204508       3.9676221e-06  3.3738652e-05
   3440000   0.688               1850   2.0015626e-15  33551069       3.9676221e-06  3.4155473e-05
   3450000   0.69                1850   2.051369e-15   33906567       3.9676221e-06  3.457782e-05 
   3460000   0.692               1850   2.1024594e-15  34271231       3.9676221e-06  3.5005761e-05
   3470000   0.694               1850   2.1548675e-15  34645296       3.9676221e-06  3.5439371e-05
   3480000   0.696               1850   2.2086264e-15  35029003       3.9676221e-06  3.5878713e-05
   3490000   0.698               1850   2.2637715e-15  35422598       3.9676221e-06  3.6323862e-05
   3500000   0.7                 1850   2.3203358e-15  35826336       3.9676221e-06  3.6774869e-05
   3510000   0.702               1850   2.3783583e-15  36240475       3.9676221e-06  3.7231828e-05
   3520000   0.704               1850   2.4378765e-15  36665282       3.9676221e-06  3.7694811e-05
   3530000   0.706               1850   2.4989259e-15  37101030       3.9676221e-06  3.816387e-05 
   3540000   0.708               1850   2.5615477e-15  37548000       3.9676221e-06  3.8639095e-05
   3550000   0.71                1850   2.6257829e-15  38006477       3.9676221e-06  3.9120566e-05
   3560000   0.712               1850   2.6916706e-15  38476757       3.9676221e-06  3.9608343e-05
   3570000   0.714               1850   2.7592545e-15  38959141       3.9676221e-06  4.0102514e-05
   3580000   0.716               1850   2.8285789e-15  39453939       3.9676221e-06  4.0603163e-05
   3590000   0.718               1850   2.8996853e-15  39961468       3.9676221e-06  4.1110348e-05
   3600000   0.72                1850   2.972621e-15   40482054       3.9676221e-06  4.1624161e-05
   3610000   0.722               1850   3.047434e-15   41016029       3.9676221e-06  4.2144691e-05
   3620000   0.724               1850   3.1241702e-15  41563736       3.9676221e-06  4.2672006e-05
   3630000   0.726               1850   3.2028799e-15  42125525       3.9676221e-06  4.3206197e-05
   3640000   0.728               1850   3.2836107e-15  42701756       3.9676221e-06  4.374733e-05 
   3650000   0.73                1850   3.3664194e-15  43292798       3.9676221e-06  4.4295522e-05
   3660000   0.732               1850   3.451354e-15   43899027       3.9676221e-06  4.4850829e-05
   3670000   0.734               1850   3.5384725e-15  44520832       3.9676221e-06  4.5413359e-05
   3680000   0.736               1850   3.6278282e-15  45158609       3.9676221e-06  4.5983187e-05
   3690000   0.738               1850   3.719477e-15   45812765       3.9676221e-06  4.6560395e-05
   3700000   0.74                1850   3.8134819e-15  46483718       3.9676221e-06  4.7145101e-05
   3710000   0.742               1850   3.9098983e-15  47171894       3.9676221e-06  4.7737366e-05
   3720000   0.744               1850   4.0087913e-15  47877733       3.9676221e-06  4.8337306e-05
   3730000   0.746               1850   4.1102185e-15  48601684       3.9676221e-06  4.8944982e-05
   3740000   0.748               1850   4.2142498e-15  49344208       3.9676221e-06  4.956052e-05 
   3750000   0.75                1850   4.320949e-15   50105776       3.9676221e-06  5.0184001e-05
   3760000   0.752               1850   4.4303843e-15  50886873       3.9676221e-06  5.0815525e-05
   3770000   0.754               1850   4.5426254e-15  51687994       3.9676221e-06  5.1455189e-05
   3780000   0.756               1850   4.6577431e-15  52509648       3.9676221e-06  5.210309e-05 
   3790000   0.758               1850   4.7758104e-15  53352357       3.9676221e-06  5.2759328e-05
   3800000   0.76                1850   4.8969044e-15  54216653       3.9676221e-06  5.3424016e-05
   3810000   0.762               1850   5.0210966e-15  55103084       3.9676221e-06  5.4097228e-05
   3820000   0.764               1850   5.148471e-15   56012212       3.9676221e-06  5.4779095e-05
   3830000   0.766               1850   5.2791054e-15  56944611       3.9676221e-06  5.5469709e-05
   3840000   0.768               1850   5.4130826e-15  57900869       3.9676221e-06  5.6169175e-05
   3850000   0.77                1850   5.5504875e-15  58881592       3.9676221e-06  5.6877603e-05
   3860000   0.772               1850   5.6914053e-15  59887397       3.9676221e-06  5.7595092e-05
   3870000   0.774               1850   5.8359279e-15  60918917       3.9676221e-06  5.8321767e-05
   3880000   0.776               1850   5.9841424e-15  61976804       3.9676221e-06  5.905772e-05 
   3890000   0.778               1850   6.1361464e-15  63061721       3.9676221e-06  5.9803083e-05
   3900000   0.78                1850   6.2920311e-15  64174351       3.9676221e-06  6.0557948e-05
   3910000   0.782               1850   6.4518989e-15  65315393       3.9676221e-06  6.132245e-05 
   3920000   0.784               1850   6.6158467e-15  66485562       3.9676221e-06  6.2096688e-05
   3930000   0.786               1850   6.7839755e-15  67685592       3.9676221e-06  6.288077e-05 
   3940000   0.788               1850   6.9563975e-15  68916233       3.9676221e-06  6.3674847e-05
   3950000   0.79                1850   7.1332149e-15  70178256       3.9676221e-06  6.4479012e-05
   3960000   0.792               1850   7.3145387e-15  71472448       3.9676221e-06  6.5293386e-05
   3970000   0.794               1850   7.5004822e-15  72799617       3.9676221e-06  6.6118092e-05
   3980000   0.796               1850   7.691165e-15   74160591       3.9676221e-06  6.6953268e-05
   3990000   0.798               1850   7.8866991e-15  75556217       3.9676221e-06  6.7799011e-05
   4000000   0.8                 1850   8.0872128e-15  76987362       3.9676221e-06  6.8655472e-05
Loop time of 1038.94 on 1 procs for 4000000 steps with 1850 atoms

100.0% CPU use with 1 MPI tasks x 1 OpenMP threads

MPI task timing breakdown:
Section |  min time  |  avg time  |  max time  |%varavg| %total
---------------------------------------------------------------
Pair    | 798.12     | 798.12     | 798.12     |   0.0 | 76.82
Neigh   | 0.099282   | 0.099282   | 0.099282   |   0.0 |  0.01
Comm    | 0.086328   | 0.086328   | 0.086328   |   0.0 |  0.01
Output  | 0.30125    | 0.30125    | 0.30125    |   0.0 |  0.03
Modify  | 230.59     | 230.59     | 230.59     |   0.0 | 22.19
Other   |            | 9.745      |            |       |  0.94

Nlocal:           1850 ave        1850 max        1850 min
Histogram: 1 0 0 0 0 0 0 0 0 0
Nghost:              0 ave           0 max           0 min
Histogram: 1 0 0 0 0 0 0 0 0 0
Neighs:           7039 ave        7039 max        7039 min
Histogram: 1 0 0 0 0 0 0 0 0 0

Total # of neighbors = 7039
Ave neighs/atom = 3.8048649
Neighbor list builds = 166
Dangerous builds = 0
Generated 0 of 0 mixed pair_coeff terms from geometric mixing rule
Setting up Verlet run ...
  Unit style    : si
  Current step  : 4000000
  Time step     : 2e-07
Per MPI rank memory allocation (min/avg/max) = 13 | 13 | 13 Mbytes
   Step          Time         Atoms        KinEng     c_granularTemp c_solidVolume    c_maxSpeed  
   4000000   0.8                 1850   8.0872128e-15  76987362       3.9676221e-06  6.8655472e-05
Loop time of 3.02e-07 on 1 procs for 0 steps with 1850 atoms

0.0% CPU use with 1 MPI tasks x 1 OpenMP threads

MPI task timing breakdown:
Section |  min time  |  avg time  |  max time  |%varavg| %total
---------------------------------------------------------------
Pair    | 0          | 0          | 0          |   0.0 |  0.00
Neigh   | 0          | 0          | 0          |   0.0 |  0.00
Comm    | 0          | 0          | 0          |   0.0 |  0.00
Output  | 0          | 0          | 0          |   0.0 |  0.00
Modify  | 0          | 0          | 0          |   0.0 |  0.00
Other   |            | 3.02e-07   |            |       |100.00

Nlocal:           1850 ave        1850 max        1850 min
Histogram: 1 0 0 0 0 0 0 0 0 0
Nghost:              0 ave           0 max           0 min
Histogram: 1 0 0 0 0 0 0 0 0 0
Neighs:           7039 ave        7039 max        7039 min
Histogram: 1 0 0 0 0 0 0 0 0 0

Total # of neighbors = 7039
Ave neighs/atom = 3.8048649
Neighbor list builds = 0
Dangerous builds = 0
Generated 0 of 0 mixed pair_coeff terms from geometric mixing rule
Neighbor list info ...
  update: every = 1 steps, delay = 0 steps, check = yes
  max neighbors/atom: 2000, page size: 100000
  master list distance cutoff = 0.00185
  ghost atom cutoff = 0.00185
  binsize = 0.000925, bins = 18 18 76
  3 neighbor lists, perpetual/occasional/extra = 1 2 0
  (1) pair granular, perpetual
      attributes: half, newton off, size, history
      pair build: half/size/bin/atomonly/newtoff
      stencil: full/bin/3d
      bin: standard
  (2) compute property/local, occasional
      attributes: half, newton off, size
      pair build: half/size/bin/atomonly/newtoff
      stencil: full/bin/3d
      bin: standard
  (3) compute pair/local, occasional
      attributes: half, newton off, size
      pair build: half/size/bin/atomonly/newtoff
      stencil: full/bin/3d
      bin: standard
Setting up Verlet run ...
  Unit style    : si
  Current step  : 4000000
  Time step     : 2e-07
Per MPI rank memory allocation (min/avg/max) = 14.26 | 14.26 | 14.26 Mbytes
   Step          Time         Atoms        KinEng     c_granularTemp c_solidVolume    c_maxSpeed  
   4000000   0.8                 1850   8.0872128e-15  76987362       3.9676221e-06  6.8655472e-05
   4000001   0.8000002           1850   8.0872331e-15  76987507       3.9676221e-06  6.8655558e-05
Loop time of 0.00652613 on 1 procs for 1 steps with 1850 atoms

100.0% CPU use with 1 MPI tasks x 1 OpenMP threads

MPI task timing breakdown:
Section |  min time  |  avg time  |  max time  |%varavg| %total
---------------------------------------------------------------
Pair    | 0.00020811 | 0.00020811 | 0.00020811 |   0.0 |  3.19
Neigh   | 0          | 0          | 0          |   0.0 |  0.00
Comm    | 8.6e-08    | 8.6e-08    | 8.6e-08    |   0.0 |  0.00
Output  | 0.006255   | 0.006255   | 0.006255   |   0.0 | 95.85
Modify  | 5.9356e-05 | 5.9356e-05 | 5.9356e-05 |   0.0 |  0.91
Other   |            | 3.535e-06  |            |       |  0.05

Nlocal:           1850 ave        1850 max        1850 min
Histogram: 1 0 0 0 0 0 0 0 0 0
Nghost:              0 ave           0 max           0 min
Histogram: 1 0 0 0 0 0 0 0 0 0
Neighs:           7039 ave        7039 max        7039 min
Histogram: 1 0 0 0 0 0 0 0 0 0

Total # of neighbors = 7039
Ave neighs/atom = 3.8048649
Neighbor list builds = 0
Dangerous builds = 0
System init for write_data ...
Generated 0 of 0 mixed pair_coeff terms from geometric mixing rule
System init for write_restart ...
Generated 0 of 0 mixed pair_coeff terms from geometric mixing rule
seed Ntarget Nfinal dp_m density_kgm3 Dtube_m D_over_dp solidVolume_m3 bedHeight_m bedVolume_m3 packingFraction porosity minParticleBottom_m kineticEnergy_J maxSpeed_ms
74167 1850 1850 0.0016 1600 0.016 10 3.96762208197362e-06 0.0373355549689797 7.50675873332764e-06 0.528539976162898 0.471460023837102 -1.1506941350512e-06 8.08723310402864e-15 6.86555577469924e-05
Packing generation completed: co2_13x_seed_74167
ACCEPT only if Nfinal=Ntarget, the bed is settled, and overlap/geometry checks pass.
For the 20-packing pilot, change only seed_realization.
CO2 diffusion and particle LDF adsorption are added later in the pore-network solver, not here.
Total wall time: 0:22:54
