Authorization required, but no authorization protocol specified

Authorization required, but no authorization protocol specified

Authorization required, but no authorization protocol specified

Authorization required, but no authorization protocol specified

LAMMPS (22 Jul 2025 - Update 5)
OMP_NUM_THREADS environment is not set. Defaulting to 1 thread.
  using 1 OpenMP thread(s) per MPI task
OMP_NUM_THREADS environment is not set. Defaulting to 1 thread.
  using 1 OpenMP thread(s) per MPI task
CO2 sorbent = commercial zeolite 13X (mechanical packing only)
Realization seed = 31991
Target particle count = 1850
Bead diameter [m] = 0.0016
Tube diameter [m] = 0.016
Tube-to-particle diameter ratio = 10
Target solid volume [m^3] = 3.96762208197367e-06
Created orthogonal box = (-0.008 -0.008 0) to (0.008 0.008 0.07)
  1 by 1 by 1 MPI processor grid
Generated 0 of 0 mixed pair_coeff terms from geometric mixing rule
Particle insertion: 303 every 319275 steps, 1850 by step 1915651
Neighbor list info ...
  update: every = 1 steps, delay = 0 steps, check = yes
  max neighbors/atom: 2000, page size: 100000
  master list distance cutoff = 0.00185
  ghost atom cutoff = 0.00185
  binsize = 0.000925, bins = 18 18 76
  1 neighbor lists, perpetual/occasional/extra = 1 0 0
  (1) pair granular, perpetual
      attributes: half, newton off, size, history
      pair build: half/size/bin/atomonly/newtoff
      stencil: full/bin/3d
      bin: standard
Setting up Verlet run ...
  Unit style    : si
  Current step  : 0
  Time step     : 2e-07
Per MPI rank memory allocation (min/avg/max) = 7.438 | 7.438 | 7.438 Mbytes
   Step          Time         Atoms        KinEng     c_granularTemp c_solidVolume    c_maxSpeed  
         0   0                      0  -0              0              0             -1e+20        
WARNING: Fewer insertions than requested (src/GRANULAR/fix_pour.cpp:691)
     10000   0.002                212  -0              5.7496191e+15  4.5466804e-07  0.60953836   
     20000   0.004                212  -0              5.6218694e+15  4.5466804e-07  0.59408649   
     30000   0.006                212  -0              5.5089017e+15  4.5466804e-07  0.57950947   
     40000   0.008                212  -0              5.4090484e+15  4.5466804e-07  0.56575779   
     50000   0.01                 212  -0              5.3208279e+15  4.5466804e-07  0.5527847    
     60000   0.012                212  -0              5.2429234e+15  4.5466804e-07  0.54054613   
     70000   0.014                212  -0              5.1741656e+15  4.5466804e-07  0.52900048   
     80000   0.016                212  -0              5.1135154e+15  4.5466804e-07  0.51810854   
     90000   0.018                212  -0              5.06005e+15    4.5466804e-07  0.50783327   
    100000   0.02                 212  -0              5.0129499e+15  4.5466804e-07  0.49813978   
    110000   0.022                212  -0              4.9714875e+15  4.5466804e-07  0.48899512   
    120000   0.024                212  -0              4.9350166e+15  4.5466804e-07  0.48036821   
    130000   0.026                212  -0              4.9029637e+15  4.5466804e-07  0.47222975   
    140000   0.028                212  -0              4.8748198e+15  4.5466804e-07  0.46455207   
    150000   0.03                 212  -0              4.8501331e+15  4.5466804e-07  0.4573091    
    160000   0.032                212  -0              4.8285028e+15  4.5466804e-07  0.4504762    
    170000   0.034                212  -0              4.8095733e+15  4.5466804e-07  0.44403018   
    180000   0.036                212  -0              4.7930293e+15  4.5466804e-07  0.43794912   
    190000   0.038                212  -0              4.7785912e+15  4.5466804e-07  0.43221236   
    200000   0.04                 212  -0              4.7660111e+15  4.5466804e-07  0.4268004    
    210000   0.042                212  -0              4.7550694e+15  4.5466804e-07  0.42169486   
    220000   0.044                212  -0              4.7455713e+15  4.5466804e-07  0.41687839   
    230000   0.046                212  -0              4.7373444e+15  4.5466804e-07  0.41233463   
    240000   0.048                212  -0              4.7302361e+15  4.5466804e-07  0.40804812   
    250000   0.05                 212  -0              4.7241112e+15  4.5466804e-07  0.4040043    
    260000   0.052                212  -0              4.7188501e+15  4.5466804e-07  0.40018945   
    270000   0.054                212  -0              4.714347e+15   4.5466804e-07  0.39659058   
    280000   0.056                212  -0              4.7105084e+15  4.5466804e-07  0.39319547   
    290000   0.058                212  -0              4.7072516e+15  4.5466804e-07  0.38999259   
    300000   0.06                 212  -0              4.7045035e+15  4.5466804e-07  0.38697106   
    310000   0.062                212  -0              4.7021996e+15  4.5466804e-07  0.38412059   
WARNING: Fewer insertions than requested (src/GRANULAR/fix_pour.cpp:691)
    320000   0.064                387  -0              4.9396348e+15  8.2998365e-07  0.62474354   
    330000   0.066                387  -0              4.879165e+15   8.2998365e-07  0.60843077   
    340000   0.068                387  -0              4.8352154e+15  8.2998365e-07  0.59304161   
    350000   0.07                 387  -0              4.7950301e+15  8.2998365e-07  0.57852375   
    360000   0.072                387  -0              4.7521028e+15  8.2998365e-07  0.56482788   
    370000   0.074                387  -0              4.7267497e+15  8.2998365e-07  0.55190744   
    380000   0.076                387  -0              4.7071075e+15  8.2998365e-07  0.53971854   
    390000   0.078                387  -0              4.6890082e+15  8.2998365e-07  0.52821975   
    400000   0.08                 387  -0              4.6727138e+15  8.2998365e-07  0.51363975   
    410000   0.082                387  -0              4.6621101e+15  8.2998365e-07  0.50361751   
    420000   0.084                387  -0              4.6288429e+15  8.2998365e-07  0.4941627    
    430000   0.086                387  -0              4.6033525e+15  8.2998365e-07  0.48524322   
    440000   0.088                387  -0              4.543617e+15   8.2998365e-07  0.47682874   
    450000   0.09                 387  -0              4.4553207e+15  8.2998365e-07  0.46889067   
    460000   0.092                387  -0              4.3811566e+15  8.2998365e-07  0.46140205   
    470000   0.094                387  -0              4.3629811e+15  8.2998365e-07  0.45433742   
    480000   0.096                387  -0              4.3412591e+15  8.2998365e-07  0.44767278   
    490000   0.098                387  -0              4.3105491e+15  8.2998365e-07  0.44138548   
    500000   0.1                  387  -0              4.2706575e+15  8.2998365e-07  0.43545416   
    510000   0.102                387  -0              4.2268286e+15  8.2998365e-07  0.42985866   
    520000   0.104                387  -0              4.1802259e+15  8.2998365e-07  0.42457997   
    530000   0.106                387  -0              4.1386658e+15  8.2998365e-07  0.41960015   
    540000   0.108                387  -0              4.1092237e+15  8.2998365e-07  0.41490228   
    550000   0.11                 387  -0              4.0583659e+15  8.2998365e-07  0.41047039   
    560000   0.112                387  -0              3.9683094e+15  8.2998365e-07  0.40628943   
    570000   0.114                387  -0              3.9589985e+15  8.2998365e-07  0.40234519   
    580000   0.116                387  -0              3.9521886e+15  8.2998365e-07  0.39862427   
    590000   0.118                387  -0              3.9239246e+15  8.2998365e-07  0.39511402   
    600000   0.12                 387  -0              3.9131072e+15  8.2998365e-07  0.39180252   
    610000   0.122                387  -0              3.8893388e+15  8.2998365e-07  0.38867851   
    620000   0.124                387  -0              3.8475986e+15  8.2998365e-07  0.38573137   
    630000   0.126                387  -0              3.8012792e+15  8.2998365e-07  0.3829511    
WARNING: Fewer insertions than requested (src/GRANULAR/fix_pour.cpp:691)
    640000   0.128                566  -0              4.1556291e+15  1.2138779e-06  0.61899556   
    650000   0.13                 566  -0              4.0874434e+15  1.2138779e-06  0.60300823   
    660000   0.132                566  -0              4.0339311e+15  1.2138779e-06  0.58792608   
    670000   0.134                566  -0              3.9846128e+15  1.2138779e-06  0.57369786   
    680000   0.136                566  -0              3.9387866e+15  1.2138779e-06  0.56027522   
    690000   0.138                566  -0              3.8894087e+15  1.2138779e-06  0.54761254   
    700000   0.14                 566  -0              3.8516954e+15  1.2138779e-06  0.53566681   
    710000   0.142                566  -0              3.8238756e+15  1.2138779e-06  0.52439743   
    720000   0.144                566  -0              3.78417e+15    1.2138779e-06  0.5137661    
    730000   0.146                566  -0              3.76178e+15    1.2138779e-06  0.5037367    
    740000   0.148                566  -0              3.7118571e+15  1.2138779e-06  0.47141329   
    750000   0.15                 566  -0              3.6745053e+15  1.2138779e-06  0.46378184   
    760000   0.152                566  -0              3.6014361e+15  1.2138779e-06  0.45658247   
    770000   0.154                566  -0              3.5590186e+15  1.2138779e-06  0.44979072   
    780000   0.156                566  -0              3.4991302e+15  1.2138779e-06  0.4433835    
    790000   0.158                566  -0              3.459119e+15   1.2138779e-06  0.43733906   
    800000   0.16                 566  -0              3.4158896e+15  1.2138779e-06  0.43163684   
    810000   0.162                566  -0              3.3663093e+15  1.2138779e-06  0.42625747   
    820000   0.164                566  -0              3.3143181e+15  1.2138779e-06  0.42118267   
    830000   0.166                566  -0              3.2609284e+15  1.2138779e-06  0.41212768   
    840000   0.168                566  -0              3.1980181e+15  1.2138779e-06  0.40784222   
    850000   0.17                 566  -0              3.1138666e+15  1.2138779e-06  0.40380037   
    860000   0.172                566  -0              3.0504765e+15  1.2138779e-06  0.39998827   
    870000   0.174                566  -0              2.9682307e+15  1.2138779e-06  0.39639282   
    880000   0.176                566  -0              2.8882338e+15  1.2138779e-06  0.3930017    
    890000   0.178                566  -0              2.795972e+15   1.2138779e-06  0.38980325   
    900000   0.18                 566  -0              2.7163105e+15  1.2138779e-06  0.38678653   
    910000   0.182                566  -0              2.6313896e+15  1.2138779e-06  0.38394118   
    920000   0.184                566  -0              2.5463039e+15  1.2138779e-06  0.38125744   
    930000   0.186                566  -0              2.5094648e+15  1.2138779e-06  0.37872613   
    940000   0.188                566  -0              2.4541622e+15  1.2138779e-06  0.37633856   
    950000   0.19                 566  -0              2.4227657e+15  1.2138779e-06  0.37408656   
WARNING: Fewer insertions than requested (src/GRANULAR/fix_pour.cpp:691)
    960000   0.192                785  -0              3.3001101e+15  1.6835586e-06  0.61976239   
    970000   0.194                785  -0              3.2327112e+15  1.6835586e-06  0.60373165   
    980000   0.196                785  -0              3.1708179e+15  1.6835586e-06  0.58860854   
    990000   0.198                785  -0              3.1136307e+15  1.6835586e-06  0.57434168   
   1000000   0.2                  785  -0              3.0708853e+15  1.6835586e-06  0.56088258   
   1010000   0.202                785  -0              3.0063576e+15  1.6835586e-06  0.54818552   
   1020000   0.204                785  -0              2.9691229e+15  1.6835586e-06  0.53620735   
   1030000   0.206                785  -0              2.9264605e+15  1.6835586e-06  0.52490736   
   1040000   0.208                785  -0              2.8795649e+15  1.6835586e-06  0.51424716   
   1050000   0.21                 785  -0              2.8237822e+15  1.6835586e-06  0.49366772   
   1060000   0.212                785  -0              2.7630818e+15  1.6835586e-06  0.48315982   
   1070000   0.214                785  -0              2.7286306e+15  1.6835586e-06  0.4748633    
   1080000   0.216                785  -0              2.7016247e+15  1.6835586e-06  0.46703651   
   1090000   0.218                785  -0              2.6555339e+15  1.6835586e-06  0.45965287   
   1100000   0.22                 785  -0              2.6147388e+15  1.6835586e-06  0.45268728   
   1110000   0.222                785  -0              2.5718122e+15  1.6835586e-06  0.44611606   
   1120000   0.224                785  -0              2.5238408e+15  1.6835586e-06  0.4399169    
   1130000   0.226                785  -0              2.4679662e+15  1.6835586e-06  0.43406873   
   1140000   0.228                785  -0              2.3940653e+15  1.6835586e-06  0.42855167   
   1150000   0.23                 785  -0              2.3278721e+15  1.6835586e-06  0.40892545   
   1160000   0.232                785  -0              2.2720991e+15  1.6835586e-06  0.40483196   
   1170000   0.234                785  -0              2.2049841e+15  1.6835586e-06  0.40097024   
   1180000   0.236                785  -0              2.1651607e+15  1.6835586e-06  0.39732717   
   1190000   0.238                785  -0              2.1098479e+15  1.6835586e-06  0.39389036   
   1200000   0.24                 785  -0              2.0705401e+15  1.6835586e-06  0.39064814   
   1210000   0.242                785  -0              2.0570947e+15  1.6835586e-06  0.38758948   
   1220000   0.244                785  -0              2.0342844e+15  1.6835586e-06  0.38470401   
   1230000   0.246                785  -0              2.008278e+15   1.6835586e-06  0.3819819    
   1240000   0.248                785  -0              1.9802985e+15  1.6835586e-06  0.37941392   
   1250000   0.25                 785  -0              1.9554587e+15  1.6835586e-06  0.37699133   
   1260000   0.252                785  -0              1.9385392e+15  1.6835586e-06  0.3747059    
   1270000   0.254                785  -0              1.9147469e+15  1.6835586e-06  0.37254987   
WARNING: Fewer insertions than requested (src/GRANULAR/fix_pour.cpp:691)
   1280000   0.256               1018  -0              2.7540473e+15  2.1832645e-06  0.6201316    
   1290000   0.258               1018  -0              2.6767345e+15  2.1832645e-06  0.60407995   
   1300000   0.26                1018  -0              2.5964541e+15  2.1832645e-06  0.58893712   
   1310000   0.262               1018  -0              2.5077949e+15  2.1832645e-06  0.57185479   
   1320000   0.264               1018  -0              2.4510254e+15  2.1832645e-06  0.5585365    
   1330000   0.266               1018  -0              2.4020903e+15  2.1832645e-06  0.54597227   
   1340000   0.268               1018  -0              2.3519201e+15  2.1832645e-06  0.53269447   
   1350000   0.27                1018  -0              2.3171573e+15  2.1832645e-06  0.52159337   
   1360000   0.272               1018  -0              2.2754828e+15  2.1832645e-06  0.5111208    
   1370000   0.274               1018  -0              2.2219217e+15  2.1832645e-06  0.50124118   
   1380000   0.276               1018  -0              2.1755153e+15  2.1832645e-06  0.49192092   
   1390000   0.278               1018  -0              2.1133791e+15  2.1832645e-06  0.48312836   
   1400000   0.28                1018  -0              2.0425234e+15  2.1832645e-06  0.47483362   
   1410000   0.282               1018  -0              1.995781e+15   2.1832645e-06  0.46700852   
   1420000   0.284               1018  -0              1.9589975e+15  2.1832645e-06  0.45962646   
   1430000   0.286               1018  -0              1.9049727e+15  2.1832645e-06  0.45266236   
   1440000   0.288               1018  -0              1.8590974e+15  2.1832645e-06  0.44609256   
   1450000   0.29                1018  -0              1.8095543e+15  2.1832645e-06  0.43989473   
   1460000   0.292               1018  -0              1.7592688e+15  2.1832645e-06  0.43404781   
   1470000   0.294               1018  -0              1.7220469e+15  2.1832645e-06  0.42853194   
   1480000   0.296               1018  -0              1.6907538e+15  2.1832645e-06  0.42332836   
   1490000   0.298               1018  -0              1.6786868e+15  2.1832645e-06  0.41841941   
   1500000   0.3                 1018  -0              1.6494093e+15  2.1832645e-06  0.41378839   
   1510000   0.302               1018  -0              1.6340376e+15  2.1832645e-06  0.40941957   
   1520000   0.304               1018  -0              1.6093318e+15  2.1832645e-06  0.40529811   
   1530000   0.306               1018  -0              1.5862589e+15  2.1832645e-06  0.40140999   
   1540000   0.308               1018  -0              1.5523293e+15  2.1832645e-06  0.38103101   
   1550000   0.31                1018  -0              1.5194124e+15  2.1832645e-06  0.37850142   
   1560000   0.312               1018  -0              1.4926273e+15  2.1832645e-06  0.37611658   
   1570000   0.314               1018  -0              1.4663779e+15  2.1832645e-06  0.37114829   
   1580000   0.316               1018  -0              1.4237489e+15  2.1832645e-06  0.36919189   
   1590000   0.318               1018  -0              1.3634819e+15  2.1832645e-06  0.36734645   
WARNING: Fewer insertions than requested (src/GRANULAR/fix_pour.cpp:691)
   1600000   0.32                1224  -0              1.9988489e+15  2.6250646e-06  0.60899613   
   1610000   0.322               1224  -0              1.9260938e+15  2.6250646e-06  0.5924861    
   1620000   0.324               1224  -0              1.8678092e+15  2.6250646e-06  0.5779997    
   1630000   0.326               1224  -0              1.8191774e+15  2.6250646e-06  0.56433349   
   1640000   0.328               1224  -0              1.7727496e+15  2.6250646e-06  0.55144105   
   1650000   0.33                1224  -0              1.722492e+15   2.6250646e-06  0.53927855   
   1660000   0.332               1224  -0              1.6481308e+15  2.6250646e-06  0.52780468   
   1670000   0.334               1224  -0              1.5781672e+15  2.6250646e-06  0.49732705   
   1680000   0.336               1224  -0              1.5468919e+15  2.6250646e-06  0.4882284    
   1690000   0.338               1224  -0              1.4932713e+15  2.6250646e-06  0.47437217   
   1700000   0.34                1224  -0              1.4478343e+15  2.6250646e-06  0.46657319   
   1710000   0.342               1224  -0              1.3885056e+15  2.6250646e-06  0.45921578   
   1720000   0.344               1224  -0              1.3367045e+15  2.6250646e-06  0.45227493   
   1730000   0.346               1224  -0              1.2986853e+15  2.6250646e-06  0.44572707   
   1740000   0.348               1224  -0              1.2720766e+15  2.6250646e-06  0.43954993   
   1750000   0.35                1224  -0              1.2481169e+15  2.6250646e-06  0.43372253   
   1760000   0.352               1224  -0              1.2288945e+15  2.6250646e-06  0.42822508   
   1770000   0.354               1224  -0              1.2179954e+15  2.6250646e-06  0.4066109    
   1780000   0.356               1224  -0              1.1997198e+15  2.6250646e-06  0.40261133   
   1790000   0.358               1224  -0              1.1913683e+15  2.6250646e-06  0.39884166   
   1800000   0.36                1224  -0              1.1755003e+15  2.6250646e-06  0.39528857   
   1810000   0.362               1224  -0              1.1574372e+15  2.6250646e-06  0.38375634   
   1820000   0.364               1224  -0              1.1396246e+15  2.6250646e-06  0.38106237   
   1830000   0.366               1224  -0              1.1168406e+15  2.6250646e-06  0.37852342   
   1840000   0.368               1224  -0              1.0813014e+15  2.6250646e-06  0.37613049   
   1850000   0.37                1224  -0              1.0290798e+15  2.6250646e-06  0.36801863   
   1860000   0.372               1224  -0              9.971389e+14   2.6250646e-06  0.36623913   
   1870000   0.374               1224  -0              9.5277736e+14  2.6250646e-06  0.36456059   
   1880000   0.376               1224  -0              9.0563501e+14  2.6250646e-06  0.36297728   
   1890000   0.378               1224  -0              8.6461908e+14  2.6250646e-06  0.36148379   
   1900000   0.38                1224  -0              8.3468426e+14  2.6250646e-06  0.35753781   
   1910000   0.382               1224  -0              8.015581e+14   2.6250646e-06  0.35258751   
WARNING: Fewer insertions than requested (src/GRANULAR/fix_pour.cpp:691)
   1920000   0.384               1434  -0              1.4447317e+15  3.0754433e-06  0.61609061   
   1930000   0.386               1434  -0              1.3791631e+15  3.0754433e-06  0.60026775   
   1940000   0.388               1434  -0              1.3163962e+15  3.0754433e-06  0.58534077   
   1950000   0.39                1434  -0              1.2710243e+15  3.0754433e-06  0.57125892   
   1960000   0.392               1434  -0              1.2277964e+15  3.0754433e-06  0.55797437   
   1970000   0.394               1434  -0              1.1846126e+15  3.0754433e-06  0.53872148   
   1980000   0.396               1434  -0              1.1415252e+15  3.0754433e-06  0.52727914   
   1990000   0.398               1434  -0              1.1114514e+15  3.0754433e-06  0.51414532   
   2000000   0.4                 1434  -0              1.0801086e+15  3.0754433e-06  0.5035448    
   2010000   0.402               1434  -0              1.0517935e+15  3.0754433e-06  0.49409253   
   2020000   0.404               1434  -0              1.040305e+15   3.0754433e-06  0.48517555   
   2030000   0.406               1434  -0              1.0269195e+15  3.0754433e-06  0.47676355   
   2040000   0.408               1434  -0              1.0199119e+15  3.0754433e-06  0.46882793   
   2050000   0.41                1434  -0              1.0088621e+15  3.0754433e-06  0.46134171   
   2060000   0.412               1434  -0              9.8486741e+14  3.0754433e-06  0.45427945   
   2070000   0.414               1434  -0              9.6276159e+14  3.0754433e-06  0.4457067    
   2080000   0.416               1434  -0              9.3839194e+14  3.0754433e-06  0.43953072   
   2090000   0.418               1434  -0              9.1067323e+14  3.0754433e-06  0.43370441   
   2100000   0.42                1434  -0              8.8002214e+14  3.0754433e-06  0.4014549    
   2110000   0.422               1434  -0              8.2254719e+14  3.0754433e-06  0.39778439   
   2120000   0.424               1434  -0              7.8643084e+14  3.0754433e-06  0.39432169   
   2130000   0.426               1434  -0              7.4969877e+14  3.0754433e-06  0.39105505   
   2140000   0.428               1434  -0              7.1549892e+14  3.0754433e-06  0.38470911   
   2150000   0.43                1434  -0              6.9428842e+14  3.0754433e-06  0.38198672   
   2160000   0.432               1434  -0              6.6044676e+14  3.0754433e-06  0.36889018   
   2170000   0.434               1434  -0              6.3840685e+14  3.0754433e-06  0.36706342   
   2180000   0.436               1434  -0              6.0997602e+14  3.0754433e-06  0.35598265   
   2190000   0.438               1434  -0              5.746251e+14   3.0754433e-06  0.3548867    
   2200000   0.44                1434  -0              5.5240486e+14  3.0754433e-06  0.3538528    
   2210000   0.442               1434  -0              5.2651043e+14  3.0754433e-06  0.35287745   
   2220000   0.444               1434  -0              5.0287339e+14  3.0754433e-06  0.34899892   
   2230000   0.446               1434  -0              4.7086399e+14  3.0754433e-06  0.34752766   
WARNING: Fewer insertions than requested (src/GRANULAR/fix_pour.cpp:691)
   2240000   0.448               1610  -0              9.7619498e+14  3.4529035e-06  0.61655096   
   2250000   0.45                1610  -0              9.2830621e+14  3.4529035e-06  0.59468966   
   2260000   0.452               1610  -0              9.0474323e+14  3.4529035e-06  0.58007849   
   2270000   0.454               1610  -0              8.873784e+14   3.4529035e-06  0.56629459   
   2280000   0.456               1610  -0              8.6958364e+14  3.4529035e-06  0.55329111   
   2290000   0.458               1610  -0              8.5778243e+14  3.4529035e-06  0.54102387   
   2300000   0.46                1610  -0              8.4157346e+14  3.4529035e-06  0.52945117   
   2310000   0.462               1610  -0              8.2537963e+14  3.4529035e-06  0.51853371   
   2320000   0.464               1610  -0              8.1824346e+14  3.4529035e-06  0.50823438   
   2330000   0.466               1610  -0              7.9986623e+14  3.4529035e-06  0.49851817   
   2340000   0.468               1610  -0              7.9656748e+14  3.4529035e-06  0.48935209   
   2350000   0.47                1610  -0              7.8041216e+14  3.4529035e-06  0.4479126    
   2360000   0.472               1610  -0              7.6303162e+14  3.4529035e-06  0.44160868   
   2370000   0.474               1610  -0              7.3784952e+14  3.4529035e-06  0.43566193   
   2380000   0.476               1610  -0              7.1437586e+14  3.4529035e-06  0.43005212   
   2390000   0.478               1610  -0              6.8601481e+14  3.4529035e-06  0.40614951   
   2400000   0.48                1610  -0              6.4619111e+14  3.4529035e-06  0.39758826   
   2410000   0.482               1610  -0              6.1974769e+14  3.4529035e-06  0.3896483    
   2420000   0.484               1610  -0              5.7245617e+14  3.4529035e-06  0.38307602   
   2430000   0.486               1610  -0              5.4716811e+14  3.4529035e-06  0.36977521   
   2440000   0.488               1610  -0              5.1016235e+14  3.4529035e-06  0.36495279   
   2450000   0.49                1610  -0              4.8723902e+14  3.4529035e-06  0.36333063   
   2460000   0.492               1610  -0              4.7119041e+14  3.4529035e-06  0.36180219   
   2470000   0.494               1610  -0              4.4730778e+14  3.4529035e-06  0.36036198   
   2480000   0.496               1610  -0              4.1971007e+14  3.4529035e-06  0.35794033   
   2490000   0.498               1610  -0              3.8492901e+14  3.4529035e-06  0.35367086   
   2500000   0.5                 1610  -0              3.6495917e+14  3.4529035e-06  0.35002503   
   2510000   0.502               1610  -0              3.3278264e+14  3.4529035e-06  0.34750667   
   2520000   0.504               1610  -0              3.0242349e+14  3.4529035e-06  0.34548822   
   2530000   0.506               1610  -0              2.7894733e+14  3.4529035e-06  0.34498645   
   2540000   0.508               1610  -0              2.6399027e+14  3.4529035e-06  0.3425817    
   2550000   0.51                1610  -0              2.5317974e+14  3.4529035e-06  0.3392795    
WARNING: Fewer insertions than requested (src/GRANULAR/fix_pour.cpp:691)
   2560000   0.512               1822  -0              8.402885e+14   3.9075716e-06  0.60632002   
   2570000   0.514               1822  -0              8.1771469e+14  3.9075716e-06  0.59105037   
   2580000   0.516               1822  -0              7.9488846e+14  3.9075716e-06  0.57664525   
   2590000   0.518               1822  -0              7.7884282e+14  3.9075716e-06  0.56305573   
   2600000   0.52                1822  -0              7.614899e+14   3.9075716e-06  0.55023563   
   2610000   0.522               1822  -0              7.4277385e+14  3.9075716e-06  0.535289     
   2620000   0.524               1822  -0              7.3345883e+14  3.9075716e-06  0.524041     
   2630000   0.526               1822  -0              7.2591859e+14  3.9075716e-06  0.51342985   
   2640000   0.528               1822  -0              6.9031033e+14  3.9075716e-06  0.49316995   
   2650000   0.53                1822  -0              6.695805e+14   3.9075716e-06  0.48216497   
   2660000   0.532               1822  -0              6.3778632e+14  3.9075716e-06  0.466683     
   2670000   0.534               1822  -0              5.9395311e+14  3.9075716e-06  0.43028486   
   2680000   0.536               1822  -0              5.7010217e+14  3.9075716e-06  0.41757653   
   2690000   0.538               1822  -0              5.414262e+14   3.9075716e-06  0.39855953   
   2700000   0.54                1822  -0              5.1710002e+14  3.9075716e-06  0.39505295   
   2710000   0.542               1822  -0              4.9090772e+14  3.9075716e-06  0.38347907   
   2720000   0.544               1822  -0              4.661031e+14   3.9075716e-06  0.38081745   
   2730000   0.546               1822  -0              4.2509786e+14  3.9075716e-06  0.37830739   
   2740000   0.548               1822  -0              3.9314177e+14  3.9075716e-06  0.37237432   
   2750000   0.55                1822  -0              3.6118723e+14  3.9075716e-06  0.37035031   
   2760000   0.552               1822  -0              3.2983001e+14  3.9075716e-06  0.36087861   
   2770000   0.554               1822  -0              3.1504604e+14  3.9075716e-06  0.35950546   
   2780000   0.556               1822  -0              2.9491874e+14  3.9075716e-06  0.35196798   
   2790000   0.558               1822  -0              2.8632256e+14  3.9075716e-06  0.3491205    
   2800000   0.56                1822  -0              2.7651126e+14  3.9075716e-06  0.34466422   
   2810000   0.562               1822  -0              2.6609477e+14  3.9075716e-06  0.34262486   
   2820000   0.564               1822  -0              2.5629513e+14  3.9075716e-06  0.34228521   
   2830000   0.566               1822  -0              2.5047156e+14  3.9075716e-06  0.3373578    
   2840000   0.568               1822  -0              2.4327102e+14  3.9075716e-06  0.33702933   
   2850000   0.57                1822  -0              2.407079e+14   3.9075716e-06  0.33504564   
   2860000   0.572               1822  -0              2.3103885e+14  3.9075716e-06  0.33570464   
   2870000   0.574               1822  -0              2.1631415e+14  3.9075716e-06  0.33536177   
   2880000   0.576               1850  -0              2.8110924e+14  3.9676221e-06  0.60197064   
   2890000   0.578               1850  -0              2.6708367e+14  3.9676221e-06  0.58694724   
   2900000   0.58                1850  -0              2.5654638e+14  3.9676221e-06  0.57277444   
   2910000   0.582               1850  -0              2.4898182e+14  3.9676221e-06  0.55940408   
   2920000   0.584               1850  -0              2.3536279e+14  3.9676221e-06  0.5083311    
   2930000   0.586               1850  -0              2.2174303e+14  3.9676221e-06  0.48794153   
   2940000   0.588               1850  -0              2.091239e+14   3.9676221e-06  0.47937428   
   2950000   0.59                1850  -0              2.0104746e+14  3.9676221e-06  0.47129209   
   2960000   0.592               1850  -0              1.8352438e+14  3.9676221e-06  0.4636675    
   2970000   0.594               1850  -0              1.7117997e+14  3.9676221e-06  0.38889965   
   2980000   0.596               1850  -0              1.6128083e+14  3.9676221e-06  0.38592152   
   2990000   0.598               1850  -0              1.4627147e+14  3.9676221e-06  0.37922264   
   3000000   0.6                 1850  -0              1.2976036e+14  3.9676221e-06  0.37681089   
Loop time of 374.366 on 1 procs for 3000000 steps with 1850 atoms

100.0% CPU use with 1 MPI tasks x 1 OpenMP threads

MPI task timing breakdown:
Section |  min time  |  avg time  |  max time  |%varavg| %total
---------------------------------------------------------------
Pair    | 281.45     | 281.45     | 281.45     |   0.0 | 75.18
Neigh   | 0.56372    | 0.56372    | 0.56372    |   0.0 |  0.15
Comm    | 0.063799   | 0.063799   | 0.063799   |   0.0 |  0.02
Output  | 0.12405    | 0.12405    | 0.12405    |   0.0 |  0.03
Modify  | 88.274     | 88.274     | 88.274     |   0.0 | 23.58
Other   |            | 3.889      |            |       |  1.04

Nlocal:           1850 ave        1850 max        1850 min
Histogram: 1 0 0 0 0 0 0 0 0 0
Nghost:              0 ave           0 max           0 min
Histogram: 1 0 0 0 0 0 0 0 0 0
Neighs:           6766 ave        6766 max        6766 min
Histogram: 1 0 0 0 0 0 0 0 0 0

Total # of neighbors = 6766
Ave neighs/atom = 3.6572973
Neighbor list builds = 2178
Dangerous builds = 0
Generated 0 of 0 mixed pair_coeff terms from geometric mixing rule
Setting up Verlet run ...
  Unit style    : si
  Current step  : 0
  Time step     : 2e-07
Per MPI rank memory allocation (min/avg/max) = 14.72 | 14.72 | 14.72 Mbytes
   Step          Time         Atoms        KinEng     c_granularTemp c_solidVolume    c_maxSpeed  
         0   0                   1850   9.2495503e-06  1.2487815e+14  3.9676221e-06  0.36595927   
     10000   0.002               1850   5.0153766e-06  6.9282128e+13  3.9676221e-06  0.29046384   
     20000   0.004               1850   3.1505502e-06  4.426273e+13   3.9676221e-06  0.23405384   
     30000   0.006               1850   2.1231941e-06  3.0155257e+13  3.9676221e-06  0.19190443   
     40000   0.008               1850   1.4867652e-06  2.1274999e+13  3.9676221e-06  0.16041049   
     50000   0.01                1850   1.0263533e-06  1.4957177e+13  3.9676221e-06  0.1368783    
     60000   0.012               1850   7.4134983e-07  1.0745751e+13  3.9676221e-06  0.1192951    
     70000   0.014               1850   5.6536351e-07  8.1268255e+12  3.9676221e-06  0.10615698   
     80000   0.016               1850   4.3458832e-07  6.346588e+12   3.9676221e-06  0.096340205  
     90000   0.018               1850   3.9118328e-07  5.7195562e+12  3.9676221e-06  0.08749345   
    100000   0.02                1850   3.3111728e-07  4.902315e+12   3.9676221e-06  0.082394863  
    110000   0.022               1850   3.0490493e-07  4.5418699e+12  3.9676221e-06  0.078585212  
    120000   0.024               1850   2.7027131e-07  4.1049002e+12  3.9676221e-06  0.075738649  
    130000   0.026               1850   2.5277689e-07  3.8901334e+12  3.9676221e-06  0.073611705  
    140000   0.028               1850   2.24744e-07    3.531996e+12   3.9676221e-06  0.072022457  
    150000   0.03                1850   2.1877693e-07  3.4247398e+12  3.9676221e-06  0.070834975  
    160000   0.032               1850   2.0336347e-07  3.1890948e+12  3.9676221e-06  0.069947692  
    170000   0.034               1850   1.847932e-07   2.8428799e+12  3.9676221e-06  0.069284716  
    180000   0.036               1850   1.8093863e-07  2.7656865e+12  3.9676221e-06  0.068789342  
    190000   0.038               1850   1.7429288e-07  2.6538041e+12  3.9676221e-06  0.068419199  
    200000   0.04                1850   1.7368486e-07  2.6403697e+12  3.9676221e-06  0.06814263   
    210000   0.042               1850   1.7295295e-07  2.6357818e+12  3.9676221e-06  0.067935978  
    220000   0.044               1850   1.7196046e-07  2.6207222e+12  3.9676221e-06  0.067781568  
    230000   0.046               1850   1.7174755e-07  2.6006016e+12  3.9676221e-06  0.067666193  
    240000   0.048               1850   1.6794027e-07  2.4941824e+12  3.9676221e-06  0.067579986  
    250000   0.05                1850   1.6560521e-07  2.4366892e+12  3.9676221e-06  0.067515571  
    260000   0.052               1850   1.6093626e-07  2.3298217e+12  3.9676221e-06  0.067467441  
    270000   0.054               1850   1.5397245e-07  2.2164497e+12  3.9676221e-06  0.067425562  
    280000   0.056               1850   1.5403487e-07  2.2177537e+12  3.9676221e-06  0.067400186  
    290000   0.058               1850   1.5422372e-07  2.2239553e+12  3.9676221e-06  0.067381226  
    300000   0.06                1850   1.5420339e-07  2.2042574e+12  3.9676221e-06  0.067367059  
    310000   0.062               1850   1.4979112e-07  2.1193592e+12  3.9676221e-06  0.067356473  
    320000   0.064               1850   1.4323606e-07  1.9881059e+12  3.9676221e-06  0.067348563  
    330000   0.066               1850   1.4380382e-07  1.9870441e+12  3.9676221e-06  0.067342653  
    340000   0.068               1850   1.4375415e-07  1.9884902e+12  3.9676221e-06  0.067338237  
    350000   0.07                1850   1.4310603e-07  1.9718078e+12  3.9676221e-06  0.067334938  
    360000   0.072               1850   1.403095e-07   1.9125992e+12  3.9676221e-06  0.067332472  
    370000   0.074               1850   1.3874978e-07  1.8920167e+12  3.9676221e-06  0.06733063   
    380000   0.076               1850   1.3908804e-07  1.8999496e+12  3.9676221e-06  0.067329253  
    390000   0.078               1850   1.3982382e-07  1.9093767e+12  3.9676221e-06  0.067328225  
    400000   0.08                1850   1.4018894e-07  1.9162665e+12  3.9676221e-06  0.067327456  
    410000   0.082               1850   1.3875764e-07  1.8973737e+12  3.9676221e-06  0.067326882  
    420000   0.084               1850   1.3815999e-07  1.8710708e+12  3.9676221e-06  0.067326453  
    430000   0.086               1850   1.3181252e-07  1.7897847e+12  3.9676221e-06  0.067326095  
    440000   0.088               1850   1.3129128e-07  1.7877584e+12  3.9676221e-06  0.067325865  
    450000   0.09                1850   1.3160872e-07  1.8013409e+12  3.9676221e-06  0.067325693  
    460000   0.092               1850   1.3177814e-07  1.8085962e+12  3.9676221e-06  0.067325565  
    470000   0.094               1850   1.3104172e-07  1.7948883e+12  3.9676221e-06  0.067325469  
    480000   0.096               1850   1.316095e-07   1.8108973e+12  3.9676221e-06  0.067325397  
    490000   0.098               1850   1.3012256e-07  1.7855323e+12  3.9676221e-06  0.067325343  
    500000   0.1                 1850   1.3014349e-07  1.7662851e+12  3.9676221e-06  0.067325303  
    510000   0.102               1850   1.3061408e-07  1.7645815e+12  3.9676221e-06  0.067325273  
    520000   0.104               1850   1.2480428e-07  1.6962386e+12  3.9676221e-06  0.067325248  
    530000   0.106               1850   1.2450114e-07  1.6915247e+12  3.9676221e-06  0.067325232  
    540000   0.108               1850   1.2299514e-07  1.6717901e+12  3.9676221e-06  0.06732522   
    550000   0.11                1850   1.2045277e-07  1.6270712e+12  3.9676221e-06  0.067325211  
    560000   0.112               1850   1.1984882e-07  1.6190923e+12  3.9676221e-06  0.067325205  
    570000   0.114               1850   1.19967e-07    1.6297359e+12  3.9676221e-06  0.0673252    
    580000   0.116               1850   1.2056976e-07  1.6495629e+12  3.9676221e-06  0.067325196  
    590000   0.118               1850   1.2135403e-07  1.6749747e+12  3.9676221e-06  0.067325193  
    600000   0.12                1850   1.2132849e-07  1.6700699e+12  3.9676221e-06  0.067325191  
    610000   0.122               1850   1.2111874e-07  1.6753315e+12  3.9676221e-06  0.06732519   
    620000   0.124               1850   1.2123527e-07  1.6830114e+12  3.9676221e-06  0.067325188  
    630000   0.126               1850   1.1316508e-07  1.5663155e+12  3.9676221e-06  0.067325188  
    640000   0.128               1850   1.1241142e-07  1.5536992e+12  3.9676221e-06  0.067325187  
    650000   0.13                1850   1.1273315e-07  1.5596293e+12  3.9676221e-06  0.067325186  
    660000   0.132               1850   1.1311601e-07  1.5704449e+12  3.9676221e-06  0.067325186  
    670000   0.134               1850   1.0647702e-07  1.4928444e+12  3.9676221e-06  0.067325186  
    680000   0.136               1850   1.0693183e-07  1.5060114e+12  3.9676221e-06  0.067325186  
    690000   0.138               1850   1.0625566e-07  1.447986e+12   3.9676221e-06  0.067325185  
    700000   0.14                1850   1.0656691e-07  1.435397e+12   3.9676221e-06  0.067325185  
    710000   0.142               1850   1.0392956e-07  1.3768827e+12  3.9676221e-06  0.067325185  
    720000   0.144               1850   1.0382843e-07  1.3720532e+12  3.9676221e-06  0.067325185  
    730000   0.146               1850   1.0353269e-07  1.3664699e+12  3.9676221e-06  0.067325185  
    740000   0.148               1850   1.0362272e-07  1.3679593e+12  3.9676221e-06  0.067325185  
    750000   0.15                1850   1.0383301e-07  1.3721001e+12  3.9676221e-06  0.067325185  
    760000   0.152               1850   1.0409803e-07  1.3769061e+12  3.9676221e-06  0.067325185  
    770000   0.154               1850   1.0437654e-07  1.3820211e+12  3.9676221e-06  0.067325185  
    780000   0.156               1850   1.0474531e-07  1.3889742e+12  3.9676221e-06  0.067325185  
    790000   0.158               1850   1.0425881e-07  1.3802589e+12  3.9676221e-06  0.067325185  
    800000   0.16                1850   1.0462926e-07  1.3867441e+12  3.9676221e-06  0.067325185  
    810000   0.162               1850   9.482652e-08   1.2769888e+12  3.9676221e-06  0.067325185  
    820000   0.164               1850   8.7346094e-08  1.1913847e+12  3.9676221e-06  0.067325185  
    830000   0.166               1850   8.8301055e-08  1.2044046e+12  3.9676221e-06  0.067325185  
    840000   0.168               1850   8.5957641e-08  1.1651167e+12  3.9676221e-06  0.067325185  
    850000   0.17                1850   8.6926192e-08  1.1827868e+12  3.9676221e-06  0.067325185  
    860000   0.172               1850   8.3860254e-08  1.1385774e+12  3.9676221e-06  0.067325185  
    870000   0.174               1850   7.6121371e-08  1.0387756e+12  3.9676221e-06  0.067325185  
    880000   0.176               1850   7.4622532e-08  1.0183537e+12  3.9676221e-06  0.067325185  
    890000   0.178               1850   7.3002195e-08  9.839529e+11   3.9676221e-06  0.067325185  
    900000   0.18                1850   7.3314251e-08  9.8578467e+11  3.9676221e-06  0.067325185  
    910000   0.182               1850   7.3682641e-08  9.9443132e+11  3.9676221e-06  0.067325185  
    920000   0.184               1850   7.4269232e-08  1.0069438e+12  3.9676221e-06  0.067325185  
    930000   0.186               1850   7.4960191e-08  1.0213735e+12  3.9676221e-06  0.067325185  
    940000   0.188               1850   6.6109358e-08  9.0280697e+11  3.9676221e-06  0.067325185  
    950000   0.19                1850   6.6602409e-08  9.1292536e+11  3.9676221e-06  0.067325185  
    960000   0.192               1850   6.7281738e-08  9.2974412e+11  3.9676221e-06  0.067325185  
    970000   0.194               1850   6.7460749e-08  9.3397194e+11  3.9676221e-06  0.067325185  
    980000   0.196               1850   6.7544698e-08  9.4226213e+11  3.9676221e-06  0.067325185  
    990000   0.198               1850   6.8263358e-08  9.5947099e+11  3.9676221e-06  0.067325185  
   1000000   0.2                 1850   6.2181124e-08  8.9990445e+11  3.9676221e-06  0.067325185  
   1010000   0.202               1850   6.0053949e-08  8.7281428e+11  3.9676221e-06  0.067325185  
   1020000   0.204               1850   6.073987e-08   8.8921392e+11  3.9676221e-06  0.067325185  
   1030000   0.206               1850   6.1630064e-08  9.1337719e+11  3.9676221e-06  0.067325185  
   1040000   0.208               1850   6.2876029e-08  9.4231057e+11  3.9676221e-06  0.067325185  
   1050000   0.21                1850   6.4287255e-08  9.751554e+11   3.9676221e-06  0.067325185  
   1060000   0.212               1850   5.8998928e-08  8.9616626e+11  3.9676221e-06  0.067325185  
   1070000   0.214               1850   5.4741087e-08  7.7558773e+11  3.9676221e-06  0.067325185  
   1080000   0.216               1850   5.486983e-08   7.746727e+11   3.9676221e-06  0.067325185  
   1090000   0.218               1850   4.9513983e-08  7.1150648e+11  3.9676221e-06  0.067325185  
   1100000   0.22                1850   4.4626225e-08  6.5558648e+11  3.9676221e-06  0.067325185  
   1110000   0.222               1850   4.2212694e-08  6.2574761e+11  3.9676221e-06  0.067325185  
   1120000   0.224               1850   4.3282928e-08  6.4637896e+11  3.9676221e-06  0.067325185  
   1130000   0.226               1850   4.3965309e-08  6.5477331e+11  3.9676221e-06  0.067325185  
   1140000   0.228               1850   4.5074694e-08  6.7700196e+11  3.9676221e-06  0.067325185  
   1150000   0.23                1850   4.190111e-08   6.2487372e+11  3.9676221e-06  0.067325185  
   1160000   0.232               1850   4.2554516e-08  6.3545465e+11  3.9676221e-06  0.067325185  
   1170000   0.234               1850   4.3647539e-08  6.4964291e+11  3.9676221e-06  0.067325185  
   1180000   0.236               1850   4.2284829e-08  6.2662174e+11  3.9676221e-06  0.067325185  
   1190000   0.238               1850   4.2571872e-08  6.3440739e+11  3.9676221e-06  0.067325185  
   1200000   0.24                1850   4.1693872e-08  6.2761724e+11  3.9676221e-06  0.067325185  
   1210000   0.242               1850   3.8403189e-08  5.5993215e+11  3.9676221e-06  0.067325185  
   1220000   0.244               1850   3.9065868e-08  5.7140361e+11  3.9676221e-06  0.067325185  
   1230000   0.246               1850   4.0007798e-08  5.9091943e+11  3.9676221e-06  0.067325185  
   1240000   0.248               1850   3.8050714e-08  5.50264e+11    3.9676221e-06  0.067325185  
   1250000   0.25                1850   3.5998428e-08  5.1348094e+11  3.9676221e-06  0.067325185  
   1260000   0.252               1850   3.6066963e-08  5.1450893e+11  3.9676221e-06  0.067325185  
   1270000   0.254               1850   3.6387951e-08  5.2164286e+11  3.9676221e-06  0.067325185  
   1280000   0.256               1850   3.6922063e-08  5.3533807e+11  3.9676221e-06  0.067325185  
   1290000   0.258               1850   3.7525342e-08  5.439948e+11   3.9676221e-06  0.067325185  
   1300000   0.26                1850   3.4780783e-08  4.9653609e+11  3.9676221e-06  0.067325185  
   1310000   0.262               1850   2.946414e-08   4.2121567e+11  3.9676221e-06  0.067325185  
   1320000   0.264               1850   2.2483868e-08  3.3610228e+11  3.9676221e-06  0.067325185  
   1330000   0.266               1850   2.2547334e-08  3.4612201e+11  3.9676221e-06  0.067325185  
   1340000   0.268               1850   2.3294387e-08  3.6325977e+11  3.9676221e-06  0.067325185  
   1350000   0.27                1850   2.3720433e-08  3.7376583e+11  3.9676221e-06  0.067325185  
   1360000   0.272               1850   2.4058201e-08  3.8140132e+11  3.9676221e-06  0.067325185  
   1370000   0.274               1850   1.8223295e-08  3.1744103e+11  3.9676221e-06  0.067325185  
   1380000   0.276               1850   1.4855551e-08  2.6332084e+11  3.9676221e-06  0.067325185  
   1390000   0.278               1850   1.2258205e-08  1.9607804e+11  3.9676221e-06  0.067325185  
   1400000   0.28                1850   1.2069077e-08  1.8967975e+11  3.9676221e-06  0.067325185  
   1410000   0.282               1850   4.7023721e-09  9.8452995e+10  3.9676221e-06  0.031968124  
   1420000   0.284               1850   4.9431877e-09  1.0238467e+11  3.9676221e-06  0.033791802  
   1430000   0.286               1850   5.4450056e-09  1.1226545e+11  3.9676221e-06  0.035944882  
   1440000   0.288               1850   6.0508292e-09  1.2465272e+11  3.9676221e-06  0.038035639  
   1450000   0.29                1850   6.7617081e-09  1.3932454e+11  3.9676221e-06  0.040145649  
   1460000   0.292               1850   4.9579424e-09  1.1232198e+11  3.9676221e-06  0.027447354  
   1470000   0.294               1850   5.0402276e-09  1.111313e+11   3.9676221e-06  0.029507868  
   1480000   0.296               1850   3.9152622e-09  8.3965589e+10  3.9676221e-06  0.023455906  
   1490000   0.298               1850   4.075713e-09   8.4627627e+10  3.9676221e-06  0.025059783  
   1500000   0.3                 1850   4.4091636e-09  9.0571583e+10  3.9676221e-06  0.026691902  
   1510000   0.302               1850   4.9087782e-09  1.0020125e+11  3.9676221e-06  0.028453676  
   1520000   0.304               1850   5.5359143e-09  1.1278892e+11  3.9676221e-06  0.030293155  
   1530000   0.306               1850   6.2785439e-09  1.2795556e+11  3.9676221e-06  0.032224286  
   1540000   0.308               1850   6.0623372e-09  1.2573741e+11  3.9676221e-06  0.034224878  
   1550000   0.31                1850   6.6413631e-09  1.3872133e+11  3.9676221e-06  0.036320898  
   1560000   0.312               1850   7.5415442e-09  1.574988e+11   3.9676221e-06  0.0384822    
   1570000   0.314               1850   6.8942132e-09  1.4678033e+11  3.9676221e-06  0.040718694  
   1580000   0.316               1850   6.4745827e-09  1.3412417e+11  3.9676221e-06  0.043019513  
   1590000   0.318               1850   6.8651398e-09  1.359008e+11   3.9676221e-06  0.045283088  
   1600000   0.32                1850   7.3386148e-09  1.4606541e+11  3.9676221e-06  0.047602856  
   1610000   0.322               1850   8.0792306e-09  1.5947308e+11  3.9676221e-06  0.049869717  
   1620000   0.324               1850   6.3125301e-09  1.4231219e+11  3.9676221e-06  0.042765428  
   1630000   0.326               1850   4.7952682e-09  1.0547328e+11  3.9676221e-06  0.045190317  
   1640000   0.328               1850   5.3204757e-09  1.0565491e+11  3.9676221e-06  0.047648811  
   1650000   0.33                1850   5.9030514e-09  1.136404e+11   3.9676221e-06  0.050029096  
   1660000   0.332               1850   6.5153402e-09  1.2556953e+11  3.9676221e-06  0.052308173  
   1670000   0.334               1850   7.2656909e-09  1.4016548e+11  3.9676221e-06  0.054423952  
   1680000   0.336               1850   2.9353201e-09  6.2268726e+10  3.9676221e-06  0.024830172  
   1690000   0.338               1850   2.8159117e-09  6.2534319e+10  3.9676221e-06  0.026498055  
   1700000   0.34                1850   2.8249093e-09  6.3702404e+10  3.9676221e-06  0.02827053   
   1710000   0.342               1850   3.2118775e-09  7.2653283e+10  3.9676221e-06  0.030028178  
   1720000   0.344               1850   3.657346e-09   8.3229921e+10  3.9676221e-06  0.031868113  
   1730000   0.346               1850   4.0952942e-09  9.4827928e+10  3.9676221e-06  0.033843331  
   1740000   0.348               1850   3.0226734e-09  7.9872242e+10  3.9676221e-06  0.023801811  
   1750000   0.35                1850   3.4676254e-09  7.7702276e+10  3.9676221e-06  0.026300172  
   1760000   0.352               1850   2.3399297e-09  4.7756888e+10  3.9676221e-06  0.023677854  
   1770000   0.354               1850   1.4308834e-09  3.046086e+10   3.9676221e-06  0.025371102  
   1780000   0.356               1850   1.4621617e-09  3.0401462e+10  3.9676221e-06  0.027078648  
   1790000   0.358               1850   1.5817359e-09  3.2624851e+10  3.9676221e-06  0.028791997  
   1800000   0.36                1850   1.7569835e-09  3.6019914e+10  3.9676221e-06  0.030675971  
   1810000   0.362               1850   1.9612964e-09  4.0059897e+10  3.9676221e-06  0.032638641  
   1820000   0.364               1850   2.194269e-09   4.4708408e+10  3.9676221e-06  0.034681632  
   1830000   0.366               1850   2.4558014e-09  4.9955559e+10  3.9676221e-06  0.036799514  
   1840000   0.368               1850   2.7459989e-09  5.5794913e+10  3.9676221e-06  0.038984146  
   1850000   0.37                1850   3.064147e-09   6.2215685e+10  3.9676221e-06  0.041221584  
   1860000   0.372               1850   3.4091541e-09  6.9195909e+10  3.9676221e-06  0.043496491  
   1870000   0.374               1850   8.4310878e-10  2.4401297e+10  3.9676221e-06  0.019043015  
   1880000   0.376               1850   8.1121962e-10  2.3781245e+10  3.9676221e-06  0.018796279  
   1890000   0.378               1850   8.4582062e-10  2.4444924e+10  3.9676221e-06  0.01887627   
   1900000   0.38                1850   9.0054244e-10  2.5951379e+10  3.9676221e-06  0.019208951  
   1910000   0.382               1850   9.8054347e-10  2.8219364e+10  3.9676221e-06  0.019806416  
   1920000   0.384               1850   1.0895546e-09  3.1262363e+10  3.9676221e-06  0.020686036  
   1930000   0.386               1850   1.2276782e-09  3.5121043e+10  3.9676221e-06  0.021801527  
   1940000   0.388               1850   1.3953596e-09  3.9864159e+10  3.9676221e-06  0.023127007  
   1950000   0.39                1850   1.5973452e-09  4.5572147e+10  3.9676221e-06  0.024653459  
   1960000   0.392               1850   1.8359374e-09  5.2341398e+10  3.9676221e-06  0.026365632  
   1970000   0.394               1850   1.5165134e-09  4.5766104e+10  3.9676221e-06  0.028702649  
   1980000   0.396               1850   1.6279093e-09  4.8080366e+10  3.9676221e-06  0.030712832  
   1990000   0.398               1850   4.2941571e-10  1.6926763e+10  3.9676221e-06  0.014662041  
   2000000   0.4                 1850   2.8291023e-10  1.0825426e+10  3.9676221e-06  0.012311601  
   2010000   0.402               1850   1.8214676e-10  6.9842972e+09  3.9676221e-06  0.010243019  
   2020000   0.404               1850   1.2053777e-10  4.715384e+09   3.9676221e-06  0.0083172486 
   2030000   0.406               1850   1.0422806e-11  7.737466e+08   3.9676221e-06  0.0016562174 
   2040000   0.408               1850   3.0219621e-12  2.2607453e+08  3.9676221e-06  0.0010803058 
   2050000   0.41                1850   4.7626145e-12  2.9106628e+08  3.9676221e-06  0.001379298  
   2060000   0.412               1850   4.6463889e-12  2.9295578e+08  3.9676221e-06  0.0015169187 
   2070000   0.414               1850   7.9292795e-12  4.2776358e+08  3.9676221e-06  0.0021411867 
   2080000   0.416               1850   1.2936033e-11  6.1841318e+08  3.9676221e-06  0.0027444285 
   2090000   0.418               1850   1.9106442e-11  8.5324244e+08  3.9676221e-06  0.0033361895 
   2100000   0.42                1850   2.646805e-11   1.1345993e+09  3.9676221e-06  0.0039275701 
   2110000   0.422               1850   3.5227847e-11  1.4691188e+09  3.9676221e-06  0.0045311117 
   2120000   0.424               1850   4.5638189e-11  1.8655503e+09  3.9676221e-06  0.0051574681 
   2130000   0.426               1850   5.800248e-11   2.3356735e+09  3.9676221e-06  0.0058143039 
   2140000   0.428               1850   7.2680876e-11  2.8940731e+09  3.9676221e-06  0.0065085673 
   2150000   0.43                1850   9.0134416e-11  3.5585677e+09  3.9676221e-06  0.0072480451 
   2160000   0.432               1850   1.1094076e-10  4.3506504e+09  3.9676221e-06  0.0080412069 
   2170000   0.434               1850   4.1005511e-12  2.9276932e+08  3.9676221e-06  0.0012482659 
   2180000   0.436               1850   3.1609823e-11  1.1040588e+09  3.9676221e-06  0.004272491  
   2190000   0.438               1850   2.820923e-12   2.3742674e+08  3.9676221e-06  0.0011735861 
   2200000   0.44                1850   4.6313652e-13  1.440466e+08   3.9676221e-06  0.00046222318
   2210000   0.442               1850   6.7372624e-12  3.8387812e+08  3.9676221e-06  0.0019752605 
   2220000   0.444               1850   1.2092611e-12  1.6271037e+08  3.9676221e-06  0.00045990874
   2230000   0.446               1850   1.7651056e-13  1.3270837e+08  3.9676221e-06  8.8675645e-05
   2240000   0.448               1850   4.9587137e-14  1.2930239e+08  3.9676221e-06  4.1740062e-05
   2250000   0.45                1850   2.425866e-14   1.286144e+08   3.9676221e-06  2.9662385e-05
   2260000   0.452               1850   8.2630712e-15  1.2818429e+08  3.9676221e-06  1.7600027e-05
   2270000   0.454               1850   2.0776676e-15  1.2802005e+08  3.9676221e-06  7.0523329e-06
   2280000   0.456               1850   1.1382026e-15  1.2799193e+08  3.9676221e-06  6.1304227e-06
   2290000   0.458               1850   4.9228833e-16  1.2797287e+08  3.9676221e-06  4.2254307e-06
   2300000   0.46                1850   1.0658877e-16  1.2796152e+08  3.9676221e-06  2.0128668e-06
   2310000   0.462               1850   7.281332e-17   1.2795996e+08  3.9676221e-06  1.8723814e-06
   2320000   0.464               1850   4.4761059e-17  1.2795906e+08  3.9676221e-06  1.3321316e-06
   2330000   0.466               1850   8.9867847e-18  1.279581e+08   3.9676221e-06  8.9461049e-07
   2340000   0.468               1850   5.56968e-18    1.2795799e+08  3.9676221e-06  8.6468146e-07
   2350000   0.47                1850   3.9259479e-18  1.2795794e+08  3.9676221e-06  3.1646402e-07
   2360000   0.472               1850   1.3402849e-18  1.2795787e+08  3.9676221e-06  2.036523e-07 
   2370000   0.474               1850   7.7484934e-19  1.2795785e+08  3.9676221e-06  2.8832562e-07
   2380000   0.476               1850   3.7940262e-19  1.2795784e+08  3.9676221e-06  1.1812962e-07
   2390000   0.478               1850   1.2463786e-19  1.2795784e+08  3.9676221e-06  1.0971781e-07
   2400000   0.48                1850   1.0055084e-19  1.2795783e+08  3.9676221e-06  1.387461e-07 
   2410000   0.482               1850   3.8461267e-20  1.2795783e+08  3.9676221e-06  5.414836e-08 
   2420000   0.484               1850   1.2482871e-20  1.2795783e+08  3.9676221e-06  3.3146521e-08
   2430000   0.486               1850   1.1731226e-20  1.2795783e+08  3.9676221e-06  5.6476846e-08
   2440000   0.488               1850   3.8039295e-21  1.2795783e+08  3.9676221e-06  3.0001354e-08
   2450000   0.49                1850   7.2793439e-22  1.2795783e+08  3.9676221e-06  6.0281055e-09
   2460000   0.492               1850   1.0966681e-21  1.2795783e+08  3.9676221e-06  1.5632593e-08
   2470000   0.494               1850   5.795889e-22   1.2795783e+08  3.9676221e-06  1.0039499e-08
   2480000   0.496               1850   3.2506217e-23  1.2795783e+08  3.9676221e-06  2.1564813e-09
   2490000   0.498               1850   1.3947283e-22  1.2795783e+08  3.9676221e-06  4.6191234e-09
   2500000   0.5                 1850   5.2737696e-23  1.2795783e+08  3.9676221e-06  3.5162955e-09
   2510000   0.502               1850   2.0057925e-23  1.2795783e+08  3.9676221e-06  9.9230995e-10
   2520000   0.504               1850   8.6543589e-24  1.2795783e+08  3.9676221e-06  1.1128703e-09
   2530000   0.506               1850   7.3501278e-24  1.2795783e+08  3.9676221e-06  9.9743562e-10
   2540000   0.508               1850   1.7910126e-24  1.2795783e+08  3.9676221e-06  5.4217532e-10
   2550000   0.51                1850   1.8022089e-24  1.2795783e+08  3.9676221e-06  3.4501357e-10
   2560000   0.512               1850   3.9783547e-25  1.2795783e+08  3.9676221e-06  2.2715002e-10
   2570000   0.514               1850   4.6623747e-25  1.2795783e+08  3.9676221e-06  2.4506869e-10
   2580000   0.516               1850   1.1222279e-25  1.2795783e+08  3.9676221e-06  5.2418362e-11
   2590000   0.518               1850   9.1236361e-26  1.2795783e+08  3.9676221e-06  1.2963974e-10
   2600000   0.52                1850   4.9293529e-26  1.2795783e+08  3.9676221e-06  8.402371e-11 
   2610000   0.522               1850   2.6740119e-26  1.2795783e+08  3.9676221e-06  2.6693768e-11
   2620000   0.524               1850   2.7717385e-26  1.2795783e+08  3.9676221e-06  6.0256646e-11
   2630000   0.526               1850   1.838116e-26   1.2795783e+08  3.9676221e-06  1.6188602e-11
   2640000   0.528               1850   2.1220131e-26  1.2795783e+08  3.9676221e-06  3.5271074e-11
   2650000   0.53                1850   1.6625149e-26  1.2795783e+08  3.9676221e-06  1.6541564e-11
   2660000   0.532               1850   2.0316847e-26  1.2795783e+08  3.9676221e-06  1.6528391e-11
   2670000   0.534               1850   2.2603826e-26  1.2795783e+08  3.9676221e-06  1.7039649e-11
   2680000   0.536               1850   2.4393181e-26  1.2795783e+08  3.9676221e-06  1.7642425e-11
   2690000   0.538               1850   2.3119168e-26  1.2795783e+08  3.9676221e-06  1.5489477e-11
   2700000   0.54                1850   2.3060593e-26  1.2795783e+08  3.9676221e-06  1.7499799e-11
   2710000   0.542               1850   2.290315e-26   1.2795783e+08  3.9676221e-06  1.7419735e-11
   2720000   0.544               1850   2.3532651e-26  1.2795783e+08  3.9676221e-06  1.7510262e-11
   2730000   0.546               1850   2.3225817e-26  1.2795783e+08  3.9676221e-06  1.7398977e-11
   2740000   0.548               1850   2.4047022e-26  1.2795783e+08  3.9676221e-06  1.7459353e-11
   2750000   0.55                1850   2.4176285e-26  1.2795783e+08  3.9676221e-06  1.7069597e-11
   2760000   0.552               1850   2.167694e-26   1.2795783e+08  3.9676221e-06  1.5535222e-11
   2770000   0.554               1850   1.8899251e-26  1.2795783e+08  3.9676221e-06  1.7359126e-11
   2780000   0.556               1850   1.7970714e-26  1.2795783e+08  3.9676221e-06  1.734582e-11 
   2790000   0.558               1850   1.6539613e-26  1.2795783e+08  3.9676221e-06  1.4304805e-11
   2800000   0.56                1850   1.6058357e-26  1.2795783e+08  3.9676221e-06  1.3391135e-11
   2810000   0.562               1850   1.6479003e-26  1.2795783e+08  3.9676221e-06  1.3163191e-11
   2820000   0.564               1850   1.8069046e-26  1.2795783e+08  3.9676221e-06  1.7172772e-11
   2830000   0.566               1850   1.7776459e-26  1.2795783e+08  3.9676221e-06  1.3541423e-11
   2840000   0.568               1850   1.7199023e-26  1.2795783e+08  3.9676221e-06  1.2446238e-11
   2850000   0.57                1850   1.5796769e-26  1.2795783e+08  3.9676221e-06  1.0404091e-11
   2860000   0.572               1850   1.5299076e-26  1.2795783e+08  3.9676221e-06  1.0345832e-11
   2870000   0.574               1850   1.5148941e-26  1.2795783e+08  3.9676221e-06  9.7716486e-12
   2880000   0.576               1850   1.446841e-26   1.2795783e+08  3.9676221e-06  9.9822806e-12
   2890000   0.578               1850   1.6132715e-26  1.2795783e+08  3.9676221e-06  1.5105472e-11
   2900000   0.58                1850   1.5458126e-26  1.2795783e+08  3.9676221e-06  1.3465591e-11
   2910000   0.582               1850   1.6050509e-26  1.2795783e+08  3.9676221e-06  1.0710158e-11
   2920000   0.584               1850   1.6687669e-26  1.2795783e+08  3.9676221e-06  1.1108005e-11
   2930000   0.586               1850   1.7470303e-26  1.2795783e+08  3.9676221e-06  1.6898827e-11
   2940000   0.588               1850   1.6701242e-26  1.2795783e+08  3.9676221e-06  1.3643037e-11
   2950000   0.59                1850   1.6282454e-26  1.2795783e+08  3.9676221e-06  1.1356466e-11
   2960000   0.592               1850   1.7061917e-26  1.2795783e+08  3.9676221e-06  1.196301e-11 
   2970000   0.594               1850   1.6963629e-26  1.2795783e+08  3.9676221e-06  1.2050306e-11
   2980000   0.596               1850   1.6195472e-26  1.2795783e+08  3.9676221e-06  1.1409422e-11
   2990000   0.598               1850   1.700153e-26   1.2795783e+08  3.9676221e-06  1.513423e-11 
   3000000   0.6                 1850   1.6677428e-26  1.2795783e+08  3.9676221e-06  1.3797306e-11
   3010000   0.602               1850   1.6053424e-26  1.2795783e+08  3.9676221e-06  1.6249592e-11
   3020000   0.604               1850   1.5267499e-26  1.2795783e+08  3.9676221e-06  1.3146562e-11
   3030000   0.606               1850   1.5018708e-26  1.2795783e+08  3.9676221e-06  1.0017391e-11
   3040000   0.608               1850   1.5182523e-26  1.2795783e+08  3.9676221e-06  1.1511271e-11
   3050000   0.61                1850   1.5141609e-26  1.2795783e+08  3.9676221e-06  1.4290223e-11
   3060000   0.612               1850   1.4961252e-26  1.2795783e+08  3.9676221e-06  1.3128334e-11
   3070000   0.614               1850   1.5282863e-26  1.2795783e+08  3.9676221e-06  1.2660715e-11
   3080000   0.616               1850   1.5213699e-26  1.2795783e+08  3.9676221e-06  1.3460636e-11
   3090000   0.618               1850   1.5657102e-26  1.2795783e+08  3.9676221e-06  1.3789724e-11
   3100000   0.62                1850   1.6449819e-26  1.2795783e+08  3.9676221e-06  1.1698151e-11
   3110000   0.622               1850   1.6502133e-26  1.2795783e+08  3.9676221e-06  9.9539106e-12
   3120000   0.624               1850   1.6688075e-26  1.2795783e+08  3.9676221e-06  1.0130934e-11
   3130000   0.626               1850   1.5936788e-26  1.2795783e+08  3.9676221e-06  9.6045753e-12
   3140000   0.628               1850   1.6641498e-26  1.2795783e+08  3.9676221e-06  9.9068124e-12
   3150000   0.63                1850   1.7784172e-26  1.2795783e+08  3.9676221e-06  1.7290784e-11
   3160000   0.632               1850   1.6579039e-26  1.2795783e+08  3.9676221e-06  1.2712247e-11
   3170000   0.634               1850   1.6294746e-26  1.2795783e+08  3.9676221e-06  1.0422917e-11
   3180000   0.636               1850   1.7871553e-26  1.2795783e+08  3.9676221e-06  1.562169e-11 
   3190000   0.638               1850   1.8534071e-26  1.2795783e+08  3.9676221e-06  1.2521977e-11
   3200000   0.64                1850   2.0442183e-26  1.2795783e+08  3.9676221e-06  1.7397704e-11
   3210000   0.642               1850   2.1909092e-26  1.2795783e+08  3.9676221e-06  1.6301247e-11
   3220000   0.644               1850   2.0682944e-26  1.2795783e+08  3.9676221e-06  1.5488865e-11
   3230000   0.646               1850   2.1012466e-26  1.2795783e+08  3.9676221e-06  1.7232153e-11
   3240000   0.648               1850   2.1940503e-26  1.2795783e+08  3.9676221e-06  1.7593186e-11
   3250000   0.65                1850   2.2112486e-26  1.2795783e+08  3.9676221e-06  1.6912753e-11
   3260000   0.652               1850   2.1280359e-26  1.2795783e+08  3.9676221e-06  1.740943e-11 
   3270000   0.654               1850   2.2880235e-26  1.2795783e+08  3.9676221e-06  1.7529468e-11
   3280000   0.656               1850   2.2586888e-26  1.2795783e+08  3.9676221e-06  1.7687021e-11
   3290000   0.658               1850   2.1915799e-26  1.2795783e+08  3.9676221e-06  1.7460042e-11
   3300000   0.66                1850   2.0167116e-26  1.2795783e+08  3.9676221e-06  1.3946304e-11
   3310000   0.662               1850   2.3648465e-26  1.2795783e+08  3.9676221e-06  1.7400247e-11
   3320000   0.664               1850   2.3324363e-26  1.2795783e+08  3.9676221e-06  1.7390458e-11
   3330000   0.666               1850   2.457089e-26   1.2795783e+08  3.9676221e-06  1.7364575e-11
   3340000   0.668               1850   2.5840372e-26  1.2795783e+08  3.9676221e-06  1.7517966e-11
   3350000   0.67                1850   2.587899e-26   1.2795783e+08  3.9676221e-06  1.6827177e-11
   3360000   0.672               1850   2.6213305e-26  1.2795783e+08  3.9676221e-06  1.7384936e-11
   3370000   0.674               1850   2.3381296e-26  1.2795783e+08  3.9676221e-06  1.7465713e-11
   3380000   0.676               1850   2.4091425e-26  1.2795783e+08  3.9676221e-06  1.7016961e-11
   3390000   0.678               1850   2.6175123e-26  1.2795783e+08  3.9676221e-06  1.7390546e-11
   3400000   0.68                1850   2.4446436e-26  1.2795783e+08  3.9676221e-06  1.7431652e-11
   3410000   0.682               1850   2.5505576e-26  1.2795783e+08  3.9676221e-06  1.7502635e-11
   3420000   0.684               1850   2.7493751e-26  1.2795783e+08  3.9676221e-06  1.7446991e-11
   3430000   0.686               1850   2.648659e-26   1.2795783e+08  3.9676221e-06  1.7613637e-11
   3440000   0.688               1850   2.5773452e-26  1.2795783e+08  3.9676221e-06  1.7430516e-11
   3450000   0.69                1850   2.6801926e-26  1.2795783e+08  3.9676221e-06  1.7420073e-11
   3460000   0.692               1850   2.6232258e-26  1.2795783e+08  3.9676221e-06  1.7584001e-11
   3470000   0.694               1850   2.5995175e-26  1.2795783e+08  3.9676221e-06  1.7420188e-11
   3480000   0.696               1850   2.5835495e-26  1.2795783e+08  3.9676221e-06  1.7492829e-11
   3490000   0.698               1850   2.4788844e-26  1.2795783e+08  3.9676221e-06  1.751793e-11 
   3500000   0.7                 1850   2.3111882e-26  1.2795783e+08  3.9676221e-06  1.7411643e-11
   3510000   0.702               1850   2.2549165e-26  1.2795783e+08  3.9676221e-06  1.7611427e-11
   3520000   0.704               1850   1.9672209e-26  1.2795783e+08  3.9676221e-06  1.5776533e-11
   3530000   0.706               1850   1.8670287e-26  1.2795783e+08  3.9676221e-06  1.4598485e-11
   3540000   0.708               1850   1.8901837e-26  1.2795783e+08  3.9676221e-06  1.299813e-11 
   3550000   0.71                1850   2.0580633e-26  1.2795783e+08  3.9676221e-06  1.4807502e-11
   3560000   0.712               1850   2.1641401e-26  1.2795783e+08  3.9676221e-06  1.7395883e-11
   3570000   0.714               1850   2.3413084e-26  1.2795783e+08  3.9676221e-06  1.7503727e-11
   3580000   0.716               1850   2.6376078e-26  1.2795783e+08  3.9676221e-06  1.7402309e-11
   3590000   0.718               1850   2.9043508e-26  1.2795783e+08  3.9676221e-06  1.7676034e-11
   3600000   0.72                1850   2.7771797e-26  1.2795783e+08  3.9676221e-06  1.770571e-11 
   3610000   0.722               1850   2.5769574e-26  1.2795783e+08  3.9676221e-06  1.7472864e-11
   3620000   0.724               1850   2.5133019e-26  1.2795783e+08  3.9676221e-06  1.7691078e-11
   3630000   0.726               1850   2.7376517e-26  1.2795783e+08  3.9676221e-06  1.7292729e-11
   3640000   0.728               1850   2.7147948e-26  1.2795783e+08  3.9676221e-06  1.7500688e-11
   3650000   0.73                1850   2.9135375e-26  1.2795783e+08  3.9676221e-06  1.7525881e-11
   3660000   0.732               1850   2.748557e-26   1.2795783e+08  3.9676221e-06  1.7449153e-11
   3670000   0.734               1850   2.6532785e-26  1.2795783e+08  3.9676221e-06  1.7416202e-11
   3680000   0.736               1850   2.6768905e-26  1.2795783e+08  3.9676221e-06  1.7456879e-11
   3690000   0.738               1850   2.6250741e-26  1.2795783e+08  3.9676221e-06  1.7664064e-11
   3700000   0.74                1850   2.4816271e-26  1.2795783e+08  3.9676221e-06  1.7625591e-11
   3710000   0.742               1850   2.4990357e-26  1.2795783e+08  3.9676221e-06  1.7502349e-11
   3720000   0.744               1850   2.5045592e-26  1.2795783e+08  3.9676221e-06  1.7666988e-11
   3730000   0.746               1850   2.4251985e-26  1.2795783e+08  3.9676221e-06  1.746908e-11 
   3740000   0.748               1850   2.4060271e-26  1.2795783e+08  3.9676221e-06  1.7389254e-11
   3750000   0.75                1850   2.1074988e-26  1.2795783e+08  3.9676221e-06  1.6814312e-11
   3760000   0.752               1850   2.2861488e-26  1.2795783e+08  3.9676221e-06  1.7084886e-11
   3770000   0.754               1850   2.1171668e-26  1.2795783e+08  3.9676221e-06  1.7366193e-11
   3780000   0.756               1850   2.0609093e-26  1.2795783e+08  3.9676221e-06  1.6249011e-11
   3790000   0.758               1850   2.0947593e-26  1.2795783e+08  3.9676221e-06  1.7383643e-11
   3800000   0.76                1850   1.971216e-26   1.2795783e+08  3.9676221e-06  1.6177192e-11
   3810000   0.762               1850   1.7816421e-26  1.2795783e+08  3.9676221e-06  1.1974044e-11
   3820000   0.764               1850   1.7297205e-26  1.2795783e+08  3.9676221e-06  1.1543455e-11
   3830000   0.766               1850   1.6820651e-26  1.2795783e+08  3.9676221e-06  1.3623914e-11
   3840000   0.768               1850   1.7496069e-26  1.2795783e+08  3.9676221e-06  1.4109392e-11
   3850000   0.77                1850   1.7935104e-26  1.2795783e+08  3.9676221e-06  1.1970684e-11
   3860000   0.772               1850   1.9386099e-26  1.2795783e+08  3.9676221e-06  1.7042967e-11
   3870000   0.774               1850   2.2059254e-26  1.2795783e+08  3.9676221e-06  1.767909e-11 
   3880000   0.776               1850   2.3481164e-26  1.2795783e+08  3.9676221e-06  1.7444969e-11
   3890000   0.778               1850   2.2342671e-26  1.2795783e+08  3.9676221e-06  1.6450342e-11
   3900000   0.78                1850   2.1746073e-26  1.2795783e+08  3.9676221e-06  1.6814038e-11
   3910000   0.782               1850   2.4214985e-26  1.2795783e+08  3.9676221e-06  1.7403631e-11
   3920000   0.784               1850   2.1917063e-26  1.2795783e+08  3.9676221e-06  1.668002e-11 
   3930000   0.786               1850   2.3662754e-26  1.2795783e+08  3.9676221e-06  1.5918919e-11
   3940000   0.788               1850   2.2298412e-26  1.2795783e+08  3.9676221e-06  1.6184561e-11
   3950000   0.79                1850   2.2391784e-26  1.2795783e+08  3.9676221e-06  1.6124261e-11
   3960000   0.792               1850   2.6591972e-26  1.2795783e+08  3.9676221e-06  1.7394852e-11
   3970000   0.794               1850   2.5090854e-26  1.2795783e+08  3.9676221e-06  1.7303016e-11
   3980000   0.796               1850   2.1855304e-26  1.2795783e+08  3.9676221e-06  1.1322966e-11
   3990000   0.798               1850   1.9630548e-26  1.2795783e+08  3.9676221e-06  1.1182711e-11
   4000000   0.8                 1850   1.8043973e-26  1.2795783e+08  3.9676221e-06  1.3009885e-11
Loop time of 1263.21 on 1 procs for 4000000 steps with 1850 atoms

100.0% CPU use with 1 MPI tasks x 1 OpenMP threads

MPI task timing breakdown:
Section |  min time  |  avg time  |  max time  |%varavg| %total
---------------------------------------------------------------
Pair    | 1020.1     | 1020.1     | 1020.1     |   0.0 | 80.76
Neigh   | 0.11761    | 0.11761    | 0.11761    |   0.0 |  0.01
Comm    | 0.085922   | 0.085922   | 0.085922   |   0.0 |  0.01
Output  | 0.34256    | 0.34256    | 0.34256    |   0.0 |  0.03
Modify  | 232.69     | 232.69     | 232.69     |   0.0 | 18.42
Other   |            | 9.831      |            |       |  0.78

Nlocal:           1850 ave        1850 max        1850 min
Histogram: 1 0 0 0 0 0 0 0 0 0
Nghost:              0 ave           0 max           0 min
Histogram: 1 0 0 0 0 0 0 0 0 0
Neighs:           7006 ave        7006 max        7006 min
Histogram: 1 0 0 0 0 0 0 0 0 0

Total # of neighbors = 7006
Ave neighs/atom = 3.787027
Neighbor list builds = 197
Dangerous builds = 0
Generated 0 of 0 mixed pair_coeff terms from geometric mixing rule
Setting up Verlet run ...
  Unit style    : si
  Current step  : 4000000
  Time step     : 2e-07
Per MPI rank memory allocation (min/avg/max) = 13 | 13 | 13 Mbytes
   Step          Time         Atoms        KinEng     c_granularTemp c_solidVolume    c_maxSpeed  
   4000000   0.8                 1850   1.8043973e-26  1.2795783e+08  3.9676221e-06  1.3009885e-11
Loop time of 3.23e-07 on 1 procs for 0 steps with 1850 atoms

309.6% CPU use with 1 MPI tasks x 1 OpenMP threads

MPI task timing breakdown:
Section |  min time  |  avg time  |  max time  |%varavg| %total
---------------------------------------------------------------
Pair    | 0          | 0          | 0          |   0.0 |  0.00
Neigh   | 0          | 0          | 0          |   0.0 |  0.00
Comm    | 0          | 0          | 0          |   0.0 |  0.00
Output  | 0          | 0          | 0          |   0.0 |  0.00
Modify  | 0          | 0          | 0          |   0.0 |  0.00
Other   |            | 3.23e-07   |            |       |100.00

Nlocal:           1850 ave        1850 max        1850 min
Histogram: 1 0 0 0 0 0 0 0 0 0
Nghost:              0 ave           0 max           0 min
Histogram: 1 0 0 0 0 0 0 0 0 0
Neighs:           7006 ave        7006 max        7006 min
Histogram: 1 0 0 0 0 0 0 0 0 0

Total # of neighbors = 7006
Ave neighs/atom = 3.787027
Neighbor list builds = 0
Dangerous builds = 0
Generated 0 of 0 mixed pair_coeff terms from geometric mixing rule
Neighbor list info ...
  update: every = 1 steps, delay = 0 steps, check = yes
  max neighbors/atom: 2000, page size: 100000
  master list distance cutoff = 0.00185
  ghost atom cutoff = 0.00185
  binsize = 0.000925, bins = 18 18 76
  3 neighbor lists, perpetual/occasional/extra = 1 2 0
  (1) pair granular, perpetual
      attributes: half, newton off, size, history
      pair build: half/size/bin/atomonly/newtoff
      stencil: full/bin/3d
      bin: standard
  (2) compute property/local, occasional
      attributes: half, newton off, size
      pair build: half/size/bin/atomonly/newtoff
      stencil: full/bin/3d
      bin: standard
  (3) compute pair/local, occasional
      attributes: half, newton off, size
      pair build: half/size/bin/atomonly/newtoff
      stencil: full/bin/3d
      bin: standard
Setting up Verlet run ...
  Unit style    : si
  Current step  : 4000000
  Time step     : 2e-07
Per MPI rank memory allocation (min/avg/max) = 14.26 | 14.26 | 14.26 Mbytes
   Step          Time         Atoms        KinEng     c_granularTemp c_solidVolume    c_maxSpeed  
   4000000   0.8                 1850   1.8043973e-26  1.2795783e+08  3.9676221e-06  1.3009885e-11
   4000001   0.8000002           1850   1.8043894e-26  1.2795783e+08  3.9676221e-06  1.3010106e-11
Loop time of 0.00642811 on 1 procs for 1 steps with 1850 atoms

100.0% CPU use with 1 MPI tasks x 1 OpenMP threads

MPI task timing breakdown:
Section |  min time  |  avg time  |  max time  |%varavg| %total
---------------------------------------------------------------
Pair    | 0.00025726 | 0.00025726 | 0.00025726 |   0.0 |  4.00
Neigh   | 0          | 0          | 0          |   0.0 |  0.00
Comm    | 8.8e-08    | 8.8e-08    | 8.8e-08    |   0.0 |  0.00
Output  | 0.0061073  | 0.0061073  | 0.0061073  |   0.0 | 95.01
Modify  | 5.9727e-05 | 5.9727e-05 | 5.9727e-05 |   0.0 |  0.93
Other   |            | 3.711e-06  |            |       |  0.06

Nlocal:           1850 ave        1850 max        1850 min
Histogram: 1 0 0 0 0 0 0 0 0 0
Nghost:              0 ave           0 max           0 min
Histogram: 1 0 0 0 0 0 0 0 0 0
Neighs:           7006 ave        7006 max        7006 min
Histogram: 1 0 0 0 0 0 0 0 0 0

Total # of neighbors = 7006
Ave neighs/atom = 3.787027
Neighbor list builds = 0
Dangerous builds = 0
System init for write_data ...
Generated 0 of 0 mixed pair_coeff terms from geometric mixing rule
System init for write_restart ...
Generated 0 of 0 mixed pair_coeff terms from geometric mixing rule
seed Ntarget Nfinal dp_m density_kgm3 Dtube_m D_over_dp solidVolume_m3 bedHeight_m bedVolume_m3 packingFraction porosity minParticleBottom_m kineticEnergy_J maxSpeed_ms
31991 1850 1850 0.0016 1600 0.016 10 3.96762208197362e-06 0.0365163639877996 7.34205061375245e-06 0.54039699406891 0.45960300593109 -1.08128862874265e-06 1.80438940773059e-26 1.30101061798504e-11
Packing generation completed: co2_13x_seed_31991
ACCEPT only if Nfinal=Ntarget, the bed is settled, and overlap/geometry checks pass.
For the 20-packing pilot, change only seed_realization.
CO2 diffusion and particle LDF adsorption are added later in the pore-network solver, not here.
Total wall time: 0:27:17
