Authorization required, but no authorization protocol specified

Authorization required, but no authorization protocol specified

Authorization required, but no authorization protocol specified

Authorization required, but no authorization protocol specified

LAMMPS (22 Jul 2025 - Update 5)
OMP_NUM_THREADS environment is not set. Defaulting to 1 thread.
  using 1 OpenMP thread(s) per MPI task
OMP_NUM_THREADS environment is not set. Defaulting to 1 thread.
  using 1 OpenMP thread(s) per MPI task
CO2 sorbent = commercial zeolite 13X (mechanical packing only)
Realization seed = 153133
Target particle count = 1850
Bead diameter [m] = 0.0016
Tube diameter [m] = 0.016
Tube-to-particle diameter ratio = 10
Target solid volume [m^3] = 3.96762208197367e-06
Created orthogonal box = (-0.008 -0.008 0) to (0.008 0.008 0.07)
  1 by 1 by 1 MPI processor grid
Generated 0 of 0 mixed pair_coeff terms from geometric mixing rule
Particle insertion: 303 every 319275 steps, 1850 by step 1915651
Neighbor list info ...
  update: every = 1 steps, delay = 0 steps, check = yes
  max neighbors/atom: 2000, page size: 100000
  master list distance cutoff = 0.00185
  ghost atom cutoff = 0.00185
  binsize = 0.000925, bins = 18 18 76
  1 neighbor lists, perpetual/occasional/extra = 1 0 0
  (1) pair granular, perpetual
      attributes: half, newton off, size, history
      pair build: half/size/bin/atomonly/newtoff
      stencil: full/bin/3d
      bin: standard
Setting up Verlet run ...
  Unit style    : si
  Current step  : 0
  Time step     : 2e-07
Per MPI rank memory allocation (min/avg/max) = 7.438 | 7.438 | 7.438 Mbytes
   Step          Time         Atoms        KinEng     c_granularTemp c_solidVolume    c_maxSpeed  
         0   0                      0  -0              0              0             -1e+20        
WARNING: Fewer insertions than requested (src/GRANULAR/fix_pour.cpp:691)
     10000   0.002                236  -0              5.6909971e+15  5.061399e-07   0.60778569   
     20000   0.004                236  -0              5.5711531e+15  5.061399e-07   0.59243305   
     30000   0.006                236  -0              5.4651318e+15  5.061399e-07   0.57794965   
     40000   0.008                236  -0              5.3713762e+15  5.061399e-07   0.56428628   
     50000   0.01                 236  -0              5.2885027e+15  5.061399e-07   0.5513965    
     60000   0.012                236  -0              5.215282e+15   5.061399e-07   0.53923653   
     70000   0.014                236  -0              5.1506216e+15  5.061399e-07   0.52776503   
     80000   0.016                236  -0              5.0935512e+15  5.061399e-07   0.51694304   
     90000   0.018                236  -0              5.0432086e+15  5.061399e-07   0.50673376   
    100000   0.02                 236  -0              4.9988283e+15  5.061399e-07   0.49710252   
    110000   0.022                236  -0              4.9597303e+15  5.061399e-07   0.48801659   
    120000   0.024                236  -0              4.9253107e+15  5.061399e-07   0.47944509   
    130000   0.026                236  -0              4.8950334e+15  5.061399e-07   0.47135889   
    140000   0.028                236  -0              4.8684226e+15  5.061399e-07   0.46373052   
    150000   0.03                 236  -0              4.8450559e+15  5.061399e-07   0.45653406   
    160000   0.032                236  -0              4.8245585e+15  5.061399e-07   0.44974504   
    170000   0.034                236  -0              4.8065976e+15  5.061399e-07   0.44334042   
    180000   0.036                236  -0              4.7908784e+15  5.061399e-07   0.43729841   
    190000   0.038                236  -0              4.7771391e+15  5.061399e-07   0.43159849   
    200000   0.04                 236  -0              4.7651477e+15  5.061399e-07   0.42622129   
    210000   0.042                236  -0              4.7546985e+15  5.061399e-07   0.42114854   
    220000   0.044                236  -0              4.7456092e+15  5.061399e-07   0.416363     
    230000   0.046                236  -0              4.7377184e+15  5.061399e-07   0.41184842   
    240000   0.048                236  -0              4.7308827e+15  5.061399e-07   0.40758944   
    250000   0.05                 236  -0              4.7249757e+15  5.061399e-07   0.40357159   
    260000   0.052                236  -0              4.7198851e+15  5.061399e-07   0.39978123   
    270000   0.054                236  -0              4.7155117e+15  5.061399e-07   0.39620548   
    280000   0.056                236  -0              4.7117676e+15  5.061399e-07   0.39283218   
    290000   0.058                236  -0              4.7085753e+15  5.061399e-07   0.38964987   
    300000   0.06                 236  -0              4.705866e+15   5.061399e-07   0.38664774   
    310000   0.062                236  -0              4.7035793e+15  5.061399e-07   0.38381558   
WARNING: Fewer insertions than requested (src/GRANULAR/fix_pour.cpp:691)
    320000   0.064                448  -0              5.2956597e+15  9.6080794e-07  0.62397055   
    330000   0.066                448  -0              5.1925592e+15  9.6080794e-07  0.60611949   
    340000   0.068                448  -0              5.1132642e+15  9.6080794e-07  0.58993833   
    350000   0.07                 448  -0              5.0531893e+15  9.6080794e-07  0.5755333    
    360000   0.072                448  -0              4.9997479e+15  9.6080794e-07  0.56200674   
    370000   0.074                448  -0              4.9560991e+15  9.6080794e-07  0.54924603   
    380000   0.076                448  -0              4.9201049e+15  9.6080794e-07  0.53720781   
    390000   0.078                448  -0              4.8876718e+15  9.6080794e-07  0.52585118   
    400000   0.08                 448  -0              4.8603455e+15  9.6080794e-07  0.51513754   
    410000   0.082                448  -0              4.8370782e+15  9.6080794e-07  0.50503049   
    420000   0.084                448  -0              4.8169958e+15  9.6080794e-07  0.49549569   
    430000   0.086                448  -0              4.7764456e+15  9.6080794e-07  0.48650073   
    440000   0.088                448  -0              4.7258039e+15  9.6080794e-07  0.47801505   
    450000   0.09                 448  -0              4.676002e+15   9.6080794e-07  0.47000982   
    460000   0.092                448  -0              4.6261222e+15  9.6080794e-07  0.46245784   
    470000   0.094                448  -0              4.5915484e+15  9.6080794e-07  0.45423486   
    480000   0.096                448  -0              4.5217253e+15  9.6080794e-07  0.44757602   
    490000   0.098                448  -0              4.4932945e+15  9.6080794e-07  0.4412942    
    500000   0.1                  448  -0              4.4470977e+15  9.6080794e-07  0.43536805   
    510000   0.102                448  -0              4.4059498e+15  9.6080794e-07  0.42977742   
    520000   0.104                448  -0              4.3664564e+15  9.6080794e-07  0.42450333   
    530000   0.106                448  -0              4.2939463e+15  9.6080794e-07  0.41952785   
    540000   0.108                448  -0              4.2337961e+15  9.6080794e-07  0.41483407   
    550000   0.11                 448  -0              4.1726436e+15  9.6080794e-07  0.41040605   
    560000   0.112                448  -0              4.1075828e+15  9.6080794e-07  0.40622873   
    570000   0.114                448  -0              4.0487619e+15  9.6080794e-07  0.40228793   
    580000   0.116                448  -0              4.011209e+15   9.6080794e-07  0.39857025   
    590000   0.118                448  -0              3.9826181e+15  9.6080794e-07  0.39506306   
    600000   0.12                 448  -0              3.9331561e+15  9.6080794e-07  0.39175444   
    610000   0.122                448  -0              3.9082371e+15  9.6080794e-07  0.38863315   
    620000   0.124                448  -0              3.887124e+15   9.6080794e-07  0.38568858   
    630000   0.126                448  -0              3.838844e+15   9.6080794e-07  0.3742479    
WARNING: Fewer insertions than requested (src/GRANULAR/fix_pour.cpp:691)
    640000   0.128                638  -0              4.2479223e+15  1.3682935e-06  0.6197137    
    650000   0.13                 638  -0              4.164386e+15   1.3682935e-06  0.60368572   
    660000   0.132                638  -0              4.0986068e+15  1.3682935e-06  0.58856521   
    670000   0.134                638  -0              4.0572847e+15  1.3682935e-06  0.5743008    
    680000   0.136                638  -0              4.0174932e+15  1.3682935e-06  0.56084402   
    690000   0.138                638  -0              3.9648681e+15  1.3682935e-06  0.54814914   
    700000   0.14                 638  -0              3.9330957e+15  1.3682935e-06  0.53617303   
    710000   0.142                638  -0              3.876618e+15   1.3682935e-06  0.52487498   
    720000   0.144                638  -0              3.8461414e+15  1.3682935e-06  0.51421662   
    730000   0.146                638  -0              3.8100252e+15  1.3682935e-06  0.50416171   
    740000   0.148                638  -0              3.7638249e+15  1.3682935e-06  0.49467609   
    750000   0.15                 638  -0              3.7133283e+15  1.3682935e-06  0.48572754   
    760000   0.152                638  -0              3.6147907e+15  1.3682935e-06  0.47728564   
    770000   0.154                638  -0              3.5290891e+15  1.3682935e-06  0.46932171   
    780000   0.156                638  -0              3.4480334e+15  1.3682935e-06  0.46180868   
    790000   0.158                638  -0              3.3662228e+15  1.3682935e-06  0.45472103   
    800000   0.16                 638  -0              3.2899321e+15  1.3682935e-06  0.44803467   
    810000   0.162                638  -0              3.1758784e+15  1.3682935e-06  0.44172688   
    820000   0.164                638  -0              3.0982533e+15  1.3682935e-06  0.43577623   
    830000   0.166                638  -0              3.0191571e+15  1.3682935e-06  0.43016249   
    840000   0.168                638  -0              2.9781426e+15  1.3682935e-06  0.4248666    
    850000   0.17                 638  -0              2.922778e+15   1.3682935e-06  0.41018183   
    860000   0.172                638  -0              2.8570177e+15  1.3682935e-06  0.40601721   
    870000   0.174                638  -0              2.7482941e+15  1.3682935e-06  0.40208838   
    880000   0.176                638  -0              2.6803304e+15  1.3682935e-06  0.398382     
    890000   0.178                638  -0              2.6143546e+15  1.3682935e-06  0.39488547   
    900000   0.18                 638  -0              2.5208645e+15  1.3682935e-06  0.3915869    
    910000   0.182                638  -0              2.4348096e+15  1.3682935e-06  0.3884751    
    920000   0.184                638  -0              2.3860692e+15  1.3682935e-06  0.38553948   
    930000   0.186                638  -0              2.3049711e+15  1.3682935e-06  0.38277007   
    940000   0.188                638  -0              2.2595393e+15  1.3682935e-06  0.38015746   
    950000   0.19                 638  -0              2.2222598e+15  1.3682935e-06  0.37769277   
WARNING: Fewer insertions than requested (src/GRANULAR/fix_pour.cpp:691)
    960000   0.192                838  -0              2.9805299e+15  1.7972256e-06  0.62212818   
    970000   0.194                838  -0              2.916419e+15   1.7972256e-06  0.60596349   
    980000   0.196                838  -0              2.8333441e+15  1.7972256e-06  0.59071402   
    990000   0.198                838  -0              2.7621111e+15  1.7972256e-06  0.57632795   
   1000000   0.2                  838  -0              2.71604e+15    1.7972256e-06  0.56275639   
   1010000   0.202                838  -0              2.6740848e+15  1.7972256e-06  0.54995324   
   1020000   0.204                838  -0              2.6330963e+15  1.7972256e-06  0.53787498   
   1030000   0.206                838  -0              2.5966472e+15  1.7972256e-06  0.52648057   
   1040000   0.208                838  -0              2.5656677e+15  1.7972256e-06  0.5157313    
   1050000   0.21                 838  -0              2.5173115e+15  1.7972256e-06  0.50559064   
   1060000   0.212                838  -0              2.4557478e+15  1.7972256e-06  0.49602412   
   1070000   0.214                838  -0              2.4015891e+15  1.7972256e-06  0.48699924   
   1080000   0.216                838  -0              2.3536285e+15  1.7972256e-06  0.47848534   
   1090000   0.218                838  -0              2.2925745e+15  1.7972256e-06  0.47045348   
   1100000   0.22                 838  -0              2.2544358e+15  1.7972256e-06  0.46287637   
   1110000   0.222                838  -0              2.2184551e+15  1.7972256e-06  0.45447007   
   1120000   0.224                838  -0              2.1893706e+15  1.7972256e-06  0.44779792   
   1130000   0.226                838  -0              2.1511925e+15  1.7972256e-06  0.44150353   
   1140000   0.228                838  -0              2.1041645e+15  1.7972256e-06  0.43556553   
   1150000   0.23                 838  -0              2.0363416e+15  1.7972256e-06  0.42996372   
   1160000   0.232                838  -0              1.963946e+15   1.7972256e-06  0.42467908   
   1170000   0.234                838  -0              1.9222252e+15  1.7972256e-06  0.41969365   
   1180000   0.236                838  -0              1.8490696e+15  1.7972256e-06  0.41499048   
   1190000   0.238                838  -0              1.7995948e+15  1.7972256e-06  0.41055361   
   1200000   0.24                 838  -0              1.7570255e+15  1.7972256e-06  0.40636794   
   1210000   0.242                838  -0              1.7415232e+15  1.7972256e-06  0.40241925   
   1220000   0.244                838  -0              1.715171e+15   1.7972256e-06  0.39869414   
   1230000   0.246                838  -0              1.702128e+15   1.7972256e-06  0.39517993   
   1240000   0.248                838  -0              1.6784515e+15  1.7972256e-06  0.3810492    
   1250000   0.25                 838  -0              1.6391394e+15  1.7972256e-06  0.37142921   
   1260000   0.252                838  -0              1.5965149e+15  1.7972256e-06  0.36945777   
   1270000   0.254                838  -0              1.5563709e+15  1.7972256e-06  0.36759804   
WARNING: Fewer insertions than requested (src/GRANULAR/fix_pour.cpp:691)
   1280000   0.256                987  -0              2.0299489e+15  2.11678e-06    0.62012263   
   1290000   0.258                987  -0              1.9743941e+15  2.11678e-06    0.60407149   
   1300000   0.26                 987  -0              1.9392251e+15  2.11678e-06    0.58892914   
   1310000   0.262                987  -0              1.9084135e+15  2.11678e-06    0.57464413   
   1320000   0.264                987  -0              1.8627287e+15  2.11678e-06    0.56116791   
   1330000   0.266                987  -0              1.8176869e+15  2.11678e-06    0.54845469   
   1340000   0.268                987  -0              1.7752198e+15  2.11678e-06    0.53646128   
   1350000   0.27                 987  -0              1.7329583e+15  2.11678e-06    0.52514691   
   1360000   0.272                987  -0              1.6862227e+15  2.11678e-06    0.51447315   
   1370000   0.274                987  -0              1.6661438e+15  2.11678e-06    0.50440372   
   1380000   0.276                987  -0              1.641847e+15   2.11678e-06    0.4949044    
   1390000   0.278                987  -0              1.6091862e+15  2.11678e-06    0.48594292   
   1400000   0.28                 987  -0              1.5543032e+15  2.11678e-06    0.47748883   
   1410000   0.282                987  -0              1.5038156e+15  2.11678e-06    0.46951339   
   1420000   0.284                987  -0              1.4501181e+15  2.11678e-06    0.46198951   
   1430000   0.286                987  -0              1.4029738e+15  2.11678e-06    0.45489162   
   1440000   0.288                987  -0              1.3502156e+15  2.11678e-06    0.4481956    
   1450000   0.29                 987  -0              1.3197976e+15  2.11678e-06    0.4418787    
   1460000   0.292                987  -0              1.2642319e+15  2.11678e-06    0.43591945   
   1470000   0.294                987  -0              1.2378692e+15  2.11678e-06    0.43029761   
   1480000   0.296                987  -0              1.2186242e+15  2.11678e-06    0.42499406   
   1490000   0.298                987  -0              1.1930541e+15  2.11678e-06    0.4199908    
   1500000   0.3                  987  -0              1.1681129e+15  2.11678e-06    0.41527081   
   1510000   0.302                987  -0              1.1510832e+15  2.11678e-06    0.37944127   
   1520000   0.304                987  -0              1.1447077e+15  2.11678e-06    0.37699815   
   1530000   0.306                987  -0              1.1317609e+15  2.11678e-06    0.37469523   
   1540000   0.308                987  -0              1.0916627e+15  2.11678e-06    0.36712824   
   1550000   0.31                 987  -0              1.0842744e+15  2.11678e-06    0.36539814   
   1560000   0.312                987  -0              1.0729651e+15  2.11678e-06    0.36376632   
   1570000   0.314                987  -0              1.0560411e+15  2.11678e-06    0.36222718   
   1580000   0.316                987  -0              1.0328741e+15  2.11678e-06    0.36077543   
   1590000   0.318                987  -0              1.0137767e+15  2.11678e-06    0.35940612   
WARNING: Fewer insertions than requested (src/GRANULAR/fix_pour.cpp:691)
   1600000   0.32                1164  -0              1.5919715e+15  2.4963849e-06  0.62015184   
   1610000   0.322               1164  -0              1.5490554e+15  2.4963849e-06  0.60409905   
   1620000   0.324               1164  -0              1.5015869e+15  2.4963849e-06  0.58895514   
   1630000   0.326               1164  -0              1.4403794e+15  2.4963849e-06  0.57466865   
   1640000   0.328               1164  -0              1.3973604e+15  2.4963849e-06  0.56119104   
   1650000   0.33                1164  -0              1.3565091e+15  2.4963849e-06  0.54847652   
   1660000   0.332               1164  -0              1.3392546e+15  2.4963849e-06  0.53648187   
   1670000   0.334               1164  -0              1.3155639e+15  2.4963849e-06  0.52516634   
   1680000   0.336               1164  -0              1.2749175e+15  2.4963849e-06  0.51449147   
   1690000   0.338               1164  -0              1.2364773e+15  2.4963849e-06  0.50442101   
   1700000   0.34                1164  -0              1.1930787e+15  2.4963849e-06  0.49492071   
   1710000   0.342               1164  -0              1.1494535e+15  2.4963849e-06  0.48595831   
   1720000   0.344               1164  -0              1.0931068e+15  2.4963849e-06  0.47750334   
   1730000   0.346               1164  -0              1.0663008e+15  2.4963849e-06  0.46952708   
   1740000   0.348               1164  -0              1.0447472e+15  2.4963849e-06  0.46200243   
   1750000   0.35                1164  -0              1.0255643e+15  2.4963849e-06  0.4549038    
   1760000   0.352               1164  -0              1.0127637e+15  2.4963849e-06  0.4482071    
   1770000   0.354               1164  -0              1.0029434e+15  2.4963849e-06  0.42368183   
   1780000   0.356               1164  -0              9.9409032e+14  2.4963849e-06  0.41875286   
   1790000   0.358               1164  -0              9.8290572e+14  2.4963849e-06  0.41410296   
   1800000   0.36                1164  -0              9.685675e+14   2.4963849e-06  0.40971633   
   1810000   0.362               1164  -0              9.5083395e+14  2.4963849e-06  0.40557807   
   1820000   0.364               1164  -0              9.3863704e+14  2.4963849e-06  0.4016741    
   1830000   0.366               1164  -0              9.1682773e+14  2.4963849e-06  0.39799118   
   1840000   0.368               1164  -0              8.9835715e+14  2.4963849e-06  0.39206925   
   1850000   0.37                1164  -0              8.812547e+14   2.4963849e-06  0.38405258   
   1860000   0.372               1164  -0              8.6494423e+14  2.4963849e-06  0.38136736   
   1870000   0.374               1164  -0              8.4446177e+14  2.4963849e-06  0.37400593   
   1880000   0.376               1164  -0              8.1594361e+14  2.4963849e-06  0.36731827   
   1890000   0.378               1164  -0              7.947348e+14   2.4963849e-06  0.35452654   
   1900000   0.38                1164  -0              7.8525622e+14  2.4963849e-06  0.35351167   
   1910000   0.382               1164  -0              7.7182729e+14  2.4963849e-06  0.35160178   
WARNING: Fewer insertions than requested (src/GRANULAR/fix_pour.cpp:691)
   1920000   0.384               1369  -0              1.3792054e+15  2.9360403e-06  0.61728513   
   1930000   0.386               1369  -0              1.3424203e+15  2.9360403e-06  0.60139465   
   1940000   0.388               1369  -0              1.289148e+15   2.9360403e-06  0.58640386   
   1950000   0.39                1369  -0              1.2629196e+15  2.9360403e-06  0.57226182   
   1960000   0.392               1369  -0              1.2238039e+15  2.9360403e-06  0.55892049   
   1970000   0.394               1369  -0              1.1950204e+15  2.9360403e-06  0.54633452   
   1980000   0.396               1369  -0              1.1696286e+15  2.9360403e-06  0.53446114   
   1990000   0.398               1369  -0              1.1423791e+15  2.9360403e-06  0.52326002   
   2000000   0.4                 1369  -0              1.1218793e+15  2.9360403e-06  0.51269309   
   2010000   0.402               1369  -0              1.0914501e+15  2.9360403e-06  0.50272444   
   2020000   0.404               1369  -0              1.0753495e+15  2.9360403e-06  0.49332021   
   2030000   0.406               1369  -0              1.054248e+15   2.9360403e-06  0.48444842   
   2040000   0.408               1369  -0              1.0371436e+15  2.9360403e-06  0.47607894   
   2050000   0.41                1369  -0              1.0227145e+15  2.9360403e-06  0.46818333   
   2060000   0.412               1369  -0              1.0123687e+15  2.9360403e-06  0.46073476   
   2070000   0.414               1369  -0              9.9829263e+14  2.9360403e-06  0.45370791   
   2080000   0.416               1369  -0              9.8369429e+14  2.9360403e-06  0.4434947    
   2090000   0.418               1369  -0              9.6458395e+14  2.9360403e-06  0.43713914   
   2100000   0.42                1369  -0              9.4165262e+14  2.9360403e-06  0.42063559   
   2110000   0.422               1369  -0              9.1584444e+14  2.9360403e-06  0.39214721   
   2120000   0.424               1369  -0              9.0154774e+14  2.9360403e-06  0.38646429   
   2130000   0.426               1369  -0              8.7949397e+14  2.9360403e-06  0.38362492   
   2140000   0.428               1369  -0              8.6330757e+14  2.9360403e-06  0.38094803   
   2150000   0.43                1369  -0              8.4660393e+14  2.9360403e-06  0.37842425   
   2160000   0.432               1369  -0              8.2984158e+14  2.9360403e-06  0.37007414   
   2170000   0.434               1369  -0              8.0332195e+14  2.9360403e-06  0.36399131   
   2180000   0.436               1369  -0              7.8656883e+14  2.9360403e-06  0.36179282   
   2190000   0.438               1369  -0              7.5617456e+14  2.9360403e-06  0.36036472   
   2200000   0.44                1369  -0              7.0913194e+14  2.9360403e-06  0.35901781   
   2210000   0.442               1369  -0              6.487451e+14   2.9360403e-06  0.35774746   
   2220000   0.444               1369  -0              5.9808674e+14  2.9360403e-06  0.35412559   
   2230000   0.446               1369  -0              5.5179773e+14  2.9360403e-06  0.35313478   
WARNING: Fewer insertions than requested (src/GRANULAR/fix_pour.cpp:691)
   2240000   0.448               1566  -0              1.128802e+15   3.3585385e-06  0.61736298   
   2250000   0.45                1566  -0              1.0813602e+15  3.3585385e-06  0.60146808   
   2260000   0.452               1566  -0              1.0548062e+15  3.3585385e-06  0.58647314   
   2270000   0.454               1566  -0              1.0200365e+15  3.3585385e-06  0.57069605   
   2280000   0.456               1566  -0              9.9691602e+14  3.3585385e-06  0.55744337   
   2290000   0.458               1566  -0              9.7664245e+14  3.3585385e-06  0.54494103   
   2300000   0.46                1566  -0              9.5236753e+14  3.3585385e-06  0.52009908   
   2310000   0.462               1566  -0              9.3458855e+14  3.3585385e-06  0.50969089   
   2320000   0.464               1566  -0              9.2657293e+14  3.3585385e-06  0.49987348   
   2330000   0.466               1566  -0              9.177506e+14   3.3585385e-06  0.49061334   
   2340000   0.468               1566  -0              9.0901726e+14  3.3585385e-06  0.48187883   
   2350000   0.47                1566  -0              8.9391018e+14  3.3585385e-06  0.47364009   
   2360000   0.472               1566  -0              8.6276813e+14  3.3585385e-06  0.43742408   
   2370000   0.474               1566  -0              8.3238275e+14  3.3585385e-06  0.43170877   
   2380000   0.476               1566  -0              7.9992116e+14  3.3585385e-06  0.42631776   
   2390000   0.478               1566  -0              7.7390082e+14  3.3585385e-06  0.4020253    
   2400000   0.48                1566  -0              7.2754374e+14  3.3585385e-06  0.39831736   
   2410000   0.482               1566  -0              6.9817852e+14  3.3585385e-06  0.3913128    
   2420000   0.484               1566  -0              6.6544969e+14  3.3585385e-06  0.38821652   
   2430000   0.486               1566  -0              6.2777054e+14  3.3585385e-06  0.38529554   
   2440000   0.488               1566  -0              5.8900278e+14  3.3585385e-06  0.38253994   
   2450000   0.49                1566  -0              5.6381101e+14  3.3585385e-06  0.37994036   
   2460000   0.492               1566  -0              5.2885619e+14  3.3585385e-06  0.36823153   
   2470000   0.494               1566  -0              4.9292078e+14  3.3585385e-06  0.36644207   
   2480000   0.496               1566  -0              4.5792214e+14  3.3585385e-06  0.36130966   
   2490000   0.498               1566  -0              4.1926581e+14  3.3585385e-06  0.35791325   
   2500000   0.5                 1566  -0              3.907901e+14   3.3585385e-06  0.35099205   
   2510000   0.502               1566  -0              3.7549095e+14  3.3585385e-06  0.35017866   
   2520000   0.504               1566  -0              3.6025062e+14  3.3585385e-06  0.34941132   
   2530000   0.506               1566  -0              3.4966823e+14  3.3585385e-06  0.34868743   
   2540000   0.508               1566  -0              3.3641166e+14  3.3585385e-06  0.34568752   
   2550000   0.51                1566  -0              3.2100463e+14  3.3585385e-06  0.34322593   
WARNING: Fewer insertions than requested (src/GRANULAR/fix_pour.cpp:691)
   2560000   0.512               1789  -0              9.5352084e+14  3.8367978e-06  0.61448359   
   2570000   0.514               1789  -0              9.2683202e+14  3.8367978e-06  0.58749043   
   2580000   0.516               1789  -0              9.0010582e+14  3.8367978e-06  0.57328687   
   2590000   0.518               1789  -0              8.745561e+14   3.8367978e-06  0.55900471   
   2600000   0.52                1789  -0              8.6013005e+14  3.8367978e-06  0.54641398   
   2610000   0.522               1789  -0              8.4450031e+14  3.8367978e-06  0.5345361    
   2620000   0.524               1789  -0              8.2943503e+14  3.8367978e-06  0.50678633   
   2630000   0.526               1789  -0              8.151399e+14   3.8367978e-06  0.49715211   
   2640000   0.528               1789  -0              7.927842e+14   3.8367978e-06  0.48806337   
   2650000   0.53                1789  -0              7.6132259e+14  3.8367978e-06  0.47948922   
   2660000   0.532               1789  -0              7.2568088e+14  3.8367978e-06  0.46196099   
   2670000   0.534               1789  -0              6.6932113e+14  3.8367978e-06  0.44103856   
   2680000   0.536               1789  -0              6.3006778e+14  3.8367978e-06  0.41475593   
   2690000   0.538               1789  -0              6.0660546e+14  3.8367978e-06  0.41032728   
   2700000   0.54                1789  -0              5.5410353e+14  3.8367978e-06  0.38889811   
   2710000   0.542               1789  -0              5.3146232e+14  3.8367978e-06  0.38290309   
   2720000   0.544               1789  -0              5.1017373e+14  3.8367978e-06  0.36651628   
   2730000   0.546               1789  -0              4.8503388e+14  3.8367978e-06  0.36482393   
   2740000   0.548               1789  -0              4.5348781e+14  3.8367978e-06  0.36322741   
   2750000   0.55                1789  -0              4.3441472e+14  3.8367978e-06  0.36172127   
   2760000   0.552               1789  -0              3.9712917e+14  3.8367978e-06  0.36030041   
   2770000   0.554               1789  -0              3.7030589e+14  3.8367978e-06  0.35533896   
   2780000   0.556               1789  -0              3.4928601e+14  3.8367978e-06  0.35427946   
   2790000   0.558               1789  -0              3.3993266e+14  3.8367978e-06  0.35229276   
   2800000   0.56                1789  -0              3.277138e+14   3.8367978e-06  0.34747322   
   2810000   0.562               1789  -0              3.2189932e+14  3.8367978e-06  0.34685907   
   2820000   0.564               1789  -0              3.2003831e+14  3.8367978e-06  0.34627968   
   2830000   0.566               1789  -0              3.0902693e+14  3.8367978e-06  0.34150205   
   2840000   0.568               1789  -0              2.9565423e+14  3.8367978e-06  0.33979263   
   2850000   0.57                1789  -0              2.8584892e+14  3.8367978e-06  0.33660041   
   2860000   0.572               1789  -0              2.7426413e+14  3.8367978e-06  0.33510171   
   2870000   0.574               1789  -0              2.6219383e+14  3.8367978e-06  0.3332431    
   2880000   0.576               1850  -0              3.7252837e+14  3.9676221e-06  0.55216701   
   2890000   0.578               1850  -0              3.6116689e+14  3.9676221e-06  0.53996341   
   2900000   0.58                1850  -0              3.4920978e+14  3.9676221e-06  0.52845076   
   2910000   0.582               1850  -0              3.4298706e+14  3.9676221e-06  0.51758994   
   2920000   0.584               1850  -0              3.2696963e+14  3.9676221e-06  0.50734404   
   2930000   0.586               1850  -0              3.1368455e+14  3.9676221e-06  0.49767825   
   2940000   0.588               1850  -0              3.0022296e+14  3.9676221e-06  0.48855972   
   2950000   0.59                1850  -0              2.8776266e+14  3.9676221e-06  0.47995746   
   2960000   0.592               1850  -0              2.7333022e+14  3.9676221e-06  0.4239535    
   2970000   0.594               1850  -0              2.6575682e+14  3.9676221e-06  0.41898072   
   2980000   0.596               1850  -0              2.513374e+14   3.9676221e-06  0.40483976   
   2990000   0.598               1850  -0              2.3607357e+14  3.9676221e-06  0.4009776    
   3000000   0.6                 1850  -0              2.1583316e+14  3.9676221e-06  0.3973341    
Loop time of 318.083 on 1 procs for 3000000 steps with 1850 atoms

100.0% CPU use with 1 MPI tasks x 1 OpenMP threads

MPI task timing breakdown:
Section |  min time  |  avg time  |  max time  |%varavg| %total
---------------------------------------------------------------
Pair    | 226.39     | 226.39     | 226.39     |   0.0 | 71.17
Neigh   | 0.56358    | 0.56358    | 0.56358    |   0.0 |  0.18
Comm    | 0.063501   | 0.063501   | 0.063501   |   0.0 |  0.02
Output  | 0.12197    | 0.12197    | 0.12197    |   0.0 |  0.04
Modify  | 87.002     | 87.002     | 87.002     |   0.0 | 27.35
Other   |            | 3.945      |            |       |  1.24

Nlocal:           1850 ave        1850 max        1850 min
Histogram: 1 0 0 0 0 0 0 0 0 0
Nghost:              0 ave           0 max           0 min
Histogram: 1 0 0 0 0 0 0 0 0 0
Neighs:           6644 ave        6644 max        6644 min
Histogram: 1 0 0 0 0 0 0 0 0 0

Total # of neighbors = 6644
Ave neighs/atom = 3.5913514
Neighbor list builds = 2191
Dangerous builds = 0
Generated 0 of 0 mixed pair_coeff terms from geometric mixing rule
Setting up Verlet run ...
  Unit style    : si
  Current step  : 0
  Time step     : 2e-07
Per MPI rank memory allocation (min/avg/max) = 14.72 | 14.72 | 14.72 Mbytes
   Step          Time         Atoms        KinEng     c_granularTemp c_solidVolume    c_maxSpeed  
         0   0                   1850   1.5221156e-05  2.0319866e+14  3.9676221e-06  0.37987329   
     10000   0.002               1850   8.8939235e-06  1.20208e+14    3.9676221e-06  0.30086036   
     20000   0.004               1850   5.8237694e-06  7.9664697e+13  3.9676221e-06  0.2418221    
     30000   0.006               1850   3.7837905e-06  5.2195674e+13  3.9676221e-06  0.18986419   
     40000   0.008               1850   2.6968545e-06  3.7339439e+13  3.9676221e-06  0.15775226   
     50000   0.01                1850   1.9771338e-06  2.7479696e+13  3.9676221e-06  0.13489207   
     60000   0.012               1850   1.5360947e-06  2.1431759e+13  3.9676221e-06  0.117811     
     70000   0.014               1850   1.212781e-06   1.6973855e+13  3.9676221e-06  0.10504806   
     80000   0.016               1850   9.6565436e-07  1.3609874e+13  3.9676221e-06  0.09483071   
     90000   0.018               1850   8.1746748e-07  1.1580092e+13  3.9676221e-06  0.087876107  
    100000   0.02                1850   7.4485475e-07  1.0522424e+13  3.9676221e-06  0.082680054  
    110000   0.022               1850   6.5465385e-07  9.2799376e+12  3.9676221e-06  0.078797851  
    120000   0.024               1850   6.1145984e-07  8.602421e+12   3.9676221e-06  0.076231889  
    130000   0.026               1850   5.7318545e-07  8.0423778e+12  3.9676221e-06  0.073730051  
    140000   0.028               1850   5.3077424e-07  7.3869768e+12  3.9676221e-06  0.072110789  
    150000   0.03                1850   5.0988702e-07  7.080421e+12   3.9676221e-06  0.07090092   
    160000   0.032               1850   4.9485507e-07  6.8788391e+12  3.9676221e-06  0.069996933  
    170000   0.034               1850   4.6643519e-07  6.4568509e+12  3.9676221e-06  0.06932149   
    180000   0.036               1850   4.4775337e-07  6.1903664e+12  3.9676221e-06  0.068816809  
    190000   0.038               1850   4.3545682e-07  5.9924685e+12  3.9676221e-06  0.068439717  
    200000   0.04                1850   4.1979719e-07  5.7779187e+12  3.9676221e-06  0.068157957  
    210000   0.042               1850   3.9491513e-07  5.4442573e+12  3.9676221e-06  0.067947344  
    220000   0.044               1850   3.9499307e-07  5.4586558e+12  3.9676221e-06  0.067790061  
    230000   0.046               1850   3.925116e-07   5.4073115e+12  3.9676221e-06  0.067672539  
    240000   0.048               1850   3.9067118e-07  5.3757731e+12  3.9676221e-06  0.067584727  
    250000   0.05                1850   3.8711105e-07  5.3079114e+12  3.9676221e-06  0.067524761  
    260000   0.052               1850   3.7641683e-07  5.1583651e+12  3.9676221e-06  0.067464896  
    270000   0.054               1850   3.7043212e-07  5.0857447e+12  3.9676221e-06  0.067429577  
    280000   0.056               1850   3.7104078e-07  5.1097264e+12  3.9676221e-06  0.067403186  
    290000   0.058               1850   3.7043408e-07  5.1042088e+12  3.9676221e-06  0.067383467  
    300000   0.06                1850   3.5833246e-07  4.886084e+12   3.9676221e-06  0.067367433  
    310000   0.062               1850   3.5638459e-07  4.8670066e+12  3.9676221e-06  0.067356752  
    320000   0.064               1850   3.5310444e-07  4.8255274e+12  3.9676221e-06  0.067348772  
    330000   0.066               1850   3.4693296e-07  4.6950262e+12  3.9676221e-06  0.067342809  
    340000   0.068               1850   3.4616609e-07  4.6809307e+12  3.9676221e-06  0.067338354  
    350000   0.07                1850   3.3362128e-07  4.5131163e+12  3.9676221e-06  0.067335006  
    360000   0.072               1850   3.3065307e-07  4.4731423e+12  3.9676221e-06  0.067332523  
    370000   0.074               1850   3.2092813e-07  4.3018551e+12  3.9676221e-06  0.067330668  
    380000   0.076               1850   3.1963499e-07  4.2604179e+12  3.9676221e-06  0.067329282  
    390000   0.078               1850   3.1704254e-07  4.2023147e+12  3.9676221e-06  0.067328246  
    400000   0.08                1850   3.0957832e-07  4.1088237e+12  3.9676221e-06  0.067327409  
    410000   0.082               1850   3.0935581e-07  4.0982035e+12  3.9676221e-06  0.067326847  
    420000   0.084               1850   3.1013903e-07  4.1124023e+12  3.9676221e-06  0.067326427  
    430000   0.086               1850   3.1066877e-07  4.1195545e+12  3.9676221e-06  0.067326113  
    440000   0.088               1850   3.0443224e-07  4.0481429e+12  3.9676221e-06  0.067325878  
    450000   0.09                1850   3.057233e-07   4.0742364e+12  3.9676221e-06  0.067325703  
    460000   0.092               1850   3.0672036e-07  4.1008527e+12  3.9676221e-06  0.067325572  
    470000   0.094               1850   3.0883915e-07  4.1356591e+12  3.9676221e-06  0.067325474  
    480000   0.096               1850   3.066217e-07   4.1138508e+12  3.9676221e-06  0.067325401  
    490000   0.098               1850   3.0557715e-07  4.100395e+12   3.9676221e-06  0.067325347  
    500000   0.1                 1850   2.9991257e-07  4.0405771e+12  3.9676221e-06  0.067325301  
    510000   0.102               1850   3.002714e-07   4.0352143e+12  3.9676221e-06  0.067325272  
    520000   0.104               1850   3.0007383e-07  4.0201085e+12  3.9676221e-06  0.06732525   
    530000   0.106               1850   2.9863444e-07  3.9882412e+12  3.9676221e-06  0.067325233  
    540000   0.108               1850   2.9668667e-07  3.9450817e+12  3.9676221e-06  0.067325221  
    550000   0.11                1850   2.96499e-07    3.9400935e+12  3.9676221e-06  0.067325212  
    560000   0.112               1850   2.9120678e-07  3.8732086e+12  3.9676221e-06  0.067325205  
    570000   0.114               1850   2.8041082e-07  3.7453017e+12  3.9676221e-06  0.0673252    
    580000   0.116               1850   2.7611379e-07  3.6767782e+12  3.9676221e-06  0.067325196  
    590000   0.118               1850   2.7396813e-07  3.6456882e+12  3.9676221e-06  0.067325193  
    600000   0.12                1850   2.6973398e-07  3.5804318e+12  3.9676221e-06  0.067325191  
    610000   0.122               1850   2.6350108e-07  3.5066096e+12  3.9676221e-06  0.06732519   
    620000   0.124               1850   2.553833e-07   3.3839106e+12  3.9676221e-06  0.067325188  
    630000   0.126               1850   2.5420387e-07  3.3698945e+12  3.9676221e-06  0.067325188  
    640000   0.128               1850   2.5371765e-07  3.3677728e+12  3.9676221e-06  0.067325187  
    650000   0.13                1850   2.4517828e-07  3.2569478e+12  3.9676221e-06  0.067325186  
    660000   0.132               1850   2.2548033e-07  3.0108266e+12  3.9676221e-06  0.067325186  
    670000   0.134               1850   2.2603705e-07  3.0258798e+12  3.9676221e-06  0.067325186  
    680000   0.136               1850   2.2709231e-07  3.0576699e+12  3.9676221e-06  0.067325186  
    690000   0.138               1850   2.2168822e-07  3.0103612e+12  3.9676221e-06  0.067325186  
    700000   0.14                1850   2.1523765e-07  2.9344449e+12  3.9676221e-06  0.067325185  
    710000   0.142               1850   2.1124824e-07  2.9004715e+12  3.9676221e-06  0.067325185  
    720000   0.144               1850   2.1123588e-07  2.8912101e+12  3.9676221e-06  0.067325185  
    730000   0.146               1850   2.1265063e-07  2.9098619e+12  3.9676221e-06  0.067325185  
    740000   0.148               1850   2.0328265e-07  2.7806292e+12  3.9676221e-06  0.067325185  
    750000   0.15                1850   2.0326155e-07  2.7838695e+12  3.9676221e-06  0.067325185  
    760000   0.152               1850   2.0335843e-07  2.7911758e+12  3.9676221e-06  0.067325185  
    770000   0.154               1850   2.0329432e-07  2.7870612e+12  3.9676221e-06  0.067325185  
    780000   0.156               1850   2.0536298e-07  2.8255337e+12  3.9676221e-06  0.067325185  
    790000   0.158               1850   2.0385674e-07  2.7941194e+12  3.9676221e-06  0.067325185  
    800000   0.16                1850   1.9671876e-07  2.6684367e+12  3.9676221e-06  0.067325185  
    810000   0.162               1850   1.9680678e-07  2.6599418e+12  3.9676221e-06  0.067325185  
    820000   0.164               1850   1.9751482e-07  2.6735202e+12  3.9676221e-06  0.067325185  
    830000   0.166               1850   1.9611783e-07  2.6546053e+12  3.9676221e-06  0.067325185  
    840000   0.168               1850   1.9327979e-07  2.6022235e+12  3.9676221e-06  0.067325185  
    850000   0.17                1850   1.9093871e-07  2.5657206e+12  3.9676221e-06  0.067325185  
    860000   0.172               1850   1.9058015e-07  2.559593e+12   3.9676221e-06  0.067325185  
    870000   0.174               1850   1.9086698e-07  2.5715615e+12  3.9676221e-06  0.067325185  
    880000   0.176               1850   1.9125248e-07  2.5810492e+12  3.9676221e-06  0.067325185  
    890000   0.178               1850   1.8750145e-07  2.5183394e+12  3.9676221e-06  0.067325185  
    900000   0.18                1850   1.8012637e-07  2.4192491e+12  3.9676221e-06  0.067325185  
    910000   0.182               1850   1.8144156e-07  2.4360474e+12  3.9676221e-06  0.067325185  
    920000   0.184               1850   1.815612e-07   2.4316551e+12  3.9676221e-06  0.067325185  
    930000   0.186               1850   1.784241e-07   2.3973827e+12  3.9676221e-06  0.067325185  
    940000   0.188               1850   1.726816e-07   2.3331928e+12  3.9676221e-06  0.067325185  
    950000   0.19                1850   1.7136058e-07  2.3282191e+12  3.9676221e-06  0.067325185  
    960000   0.192               1850   1.7252605e-07  2.3446628e+12  3.9676221e-06  0.067325185  
    970000   0.194               1850   1.7380317e-07  2.3669098e+12  3.9676221e-06  0.067325185  
    980000   0.196               1850   1.7065794e-07  2.3386124e+12  3.9676221e-06  0.067325185  
    990000   0.198               1850   1.6346084e-07  2.2430009e+12  3.9676221e-06  0.067325185  
   1000000   0.2                 1850   1.6442414e-07  2.265585e+12   3.9676221e-06  0.067325185  
   1010000   0.202               1850   1.5622229e-07  2.1548487e+12  3.9676221e-06  0.067325185  
   1020000   0.204               1850   1.5285427e-07  2.0893987e+12  3.9676221e-06  0.067325185  
   1030000   0.206               1850   1.5334851e-07  2.1010559e+12  3.9676221e-06  0.067325185  
   1040000   0.208               1850   1.5289073e-07  2.0776944e+12  3.9676221e-06  0.067325185  
   1050000   0.21                1850   1.4113393e-07  1.9372335e+12  3.9676221e-06  0.067325185  
   1060000   0.212               1850   1.4100562e-07  1.9443151e+12  3.9676221e-06  0.067325185  
   1070000   0.214               1850   1.4096621e-07  1.9431029e+12  3.9676221e-06  0.067325185  
   1080000   0.216               1850   1.4262248e-07  1.9614916e+12  3.9676221e-06  0.067325185  
   1090000   0.218               1850   1.3985902e-07  1.917705e+12   3.9676221e-06  0.067325185  
   1100000   0.22                1850   1.3416644e-07  1.8421966e+12  3.9676221e-06  0.067325185  
   1110000   0.222               1850   1.3417876e-07  1.8362598e+12  3.9676221e-06  0.067325185  
   1120000   0.224               1850   1.2958778e-07  1.7922207e+12  3.9676221e-06  0.067325185  
   1130000   0.226               1850   1.2983348e-07  1.8028257e+12  3.9676221e-06  0.067325185  
   1140000   0.228               1850   1.2780159e-07  1.7647856e+12  3.9676221e-06  0.067325185  
   1150000   0.23                1850   1.2832065e-07  1.761676e+12   3.9676221e-06  0.067325185  
   1160000   0.232               1850   1.2914437e-07  1.777028e+12   3.9676221e-06  0.067325185  
   1170000   0.234               1850   1.3039045e-07  1.8003589e+12  3.9676221e-06  0.067325185  
   1180000   0.236               1850   1.3072892e-07  1.8059172e+12  3.9676221e-06  0.067325185  
   1190000   0.238               1850   1.3226008e-07  1.8316749e+12  3.9676221e-06  0.067325185  
   1200000   0.24                1850   1.258816e-07   1.7149121e+12  3.9676221e-06  0.067325185  
   1210000   0.242               1850   1.216272e-07   1.6387757e+12  3.9676221e-06  0.067325185  
   1220000   0.244               1850   1.1722962e-07  1.5864662e+12  3.9676221e-06  0.067325185  
   1230000   0.246               1850   1.1717666e-07  1.5883787e+12  3.9676221e-06  0.067325185  
   1240000   0.248               1850   1.1101661e-07  1.5185982e+12  3.9676221e-06  0.067325185  
   1250000   0.25                1850   1.0881662e-07  1.4838779e+12  3.9676221e-06  0.067325185  
   1260000   0.252               1850   1.0536507e-07  1.4486956e+12  3.9676221e-06  0.067325185  
   1270000   0.254               1850   9.4110148e-08  1.3073396e+12  3.9676221e-06  0.067325185  
   1280000   0.256               1850   9.0150339e-08  1.2560251e+12  3.9676221e-06  0.067325185  
   1290000   0.258               1850   8.4016141e-08  1.1833277e+12  3.9676221e-06  0.067325185  
   1300000   0.26                1850   8.5133575e-08  1.2060447e+12  3.9676221e-06  0.067325185  
   1310000   0.262               1850   8.7054483e-08  1.242638e+12   3.9676221e-06  0.067325185  
   1320000   0.264               1850   8.2732509e-08  1.1929066e+12  3.9676221e-06  0.067325185  
   1330000   0.266               1850   7.9839801e-08  1.1767381e+12  3.9676221e-06  0.067325185  
   1340000   0.268               1850   8.1119611e-08  1.2095566e+12  3.9676221e-06  0.067325185  
   1350000   0.27                1850   5.995403e-08   9.659227e+11   3.9676221e-06  0.067325185  
   1360000   0.272               1850   5.0431994e-08  8.7208765e+11  3.9676221e-06  0.067325185  
   1370000   0.274               1850   4.5450674e-08  8.3229151e+11  3.9676221e-06  0.067325185  
   1380000   0.276               1850   4.2509213e-08  7.6707076e+11  3.9676221e-06  0.067325185  
   1390000   0.278               1850   3.8965573e-08  7.0876119e+11  3.9676221e-06  0.067325185  
   1400000   0.28                1850   3.2452485e-08  5.8232906e+11  3.9676221e-06  0.067325185  
   1410000   0.282               1850   2.9143494e-08  5.4354051e+11  3.9676221e-06  0.067325185  
   1420000   0.284               1850   3.0036836e-08  5.8084508e+11  3.9676221e-06  0.067325185  
   1430000   0.286               1850   2.3413775e-08  4.7323053e+11  3.9676221e-06  0.067325185  
   1440000   0.288               1850   2.4122133e-08  4.7944214e+11  3.9676221e-06  0.067325185  
   1450000   0.29                1850   2.3063192e-08  4.4724223e+11  3.9676221e-06  0.067325185  
   1460000   0.292               1850   1.9333435e-08  3.9781889e+11  3.9676221e-06  0.067325185  
   1470000   0.294               1850   1.903782e-08   3.6547665e+11  3.9676221e-06  0.067325185  
   1480000   0.296               1850   1.4158748e-08  3.1212963e+11  3.9676221e-06  0.037141008  
   1490000   0.298               1850   1.1493665e-08  2.5598526e+11  3.9676221e-06  0.037606632  
   1500000   0.3                 1850   8.9851045e-09  2.1549011e+11  3.9676221e-06  0.039518454  
   1510000   0.302               1850   8.4539918e-09  1.8411485e+11  3.9676221e-06  0.041586431  
   1520000   0.304               1850   7.4043962e-09  1.5798787e+11  3.9676221e-06  0.039559545  
   1530000   0.306               1850   6.6759826e-09  1.4563953e+11  3.9676221e-06  0.041165475  
   1540000   0.308               1850   7.1127403e-09  1.5417636e+11  3.9676221e-06  0.043188954  
   1550000   0.31                1850   7.8394667e-09  1.665941e+11   3.9676221e-06  0.045039365  
   1560000   0.312               1850   8.4582953e-09  1.7752616e+11  3.9676221e-06  0.046999933  
   1570000   0.314               1850   9.4072063e-09  1.9717335e+11  3.9676221e-06  0.049032849  
   1580000   0.316               1850   1.047301e-08   2.196905e+11   3.9676221e-06  0.051074817  
   1590000   0.318               1850   1.1686972e-08  2.4581265e+11  3.9676221e-06  0.053070767  
   1600000   0.32                1850   8.6347823e-09  1.9076904e+11  3.9676221e-06  0.049081872  
   1610000   0.322               1850   6.5570917e-09  1.4461211e+11  3.9676221e-06  0.044006196  
   1620000   0.324               1850   6.7732006e-09  1.5161298e+11  3.9676221e-06  0.043752055  
   1630000   0.326               1850   5.5014083e-09  1.2185561e+11  3.9676221e-06  0.032204461  
   1640000   0.328               1850   5.2469273e-09  1.1455282e+11  3.9676221e-06  0.034475418  
   1650000   0.33                1850   5.4980497e-09  1.1900664e+11  3.9676221e-06  0.036901683  
   1660000   0.332               1850   5.8782173e-09  1.2772495e+11  3.9676221e-06  0.039293781  
   1670000   0.334               1850   6.5137516e-09  1.4111088e+11  3.9676221e-06  0.041712477  
   1680000   0.336               1850   3.9436652e-09  8.5224121e+10  3.9676221e-06  0.034505778  
   1690000   0.338               1850   3.4032042e-09  7.540069e+10   3.9676221e-06  0.036691056  
   1700000   0.34                1850   3.5717459e-09  7.689953e+10   3.9676221e-06  0.038880012  
   1710000   0.342               1850   4.2705795e-09  8.9660641e+10  3.9676221e-06  0.041102944  
   1720000   0.344               1850   1.5607737e-09  3.4967415e+10  3.9676221e-06  0.014988311  
   1730000   0.346               1850   1.6962971e-09  3.9204395e+10  3.9676221e-06  0.016143247  
   1740000   0.348               1850   1.3554097e-09  3.3701959e+10  3.9676221e-06  0.014982585  
   1750000   0.35                1850   1.0208354e-09  2.6078755e+10  3.9676221e-06  0.015588195  
   1760000   0.352               1850   8.2378311e-10  1.6985942e+10  3.9676221e-06  0.017295076  
   1770000   0.354               1850   9.0828862e-10  1.9431931e+10  3.9676221e-06  0.018810523  
   1780000   0.356               1850   1.0405286e-09  2.2792762e+10  3.9676221e-06  0.020369577  
   1790000   0.358               1850   1.2076681e-09  2.736345e+10   3.9676221e-06  0.021936226  
   1800000   0.36                1850   1.3964479e-09  3.2770713e+10  3.9676221e-06  0.023553121  
   1810000   0.362               1850   1.606038e-09   3.9034457e+10  3.9676221e-06  0.025240765  
   1820000   0.364               1850   1.8456232e-09  4.6259057e+10  3.9676221e-06  0.026998699  
   1830000   0.366               1850   2.1152293e-09  5.4537768e+10  3.9676221e-06  0.028825371  
   1840000   0.368               1850   2.4170288e-09  6.3935656e+10  3.9676221e-06  0.030726666  
   1850000   0.37                1850   1.7172988e-09  6.3420342e+10  3.9676221e-06  0.021652042  
   1860000   0.372               1850   1.9321401e-09  7.3788897e+10  3.9676221e-06  0.023118713  
   1870000   0.374               1850   2.2077376e-09  8.603907e+10   3.9676221e-06  0.024659311  
   1880000   0.376               1850   2.5268481e-09  1.0002356e+11  3.9676221e-06  0.02628798   
   1890000   0.378               1850   2.8860994e-09  1.1597257e+11  3.9676221e-06  0.028007139  
   1900000   0.38                1850   3.2959138e-09  1.3392612e+11  3.9676221e-06  0.029813683  
   1910000   0.382               1850   2.2443955e-09  1.0239315e+11  3.9676221e-06  0.031710266  
   1920000   0.384               1850   3.2985792e-09  9.853051e+10   3.9676221e-06  0.033650482  
   1930000   0.386               1850   4.5517637e-09  1.0592228e+11  3.9676221e-06  0.03571243   
   1940000   0.388               1850   5.2711254e-09  1.1774509e+11  3.9676221e-06  0.037817615  
   1950000   0.39                1850   3.5269486e-09  8.0435199e+10  3.9676221e-06  0.039984141  
   1960000   0.392               1850   3.205657e-09   6.5450525e+10  3.9676221e-06  0.042208856  
   1970000   0.394               1850   3.5082085e-09  7.0749735e+10  3.9676221e-06  0.04446346   
   1980000   0.396               1850   3.9309372e-09  7.9517015e+10  3.9676221e-06  0.046856878  
   1990000   0.398               1850   4.2454299e-09  8.6415741e+10  3.9676221e-06  0.049233702  
   2000000   0.4                 1850   4.6457772e-09  9.5335501e+10  3.9676221e-06  0.051476495  
   2010000   0.402               1850   4.9601395e-09  9.8060401e+10  3.9676221e-06  0.053655379  
   2020000   0.404               1850   5.3471671e-09  1.0284493e+11  3.9676221e-06  0.055816704  
   2030000   0.406               1850   2.4074297e-09  6.2150774e+10  3.9676221e-06  0.037394297  
   2040000   0.408               1850   2.5326287e-09  6.4135463e+10  3.9676221e-06  0.038414536  
   2050000   0.41                1850   2.7483683e-09  6.8092918e+10  3.9676221e-06  0.040021094  
   2060000   0.412               1850   3.014574e-09   7.298562e+10   3.9676221e-06  0.041916325  
   2070000   0.414               1850   2.0152997e-10  1.1550755e+10  3.9676221e-06  0.010667679  
   2080000   0.416               1850   1.5582777e-11  7.8072921e+08  3.9676221e-06  0.0015409603 
   2090000   0.418               1850   2.106952e-12   77832556       3.9676221e-06  0.00052074401
   2100000   0.42                1850   3.5973435e-13  19158414       3.9676221e-06  0.00021195716
   2110000   0.422               1850   7.8940018e-14  10313648       3.9676221e-06  7.3465354e-05
   2120000   0.424               1850   3.1867346e-14  8900557.9      3.9676221e-06  4.6805709e-05
   2130000   0.426               1850   1.4200596e-14  8396459.8      3.9676221e-06  2.8742267e-05
   2140000   0.428               1850   4.7225181e-15  8111918.9      3.9676221e-06  1.5795365e-05
   2150000   0.43                1850   3.4073049e-15  8078201.3      3.9676221e-06  1.9395736e-05
   2160000   0.432               1850   8.4651658e-16  8006789.5      3.9676221e-06  1.0314529e-05
   2170000   0.434               1850   9.4129935e-16  8008867.2      3.9676221e-06  1.0400636e-05
   2180000   0.436               1850   3.9584976e-16  7992631.4      3.9676221e-06  1.0264448e-05
   2190000   0.438               1850   3.5194047e-16  7989636.4      3.9676221e-06  1.0239776e-05
   2200000   0.44                1850   2.7736141e-16  7986363        3.9676221e-06  1.0214594e-05
   2210000   0.442               1850   2.2312283e-16  7983424        3.9676221e-06  1.018964e-05 
   2220000   0.444               1850   2.1556243e-16  7981852.9      3.9676221e-06  1.0164645e-05
   2230000   0.446               1850   1.8761045e-16  7979832.5      3.9676221e-06  1.0139862e-05
   2240000   0.448               1850   1.9157666e-16  7978560        3.9676221e-06  1.0115216e-05
   2250000   0.45                1850   1.766658e-16   7976871        3.9676221e-06  1.0090515e-05
   2260000   0.452               1850   1.8025482e-16  7975657.9      3.9676221e-06  1.0065857e-05
   2270000   0.454               1850   1.7354574e-16  7974174.9      3.9676221e-06  1.0041316e-05
   2280000   0.456               1850   1.7411401e-16  7972905        3.9676221e-06  1.0016806e-05
   2290000   0.458               1850   1.718859e-16   7971558.9      3.9676221e-06  9.9923223e-06
   2300000   0.46                1850   1.7082457e-16  7970253.5      3.9676221e-06  9.9679198e-06
   2310000   0.462               1850   1.7003039e-16  7968962        3.9676221e-06  9.943584e-06 
   2320000   0.464               1850   1.6885601e-16  7967665.2      3.9676221e-06  9.9192928e-06
   2330000   0.466               1850   1.6814168e-16  7966387.9      3.9676221e-06  9.8950615e-06
   2340000   0.468               1850   1.6719287e-16  7965110.3      3.9676221e-06  9.8708966e-06
   2350000   0.47                1850   1.6639737e-16  7963842.7      3.9676221e-06  9.8467861e-06
   2360000   0.472               1850   1.6555724e-16  7962580.4      3.9676221e-06  9.8227337e-06
   2370000   0.474               1850   1.647488e-16   7961324.7      3.9676221e-06  9.7987412e-06
   2380000   0.476               1850   1.6393702e-16  7960075        3.9676221e-06  9.7748056e-06
   2390000   0.478               1850   1.6313728e-16  7958831.7      3.9676221e-06  9.7509291e-06
   2400000   0.48                1850   1.6233838e-16  7957594.3      3.9676221e-06  9.7271122e-06
   2410000   0.482               1850   1.6154577e-16  7956363.1      3.9676221e-06  9.7033501e-06
   2420000   0.484               1850   1.6075731e-16  7955137.8      3.9676221e-06  9.6796486e-06
   2430000   0.486               1850   1.5997212e-16  7953918.5      3.9676221e-06  9.6560053e-06
   2440000   0.488               1850   1.5919183e-16  7952705.2      3.9676221e-06  9.6324181e-06
   2450000   0.49                1850   1.584146e-16   7951497.8      3.9676221e-06  9.608889e-06 
   2460000   0.492               1850   1.5764184e-16  7950296.3      3.9676221e-06  9.5854188e-06
   2470000   0.494               1850   1.5687243e-16  7949100.7      3.9676221e-06  9.5620041e-06
   2480000   0.496               1850   1.5610709e-16  7947910.9      3.9676221e-06  9.5386487e-06
   2490000   0.498               1850   1.5534534e-16  7946726.9      3.9676221e-06  9.5153489e-06
   2500000   0.5                 1850   1.5458726e-16  7945548.7      3.9676221e-06  9.4921043e-06
   2510000   0.502               1850   1.5383305e-16  7944376.2      3.9676221e-06  9.4689192e-06
   2520000   0.504               1850   1.5308235e-16  7943209.5      3.9676221e-06  9.4457892e-06
   2530000   0.506               1850   1.5233548e-16  7942048.4      3.9676221e-06  9.4227171e-06
   2540000   0.508               1850   1.5159213e-16  7940893        3.9676221e-06  9.3996996e-06
   2550000   0.51                1850   1.5085244e-16  7939743.3      3.9676221e-06  9.3767395e-06
   2560000   0.512               1850   1.5011644e-16  7938599.1      3.9676221e-06  9.3538364e-06
   2570000   0.514               1850   1.4938392e-16  7937460.6      3.9676221e-06  9.3309877e-06
   2580000   0.516               1850   1.4865499e-16  7936327.6      3.9676221e-06  9.3081936e-06
   2590000   0.518               1850   1.4792969e-16  7935200.1      3.9676221e-06  9.2854581e-06
   2600000   0.52                1850   1.472079e-16   7934078.1      3.9676221e-06  9.2627779e-06
   2610000   0.522               1850   1.4648959e-16  7932961.6      3.9676221e-06  9.2401504e-06
   2620000   0.524               1850   1.4577482e-16  7931850.6      3.9676221e-06  9.2175806e-06
   2630000   0.526               1850   1.4506357e-16  7930745        3.9676221e-06  9.1950661e-06
   2640000   0.528               1850   1.4435572e-16  7929644.7      3.9676221e-06  9.1726047e-06
   2650000   0.53                1850   1.436513e-16   7928549.9      3.9676221e-06  9.1501976e-06
   2660000   0.532               1850   1.4295041e-16  7927460.3      3.9676221e-06  9.1278477e-06
   2670000   0.534               1850   1.4225285e-16  7926376.1      3.9676221e-06  9.10555e-06  
   2680000   0.536               1850   1.4155882e-16  7925297.2      3.9676221e-06  9.0833105e-06
   2690000   0.538               1850   1.4086808e-16  7924223.6      3.9676221e-06  9.0611219e-06
   2700000   0.54                1850   1.4018073e-16  7923155.1      3.9676221e-06  9.0389889e-06
   2710000   0.542               1850   1.3949676e-16  7922091.9      3.9676221e-06  9.0169101e-06
   2720000   0.544               1850   1.3881609e-16  7921033.9      3.9676221e-06  8.9948845e-06
   2730000   0.546               1850   1.3813875e-16  7919981.1      3.9676221e-06  8.9729128e-06
   2740000   0.548               1850   1.3746473e-16  7918933.4      3.9676221e-06  8.9509954e-06
   2750000   0.55                1850   1.36794e-16    7917890.8      3.9676221e-06  8.9291314e-06
   2760000   0.552               1850   1.3612652e-16  7916853.2      3.9676221e-06  8.9073201e-06
   2770000   0.554               1850   1.3546231e-16  7915820.8      3.9676221e-06  8.8855626e-06
   2780000   0.556               1850   1.3480134e-16  7914793.4      3.9676221e-06  8.8638581e-06
   2790000   0.558               1850   1.341436e-16   7913771        3.9676221e-06  8.8422068e-06
   2800000   0.56                1850   1.3348903e-16  7912753.6      3.9676221e-06  8.8206071e-06
   2810000   0.562               1850   1.3283774e-16  7911741.1      3.9676221e-06  8.799063e-06 
   2820000   0.564               1850   1.3218953e-16  7910733.6      3.9676221e-06  8.7775685e-06
   2830000   0.566               1850   1.3154457e-16  7909731        3.9676221e-06  8.7561292e-06
   2840000   0.568               1850   1.3090272e-16  7908733.3      3.9676221e-06  8.734741e-06 
   2850000   0.57                1850   1.3026398e-16  7907740.5      3.9676221e-06  8.7134042e-06
   2860000   0.572               1850   1.2962833e-16  7906752.5      3.9676221e-06  8.6921189e-06
   2870000   0.574               1850   1.2899588e-16  7905769.3      3.9676221e-06  8.6708888e-06
   2880000   0.576               1850   1.2836645e-16  7904791        3.9676221e-06  8.6497081e-06
   2890000   0.578               1850   1.277401e-16   7903817.4      3.9676221e-06  8.6285798e-06
   2900000   0.58                1850   1.2711682e-16  7902848.5      3.9676221e-06  8.6075035e-06
   2910000   0.582               1850   1.2649655e-16  7901884.4      3.9676221e-06  8.5864776e-06
   2920000   0.584               1850   1.2587933e-16  7900925        3.9676221e-06  8.5655038e-06
   2930000   0.586               1850   1.2526512e-16  7899970.2      3.9676221e-06  8.5445811e-06
   2940000   0.588               1850   1.2465394e-16  7899020.2      3.9676221e-06  8.5237106e-06
   2950000   0.59                1850   1.2404568e-16  7898074.7      3.9676221e-06  8.502889e-06 
   2960000   0.592               1850   1.2344044e-16  7897133.9      3.9676221e-06  8.4821203e-06
   2970000   0.594               1850   1.2283812e-16  7896197.7      3.9676221e-06  8.4614009e-06
   2980000   0.596               1850   1.2223873e-16  7895266        3.9676221e-06  8.440732e-06 
   2990000   0.598               1850   1.2164228e-16  7894338.9      3.9676221e-06  8.420114e-06 
   3000000   0.6                 1850   1.2104877e-16  7893416.3      3.9676221e-06  8.3995475e-06
   3010000   0.602               1850   1.2045812e-16  7892498.2      3.9676221e-06  8.3790298e-06
   3020000   0.604               1850   1.1987035e-16  7891584.6      3.9676221e-06  8.3585621e-06
   3030000   0.606               1850   1.192855e-16   7890675.4      3.9676221e-06  8.3381465e-06
   3040000   0.608               1850   1.1870347e-16  7889770.7      3.9676221e-06  8.3177793e-06
   3050000   0.61                1850   1.1812423e-16  7888870.4      3.9676221e-06  8.2974603e-06
   3060000   0.612               1850   1.1754789e-16  7887974.5      3.9676221e-06  8.2771937e-06
   3070000   0.614               1850   1.1697431e-16  7887082.9      3.9676221e-06  8.2569746e-06
   3080000   0.616               1850   1.1640357e-16  7886195.7      3.9676221e-06  8.2368063e-06
   3090000   0.618               1850   1.1583555e-16  7885312.9      3.9676221e-06  8.2166848e-06
   3100000   0.62                1850   1.152704e-16   7884434.3      3.9676221e-06  8.1966163e-06
   3110000   0.622               1850   1.1470793e-16  7883560.1      3.9676221e-06  8.1765936e-06
   3120000   0.624               1850   1.1414824e-16  7882690.1      3.9676221e-06  8.1566214e-06
   3130000   0.626               1850   1.1359127e-16  7881824.3      3.9676221e-06  8.1366974e-06
   3140000   0.628               1850   1.1303701e-16  7880962.8      3.9676221e-06  8.1168221e-06
   3150000   0.63                1850   1.1248544e-16  7880105.4      3.9676221e-06  8.0969948e-06
   3160000   0.632               1850   1.119366e-16   7879252.3      3.9676221e-06  8.0772171e-06
   3170000   0.634               1850   1.1139045e-16  7878403.3      3.9676221e-06  8.0574881e-06
   3180000   0.636               1850   1.108469e-16   7877558.5      3.9676221e-06  8.0378052e-06
   3190000   0.638               1850   1.1030603e-16  7876717.7      3.9676221e-06  8.0181712e-06
   3200000   0.64                1850   1.0976781e-16  7875881.1      3.9676221e-06  7.9985857e-06
   3210000   0.642               1850   1.0923224e-16  7875048.6      3.9676221e-06  7.9790487e-06
   3220000   0.644               1850   1.0869923e-16  7874220.1      3.9676221e-06  7.9595577e-06
   3230000   0.646               1850   1.0816884e-16  7873395.7      3.9676221e-06  7.9401147e-06
   3240000   0.648               1850   1.0764107e-16  7872575.3      3.9676221e-06  7.9207207e-06
   3250000   0.65                1850   1.0711587e-16  7871758.9      3.9676221e-06  7.9013738e-06
   3260000   0.652               1850   1.0659316e-16  7870946.5      3.9676221e-06  7.8820715e-06
   3270000   0.654               1850   1.0607311e-16  7870138        3.9676221e-06  7.8628204e-06
   3280000   0.656               1850   1.0555551e-16  7869333.5      3.9676221e-06  7.8436128e-06
   3290000   0.658               1850   1.0504048e-16  7868532.9      3.9676221e-06  7.8244541e-06
   3300000   0.66                1850   1.0452792e-16  7867736.2      3.9676221e-06  7.8053405e-06
   3310000   0.662               1850   1.0401794e-16  7866943.4      3.9676221e-06  7.7862763e-06
   3320000   0.664               1850   1.0351035e-16  7866154.5      3.9676221e-06  7.7672552e-06
   3330000   0.666               1850   1.030053e-16   7865369.4      3.9676221e-06  7.7482833e-06
   3340000   0.668               1850   1.0250272e-16  7864588.2      3.9676221e-06  7.7293574e-06
   3350000   0.67                1850   1.0200256e-16  7863810.7      3.9676221e-06  7.7104768e-06
   3360000   0.672               1850   1.0150484e-16  7863037.1      3.9676221e-06  7.6916422e-06
   3370000   0.674               1850   1.0100954e-16  7862267.2      3.9676221e-06  7.6728531e-06
   3380000   0.676               1850   1.0051671e-16  7861501.1      3.9676221e-06  7.6541124e-06
   3390000   0.678               1850   1.0002624e-16  7860738.8      3.9676221e-06  7.6354155e-06
   3400000   0.68                1850   9.9538195e-17  7859980.1      3.9676221e-06  7.6167653e-06
   3410000   0.682               1850   9.9052492e-17  7859225.2      3.9676221e-06  7.5981594e-06
   3420000   0.684               1850   9.8569235e-17  7858473.9      3.9676221e-06  7.5796018e-06
   3430000   0.686               1850   9.808822e-17   7857726.3      3.9676221e-06  7.561085e-06 
   3440000   0.688               1850   9.760964e-17   7856982.4      3.9676221e-06  7.5426169e-06
   3450000   0.69                1850   9.7133366e-17  7856242        3.9676221e-06  7.5241928e-06
   3460000   0.692               1850   9.6659443e-17  7855505.3      3.9676221e-06  7.5058147e-06
   3470000   0.694               1850   9.6187769e-17  7854772.2      3.9676221e-06  7.4874791e-06
   3480000   0.696               1850   9.5718421e-17  7854042.7      3.9676221e-06  7.4691892e-06
   3490000   0.698               1850   9.5251432e-17  7853316.7      3.9676221e-06  7.4509466e-06
   3500000   0.7                 1850   9.4786638e-17  7852594.3      3.9676221e-06  7.4327454e-06
   3510000   0.702               1850   9.4324142e-17  7851875.3      3.9676221e-06  7.4145898e-06
   3520000   0.704               1850   9.3863886e-17  7851159.9      3.9676221e-06  7.3964779e-06
   3530000   0.706               1850   9.3405912e-17  7850448        3.9676221e-06  7.3784116e-06
   3540000   0.708               1850   9.2950143e-17  7849739.6      3.9676221e-06  7.3603883e-06
   3550000   0.71                1850   9.2496588e-17  7849034.6      3.9676221e-06  7.3424086e-06
   3560000   0.712               1850   9.2045279e-17  7848333.1      3.9676221e-06  7.3244742e-06
   3570000   0.714               1850   9.1596147e-17  7847635        3.9676221e-06  7.3065826e-06
   3580000   0.716               1850   9.114923e-17   7846940.2      3.9676221e-06  7.2887356e-06
   3590000   0.718               1850   9.0704466e-17  7846248.9      3.9676221e-06  7.2709311e-06
   3600000   0.72                1850   9.0261925e-17  7845561        3.9676221e-06  7.2531722e-06
   3610000   0.722               1850   8.9821484e-17  7844876.4      3.9676221e-06  7.2354544e-06
   3620000   0.724               1850   8.9383233e-17  7844195.1      3.9676221e-06  7.2177814e-06
   3630000   0.726               1850   8.8947064e-17  7843517.2      3.9676221e-06  7.2001493e-06
   3640000   0.728               1850   8.8513075e-17  7842842.6      3.9676221e-06  7.1825624e-06
   3650000   0.73                1850   8.8081197e-17  7842171.3      3.9676221e-06  7.1650182e-06
   3660000   0.732               1850   8.7651377e-17  7841503.2      3.9676221e-06  7.1475149e-06
   3670000   0.734               1850   8.7223729e-17  7840838.4      3.9676221e-06  7.1300573e-06
   3680000   0.736               1850   8.6798131e-17  7840176.9      3.9676221e-06  7.1126409e-06
   3690000   0.738               1850   8.637463e-17   7839518.5      3.9676221e-06  7.0952679e-06
   3700000   0.74                1850   8.5953149e-17  7838863.4      3.9676221e-06  7.0779354e-06
   3710000   0.742               1850   8.5533734e-17  7838211.5      3.9676221e-06  7.0606456e-06
   3720000   0.744               1850   8.5116404e-17  7837562.8      3.9676221e-06  7.0433996e-06
   3730000   0.746               1850   8.470109e-17   7836917.2      3.9676221e-06  7.0261949e-06
   3740000   0.748               1850   8.4287821e-17  7836274.8      3.9676221e-06  7.0090331e-06
   3750000   0.75                1850   8.3876535e-17  7835635.5      3.9676221e-06  6.9919117e-06
   3760000   0.752               1850   8.3467303e-17  7834999.4      3.9676221e-06  6.9748342e-06
   3770000   0.754               1850   8.3060015e-17  7834366.3      3.9676221e-06  6.9577961e-06
   3780000   0.756               1850   8.2654717e-17  7833736.3      3.9676221e-06  6.9407998e-06
   3790000   0.758               1850   8.2251425e-17  7833109.4      3.9676221e-06  6.9238462e-06
   3800000   0.76                1850   8.1850083e-17  7832485.6      3.9676221e-06  6.9069332e-06
   3810000   0.762               1850   8.1450738e-17  7831864.8      3.9676221e-06  6.8900632e-06
   3820000   0.764               1850   8.1053283e-17  7831247        3.9676221e-06  6.873232e-06 
   3830000   0.766               1850   8.0657776e-17  7830632.3      3.9676221e-06  6.8564421e-06
   3840000   0.768               1850   8.026427e-17   7830020.5      3.9676221e-06  6.8396964e-06
   3850000   0.77                1850   7.9872598e-17  7829411.8      3.9676221e-06  6.8229879e-06
   3860000   0.772               1850   7.9482884e-17  7828806        3.9676221e-06  6.8063222e-06
   3870000   0.774               1850   7.9095031e-17  7828203.1      3.9676221e-06  6.7896955e-06
   3880000   0.776               1850   7.8709122e-17  7827603.2      3.9676221e-06  6.7731116e-06
   3890000   0.778               1850   7.8325065e-17  7827006.3      3.9676221e-06  6.7565669e-06
   3900000   0.78                1850   7.7942893e-17  7826412.2      3.9676221e-06  6.740063e-06 
   3910000   0.782               1850   7.7562582e-17  7825821.1      3.9676221e-06  6.7235993e-06
   3920000   0.784               1850   7.7184131e-17  7825232.8      3.9676221e-06  6.707176e-06 
   3930000   0.786               1850   7.6807544e-17  7824647.4      3.9676221e-06  6.6907936e-06
   3940000   0.788               1850   7.643275e-17   7824064.8      3.9676221e-06  6.6744493e-06
   3950000   0.79                1850   7.6059795e-17  7823485.1      3.9676221e-06  6.6581453e-06
   3960000   0.792               1850   7.5688669e-17  7822908.2      3.9676221e-06  6.6418816e-06
   3970000   0.794               1850   7.5319356e-17  7822334.2      3.9676221e-06  6.6256577e-06
   3980000   0.796               1850   7.4951881e-17  7821762.9      3.9676221e-06  6.609475e-06 
   3990000   0.798               1850   7.4586137e-17  7821194.4      3.9676221e-06  6.5933291e-06
   4000000   0.8                 1850   7.4222188e-17  7820628.8      3.9676221e-06  6.5772231e-06
Loop time of 1044.29 on 1 procs for 4000000 steps with 1850 atoms

100.0% CPU use with 1 MPI tasks x 1 OpenMP threads

MPI task timing breakdown:
Section |  min time  |  avg time  |  max time  |%varavg| %total
---------------------------------------------------------------
Pair    | 802.74     | 802.74     | 802.74     |   0.0 | 76.87
Neigh   | 0.12213    | 0.12213    | 0.12213    |   0.0 |  0.01
Comm    | 0.088524   | 0.088524   | 0.088524   |   0.0 |  0.01
Output  | 0.31052    | 0.31052    | 0.31052    |   0.0 |  0.03
Modify  | 231.28     | 231.28     | 231.28     |   0.0 | 22.15
Other   |            | 9.758      |            |       |  0.93

Nlocal:           1850 ave        1850 max        1850 min
Histogram: 1 0 0 0 0 0 0 0 0 0
Nghost:              0 ave           0 max           0 min
Histogram: 1 0 0 0 0 0 0 0 0 0
Neighs:           7019 ave        7019 max        7019 min
Histogram: 1 0 0 0 0 0 0 0 0 0

Total # of neighbors = 7019
Ave neighs/atom = 3.7940541
Neighbor list builds = 207
Dangerous builds = 0
Generated 0 of 0 mixed pair_coeff terms from geometric mixing rule
Setting up Verlet run ...
  Unit style    : si
  Current step  : 4000000
  Time step     : 2e-07
Per MPI rank memory allocation (min/avg/max) = 13 | 13 | 13 Mbytes
   Step          Time         Atoms        KinEng     c_granularTemp c_solidVolume    c_maxSpeed  
   4000000   0.8                 1850   7.4222188e-17  7820628.8      3.9676221e-06  6.5772231e-06
Loop time of 2.38e-07 on 1 procs for 0 steps with 1850 atoms

0.0% CPU use with 1 MPI tasks x 1 OpenMP threads

MPI task timing breakdown:
Section |  min time  |  avg time  |  max time  |%varavg| %total
---------------------------------------------------------------
Pair    | 0          | 0          | 0          |   0.0 |  0.00
Neigh   | 0          | 0          | 0          |   0.0 |  0.00
Comm    | 0          | 0          | 0          |   0.0 |  0.00
Output  | 0          | 0          | 0          |   0.0 |  0.00
Modify  | 0          | 0          | 0          |   0.0 |  0.00
Other   |            | 2.38e-07   |            |       |100.00

Nlocal:           1850 ave        1850 max        1850 min
Histogram: 1 0 0 0 0 0 0 0 0 0
Nghost:              0 ave           0 max           0 min
Histogram: 1 0 0 0 0 0 0 0 0 0
Neighs:           7020 ave        7020 max        7020 min
Histogram: 1 0 0 0 0 0 0 0 0 0

Total # of neighbors = 7020
Ave neighs/atom = 3.7945946
Neighbor list builds = 0
Dangerous builds = 0
Generated 0 of 0 mixed pair_coeff terms from geometric mixing rule
Neighbor list info ...
  update: every = 1 steps, delay = 0 steps, check = yes
  max neighbors/atom: 2000, page size: 100000
  master list distance cutoff = 0.00185
  ghost atom cutoff = 0.00185
  binsize = 0.000925, bins = 18 18 76
  3 neighbor lists, perpetual/occasional/extra = 1 2 0
  (1) pair granular, perpetual
      attributes: half, newton off, size, history
      pair build: half/size/bin/atomonly/newtoff
      stencil: full/bin/3d
      bin: standard
  (2) compute property/local, occasional
      attributes: half, newton off, size
      pair build: half/size/bin/atomonly/newtoff
      stencil: full/bin/3d
      bin: standard
  (3) compute pair/local, occasional
      attributes: half, newton off, size
      pair build: half/size/bin/atomonly/newtoff
      stencil: full/bin/3d
      bin: standard
Setting up Verlet run ...
  Unit style    : si
  Current step  : 4000000
  Time step     : 2e-07
Per MPI rank memory allocation (min/avg/max) = 14.26 | 14.26 | 14.26 Mbytes
   Step          Time         Atoms        KinEng     c_granularTemp c_solidVolume    c_maxSpeed  
   4000000   0.8                 1850   7.4222188e-17  7820628.8      3.9676221e-06  6.5772231e-06
   4000001   0.8000002           1850   7.4222152e-17  7820628.7      3.9676221e-06  6.5772215e-06
Loop time of 0.00611561 on 1 procs for 1 steps with 1850 atoms

100.0% CPU use with 1 MPI tasks x 1 OpenMP threads

MPI task timing breakdown:
Section |  min time  |  avg time  |  max time  |%varavg| %total
---------------------------------------------------------------
Pair    | 0.00020427 | 0.00020427 | 0.00020427 |   0.0 |  3.34
Neigh   | 0          | 0          | 0          |   0.0 |  0.00
Comm    | 1.17e-07   | 1.17e-07   | 1.17e-07   |   0.0 |  0.00
Output  | 0.005848   | 0.005848   | 0.005848   |   0.0 | 95.62
Modify  | 5.9657e-05 | 5.9657e-05 | 5.9657e-05 |   0.0 |  0.98
Other   |            | 3.562e-06  |            |       |  0.06

Nlocal:           1850 ave        1850 max        1850 min
Histogram: 1 0 0 0 0 0 0 0 0 0
Nghost:              0 ave           0 max           0 min
Histogram: 1 0 0 0 0 0 0 0 0 0
Neighs:           7020 ave        7020 max        7020 min
Histogram: 1 0 0 0 0 0 0 0 0 0

Total # of neighbors = 7020
Ave neighs/atom = 3.7945946
Neighbor list builds = 0
Dangerous builds = 0
System init for write_data ...
Generated 0 of 0 mixed pair_coeff terms from geometric mixing rule
System init for write_restart ...
Generated 0 of 0 mixed pair_coeff terms from geometric mixing rule
seed Ntarget Nfinal dp_m density_kgm3 Dtube_m D_over_dp solidVolume_m3 bedHeight_m bedVolume_m3 packingFraction porosity minParticleBottom_m kineticEnergy_J maxSpeed_ms
153133 1850 1850 0.0016 1600 0.016 10 3.96762208197362e-06 0.0366355414355383 7.36601266138697e-06 0.538639052682071 0.461360947317929 -9.6577635219381e-07 7.42221517980293e-17 6.577221478186e-06
Packing generation completed: co2_13x_seed_153133
ACCEPT only if Nfinal=Ntarget, the bed is settled, and overlap/geometry checks pass.
For the 20-packing pilot, change only seed_realization.
CO2 diffusion and particle LDF adsorption are added later in the pore-network solver, not here.
Total wall time: 0:22:42
