Authorization required, but no authorization protocol specified

Authorization required, but no authorization protocol specified

Authorization required, but no authorization protocol specified

Authorization required, but no authorization protocol specified

LAMMPS (22 Jul 2025 - Update 5)
OMP_NUM_THREADS environment is not set. Defaulting to 1 thread.
  using 1 OpenMP thread(s) per MPI task
OMP_NUM_THREADS environment is not set. Defaulting to 1 thread.
  using 1 OpenMP thread(s) per MPI task
CO2 sorbent = commercial zeolite 13X (mechanical packing only)
Realization seed = 145093
Target particle count = 1850
Bead diameter [m] = 0.0016
Tube diameter [m] = 0.016
Tube-to-particle diameter ratio = 10
Target solid volume [m^3] = 3.96762208197367e-06
Created orthogonal box = (-0.008 -0.008 0) to (0.008 0.008 0.07)
  1 by 1 by 1 MPI processor grid
Generated 0 of 0 mixed pair_coeff terms from geometric mixing rule
Particle insertion: 303 every 319275 steps, 1850 by step 1915651
Neighbor list info ...
  update: every = 1 steps, delay = 0 steps, check = yes
  max neighbors/atom: 2000, page size: 100000
  master list distance cutoff = 0.00185
  ghost atom cutoff = 0.00185
  binsize = 0.000925, bins = 18 18 76
  1 neighbor lists, perpetual/occasional/extra = 1 0 0
  (1) pair granular, perpetual
      attributes: half, newton off, size, history
      pair build: half/size/bin/atomonly/newtoff
      stencil: full/bin/3d
      bin: standard
Setting up Verlet run ...
  Unit style    : si
  Current step  : 0
  Time step     : 2e-07
Per MPI rank memory allocation (min/avg/max) = 7.438 | 7.438 | 7.438 Mbytes
   Step          Time         Atoms        KinEng     c_granularTemp c_solidVolume    c_maxSpeed  
         0   0                      0  -0              0              0             -1e+20        
WARNING: Fewer insertions than requested (src/GRANULAR/fix_pour.cpp:691)
     10000   0.002                167  -0              4.7057407e+15  3.5815832e-07  0.6081889    
     20000   0.004                167  -0              4.6367353e+15  3.5815832e-07  0.59281343   
     30000   0.006                167  -0              4.579244e+15   3.5815832e-07  0.57830849   
     40000   0.008                167  -0              4.5317779e+15  3.5815832e-07  0.5646248    
     50000   0.01                 167  -0              4.4930244e+15  3.5815832e-07  0.55171586   
     60000   0.012                167  -0              4.4618273e+15  3.5815832e-07  0.53953781   
     70000   0.014                167  -0              4.4371688e+15  3.5815832e-07  0.52804926   
     80000   0.016                167  -0              4.4181534e+15  3.5815832e-07  0.51721117   
     90000   0.018                167  -0              4.4039946e+15  3.5815832e-07  0.50698671   
    100000   0.02                 167  -0              4.3940012e+15  3.5815832e-07  0.49734115   
    110000   0.022                167  -0              4.3875675e+15  3.5815832e-07  0.48824171   
    120000   0.024                167  -0              4.3841624e+15  3.5815832e-07  0.47965746   
    130000   0.026                167  -0              4.3833212e+15  3.5815832e-07  0.47155924   
    140000   0.028                167  -0              4.384638e+15   3.5815832e-07  0.46391952   
    150000   0.03                 167  -0              4.3877584e+15  3.5815832e-07  0.45671236   
    160000   0.032                167  -0              4.3923735e+15  3.5815832e-07  0.44991325   
    170000   0.034                167  -0              4.3982148e+15  3.5815832e-07  0.4434991    
    180000   0.036                167  -0              4.4050493e+15  3.5815832e-07  0.43744811   
    190000   0.038                167  -0              4.412675e+15   3.5815832e-07  0.43173971   
    200000   0.04                 167  -0              4.4209176e+15  3.5815832e-07  0.42635452   
    210000   0.042                167  -0              4.4296266e+15  3.5815832e-07  0.42127423   
    220000   0.044                167  -0              4.438673e+15   3.5815832e-07  0.41648157   
    230000   0.046                167  -0              4.4479464e+15  3.5815832e-07  0.41196027   
    240000   0.048                167  -0              4.4573525e+15  3.5815832e-07  0.40769496   
    250000   0.05                 167  -0              4.4668115e+15  3.5815832e-07  0.40367114   
    260000   0.052                167  -0              4.4762559e+15  3.5815832e-07  0.39987515   
    270000   0.054                167  -0              4.4856293e+15  3.5815832e-07  0.39629407   
    280000   0.056                167  -0              4.4948846e+15  3.5815832e-07  0.39291576   
    290000   0.058                167  -0              4.5039831e+15  3.5815832e-07  0.38972871   
    300000   0.06                 167  -0              4.5128934e+15  3.5815832e-07  0.38672212   
    310000   0.062                167  -0              4.52159e+15    3.5815832e-07  0.38388575   
WARNING: Fewer insertions than requested (src/GRANULAR/fix_pour.cpp:691)
    320000   0.064                397  -0              5.0134272e+15  8.5143025e-07  0.62346137   
    330000   0.066                397  -0              4.9386301e+15  8.5143025e-07  0.59961513   
    340000   0.068                397  -0              4.8746221e+15  8.5143025e-07  0.5847251    
    350000   0.07                 397  -0              4.8183664e+15  8.5143025e-07  0.57067811   
    360000   0.072                397  -0              4.7788717e+15  8.5143025e-07  0.5419315    
    370000   0.074                397  -0              4.7428708e+15  8.5143025e-07  0.53028496   
    380000   0.076                397  -0              4.7173142e+15  8.5143025e-07  0.51929944   
    390000   0.078                397  -0              4.6970609e+15  8.5143025e-07  0.50893741   
    400000   0.08                 397  -0              4.6786991e+15  8.5143025e-07  0.4991635    
    410000   0.082                397  -0              4.6642569e+15  8.5143025e-07  0.48994433   
    420000   0.084                397  -0              4.6518802e+15  8.5143025e-07  0.4812484    
    430000   0.086                397  -0              4.6262184e+15  8.5143025e-07  0.47095011   
    440000   0.088                397  -0              4.5715081e+15  8.5143025e-07  0.46334488   
    450000   0.09                 397  -0              4.5264577e+15  8.5143025e-07  0.44655076   
    460000   0.092                397  -0              4.5084353e+15  8.5143025e-07  0.44031314   
    470000   0.094                397  -0              4.5040264e+15  8.5143025e-07  0.43442987   
    480000   0.096                397  -0              4.5024817e+15  8.5143025e-07  0.42697672   
    490000   0.098                397  -0              4.4893515e+15  8.5143025e-07  0.42185091   
    500000   0.1                  397  -0              4.4882203e+15  8.5143025e-07  0.41701623   
    510000   0.102                397  -0              4.4781567e+15  8.5143025e-07  0.41245612   
    520000   0.104                397  -0              4.455287e+15   8.5143025e-07  0.40815497   
    530000   0.106                397  -0              4.4287499e+15  8.5143025e-07  0.40409806   
    540000   0.108                397  -0              4.4011421e+15  8.5143025e-07  0.4002715    
    550000   0.11                 397  -0              4.3693306e+15  8.5143025e-07  0.39666219   
    560000   0.112                397  -0              4.3487343e+15  8.5143025e-07  0.39325777   
    570000   0.114                397  -0              4.3332477e+15  8.5143025e-07  0.39004661   
    580000   0.116                397  -0              4.3261486e+15  8.5143025e-07  0.38701772   
    590000   0.118                397  -0              4.288984e+15   8.5143025e-07  0.38416073   
    600000   0.12                 397  -0              4.2489687e+15  8.5143025e-07  0.38146587   
    610000   0.122                397  -0              4.210518e+15   8.5143025e-07  0.37892394   
    620000   0.124                397  -0              4.1815779e+15  8.5143025e-07  0.37652624   
    630000   0.126                397  -0              4.1576152e+15  8.5143025e-07  0.37426457   
WARNING: Fewer insertions than requested (src/GRANULAR/fix_pour.cpp:691)
    640000   0.128                613  -0              4.6471416e+15  1.3146769e-06  0.62280968   
    650000   0.13                 613  -0              4.5823015e+15  1.3146769e-06  0.6066064    
    660000   0.132                613  -0              4.5032234e+15  1.3146769e-06  0.58911382   
    670000   0.134                613  -0              4.4183199e+15  1.3146769e-06  0.57481835   
    680000   0.136                613  -0              4.3625942e+15  1.3146769e-06  0.56133227   
    690000   0.138                613  -0              4.323215e+15   1.3146769e-06  0.54860974   
    700000   0.14                 613  -0              4.2905475e+15  1.3146769e-06  0.49045974   
    710000   0.142                613  -0              4.2564489e+15  1.3146769e-06  0.4656598    
    720000   0.144                613  -0              4.2385422e+15  1.3146769e-06  0.45827314   
    730000   0.146                613  -0              4.2055694e+15  1.3146769e-06  0.45131133   
    740000   0.148                613  -0              4.1778411e+15  1.3146769e-06  0.44474987   
    750000   0.15                 613  -0              4.1456326e+15  1.3146769e-06  0.43856566   
    760000   0.152                613  -0              4.0990845e+15  1.3146769e-06  0.43273692   
    770000   0.154                613  -0              4.0532477e+15  1.3146769e-06  0.41792064   
    780000   0.156                613  -0              4.0043992e+15  1.3146769e-06  0.41331598   
    790000   0.158                613  -0              3.9102067e+15  1.3146769e-06  0.4089722    
    800000   0.16                 613  -0              3.8215426e+15  1.3146769e-06  0.40487452   
    810000   0.162                613  -0              3.7736433e+15  1.3146769e-06  0.40100898   
    820000   0.164                613  -0              3.6891387e+15  1.3146769e-06  0.39736244   
    830000   0.166                613  -0              3.6499495e+15  1.3146769e-06  0.39392247   
    840000   0.168                613  -0              3.5590552e+15  1.3146769e-06  0.39067738   
    850000   0.17                 613  -0              3.489124e+15   1.3146769e-06  0.38761613   
    860000   0.172                613  -0              3.4293547e+15  1.3146769e-06  0.38472829   
    870000   0.174                613  -0              3.3767436e+15  1.3146769e-06  0.38200403   
    880000   0.176                613  -0              3.3213015e+15  1.3146769e-06  0.3794341    
    890000   0.178                613  -0              3.2736259e+15  1.3146769e-06  0.37700974   
    900000   0.18                 613  -0              3.2004379e+15  1.3146769e-06  0.3747227    
    910000   0.182                613  -0              3.1128454e+15  1.3146769e-06  0.37256521   
    920000   0.184                613  -0              3.0286575e+15  1.3146769e-06  0.37052993   
    930000   0.186                613  -0              2.9438542e+15  1.3146769e-06  0.36860992   
    940000   0.188                613  -0              2.8661238e+15  1.3146769e-06  0.36679867   
    950000   0.19                 613  -0              2.7704178e+15  1.3146769e-06  0.36509      
WARNING: Fewer insertions than requested (src/GRANULAR/fix_pour.cpp:691)
    960000   0.192                823  -0              3.4371745e+15  1.7650557e-06  0.61773409   
    970000   0.194                823  -0              3.3646117e+15  1.7650557e-06  0.59755756   
    980000   0.196                823  -0              3.3077859e+15  1.7650557e-06  0.58278402   
    990000   0.198                823  -0              3.2537497e+15  1.7650557e-06  0.56884693   
   1000000   0.2                  823  -0              3.2033514e+15  1.7650557e-06  0.55569894   
   1010000   0.202                823  -0              3.1540775e+15  1.7650557e-06  0.54046241   
   1020000   0.204                823  -0              3.0961029e+15  1.7650557e-06  0.5289215    
   1030000   0.206                823  -0              3.0483127e+15  1.7650557e-06  0.51803403   
   1040000   0.208                823  -0              2.9895502e+15  1.7650557e-06  0.50776299   
   1050000   0.21                 823  -0              2.9431048e+15  1.7650557e-06  0.49807347   
   1060000   0.212                823  -0              2.8785459e+15  1.7650557e-06  0.48893256   
   1070000   0.214                823  -0              2.8080378e+15  1.7650557e-06  0.4803092    
   1080000   0.216                823  -0              2.7516213e+15  1.7650557e-06  0.47217408   
   1090000   0.218                823  -0              2.7057147e+15  1.7650557e-06  0.46449955   
   1100000   0.22                 823  -0              2.6576396e+15  1.7650557e-06  0.45725955   
   1110000   0.222                823  -0              2.6075686e+15  1.7650557e-06  0.45042946   
   1120000   0.224                823  -0              2.5090853e+15  1.7650557e-06  0.44398608   
   1130000   0.226                823  -0              2.453602e+15   1.7650557e-06  0.43790752   
   1140000   0.228                823  -0              2.3692262e+15  1.7650557e-06  0.43217311   
   1150000   0.23                 823  -0              2.2976217e+15  1.7650557e-06  0.42676338   
   1160000   0.232                823  -0              2.2305181e+15  1.7650557e-06  0.41937903   
   1170000   0.234                823  -0              2.1589025e+15  1.7650557e-06  0.41469368   
   1180000   0.236                823  -0              2.092945e+15   1.7650557e-06  0.41027361   
   1190000   0.238                823  -0              2.0459076e+15  1.7650557e-06  0.40610379   
   1200000   0.24                 823  -0              1.9801321e+15  1.7650557e-06  0.40217006   
   1210000   0.242                823  -0              1.9327209e+15  1.7650557e-06  0.39845905   
   1220000   0.244                823  -0              1.908441e+15   1.7650557e-06  0.39495816   
   1230000   0.246                823  -0              1.8738121e+15  1.7650557e-06  0.39165548   
   1240000   0.248                823  -0              1.8502914e+15  1.7650557e-06  0.38853979   
   1250000   0.25                 823  -0              1.8247743e+15  1.7650557e-06  0.38163111   
   1260000   0.252                823  -0              1.7730155e+15  1.7650557e-06  0.37908299   
   1270000   0.254                823  -0              1.7360406e+15  1.7650557e-06  0.37667914   
WARNING: Fewer insertions than requested (src/GRANULAR/fix_pour.cpp:691)
   1280000   0.256               1032  -0              2.5524981e+15  2.2132897e-06  0.61780549   
   1290000   0.258               1032  -0              2.486358e+15   2.2132897e-06  0.60188554   
   1300000   0.26                1032  -0              2.4197852e+15  2.2132897e-06  0.58686696   
   1310000   0.262               1032  -0              2.3386422e+15  2.2132897e-06  0.5726987    
   1320000   0.264               1032  -0              2.2704806e+15  2.2132897e-06  0.55933263   
   1330000   0.266               1032  -0              2.1956582e+15  2.2132897e-06  0.54583896   
   1340000   0.268               1032  -0              2.1574812e+15  2.2132897e-06  0.53399365   
   1350000   0.27                1032  -0              2.1088062e+15  2.2132897e-06  0.51818196   
   1360000   0.272               1032  -0              2.0527589e+15  2.2132897e-06  0.50789746   
   1370000   0.274               1032  -0              2.0064561e+15  2.2132897e-06  0.49819563   
   1380000   0.276               1032  -0              1.9682096e+15  2.2132897e-06  0.48904346   
   1390000   0.278               1032  -0              1.9274699e+15  2.2132897e-06  0.48040981   
   1400000   0.28                1032  -0              1.8853122e+15  2.2132897e-06  0.47226529   
   1410000   0.282               1032  -0              1.8534963e+15  2.2132897e-06  0.4645822    
   1420000   0.284               1032  -0              1.7972559e+15  2.2132897e-06  0.45733439   
   1430000   0.286               1032  -0              1.7450352e+15  2.2132897e-06  0.45049719   
   1440000   0.288               1032  -0              1.6905837e+15  2.2132897e-06  0.44404735   
   1450000   0.29                1032  -0              1.635152e+15   2.2132897e-06  0.43796291   
   1460000   0.292               1032  -0              1.6008064e+15  2.2132897e-06  0.43222317   
   1470000   0.294               1032  -0              1.5624492e+15  2.2132897e-06  0.42680859   
   1480000   0.296               1032  -0              1.5410523e+15  2.2132897e-06  0.41182124   
   1490000   0.298               1032  -0              1.520303e+15   2.2132897e-06  0.40756379   
   1500000   0.3                 1032  -0              1.5060901e+15  2.2132897e-06  0.4035474    
   1510000   0.302               1032  -0              1.4798573e+15  2.2132897e-06  0.39975841   
   1520000   0.304               1032  -0              1.4622327e+15  2.2132897e-06  0.39618395   
   1530000   0.306               1032  -0              1.4295626e+15  2.2132897e-06  0.39281187   
   1540000   0.308               1032  -0              1.3740365e+15  2.2132897e-06  0.38963071   
   1550000   0.31                1032  -0              1.3358609e+15  2.2132897e-06  0.38323552   
   1560000   0.312               1032  -0              1.2746949e+15  2.2132897e-06  0.38058157   
   1570000   0.314               1032  -0              1.2230209e+15  2.2132897e-06  0.37807935   
   1580000   0.316               1032  -0              1.1944083e+15  2.2132897e-06  0.3573481    
   1590000   0.318               1032  -0              1.1474126e+15  2.2132897e-06  0.35616791   
WARNING: Fewer insertions than requested (src/GRANULAR/fix_pour.cpp:691)
   1600000   0.32                1231  -0              1.7554356e+15  2.6400772e-06  0.61601127   
   1610000   0.322               1231  -0              1.709546e+15   2.6400772e-06  0.59325572   
   1620000   0.324               1231  -0              1.6682393e+15  2.6400772e-06  0.57872574   
   1630000   0.326               1231  -0              1.6042274e+15  2.6400772e-06  0.56501842   
   1640000   0.328               1231  -0              1.5372402e+15  2.6400772e-06  0.5520872    
   1650000   0.33                1231  -0              1.4956317e+15  2.6400772e-06  0.53692776   
   1660000   0.332               1231  -0              1.4411113e+15  2.6400772e-06  0.52558698   
   1670000   0.334               1231  -0              1.4119911e+15  2.6400772e-06  0.5148883    
   1680000   0.336               1231  -0              1.3687438e+15  2.6400772e-06  0.50479536   
   1690000   0.338               1231  -0              1.3159122e+15  2.6400772e-06  0.49527387   
   1700000   0.34                1231  -0              1.2515884e+15  2.6400772e-06  0.48629148   
   1710000   0.342               1231  -0              1.2083233e+15  2.6400772e-06  0.47781765   
   1720000   0.344               1231  -0              1.1781277e+15  2.6400772e-06  0.46982359   
   1730000   0.346               1231  -0              1.1627002e+15  2.6400772e-06  0.46228215   
   1740000   0.348               1231  -0              1.1472812e+15  2.6400772e-06  0.44511258   
   1750000   0.35                1231  -0              1.1159442e+15  2.6400772e-06  0.43897023   
   1760000   0.352               1231  -0              1.1068931e+15  2.6400772e-06  0.43317566   
   1770000   0.354               1231  -0              1.0984727e+15  2.6400772e-06  0.42770916   
   1780000   0.356               1231  -0              1.0840572e+15  2.6400772e-06  0.42255217   
   1790000   0.358               1231  -0              1.0776921e+15  2.6400772e-06  0.41768716   
   1800000   0.36                1231  -0              1.0671151e+15  2.6400772e-06  0.4130976    
   1810000   0.362               1231  -0              1.0553277e+15  2.6400772e-06  0.39813503   
   1820000   0.364               1231  -0              1.0197519e+15  2.6400772e-06  0.38915144   
   1830000   0.366               1231  -0              9.8540739e+14  2.6400772e-06  0.38498126   
   1840000   0.368               1231  -0              9.6191967e+14  2.6400772e-06  0.37984762   
   1850000   0.37                1231  -0              9.2103936e+14  2.6400772e-06  0.37323814   
   1860000   0.372               1231  -0              8.9265763e+14  2.6400772e-06  0.37116522   
   1870000   0.374               1231  -0              8.5799773e+14  2.6400772e-06  0.36920965   
   1880000   0.376               1231  -0              8.2279681e+14  2.6400772e-06  0.35980226   
   1890000   0.378               1231  -0              7.9308277e+14  2.6400772e-06  0.3584854    
   1900000   0.38                1231  -0              7.6713214e+14  2.6400772e-06  0.35444258   
   1910000   0.382               1231  -0              7.24455e+14    2.6400772e-06  0.35343292   
WARNING: Fewer insertions than requested (src/GRANULAR/fix_pour.cpp:691)
   1920000   0.384               1437  -0              1.3181133e+15  3.0818773e-06  0.61659577   
   1930000   0.386               1437  -0              1.2762652e+15  3.0818773e-06  0.59775247   
   1940000   0.388               1437  -0              1.2481592e+15  3.0818773e-06  0.58296789   
   1950000   0.39                1437  -0              1.2156198e+15  3.0818773e-06  0.56902039   
   1960000   0.392               1437  -0              1.1830054e+15  3.0818773e-06  0.55586258   
   1970000   0.394               1437  -0              1.1505999e+15  3.0818773e-06  0.54344975   
   1980000   0.396               1437  -0              1.117305e+15   3.0818773e-06  0.53173971   
   1990000   0.398               1437  -0              1.0888487e+15  3.0818773e-06  0.52069267   
   2000000   0.4                 1437  -0              1.0578795e+15  3.0818773e-06  0.49293237   
   2010000   0.402               1437  -0              1.036458e+15   3.0818773e-06  0.48406055   
   2020000   0.404               1437  -0              1.0117931e+15  3.0818773e-06  0.47569275   
   2030000   0.406               1437  -0              1.0001431e+15  3.0818773e-06  0.46780032   
   2040000   0.408               1437  -0              9.864865e+14   3.0818773e-06  0.46035625   
   2050000   0.41                1437  -0              9.7546805e+14  3.0818773e-06  0.45333506   
   2060000   0.412               1437  -0              9.6205791e+14  3.0818773e-06  0.4467127    
   2070000   0.414               1437  -0              9.4810508e+14  3.0818773e-06  0.44046651   
   2080000   0.416               1437  -0              9.2121949e+14  3.0818773e-06  0.42918212   
   2090000   0.418               1437  -0              8.9036735e+14  3.0818773e-06  0.42201167   
   2100000   0.42                1437  -0              8.6214323e+14  3.0818773e-06  0.41717727   
   2110000   0.422               1437  -0              8.3688517e+14  3.0818773e-06  0.41261657   
   2120000   0.424               1437  -0              7.9903041e+14  3.0818773e-06  0.39888203   
   2130000   0.426               1437  -0              7.7677382e+14  3.0818773e-06  0.39535719   
   2140000   0.428               1437  -0              7.5081481e+14  3.0818773e-06  0.39203191   
   2150000   0.43                1437  -0              7.3207729e+14  3.0818773e-06  0.36912568   
   2160000   0.432               1437  -0              7.1788864e+14  3.0818773e-06  0.36728512   
   2170000   0.434               1437  -0              6.9667924e+14  3.0818773e-06  0.36050239   
   2180000   0.436               1437  -0              6.7247147e+14  3.0818773e-06  0.35915054   
   2190000   0.438               1437  -0              6.3257034e+14  3.0818773e-06  0.35787523   
   2200000   0.44                1437  -0              5.8983144e+14  3.0818773e-06  0.35667213   
   2210000   0.442               1437  -0              5.441561e+14   3.0818773e-06  0.35346384   
   2220000   0.444               1437  -0              4.9488215e+14  3.0818773e-06  0.3477747    
   2230000   0.446               1437  -0              4.6061404e+14  3.0818773e-06  0.34516256   
WARNING: Fewer insertions than requested (src/GRANULAR/fix_pour.cpp:691)
   2240000   0.448               1666  -0              1.1450271e+15  3.5730045e-06  0.59865535   
   2250000   0.45                1666  -0              1.1065154e+15  3.5730045e-06  0.58381965   
   2260000   0.452               1666  -0              1.0805924e+15  3.5730045e-06  0.56982393   
   2270000   0.454               1666  -0              1.0555009e+15  3.5730045e-06  0.55319106   
   2280000   0.456               1666  -0              1.0378194e+15  3.5730045e-06  0.54092948   
   2290000   0.458               1666  -0              1.0150877e+15  3.5730045e-06  0.52936213   
   2300000   0.46                1666  -0              9.9959247e+14  3.5730045e-06  0.51844971   
   2310000   0.462               1666  -0              9.7835314e+14  3.5730045e-06  0.50815513   
   2320000   0.464               1666  -0              9.6085031e+14  3.5730045e-06  0.49844341   
   2330000   0.466               1666  -0              9.5122492e+14  3.5730045e-06  0.48928156   
   2340000   0.468               1666  -0              9.4073922e+14  3.5730045e-06  0.48063844   
   2350000   0.47                1666  -0              9.2692314e+14  3.5730045e-06  0.47248468   
   2360000   0.472               1666  -0              9.085267e+14   3.5730045e-06  0.4270429    
   2370000   0.474               1666  -0              8.8327306e+14  3.5730045e-06  0.42191609   
   2380000   0.476               1666  -0              8.3715201e+14  3.5730045e-06  0.41708022   
   2390000   0.478               1666  -0              7.9835321e+14  3.5730045e-06  0.407928     
   2400000   0.48                1666  -0              7.2465878e+14  3.5730045e-06  0.39144176   
   2410000   0.482               1666  -0              6.8052699e+14  3.5730045e-06  0.37959077   
   2420000   0.484               1666  -0              6.5992094e+14  3.5730045e-06  0.37653765   
   2430000   0.486               1666  -0              6.2691555e+14  3.5730045e-06  0.3736006    
   2440000   0.488               1666  -0              5.875741e+14   3.5730045e-06  0.37150715   
   2450000   0.49                1666  -0              5.3760431e+14  3.5730045e-06  0.36953223   
   2460000   0.492               1666  -0              4.9455779e+14  3.5730045e-06  0.36766912   
   2470000   0.494               1666  -0              4.6051336e+14  3.5730045e-06  0.36413967   
   2480000   0.496               1666  -0              4.2078683e+14  3.5730045e-06  0.35842424   
   2490000   0.498               1666  -0              3.8791154e+14  3.5730045e-06  0.35460606   
   2500000   0.5                 1666  -0              3.5568511e+14  3.5730045e-06  0.34845176   
   2510000   0.502               1666  -0              3.3084126e+14  3.5730045e-06  0.34433485   
   2520000   0.504               1666  -0              3.1982682e+14  3.5730045e-06  0.34389839   
   2530000   0.506               1666  -0              3.0785277e+14  3.5730045e-06  0.3419988    
   2540000   0.508               1666  -0              3.0119156e+14  3.5730045e-06  0.33825622   
   2550000   0.51                1666  -0              2.9337699e+14  3.5730045e-06  0.33747453   
   2560000   0.512               1850  -0              7.6322649e+14  3.9676221e-06  0.61372994   
   2570000   0.514               1850  -0              7.4144362e+14  3.9676221e-06  0.59721986   
   2580000   0.516               1850  -0              7.2447387e+14  3.9676221e-06  0.58246544   
   2590000   0.518               1850  -0              7.1453331e+14  3.9676221e-06  0.56854639   
   2600000   0.52                1850  -0              7.0003676e+14  3.9676221e-06  0.55541542   
   2610000   0.522               1850  -0              6.8503057e+14  3.9676221e-06  0.5430279    
   2620000   0.524               1850  -0              6.6490855e+14  3.9676221e-06  0.48069465   
   2630000   0.526               1850  -0              6.3562551e+14  3.9676221e-06  0.47249723   
   2640000   0.528               1850  -0              5.9093238e+14  3.9676221e-06  0.45417395   
   2650000   0.53                1850  -0              5.5923117e+14  3.9676221e-06  0.44751857   
   2660000   0.532               1850  -0              5.2731921e+14  3.9676221e-06  0.44124      
   2670000   0.534               1850  -0              4.8606221e+14  3.9676221e-06  0.43531691   
   2680000   0.536               1850  -0              4.5634125e+14  3.9676221e-06  0.42972918   
   2690000   0.538               1850  -0              4.2764064e+14  3.9676221e-06  0.39482414   
   2700000   0.54                1850  -0              4.0166546e+14  3.9676221e-06  0.37871585   
   2710000   0.542               1850  -0              3.7940074e+14  3.9676221e-06  0.37633278   
   2720000   0.544               1850  -0              3.6476546e+14  3.9676221e-06  0.37408464   
   2730000   0.546               1850  -0              3.4269495e+14  3.9676221e-06  0.36831041   
   2740000   0.548               1850  -0              3.2942707e+14  3.9676221e-06  0.36390261   
   2750000   0.55                1850  -0              3.1773283e+14  3.9676221e-06  0.36235824   
   2760000   0.552               1850  -0              2.9602171e+14  3.9676221e-06  0.36049573   
   2770000   0.554               1850  -0              2.6919308e+14  3.9676221e-06  0.35527908   
   2780000   0.556               1850  -0              2.5117608e+14  3.9676221e-06  0.34858193   
   2790000   0.558               1850  -0              2.4275182e+14  3.9676221e-06  0.34766536   
   2800000   0.56                1850  -0              2.3333733e+14  3.9676221e-06  0.34202228   
   2810000   0.562               1850  -0              2.2400417e+14  3.9676221e-06  0.34171675   
   2820000   0.564               1850  -0              2.1112098e+14  3.9676221e-06  0.33490727   
   2830000   0.566               1850  -0              2.0837159e+14  3.9676221e-06  0.33472355   
   2840000   0.568               1850  -0              2.0517165e+14  3.9676221e-06  0.33015194   
   2850000   0.57                1850  -0              2.0201055e+14  3.9676221e-06  0.33017087   
   2860000   0.572               1850  -0              1.9753181e+14  3.9676221e-06  0.32928304   
   2870000   0.574               1850  -0              1.9356654e+14  3.9676221e-06  0.32969878   
   2880000   0.576               1850  -0              1.8972208e+14  3.9676221e-06  0.32868643   
   2890000   0.578               1850  -0              1.8232429e+14  3.9676221e-06  0.32477815   
   2900000   0.58                1850  -0              1.7871323e+14  3.9676221e-06  0.32544895   
   2910000   0.582               1850  -0              1.7413602e+14  3.9676221e-06  0.32301171   
   2920000   0.584               1850  -0              1.6802093e+14  3.9676221e-06  0.32373643   
   2930000   0.586               1850  -0              1.5864347e+14  3.9676221e-06  0.3225963    
   2940000   0.588               1850  -0              1.5094046e+14  3.9676221e-06  0.3219984    
   2950000   0.59                1850  -0              1.3634079e+14  3.9676221e-06  0.32211562   
   2960000   0.592               1850  -0              1.2121897e+14  3.9676221e-06  0.32061378   
   2970000   0.594               1850  -0              1.0661766e+14  3.9676221e-06  0.31980809   
   2980000   0.596               1850  -0              9.9547875e+13  3.9676221e-06  0.3190895    
   2990000   0.598               1850  -0              9.2595887e+13  3.9676221e-06  0.31902466   
   3000000   0.6                 1850  -0              8.9883039e+13  3.9676221e-06  0.32002122   
Loop time of 331.601 on 1 procs for 3000000 steps with 1850 atoms

100.0% CPU use with 1 MPI tasks x 1 OpenMP threads

MPI task timing breakdown:
Section |  min time  |  avg time  |  max time  |%varavg| %total
---------------------------------------------------------------
Pair    | 237.82     | 237.82     | 237.82     |   0.0 | 71.72
Neigh   | 0.55832    | 0.55832    | 0.55832    |   0.0 |  0.17
Comm    | 0.063441   | 0.063441   | 0.063441   |   0.0 |  0.02
Output  | 0.11366    | 0.11366    | 0.11366    |   0.0 |  0.03
Modify  | 89.073     | 89.073     | 89.073     |   0.0 | 26.86
Other   |            | 3.972      |            |       |  1.20

Nlocal:           1850 ave        1850 max        1850 min
Histogram: 1 0 0 0 0 0 0 0 0 0
Nghost:              0 ave           0 max           0 min
Histogram: 1 0 0 0 0 0 0 0 0 0
Neighs:           6891 ave        6891 max        6891 min
Histogram: 1 0 0 0 0 0 0 0 0 0

Total # of neighbors = 6891
Ave neighs/atom = 3.7248649
Neighbor list builds = 2125
Dangerous builds = 0
Generated 0 of 0 mixed pair_coeff terms from geometric mixing rule
Setting up Verlet run ...
  Unit style    : si
  Current step  : 0
  Time step     : 2e-07
Per MPI rank memory allocation (min/avg/max) = 14.72 | 14.72 | 14.72 Mbytes
   Step          Time         Atoms        KinEng     c_granularTemp c_solidVolume    c_maxSpeed  
         0   0                   1850   6.5695101e-06  8.774787e+13   3.9676221e-06  0.31284945   
     10000   0.002               1850   3.7234649e-06  5.0691303e+13  3.9676221e-06  0.24949565   
     20000   0.004               1850   2.1394754e-06  2.96899e+13    3.9676221e-06  0.20265929   
     30000   0.006               1850   1.259248e-06   1.8030786e+13  3.9676221e-06  0.16838148   
     40000   0.008               1850   7.9452233e-07  1.1824623e+13  3.9676221e-06  0.14259481   
     50000   0.01                1850   5.0719078e-07  7.8604447e+12  3.9676221e-06  0.12407538   
     60000   0.012               1850   3.2039605e-07  5.144855e+12   3.9676221e-06  0.10885772   
     70000   0.014               1850   2.1779846e-07  3.5678481e+12  3.9676221e-06  0.09835819   
     80000   0.016               1850   1.7973532e-07  2.944295e+12   3.9676221e-06  0.09051297   
     90000   0.018               1850   1.1755682e-07  2.0447917e+12  3.9676221e-06  0.084595411  
    100000   0.02                1850   8.349629e-08   1.5306832e+12  3.9676221e-06  0.080207261  
    110000   0.022               1850   6.3563126e-08  1.2210614e+12  3.9676221e-06  0.076946918  
    120000   0.024               1850   5.8191906e-08  1.1377569e+12  3.9676221e-06  0.07451452   
    130000   0.026               1850   4.1758825e-08  9.3345379e+11  3.9676221e-06  0.065242715  
    140000   0.028               1850   4.2064139e-08  9.4175127e+11  3.9676221e-06  0.065671076  
    150000   0.03                1850   3.1213206e-08  8.176101e+11   3.9676221e-06  0.055435484  
    160000   0.032               1850   2.3737463e-08  6.9726308e+11  3.9676221e-06  0.045294451  
    170000   0.034               1850   1.7308338e-08  5.6467239e+11  3.9676221e-06  0.046691933  
    180000   0.036               1850   1.8147523e-08  5.8702212e+11  3.9676221e-06  0.046904753  
    190000   0.038               1850   1.6423484e-08  4.6572866e+11  3.9676221e-06  0.048591679  
    200000   0.04                1850   1.7956714e-08  4.8129647e+11  3.9676221e-06  0.050825659  
    210000   0.042               1850   1.3705101e-08  4.3085015e+11  3.9676221e-06  0.036223978  
    220000   0.044               1850   1.2416394e-08  3.8868809e+11  3.9676221e-06  0.036389099  
    230000   0.046               1850   1.3654732e-08  4.033406e+11   3.9676221e-06  0.041021873  
    240000   0.048               1850   1.3135516e-08  3.9534651e+11  3.9676221e-06  0.046245004  
    250000   0.05                1850   1.4910218e-08  4.3421623e+11  3.9676221e-06  0.050954998  
    260000   0.052               1850   1.6709341e-08  4.6594281e+11  3.9676221e-06  0.054965192  
    270000   0.054               1850   9.9530979e-09  3.1551859e+11  3.9676221e-06  0.039877817  
    280000   0.056               1850   1.09077e-08    3.1914598e+11  3.9676221e-06  0.043627926  
    290000   0.058               1850   1.236427e-08   3.3254546e+11  3.9676221e-06  0.04689733   
    300000   0.06                1850   7.9944294e-09  2.3689732e+11  3.9676221e-06  0.03822102   
    310000   0.062               1850   8.3208678e-09  2.4057894e+11  3.9676221e-06  0.040181591  
    320000   0.064               1850   5.7382411e-09  1.8726136e+11  3.9676221e-06  0.029553214  
    330000   0.066               1850   3.5843108e-09  1.2773534e+11  3.9676221e-06  0.024722175  
    340000   0.068               1850   3.7216421e-09  1.2907013e+11  3.9676221e-06  0.025632859  
    350000   0.07                1850   4.0203657e-09  1.2196159e+11  3.9676221e-06  0.027799603  
    360000   0.072               1850   3.4344228e-09  9.6035584e+10  3.9676221e-06  0.030435306  
    370000   0.074               1850   3.9313481e-09  1.0721475e+11  3.9676221e-06  0.033269266  
    380000   0.076               1850   4.6192062e-09  1.2041263e+11  3.9676221e-06  0.036226697  
    390000   0.078               1850   4.183671e-09   1.1515252e+11  3.9676221e-06  0.032696672  
    400000   0.08                1850   4.9752671e-09  1.3021629e+11  3.9676221e-06  0.036953229  
    410000   0.082               1850   4.7465548e-09  1.1967688e+11  3.9676221e-06  0.033255769  
    420000   0.084               1850   3.3469987e-09  8.8848344e+10  3.9676221e-06  0.031666308  
    430000   0.086               1850   3.5152106e-09  9.3672048e+10  3.9676221e-06  0.033620258  
    440000   0.088               1850   3.7555366e-09  1.0034461e+11  3.9676221e-06  0.035847579  
    450000   0.09                1850   4.1109693e-09  1.0801461e+11  3.9676221e-06  0.03815376   
    460000   0.092               1850   4.6568117e-09  1.2178789e+11  3.9676221e-06  0.040485202  
    470000   0.094               1850   4.8096624e-09  1.1568992e+11  3.9676221e-06  0.0427212    
    480000   0.096               1850   2.0550162e-09  5.6357925e+10  3.9676221e-06  0.023243824  
    490000   0.098               1850   1.1517514e-09  3.3947586e+10  3.9676221e-06  0.019639939  
    500000   0.1                 1850   1.3517576e-09  4.0672788e+10  3.9676221e-06  0.020811464  
    510000   0.102               1850   1.5048731e-09  4.4852006e+10  3.9676221e-06  0.02246187   
    520000   0.104               1850   1.7543498e-09  5.2126102e+10  3.9676221e-06  0.024379689  
    530000   0.106               1850   2.050366e-09   6.065135e+10   3.9676221e-06  0.026429666  
    540000   0.108               1850   2.4153323e-09  7.016216e+10   3.9676221e-06  0.028817053  
    550000   0.11                1850   2.7927643e-09  7.933759e+10   3.9676221e-06  0.030886821  
    560000   0.112               1850   1.4850713e-09  4.292342e+10   3.9676221e-06  0.028037945  
    570000   0.114               1850   1.5514153e-09  4.7105239e+10  3.9676221e-06  0.029073805  
    580000   0.116               1850   1.7790235e-09  5.4011756e+10  3.9676221e-06  0.031138227  
    590000   0.118               1850   2.0347654e-09  6.1809555e+10  3.9676221e-06  0.033294826  
    600000   0.12                1850   2.3273723e-09  7.0483997e+10  3.9676221e-06  0.035583958  
    610000   0.122               1850   2.6690584e-09  7.5811105e+10  3.9676221e-06  0.038474978  
    620000   0.124               1850   3.1435376e-09  8.494271e+10   3.9676221e-06  0.041792379  
    630000   0.126               1850   3.1279572e-10  1.5048286e+10  3.9676221e-06  0.0058336286 
    640000   0.128               1850   2.3414845e-10  1.1039044e+10  3.9676221e-06  0.0063097243 
    650000   0.13                1850   2.3617533e-10  1.1233174e+10  3.9676221e-06  0.006812075  
    660000   0.132               1850   2.6081022e-10  1.2259533e+10  3.9676221e-06  0.0073934874 
    670000   0.134               1850   2.9770313e-10  1.3765734e+10  3.9676221e-06  0.0080535827 
    680000   0.136               1850   3.4317735e-10  1.5601721e+10  3.9676221e-06  0.0087843282 
    690000   0.138               1850   3.9494753e-10  1.7700181e+10  3.9676221e-06  0.0095785235 
    700000   0.14                1850   4.5652054e-10  2.0130931e+10  3.9676221e-06  0.010471849  
    710000   0.142               1850   2.5779897e-10  1.218596e+10   3.9676221e-06  0.010486915  
    720000   0.144               1850   3.1547106e-10  1.5888513e+10  3.9676221e-06  0.012316026  
    730000   0.146               1850   4.1457759e-10  2.0436037e+10  3.9676221e-06  0.013813496  
    740000   0.148               1850   3.8554751e-10  1.9656499e+10  3.9676221e-06  0.013161931  
    750000   0.15                1850   4.2389572e-10  2.1397023e+10  3.9676221e-06  0.013613346  
    760000   0.152               1850   4.7650778e-10  2.3792138e+10  3.9676221e-06  0.014288793  
    770000   0.154               1850   5.4281446e-10  2.6906899e+10  3.9676221e-06  0.015137323  
    780000   0.156               1850   6.241783e-10   3.0712945e+10  3.9676221e-06  0.016116325  
    790000   0.158               1850   6.9362814e-10  3.3906519e+10  3.9676221e-06  0.017020787  
    800000   0.16                1850   7.1751486e-10  3.3385159e+10  3.9676221e-06  0.017249528  
    810000   0.162               1850   7.7612856e-10  3.5265467e+10  3.9676221e-06  0.017727003  
    820000   0.164               1850   9.2236194e-10  4.2017684e+10  3.9676221e-06  0.019102869  
    830000   0.166               1850   1.0948237e-09  4.9846847e+10  3.9676221e-06  0.020587397  
    840000   0.168               1850   3.520986e-10   1.4180468e+10  3.9676221e-06  0.0074675173 
    850000   0.17                1850   1.6636835e-10  4.8593156e+09  3.9676221e-06  0.006435775  
    860000   0.172               1850   1.8428763e-10  5.137237e+09   3.9676221e-06  0.0070478287 
    870000   0.174               1850   2.1354921e-10  5.8109886e+09  3.9676221e-06  0.0076446775 
    880000   0.176               1850   2.473018e-10   6.6098399e+09  3.9676221e-06  0.0082875285 
    890000   0.178               1850   2.8644254e-10  7.5434471e+09  3.9676221e-06  0.0089934365 
    900000   0.18                1850   3.3219976e-10  8.6389646e+09  3.9676221e-06  0.009777598  
    910000   0.182               1850   3.8629827e-10  9.9249023e+09  3.9676221e-06  0.010658264  
    920000   0.184               1850   4.4920376e-10  1.1435573e+10  3.9676221e-06  0.011624671  
    930000   0.186               1850   2.6450009e-10  6.0924662e+09  3.9676221e-06  0.0095229892 
    940000   0.188               1850   2.7471369e-10  6.224223e+09   3.9676221e-06  0.010137362  
    950000   0.19                1850   3.2054118e-10  7.1295234e+09  3.9676221e-06  0.010811846  
    960000   0.192               1850   3.8847052e-10  8.5452527e+09  3.9676221e-06  0.011519359  
    970000   0.194               1850   4.0280949e-10  8.6856117e+09  3.9676221e-06  0.012269054  
    980000   0.196               1850   4.5681975e-10  9.7242347e+09  3.9676221e-06  0.013078438  
    990000   0.198               1850   5.1903564e-10  1.0943497e+10  3.9676221e-06  0.013924773  
   1000000   0.2                 1850   5.9148107e-10  1.2342755e+10  3.9676221e-06  0.014830933  
   1010000   0.202               1850   6.7358734e-10  1.3941565e+10  3.9676221e-06  0.01578723   
   1020000   0.204               1850   7.6725649e-10  1.5765375e+10  3.9676221e-06  0.016803064  
   1030000   0.206               1850   8.7384328e-10  1.7842449e+10  3.9676221e-06  0.017879861  
   1040000   0.208               1850   9.9496159e-10  2.0204742e+10  3.9676221e-06  0.019020244  
   1050000   0.21                1850   4.3881228e-10  1.0450224e+10  3.9676221e-06  0.015834248  
   1060000   0.212               1850   5.0168282e-10  1.1658017e+10  3.9676221e-06  0.016977342  
   1070000   0.214               1850   5.6855202e-10  1.2999822e+10  3.9676221e-06  0.01819998   
   1080000   0.216               1850   6.5304799e-10  1.4795051e+10  3.9676221e-06  0.019508216  
   1090000   0.218               1850   7.4958462e-10  1.6846554e+10  3.9676221e-06  0.020901349  
   1100000   0.22                1850   5.8008563e-10  1.5193947e+10  3.9676221e-06  0.017677946  
   1110000   0.222               1850   1.8535359e-10  4.2838787e+09  3.9676221e-06  0.01033423   
   1120000   0.224               1850   8.0268395e-11  2.3509324e+09  3.9676221e-06  0.0068232366 
   1130000   0.226               1850   1.1695859e-10  3.01303e+09    3.9676221e-06  0.008252404  
   1140000   0.228               1850   3.6103761e-11  1.6854243e+09  3.9676221e-06  0.0043252228 
   1150000   0.23                1850   3.4294351e-11  1.5928221e+09  3.9676221e-06  0.0044519691 
   1160000   0.232               1850   9.3401165e-12  1.0464663e+09  3.9676221e-06  0.0022775634 
   1170000   0.234               1850   1.360242e-12   8.9713524e+08  3.9676221e-06  0.00069829806
   1180000   0.236               1850   1.2661893e-13  8.7242145e+08  3.9676221e-06  0.00012648911
   1190000   0.238               1850   2.0182696e-13  8.7367165e+08  3.9676221e-06  0.00031046117
   1200000   0.24                1850   7.6879514e-13  8.8491451e+08  3.9676221e-06  0.00066634922
   1210000   0.242               1850   1.6314053e-12  9.0218097e+08  3.9676221e-06  0.00097414244
   1220000   0.244               1850   2.668004e-12   9.2281296e+08  3.9676221e-06  0.0012467907 
   1230000   0.246               1850   3.8243615e-12  9.4589429e+08  3.9676221e-06  0.0014927481 
   1240000   0.248               1850   5.0755355e-12  9.7102004e+08  3.9676221e-06  0.0017198375 
   1250000   0.25                1850   6.4389977e-12  9.9830058e+08  3.9676221e-06  0.0019372198 
   1260000   0.252               1850   7.9261674e-12  1.0280897e+09  3.9676221e-06  0.0021493428 
   1270000   0.254               1850   9.5640222e-12  1.0608704e+09  3.9676221e-06  0.0023609876 
   1280000   0.256               1850   1.1384148e-11  1.0972625e+09  3.9676221e-06  0.0025758692 
   1290000   0.258               1850   1.3416781e-11  1.1379846e+09  3.9676221e-06  0.0027963992 
   1300000   0.26                1850   1.5709674e-11  1.183864e+09   3.9676221e-06  0.0030259327 
   1310000   0.262               1850   1.8306689e-11  1.2358407e+09  3.9676221e-06  0.0032664837 
   1320000   0.264               1850   2.1259656e-11  1.2949655e+09  3.9676221e-06  0.0035200889 
   1330000   0.266               1850   2.4631701e-11  1.3624373e+09  3.9676221e-06  0.0037889848 
   1340000   0.268               1850   4.0467353e-12  1.0062351e+09  3.9676221e-06  0.00078270545
   1350000   0.27                1850   3.9832768e-13  8.8127412e+08  3.9676221e-06  0.00017138235
   1360000   0.272               1850   1.2962527e-13  8.7341046e+08  3.9676221e-06  8.0623912e-05
   1370000   0.274               1850   2.3916022e-14  8.7009216e+08  3.9676221e-06  2.5550622e-05
   1380000   0.276               1850   8.9373792e-15  8.6966183e+08  3.9676221e-06  3.4598047e-05
   1390000   0.278               1850   6.7976829e-15  8.696135e+08   3.9676221e-06  2.0646242e-05
   1400000   0.28                1850   5.2074094e-15  8.6958374e+08  3.9676221e-06  1.7787052e-05
   1410000   0.282               1850   1.9787892e-15  8.69482e+08    3.9676221e-06  1.260611e-05 
   1420000   0.284               1850   3.3270023e-16  8.6942111e+08  3.9676221e-06  3.4802412e-06
   1430000   0.286               1850   4.277852e-16   8.6942751e+08  3.9676221e-06  4.298319e-06 
   1440000   0.288               1850   6.4367082e-16  8.6943414e+08  3.9676221e-06  6.7802605e-06
   1450000   0.29                1850   3.111593e-16   8.6942384e+08  3.9676221e-06  5.500496e-06 
   1460000   0.292               1850   4.3622977e-17  8.6941513e+08  3.9676221e-06  1.5587195e-06
   1470000   0.294               1850   4.1409174e-17  8.6941506e+08  3.9676221e-06  1.7095784e-06
   1480000   0.296               1850   1.0164203e-16  8.6941685e+08  3.9676221e-06  2.9829478e-06
   1490000   0.298               1850   5.769076e-17   8.6941553e+08  3.9676221e-06  2.2927358e-06
   1500000   0.3                 1850   5.1586508e-18  8.6941386e+08  3.9676221e-06  6.5723115e-07
   1510000   0.302               1850   5.5266906e-18  8.6941388e+08  3.9676221e-06  7.1191949e-07
   1520000   0.304               1850   1.5431601e-17  8.6941419e+08  3.9676221e-06  1.1847512e-06
   1530000   0.306               1850   9.6809444e-18  8.69414e+08    3.9676221e-06  8.8206491e-07
   1540000   0.308               1850   1.5386365e-18  8.6941375e+08  3.9676221e-06  2.8162354e-07
   1550000   0.31                1850   5.4650197e-19  8.6941372e+08  3.9676221e-06  2.2322447e-07
   1560000   0.312               1850   2.2165121e-18  8.6941377e+08  3.9676221e-06  4.2112908e-07
   1570000   0.314               1850   1.7932311e-18  8.6941376e+08  3.9676221e-06  3.4880466e-07
   1580000   0.316               1850   3.2896037e-19  8.6941371e+08  3.9676221e-06  1.5233047e-07
   1590000   0.318               1850   5.9812309e-20  8.694137e+08   3.9676221e-06  8.2294556e-08
   1600000   0.32                1850   3.5866776e-19  8.6941371e+08  3.9676221e-06  1.5476591e-07
   1610000   0.322               1850   3.066616e-19   8.6941371e+08  3.9676221e-06  1.5539931e-07
   1620000   0.324               1850   8.4837636e-20  8.694137e+08   3.9676221e-06  8.2278768e-08
   1630000   0.326               1850   1.5423207e-20  8.694137e+08   3.9676221e-06  6.8101794e-08
   1640000   0.328               1850   5.5621598e-20  8.694137e+08   3.9676221e-06  6.4953635e-08
   1650000   0.33                1850   5.9466448e-20  8.694137e+08   3.9676221e-06  6.9243942e-08
   1660000   0.332               1850   2.1378367e-20  8.694137e+08   3.9676221e-06  5.9087801e-08
   1670000   0.334               1850   5.5020227e-21  8.694137e+08   3.9676221e-06  5.6356496e-08
   1680000   0.336               1850   1.2377459e-20  8.694137e+08   3.9676221e-06  5.3751364e-08
   1690000   0.338               1850   1.3048663e-20  8.694137e+08   3.9676221e-06  5.12682e-08  
   1700000   0.34                1850   6.9423643e-21  8.694137e+08   3.9676221e-06  4.8896784e-08
   1710000   0.342               1850   3.8701941e-21  8.694137e+08   3.9676221e-06  4.6636734e-08
   1720000   0.344               1850   4.3244562e-21  8.694137e+08   3.9676221e-06  4.4481588e-08
   1730000   0.346               1850   4.4680074e-21  8.694137e+08   3.9676221e-06  4.2424412e-08
   1740000   0.348               1850   3.3874161e-21  8.694137e+08   3.9676221e-06  4.0464071e-08
   1750000   0.35                1850   2.5698993e-21  8.694137e+08   3.9676221e-06  3.8593532e-08
   1760000   0.352               1850   2.4506684e-21  8.694137e+08   3.9676221e-06  3.6809459e-08
   1770000   0.354               1850   2.3414073e-21  8.694137e+08   3.9676221e-06  3.5107911e-08
   1780000   0.356               1850   2.0295674e-21  8.694137e+08   3.9676221e-06  3.3484971e-08
   1790000   0.358               1850   1.7590717e-21  8.694137e+08   3.9676221e-06  3.1937106e-08
   1800000   0.36                1850   1.6079746e-21  8.694137e+08   3.9676221e-06  3.046137e-08 
   1810000   0.362               1850   1.4829073e-21  8.694137e+08   3.9676221e-06  2.9053333e-08
   1820000   0.364               1850   1.3369674e-21  8.694137e+08   3.9676221e-06  2.7710306e-08
   1830000   0.366               1850   1.2005084e-21  8.694137e+08   3.9676221e-06  2.6429426e-08
   1840000   0.368               1850   1.0917345e-21  8.694137e+08   3.9676221e-06  2.5207637e-08
   1850000   0.37                1850   9.9662982e-22  8.694137e+08   3.9676221e-06  2.4042438e-08
   1860000   0.372               1850   9.0532313e-22  8.694137e+08   3.9676221e-06  2.2931198e-08
   1870000   0.374               1850   8.2130483e-22  8.694137e+08   3.9676221e-06  2.1871432e-08
   1880000   0.376               1850   7.4676336e-22  8.694137e+08   3.9676221e-06  2.0860497e-08
   1890000   0.378               1850   6.7966589e-22  8.694137e+08   3.9676221e-06  1.9896111e-08
   1900000   0.38                1850   6.1831857e-22  8.694137e+08   3.9676221e-06  1.897643e-08 
   1910000   0.382               1850   5.6224151e-22  8.694137e+08   3.9676221e-06  1.8099259e-08
   1920000   0.384               1850   5.1134248e-22  8.694137e+08   3.9676221e-06  1.7262591e-08
   1930000   0.386               1850   4.6515622e-22  8.694137e+08   3.9676221e-06  1.6464636e-08
   1940000   0.388               1850   4.2317089e-22  8.694137e+08   3.9676221e-06  1.5703553e-08
   1950000   0.39                1850   3.849459e-22   8.694137e+08   3.9676221e-06  1.4977611e-08
   1960000   0.392               1850   3.501748e-22   8.694137e+08   3.9676221e-06  1.428533e-08 
   1970000   0.394               1850   3.1853331e-22  8.694137e+08   3.9676221e-06  1.3625004e-08
   1980000   0.396               1850   2.8977678e-22  8.694137e+08   3.9676221e-06  1.2995483e-08
   1990000   0.398               1850   2.6361911e-22  8.694137e+08   3.9676221e-06  1.2394992e-08
   2000000   0.4                 1850   2.398137e-22   8.694137e+08   3.9676221e-06  1.1822023e-08
   2010000   0.402               1850   2.1816017e-22  8.694137e+08   3.9676221e-06  1.1275544e-08
   2020000   0.404               1850   1.9846008e-22  8.694137e+08   3.9676221e-06  1.0754299e-08
   2030000   0.406               1850   1.8054042e-22  8.694137e+08   3.9676221e-06  1.025721e-08 
   2040000   0.408               1850   1.6423818e-22  8.694137e+08   3.9676221e-06  9.7831296e-09
   2050000   0.41                1850   1.4941046e-22  8.694137e+08   3.9676221e-06  9.3309464e-09
   2060000   0.412               1850   1.3591928e-22  8.694137e+08   3.9676221e-06  8.8996121e-09
   2070000   0.414               1850   1.2365146e-22  8.694137e+08   3.9676221e-06  8.4882808e-09
   2080000   0.416               1850   1.1248361e-22  8.694137e+08   3.9676221e-06  8.0959121e-09
   2090000   0.418               1850   1.0232335e-22  8.694137e+08   3.9676221e-06  7.7216831e-09
   2100000   0.42                1850   9.308444e-23   8.694137e+08   3.9676221e-06  7.3647831e-09
   2110000   0.422               1850   8.4681182e-23  8.694137e+08   3.9676221e-06  7.0243947e-09
   2120000   0.424               1850   7.7034936e-23  8.694137e+08   3.9676221e-06  6.6997127e-09
   2130000   0.426               1850   7.0079092e-23  8.694137e+08   3.9676221e-06  6.3900349e-09
   2140000   0.428               1850   6.3750821e-23  8.694137e+08   3.9676221e-06  6.0945931e-09
   2150000   0.43                1850   5.7994493e-23  8.694137e+08   3.9676221e-06  5.8128857e-09
   2160000   0.432               1850   5.275838e-23   8.694137e+08   3.9676221e-06  5.5441693e-09
   2170000   0.434               1850   4.7996922e-23  8.694137e+08   3.9676221e-06  5.2879177e-09
   2180000   0.436               1850   4.3664499e-23  8.694137e+08   3.9676221e-06  5.0434659e-09
   2190000   0.438               1850   3.9725775e-23  8.694137e+08   3.9676221e-06  4.8103685e-09
   2200000   0.44                1850   3.6140005e-23  8.694137e+08   3.9676221e-06  4.5880413e-09
   2210000   0.442               1850   3.2874473e-23  8.694137e+08   3.9676221e-06  4.3759225e-09
   2220000   0.444               1850   2.9905969e-23  8.694137e+08   3.9676221e-06  4.1736599e-09
   2230000   0.446               1850   2.720848e-23   8.694137e+08   3.9676221e-06  3.9808371e-09
   2240000   0.448               1850   2.475291e-23   8.694137e+08   3.9676221e-06  3.7968169e-09
   2250000   0.45                1850   2.2520306e-23  8.694137e+08   3.9676221e-06  3.6213489e-09
   2260000   0.452               1850   2.049111e-23   8.694137e+08   3.9676221e-06  3.4540119e-09
   2270000   0.454               1850   1.8643965e-23  8.694137e+08   3.9676221e-06  3.2943853e-09
   2280000   0.456               1850   1.6964483e-23  8.694137e+08   3.9676221e-06  3.1421319e-09
   2290000   0.458               1850   1.5434561e-23  8.694137e+08   3.9676221e-06  2.9968421e-09
   2300000   0.46                1850   1.4043308e-23  8.694137e+08   3.9676221e-06  2.8583635e-09
   2310000   0.462               1850   1.2772963e-23  8.694137e+08   3.9676221e-06  2.7261735e-09
   2320000   0.464               1850   1.162033e-23   8.694137e+08   3.9676221e-06  2.6001206e-09
   2330000   0.466               1850   1.0571363e-23  8.694137e+08   3.9676221e-06  2.479895e-09 
   2340000   0.468               1850   9.6183521e-24  8.694137e+08   3.9676221e-06  2.3652301e-09
   2350000   0.47                1850   8.7494273e-24  8.694137e+08   3.9676221e-06  2.2558142e-09
   2360000   0.472               1850   7.9623316e-24  8.694137e+08   3.9676221e-06  2.1516619e-09
   2370000   0.474               1850   7.246143e-24   8.694137e+08   3.9676221e-06  2.0522365e-09
   2380000   0.476               1850   6.5920623e-24  8.694137e+08   3.9676221e-06  1.9573417e-09
   2390000   0.478               1850   5.997922e-24   8.694137e+08   3.9676221e-06  1.8669633e-09
   2400000   0.48                1850   5.460482e-24   8.694137e+08   3.9676221e-06  1.7805893e-09
   2410000   0.482               1850   4.9727047e-24  8.694137e+08   3.9676221e-06  1.6982638e-09
   2420000   0.484               1850   4.5224021e-24  8.694137e+08   3.9676221e-06  1.6196822e-09
   2430000   0.486               1850   4.1174787e-24  8.694137e+08   3.9676221e-06  1.5449381e-09
   2440000   0.488               1850   3.7501297e-24  8.694137e+08   3.9676221e-06  1.473559e-09 
   2450000   0.49                1850   3.414663e-24   8.694137e+08   3.9676221e-06  1.4053585e-09
   2460000   0.492               1850   3.1064413e-24  8.694137e+08   3.9676221e-06  1.3402852e-09
   2470000   0.494               1850   2.8271063e-24  8.694137e+08   3.9676221e-06  1.2782511e-09
   2480000   0.496               1850   2.5752006e-24  8.694137e+08   3.9676221e-06  1.2190605e-09
   2490000   0.498               1850   2.3431044e-24  8.694137e+08   3.9676221e-06  1.1624944e-09
   2500000   0.5                 1850   2.1354127e-24  8.694137e+08   3.9676221e-06  1.1087544e-09
   2510000   0.502               1850   1.9458734e-24  8.694137e+08   3.9676221e-06  1.0576399e-09
   2520000   0.504               1850   1.7733524e-24  8.694137e+08   3.9676221e-06  1.0087023e-09
   2530000   0.506               1850   1.6118068e-24  8.694137e+08   3.9676221e-06  9.6189078e-10
   2540000   0.508               1850   1.4699564e-24  8.694137e+08   3.9676221e-06  9.1771872e-10
   2550000   0.51                1850   1.3408675e-24  8.694137e+08   3.9676221e-06  8.756645e-10 
   2560000   0.512               1850   1.2175501e-24  8.694137e+08   3.9676221e-06  8.3472817e-10
   2570000   0.514               1850   1.1068833e-24  8.694137e+08   3.9676221e-06  7.9603465e-10
   2580000   0.516               1850   1.0089826e-24  8.694137e+08   3.9676221e-06  7.593246e-10 
   2590000   0.518               1850   9.2292133e-25  8.694137e+08   3.9676221e-06  7.2465479e-10
   2600000   0.52                1850   8.4245288e-25  8.694137e+08   3.9676221e-06  6.9069223e-10
   2610000   0.522               1850   7.6972329e-25  8.694137e+08   3.9676221e-06  6.5894854e-10
   2620000   0.524               1850   7.0123787e-25  8.694137e+08   3.9676221e-06  6.2877703e-10
   2630000   0.526               1850   6.4038447e-25  8.694137e+08   3.9676221e-06  5.9968322e-10
   2640000   0.528               1850   5.8164828e-25  8.694137e+08   3.9676221e-06  5.719822e-10 
   2650000   0.53                1850   5.3323708e-25  8.694137e+08   3.9676221e-06  5.456344e-10 
   2660000   0.532               1850   4.8670204e-25  8.694137e+08   3.9676221e-06  5.2028326e-10
   2670000   0.534               1850   4.4416713e-25  8.694137e+08   3.9676221e-06  4.9621287e-10
   2680000   0.536               1850   4.061664e-25   8.694137e+08   3.9676221e-06  4.7353342e-10
   2690000   0.538               1850   3.6881629e-25  8.694137e+08   3.9676221e-06  4.5165149e-10
   2700000   0.54                1850   3.3920733e-25  8.694137e+08   3.9676221e-06  4.3056023e-10
   2710000   0.542               1850   3.1237831e-25  8.694137e+08   3.9676221e-06  4.1034741e-10
   2720000   0.544               1850   2.8415672e-25  8.694137e+08   3.9676221e-06  3.9128689e-10
   2730000   0.546               1850   2.6205376e-25  8.694137e+08   3.9676221e-06  3.7385588e-10
   2740000   0.548               1850   2.3986176e-25  8.694137e+08   3.9676221e-06  3.5631709e-10
   2750000   0.55                1850   2.2097914e-25  8.694137e+08   3.9676221e-06  3.3949118e-10
   2760000   0.552               1850   2.0274614e-25  8.694137e+08   3.9676221e-06  3.2444778e-10
   2770000   0.554               1850   1.8519854e-25  8.694137e+08   3.9676221e-06  3.0905777e-10
   2780000   0.556               1850   1.7289299e-25  8.694137e+08   3.9676221e-06  2.947081e-10 
   2790000   0.558               1850   1.5920698e-25  8.694137e+08   3.9676221e-06  2.8120624e-10
   2800000   0.56                1850   1.4670204e-25  8.694137e+08   3.9676221e-06  2.6766855e-10
   2810000   0.562               1850   1.3304251e-25  8.694137e+08   3.9676221e-06  2.5614925e-10
   2820000   0.564               1850   1.2103218e-25  8.694137e+08   3.9676221e-06  2.4369525e-10
   2830000   0.566               1850   1.1689977e-25  8.694137e+08   3.9676221e-06  2.3271902e-10
   2840000   0.568               1850   1.1006777e-25  8.694137e+08   3.9676221e-06  2.2201343e-10
   2850000   0.57                1850   9.7028284e-26  8.694137e+08   3.9676221e-06  2.1152237e-10
   2860000   0.572               1850   9.2616109e-26  8.694137e+08   3.9676221e-06  2.0234291e-10
   2870000   0.574               1850   8.3666346e-26  8.694137e+08   3.9676221e-06  1.9228568e-10
   2880000   0.576               1850   8.0021924e-26  8.694137e+08   3.9676221e-06  1.8398072e-10
   2890000   0.578               1850   7.5420139e-26  8.694137e+08   3.9676221e-06  1.7546509e-10
   2900000   0.58                1850   6.6949379e-26  8.694137e+08   3.9676221e-06  1.6674395e-10
   2910000   0.582               1850   6.2780878e-26  8.694137e+08   3.9676221e-06  1.5955884e-10
   2920000   0.584               1850   6.0236347e-26  8.694137e+08   3.9676221e-06  1.5190886e-10
   2930000   0.586               1850   5.6701249e-26  8.694137e+08   3.9676221e-06  1.4423288e-10
   2940000   0.588               1850   5.4146829e-26  8.694137e+08   3.9676221e-06  1.3811372e-10
   2950000   0.59                1850   4.9084033e-26  8.694137e+08   3.9676221e-06  1.3210117e-10
   2960000   0.592               1850   4.5358105e-26  8.694137e+08   3.9676221e-06  1.2590909e-10
   2970000   0.594               1850   4.2843345e-26  8.694137e+08   3.9676221e-06  1.1935996e-10
   2980000   0.596               1850   4.1846563e-26  8.694137e+08   3.9676221e-06  1.1427864e-10
   2990000   0.598               1850   4.1555836e-26  8.694137e+08   3.9676221e-06  1.0932426e-10
   3000000   0.6                 1850   3.9343508e-26  8.694137e+08   3.9676221e-06  1.0408041e-10
   3010000   0.602               1850   3.8390329e-26  8.694137e+08   3.9676221e-06  9.9111602e-11
   3020000   0.604               1850   3.4651507e-26  8.694137e+08   3.9676221e-06  9.3966631e-11
   3030000   0.606               1850   3.4065687e-26  8.694137e+08   3.9676221e-06  9.0041914e-11
   3040000   0.608               1850   3.2469568e-26  8.694137e+08   3.9676221e-06  8.6219996e-11
   3050000   0.61                1850   3.2340332e-26  8.694137e+08   3.9676221e-06  8.2533981e-11
   3060000   0.612               1850   3.4654855e-26  8.694137e+08   3.9676221e-06  7.8371801e-11
   3070000   0.614               1850   3.0586957e-26  8.694137e+08   3.9676221e-06  7.4779728e-11
   3080000   0.616               1850   3.1657582e-26  8.694137e+08   3.9676221e-06  7.0660771e-11
   3090000   0.618               1850   3.1391653e-26  8.694137e+08   3.9676221e-06  6.7732699e-11
   3100000   0.62                1850   2.8140293e-26  8.694137e+08   3.9676221e-06  6.46707e-11  
   3110000   0.622               1850   2.5724695e-26  8.694137e+08   3.9676221e-06  6.1854328e-11
   3120000   0.624               1850   2.4581722e-26  8.694137e+08   3.9676221e-06  5.9537828e-11
   3130000   0.626               1850   2.5390546e-26  8.694137e+08   3.9676221e-06  5.6469151e-11
   3140000   0.628               1850   2.6114591e-26  8.694137e+08   3.9676221e-06  5.3825411e-11
   3150000   0.63                1850   2.6781477e-26  8.694137e+08   3.9676221e-06  5.1381833e-11
   3160000   0.632               1850   2.897824e-26   8.694137e+08   3.9676221e-06  4.8812662e-11
   3170000   0.634               1850   2.9887152e-26  8.694137e+08   3.9676221e-06  4.5880996e-11
   3180000   0.636               1850   2.9936844e-26  8.694137e+08   3.9676221e-06  4.4179139e-11
   3190000   0.638               1850   3.1027419e-26  8.694137e+08   3.9676221e-06  4.2186011e-11
   3200000   0.64                1850   2.9082917e-26  8.694137e+08   3.9676221e-06  4.0540661e-11
   3210000   0.642               1850   2.9198546e-26  8.694137e+08   3.9676221e-06  3.8823938e-11
   3220000   0.644               1850   2.855467e-26   8.694137e+08   3.9676221e-06  3.7134002e-11
   3230000   0.646               1850   2.8986225e-26  8.694137e+08   3.9676221e-06  3.5682403e-11
   3240000   0.648               1850   2.7533847e-26  8.694137e+08   3.9676221e-06  3.4035285e-11
   3250000   0.65                1850   2.9084983e-26  8.694137e+08   3.9676221e-06  3.2041541e-11
   3260000   0.652               1850   2.4979021e-26  8.694137e+08   3.9676221e-06  3.0522834e-11
   3270000   0.654               1850   2.5973905e-26  8.694137e+08   3.9676221e-06  2.9090844e-11
   3280000   0.656               1850   2.5966189e-26  8.694137e+08   3.9676221e-06  2.7811216e-11
   3290000   0.658               1850   2.5330823e-26  8.694137e+08   3.9676221e-06  2.6429079e-11
   3300000   0.66                1850   2.5784954e-26  8.694137e+08   3.9676221e-06  2.5153751e-11
   3310000   0.662               1850   2.6775866e-26  8.694137e+08   3.9676221e-06  2.3821537e-11
   3320000   0.664               1850   2.7101877e-26  8.694137e+08   3.9676221e-06  2.2472621e-11
   3330000   0.666               1850   2.3953981e-26  8.694137e+08   3.9676221e-06  2.1379756e-11
   3340000   0.668               1850   2.3905124e-26  8.694137e+08   3.9676221e-06  2.0548167e-11
   3350000   0.67                1850   2.6018134e-26  8.694137e+08   3.9676221e-06  1.9686888e-11
   3360000   0.672               1850   2.4629551e-26  8.694137e+08   3.9676221e-06  1.8789151e-11
   3370000   0.674               1850   2.178325e-26   8.694137e+08   3.9676221e-06  1.7882634e-11
   3380000   0.676               1850   2.2811656e-26  8.694137e+08   3.9676221e-06  1.7362429e-11
   3390000   0.678               1850   2.2707633e-26  8.694137e+08   3.9676221e-06  1.6308527e-11
   3400000   0.68                1850   2.3515962e-26  8.694137e+08   3.9676221e-06  1.5444572e-11
   3410000   0.682               1850   2.5237346e-26  8.694137e+08   3.9676221e-06  1.6154781e-11
   3420000   0.684               1850   2.4727191e-26  8.694137e+08   3.9676221e-06  1.6592259e-11
   3430000   0.686               1850   2.4789496e-26  8.694137e+08   3.9676221e-06  1.5930881e-11
   3440000   0.688               1850   2.408437e-26   8.694137e+08   3.9676221e-06  1.6984841e-11
   3450000   0.69                1850   2.4858211e-26  8.694137e+08   3.9676221e-06  1.7640515e-11
   3460000   0.692               1850   2.5348305e-26  8.694137e+08   3.9676221e-06  1.4777198e-11
   3470000   0.694               1850   2.1360836e-26  8.694137e+08   3.9676221e-06  1.1921861e-11
   3480000   0.696               1850   2.1318662e-26  8.694137e+08   3.9676221e-06  1.5227768e-11
   3490000   0.698               1850   2.2369711e-26  8.694137e+08   3.9676221e-06  1.5207559e-11
   3500000   0.7                 1850   2.1911558e-26  8.694137e+08   3.9676221e-06  1.3255707e-11
   3510000   0.702               1850   2.1333009e-26  8.694137e+08   3.9676221e-06  1.3536058e-11
   3520000   0.704               1850   2.0346976e-26  8.694137e+08   3.9676221e-06  1.5449365e-11
   3530000   0.706               1850   2.0895733e-26  8.694137e+08   3.9676221e-06  1.7642245e-11
   3540000   0.708               1850   1.9162557e-26  8.694137e+08   3.9676221e-06  1.7667346e-11
   3550000   0.71                1850   1.9566858e-26  8.694137e+08   3.9676221e-06  1.367035e-11 
   3560000   0.712               1850   2.1442253e-26  8.694137e+08   3.9676221e-06  1.3769192e-11
   3570000   0.714               1850   2.2244368e-26  8.694137e+08   3.9676221e-06  1.2831309e-11
   3580000   0.716               1850   2.2220551e-26  8.694137e+08   3.9676221e-06  1.5092872e-11
   3590000   0.718               1850   2.2515541e-26  8.694137e+08   3.9676221e-06  1.5110633e-11
   3600000   0.72                1850   2.2909423e-26  8.694137e+08   3.9676221e-06  1.725091e-11 
   3610000   0.722               1850   2.2475975e-26  8.694137e+08   3.9676221e-06  1.7349135e-11
   3620000   0.724               1850   2.2983659e-26  8.694137e+08   3.9676221e-06  1.7416306e-11
   3630000   0.726               1850   2.4371098e-26  8.694137e+08   3.9676221e-06  1.7476413e-11
   3640000   0.728               1850   2.0884343e-26  8.694137e+08   3.9676221e-06  1.7073185e-11
   3650000   0.73                1850   2.0362245e-26  8.694137e+08   3.9676221e-06  1.7539059e-11
   3660000   0.732               1850   2.1083672e-26  8.694137e+08   3.9676221e-06  1.6344849e-11
   3670000   0.734               1850   2.2266988e-26  8.694137e+08   3.9676221e-06  1.7526069e-11
   3680000   0.736               1850   2.3094618e-26  8.694137e+08   3.9676221e-06  1.7241577e-11
   3690000   0.738               1850   2.4623824e-26  8.694137e+08   3.9676221e-06  1.7836098e-11
   3700000   0.74                1850   2.4251639e-26  8.694137e+08   3.9676221e-06  1.7633691e-11
   3710000   0.742               1850   2.3669012e-26  8.694137e+08   3.9676221e-06  1.7513799e-11
   3720000   0.744               1850   2.2030237e-26  8.694137e+08   3.9676221e-06  1.7455472e-11
   3730000   0.746               1850   2.1424275e-26  8.694137e+08   3.9676221e-06  1.5478789e-11
   3740000   0.748               1850   2.3492706e-26  8.694137e+08   3.9676221e-06  1.3445552e-11
   3750000   0.75                1850   2.3251283e-26  8.694137e+08   3.9676221e-06  1.5433529e-11
   3760000   0.752               1850   2.8229338e-26  8.694137e+08   3.9676221e-06  1.8024155e-11
   3770000   0.754               1850   3.0102239e-26  8.694137e+08   3.9676221e-06  1.7848139e-11
   3780000   0.756               1850   2.6314351e-26  8.694137e+08   3.9676221e-06  1.6591897e-11
   3790000   0.758               1850   2.4604052e-26  8.694137e+08   3.9676221e-06  1.669363e-11 
   3800000   0.76                1850   2.8209397e-26  8.694137e+08   3.9676221e-06  1.746908e-11 
   3810000   0.762               1850   2.7455554e-26  8.694137e+08   3.9676221e-06  1.7708954e-11
   3820000   0.764               1850   2.7319067e-26  8.694137e+08   3.9676221e-06  1.76572e-11  
   3830000   0.766               1850   2.5933136e-26  8.694137e+08   3.9676221e-06  1.6152101e-11
   3840000   0.768               1850   2.2853761e-26  8.694137e+08   3.9676221e-06  1.6234933e-11
   3850000   0.77                1850   2.3086501e-26  8.694137e+08   3.9676221e-06  1.6057484e-11
   3860000   0.772               1850   2.2676821e-26  8.694137e+08   3.9676221e-06  1.3511067e-11
   3870000   0.774               1850   2.7456151e-26  8.694137e+08   3.9676221e-06  1.7529714e-11
   3880000   0.776               1850   2.4967085e-26  8.694137e+08   3.9676221e-06  1.7341327e-11
   3890000   0.778               1850   2.316286e-26   8.694137e+08   3.9676221e-06  1.7309656e-11
   3900000   0.78                1850   2.0750348e-26  8.694137e+08   3.9676221e-06  1.7604765e-11
   3910000   0.782               1850   2.0297051e-26  8.694137e+08   3.9676221e-06  1.7759069e-11
   3920000   0.784               1850   2.1465145e-26  8.694137e+08   3.9676221e-06  1.7705642e-11
   3930000   0.786               1850   2.3277019e-26  8.694137e+08   3.9676221e-06  1.7464794e-11
   3940000   0.788               1850   2.3157436e-26  8.694137e+08   3.9676221e-06  1.6917574e-11
   3950000   0.79                1850   2.3248005e-26  8.694137e+08   3.9676221e-06  1.7385744e-11
   3960000   0.792               1850   2.377985e-26   8.694137e+08   3.9676221e-06  1.7553519e-11
   3970000   0.794               1850   2.3700909e-26  8.694137e+08   3.9676221e-06  1.4584298e-11
   3980000   0.796               1850   2.6675474e-26  8.694137e+08   3.9676221e-06  1.7705327e-11
   3990000   0.798               1850   2.8411099e-26  8.694137e+08   3.9676221e-06  1.7931085e-11
   4000000   0.8                 1850   2.8028601e-26  8.694137e+08   3.9676221e-06  1.750617e-11 
Loop time of 1014.65 on 1 procs for 4000000 steps with 1850 atoms

100.0% CPU use with 1 MPI tasks x 1 OpenMP threads

MPI task timing breakdown:
Section |  min time  |  avg time  |  max time  |%varavg| %total
---------------------------------------------------------------
Pair    | 773.78     | 773.78     | 773.78     |   0.0 | 76.26
Neigh   | 0.037992   | 0.037992   | 0.037992   |   0.0 |  0.00
Comm    | 0.085565   | 0.085565   | 0.085565   |   0.0 |  0.01
Output  | 0.30595    | 0.30595    | 0.30595    |   0.0 |  0.03
Modify  | 230.51     | 230.51     | 230.51     |   0.0 | 22.72
Other   |            | 9.931      |            |       |  0.98

Nlocal:           1850 ave        1850 max        1850 min
Histogram: 1 0 0 0 0 0 0 0 0 0
Nghost:              0 ave           0 max           0 min
Histogram: 1 0 0 0 0 0 0 0 0 0
Neighs:           7059 ave        7059 max        7059 min
Histogram: 1 0 0 0 0 0 0 0 0 0

Total # of neighbors = 7059
Ave neighs/atom = 3.8156757
Neighbor list builds = 63
Dangerous builds = 0
Generated 0 of 0 mixed pair_coeff terms from geometric mixing rule
Setting up Verlet run ...
  Unit style    : si
  Current step  : 4000000
  Time step     : 2e-07
Per MPI rank memory allocation (min/avg/max) = 13 | 13 | 13 Mbytes
   Step          Time         Atoms        KinEng     c_granularTemp c_solidVolume    c_maxSpeed  
   4000000   0.8                 1850   2.8028601e-26  8.694137e+08   3.9676221e-06  1.750617e-11 
Loop time of 2.83e-07 on 1 procs for 0 steps with 1850 atoms

0.0% CPU use with 1 MPI tasks x 1 OpenMP threads

MPI task timing breakdown:
Section |  min time  |  avg time  |  max time  |%varavg| %total
---------------------------------------------------------------
Pair    | 0          | 0          | 0          |   0.0 |  0.00
Neigh   | 0          | 0          | 0          |   0.0 |  0.00
Comm    | 0          | 0          | 0          |   0.0 |  0.00
Output  | 0          | 0          | 0          |   0.0 |  0.00
Modify  | 0          | 0          | 0          |   0.0 |  0.00
Other   |            | 2.83e-07   |            |       |100.00

Nlocal:           1850 ave        1850 max        1850 min
Histogram: 1 0 0 0 0 0 0 0 0 0
Nghost:              0 ave           0 max           0 min
Histogram: 1 0 0 0 0 0 0 0 0 0
Neighs:           7059 ave        7059 max        7059 min
Histogram: 1 0 0 0 0 0 0 0 0 0

Total # of neighbors = 7059
Ave neighs/atom = 3.8156757
Neighbor list builds = 0
Dangerous builds = 0
Generated 0 of 0 mixed pair_coeff terms from geometric mixing rule
Neighbor list info ...
  update: every = 1 steps, delay = 0 steps, check = yes
  max neighbors/atom: 2000, page size: 100000
  master list distance cutoff = 0.00185
  ghost atom cutoff = 0.00185
  binsize = 0.000925, bins = 18 18 76
  3 neighbor lists, perpetual/occasional/extra = 1 2 0
  (1) pair granular, perpetual
      attributes: half, newton off, size, history
      pair build: half/size/bin/atomonly/newtoff
      stencil: full/bin/3d
      bin: standard
  (2) compute property/local, occasional
      attributes: half, newton off, size
      pair build: half/size/bin/atomonly/newtoff
      stencil: full/bin/3d
      bin: standard
  (3) compute pair/local, occasional
      attributes: half, newton off, size
      pair build: half/size/bin/atomonly/newtoff
      stencil: full/bin/3d
      bin: standard
Setting up Verlet run ...
  Unit style    : si
  Current step  : 4000000
  Time step     : 2e-07
Per MPI rank memory allocation (min/avg/max) = 14.26 | 14.26 | 14.26 Mbytes
   Step          Time         Atoms        KinEng     c_granularTemp c_solidVolume    c_maxSpeed  
   4000000   0.8                 1850   2.8028601e-26  8.694137e+08   3.9676221e-06  1.750617e-11 
   4000001   0.8000002           1850   2.8028312e-26  8.694137e+08   3.9676221e-06  1.7506022e-11
Loop time of 0.00636876 on 1 procs for 1 steps with 1850 atoms

84.3% CPU use with 1 MPI tasks x 1 OpenMP threads

MPI task timing breakdown:
Section |  min time  |  avg time  |  max time  |%varavg| %total
---------------------------------------------------------------
Pair    | 0.00020626 | 0.00020626 | 0.00020626 |   0.0 |  3.24
Neigh   | 0          | 0          | 0          |   0.0 |  0.00
Comm    | 1.3e-07    | 1.3e-07    | 1.3e-07    |   0.0 |  0.00
Output  | 0.0060963  | 0.0060963  | 0.0060963  |   0.0 | 95.72
Modify  | 6.2429e-05 | 6.2429e-05 | 6.2429e-05 |   0.0 |  0.98
Other   |            | 3.601e-06  |            |       |  0.06

Nlocal:           1850 ave        1850 max        1850 min
Histogram: 1 0 0 0 0 0 0 0 0 0
Nghost:              0 ave           0 max           0 min
Histogram: 1 0 0 0 0 0 0 0 0 0
Neighs:           7059 ave        7059 max        7059 min
Histogram: 1 0 0 0 0 0 0 0 0 0

Total # of neighbors = 7059
Ave neighs/atom = 3.8156757
Neighbor list builds = 0
Dangerous builds = 0
System init for write_data ...
Generated 0 of 0 mixed pair_coeff terms from geometric mixing rule
System init for write_restart ...
Generated 0 of 0 mixed pair_coeff terms from geometric mixing rule
seed Ntarget Nfinal dp_m density_kgm3 Dtube_m D_over_dp solidVolume_m3 bedHeight_m bedVolume_m3 packingFraction porosity minParticleBottom_m kineticEnergy_J maxSpeed_ms
145093 1850 1850 0.0016 1600 0.016 10 3.96762208197362e-06 0.036640964076343 7.36710294801194e-06 0.538559337363992 0.461440662636008 -1.24988573480379e-06 2.80283123275542e-26 1.75060221238693e-11
Packing generation completed: co2_13x_seed_145093
ACCEPT only if Nfinal=Ntarget, the bed is settled, and overlap/geometry checks pass.
For the 20-packing pilot, change only seed_realization.
CO2 diffusion and particle LDF adsorption are added later in the pore-network solver, not here.
Total wall time: 0:22:26
