Authorization required, but no authorization protocol specified

Authorization required, but no authorization protocol specified

Authorization required, but no authorization protocol specified

Authorization required, but no authorization protocol specified

LAMMPS (22 Jul 2025 - Update 5)
OMP_NUM_THREADS environment is not set. Defaulting to 1 thread.
  using 1 OpenMP thread(s) per MPI task
OMP_NUM_THREADS environment is not set. Defaulting to 1 thread.
  using 1 OpenMP thread(s) per MPI task
CO2 sorbent = commercial zeolite 13X (mechanical packing only)
Realization seed = 40213
Target particle count = 1850
Bead diameter [m] = 0.0016
Tube diameter [m] = 0.016
Tube-to-particle diameter ratio = 10
Target solid volume [m^3] = 3.96762208197367e-06
Created orthogonal box = (-0.008 -0.008 0) to (0.008 0.008 0.07)
  1 by 1 by 1 MPI processor grid
Generated 0 of 0 mixed pair_coeff terms from geometric mixing rule
Particle insertion: 303 every 319275 steps, 1850 by step 1915651
Neighbor list info ...
  update: every = 1 steps, delay = 0 steps, check = yes
  max neighbors/atom: 2000, page size: 100000
  master list distance cutoff = 0.00185
  ghost atom cutoff = 0.00185
  binsize = 0.000925, bins = 18 18 76
  1 neighbor lists, perpetual/occasional/extra = 1 0 0
  (1) pair granular, perpetual
      attributes: half, newton off, size, history
      pair build: half/size/bin/atomonly/newtoff
      stencil: full/bin/3d
      bin: standard
Setting up Verlet run ...
  Unit style    : si
  Current step  : 0
  Time step     : 2e-07
Per MPI rank memory allocation (min/avg/max) = 7.438 | 7.438 | 7.438 Mbytes
   Step          Time         Atoms        KinEng     c_granularTemp c_solidVolume    c_maxSpeed  
         0   0                      0  -0              0              0             -1e+20        
WARNING: Fewer insertions than requested (src/GRANULAR/fix_pour.cpp:691)
     10000   0.002                217  -0              5.1261779e+15  4.6539135e-07  0.60910692   
     20000   0.004                217  -0              5.0397919e+15  4.6539135e-07  0.59367947   
     30000   0.006                217  -0              4.965177e+15   4.6539135e-07  0.5791255    
     40000   0.008                217  -0              4.9009096e+15  4.6539135e-07  0.56539555   
     50000   0.01                 217  -0              4.8457303e+15  4.6539135e-07  0.55244297   
     60000   0.012                217  -0              4.7985248e+15  4.6539135e-07  0.54022375   
     70000   0.014                217  -0              4.758308e+15   4.6539135e-07  0.52869636   
     80000   0.016                217  -0              4.7242095e+15  4.6539135e-07  0.51782163   
     90000   0.018                217  -0              4.6954601e+15  4.6539135e-07  0.50756262   
    100000   0.02                 217  -0              4.6713807e+15  4.6539135e-07  0.49788445   
    110000   0.022                217  -0              4.6513724e+15  4.6539135e-07  0.48875424   
    120000   0.024                217  -0              4.6349066e+15  4.6539135e-07  0.48014097   
    130000   0.026                217  -0              4.6215176e+15  4.6539135e-07  0.47201538   
    140000   0.028                217  -0              4.6107952e+15  4.6539135e-07  0.46434984   
    150000   0.03                 217  -0              4.6023785e+15  4.6539135e-07  0.45711831   
    160000   0.032                217  -0              4.5959501e+15  4.6539135e-07  0.45029622   
    170000   0.034                217  -0              4.591231e+15   4.6539135e-07  0.44386038   
    180000   0.036                217  -0              4.5879763e+15  4.6539135e-07  0.43778894   
    190000   0.038                217  -0              4.5859716e+15  4.6539135e-07  0.43206125   
    200000   0.04                 217  -0              4.5850286e+15  4.6539135e-07  0.42665785   
    210000   0.042                217  -0              4.5849831e+15  4.6539135e-07  0.42156038   
    220000   0.044                217  -0              4.5856912e+15  4.6539135e-07  0.41675152   
    230000   0.046                217  -0              4.5870277e+15  4.6539135e-07  0.41221494   
    240000   0.048                217  -0              4.5888835e+15  4.6539135e-07  0.40793521   
    250000   0.05                 217  -0              4.5911637e+15  4.6539135e-07  0.40389779   
    260000   0.052                217  -0              4.593786e+15   4.6539135e-07  0.40008896   
    270000   0.054                217  -0              4.5966791e+15  4.6539135e-07  0.39649578   
    280000   0.056                217  -0              4.5997817e+15  4.6539135e-07  0.39310604   
    290000   0.058                217  -0              4.6030407e+15  4.6539135e-07  0.38990823   
    300000   0.06                 217  -0              4.6064109e+15  4.6539135e-07  0.38689147   
    310000   0.062                217  -0              4.6098533e+15  4.6539135e-07  0.38404551   
WARNING: Fewer insertions than requested (src/GRANULAR/fix_pour.cpp:691)
    320000   0.064                434  -0              5.039416e+15   9.3078269e-07  0.6241216    
    330000   0.066                434  -0              4.9569312e+15  9.3078269e-07  0.60784405   
    340000   0.068                434  -0              4.8874191e+15  9.3078269e-07  0.5924881    
    350000   0.07                 434  -0              4.8336762e+15  9.3078269e-07  0.57393469   
    360000   0.072                434  -0              4.7949915e+15  9.3078269e-07  0.55501305   
    370000   0.074                434  -0              4.7641129e+15  9.3078269e-07  0.54264831   
    380000   0.076                434  -0              4.7345028e+15  9.3078269e-07  0.52513653   
    390000   0.078                434  -0              4.7126384e+15  9.3078269e-07  0.5084242    
    400000   0.08                 434  -0              4.6957021e+15  9.3078269e-07  0.49869725   
    410000   0.082                434  -0              4.6810993e+15  9.3078269e-07  0.48952102   
    420000   0.084                434  -0              4.6572909e+15  9.3078269e-07  0.48086434   
    430000   0.086                434  -0              4.5912648e+15  9.3078269e-07  0.47269779   
    440000   0.088                434  -0              4.5535967e+15  9.3078269e-07  0.46499361   
    450000   0.09                 434  -0              4.5356838e+15  9.3078269e-07  0.45772563   
    460000   0.092                434  -0              4.4712752e+15  9.3078269e-07  0.45086916   
    470000   0.094                434  -0              4.4543755e+15  9.3078269e-07  0.44440089   
    480000   0.096                434  -0              4.4091216e+15  9.3078269e-07  0.43771108   
    490000   0.098                434  -0              4.3763573e+15  9.3078269e-07  0.43198713   
    500000   0.1                  434  -0              4.3558684e+15  9.3078269e-07  0.42658733   
    510000   0.102                434  -0              4.3406341e+15  9.3078269e-07  0.42149331   
    520000   0.104                434  -0              4.3063247e+15  9.3078269e-07  0.41668775   
    530000   0.106                434  -0              4.2951478e+15  9.3078269e-07  0.41215432   
    540000   0.108                434  -0              4.2564408e+15  9.3078269e-07  0.4078776    
    550000   0.11                 434  -0              4.2584681e+15  9.3078269e-07  0.40384307   
    560000   0.112                434  -0              4.2378943e+15  9.3078269e-07  0.400037     
    570000   0.114                434  -0              4.1947167e+15  9.3078269e-07  0.39644645   
    580000   0.116                434  -0              4.153932e+15   9.3078269e-07  0.39305922   
    590000   0.118                434  -0              4.1422512e+15  9.3078269e-07  0.38986381   
    600000   0.12                 434  -0              4.1299225e+15  9.3078269e-07  0.38684933   
    610000   0.122                434  -0              4.1163578e+15  9.3078269e-07  0.38400555   
    620000   0.124                434  -0              4.0762431e+15  9.3078269e-07  0.3813228    
    630000   0.126                434  -0              4.0506162e+15  9.3078269e-07  0.37879197   
WARNING: Fewer insertions than requested (src/GRANULAR/fix_pour.cpp:691)
    640000   0.128                687  -0              4.6122512e+15  1.4733818e-06  0.62361693   
    650000   0.13                 687  -0              4.5347326e+15  1.4733818e-06  0.60736795   
    660000   0.132                687  -0              4.4707989e+15  1.4733818e-06  0.59203896   
    670000   0.134                687  -0              4.4102881e+15  1.4733818e-06  0.57757787   
    680000   0.136                687  -0              4.3574183e+15  1.4733818e-06  0.56393555   
    690000   0.138                687  -0              4.2993649e+15  1.4733818e-06  0.55106564   
    700000   0.14                 687  -0              4.2496221e+15  1.4733818e-06  0.52617726   
    710000   0.142                687  -0              4.2088662e+15  1.4733818e-06  0.51544516   
    720000   0.144                687  -0              4.1426171e+15  1.4733818e-06  0.50532069   
    730000   0.146                687  -0              4.1085162e+15  1.4733818e-06  0.48404764   
    740000   0.148                687  -0              4.062467e+15   1.4733818e-06  0.47569762   
    750000   0.15                 687  -0              4.0148893e+15  1.4733818e-06  0.46782063   
    760000   0.152                687  -0              3.9523889e+15  1.4733818e-06  0.46038985   
    770000   0.154                687  -0              3.8747443e+15  1.4733818e-06  0.45338002   
    780000   0.156                687  -0              3.7975306e+15  1.4733818e-06  0.44676728   
    790000   0.158                687  -0              3.7231113e+15  1.4733818e-06  0.44052914   
    800000   0.16                 687  -0              3.6422068e+15  1.4733818e-06  0.43464437   
    810000   0.162                687  -0              3.5809313e+15  1.4733818e-06  0.42909296   
    820000   0.164                687  -0              3.5214431e+15  1.4733818e-06  0.42385601   
    830000   0.166                687  -0              3.4696275e+15  1.4733818e-06  0.41891571   
    840000   0.168                687  -0              3.3955741e+15  1.4733818e-06  0.41425525   
    850000   0.17                 687  -0              3.2906495e+15  1.4733818e-06  0.40985879   
    860000   0.172                687  -0              3.2198201e+15  1.4733818e-06  0.40571135   
    870000   0.174                687  -0              3.1125478e+15  1.4733818e-06  0.40179884   
    880000   0.176                687  -0              3.0513553e+15  1.4733818e-06  0.39810794   
    890000   0.178                687  -0              2.9910397e+15  1.4733818e-06  0.3946261    
    900000   0.18                 687  -0              2.9180375e+15  1.4733818e-06  0.39134148   
    910000   0.182                687  -0              2.8294629e+15  1.4733818e-06  0.38824289   
    920000   0.184                687  -0              2.7547018e+15  1.4733818e-06  0.38531981   
    930000   0.186                687  -0              2.6871919e+15  1.4733818e-06  0.38256229   
    940000   0.188                687  -0              2.6505439e+15  1.4733818e-06  0.37996095   
    950000   0.19                 687  -0              2.6070055e+15  1.4733818e-06  0.37750694   
WARNING: Fewer insertions than requested (src/GRANULAR/fix_pour.cpp:691)
    960000   0.192                912  -0              3.2323636e+15  1.9559305e-06  0.62079633   
    970000   0.194                912  -0              3.1746165e+15  1.9559305e-06  0.60470705   
    980000   0.196                912  -0              3.1218776e+15  1.9559305e-06  0.58952871   
    990000   0.198                912  -0              3.0854036e+15  1.9559305e-06  0.5727757    
   1000000   0.2                  912  -0              3.0390025e+15  1.9559305e-06  0.55926267   
   1010000   0.202                912  -0              2.9870075e+15  1.9559305e-06  0.54665733   
   1020000   0.204                912  -0              2.9561499e+15  1.9559305e-06  0.52112626   
   1030000   0.206                912  -0              2.9033047e+15  1.9559305e-06  0.51068014   
   1040000   0.208                912  -0              2.8420504e+15  1.9559305e-06  0.50082547   
   1050000   0.21                 912  -0              2.7706332e+15  1.9559305e-06  0.47179283   
   1060000   0.212                912  -0              2.7030177e+15  1.9559305e-06  0.46410531   
   1070000   0.214                912  -0              2.6496111e+15  1.9559305e-06  0.45685584   
   1080000   0.216                912  -0              2.5618591e+15  1.9559305e-06  0.45001944   
   1090000   0.218                912  -0              2.5008661e+15  1.9559305e-06  0.44357254   
   1100000   0.22                 912  -0              2.4655821e+15  1.9559305e-06  0.43749291   
   1110000   0.222                912  -0              2.4312421e+15  1.9559305e-06  0.43175961   
   1120000   0.224                912  -0              2.3976091e+15  1.9559305e-06  0.41257536   
   1130000   0.226                912  -0              2.3451229e+15  1.9559305e-06  0.40827522   
   1140000   0.228                912  -0              2.3020386e+15  1.9559305e-06  0.40421855   
   1150000   0.23                 912  -0              2.239057e+15   1.9559305e-06  0.40039156   
   1160000   0.232                912  -0              2.1634153e+15  1.9559305e-06  0.39678125   
   1170000   0.234                912  -0              2.072576e+15   1.9559305e-06  0.38952083   
   1180000   0.236                912  -0              2.0190813e+15  1.9559305e-06  0.38652351   
   1190000   0.238                912  -0              1.9565802e+15  1.9559305e-06  0.38369613   
   1200000   0.24                 912  -0              1.9108649e+15  1.9559305e-06  0.38102906   
   1210000   0.242                912  -0              1.8912351e+15  1.9559305e-06  0.37851319   
   1220000   0.244                912  -0              1.8577943e+15  1.9559305e-06  0.37613995   
   1230000   0.246                912  -0              1.8172749e+15  1.9559305e-06  0.37390124   
   1240000   0.248                912  -0              1.7956641e+15  1.9559305e-06  0.37178943   
   1250000   0.25                 912  -0              1.7725174e+15  1.9559305e-06  0.36934825   
   1260000   0.252                912  -0              1.7342582e+15  1.9559305e-06  0.36749556   
   1270000   0.254                912  -0              1.7030453e+15  1.9559305e-06  0.36574777   
WARNING: Fewer insertions than requested (src/GRANULAR/fix_pour.cpp:691)
   1280000   0.256               1054  -0              2.017203e+15   2.2604723e-06  0.61866208   
   1290000   0.258               1054  -0              1.9607626e+15  2.2604723e-06  0.60035855   
   1300000   0.26                1054  -0              1.8696929e+15  2.2604723e-06  0.58542642   
   1310000   0.262               1054  -0              1.8201762e+15  2.2604723e-06  0.57133973   
   1320000   0.264               1054  -0              1.74191e+15    2.2604723e-06  0.5580506    
   1330000   0.266               1054  -0              1.7190622e+15  2.2604723e-06  0.54551388   
   1340000   0.268               1054  -0              1.6789371e+15  2.2604723e-06  0.53368697   
   1350000   0.27                1054  -0              1.6545143e+15  2.2604723e-06  0.4826876    
   1360000   0.272               1054  -0              1.6307193e+15  2.2604723e-06  0.47441781   
   1370000   0.274               1054  -0              1.5899035e+15  2.2604723e-06  0.46222538   
   1380000   0.276               1054  -0              1.5472449e+15  2.2604723e-06  0.44948142   
   1390000   0.278               1054  -0              1.5029818e+15  2.2604723e-06  0.44309172   
   1400000   0.28                1054  -0              1.4562773e+15  2.2604723e-06  0.43706379   
   1410000   0.282               1054  -0              1.4062735e+15  2.2604723e-06  0.43137716   
   1420000   0.284               1054  -0              1.3474198e+15  2.2604723e-06  0.42601249   
   1430000   0.286               1054  -0              1.3037714e+15  2.2604723e-06  0.42095156   
   1440000   0.288               1054  -0              1.2514658e+15  2.2604723e-06  0.41617718   
   1450000   0.29                1054  -0              1.2042628e+15  2.2604723e-06  0.41167311   
   1460000   0.292               1054  -0              1.1861827e+15  2.2604723e-06  0.40742405   
   1470000   0.294               1054  -0              1.1681343e+15  2.2604723e-06  0.40341558   
   1480000   0.296               1054  -0              1.1400284e+15  2.2604723e-06  0.39963405   
   1490000   0.298               1054  -0              1.1088337e+15  2.2604723e-06  0.39606663   
   1500000   0.3                 1054  -0              1.0905235e+15  2.2604723e-06  0.39270119   
   1510000   0.302               1054  -0              1.0737164e+15  2.2604723e-06  0.38952629   
   1520000   0.304               1054  -0              1.0526805e+15  2.2604723e-06  0.38653116   
   1530000   0.306               1054  -0              1.0123642e+15  2.2604723e-06  0.3837056    
   1540000   0.308               1054  -0              1.0046252e+15  2.2604723e-06  0.38104002   
   1550000   0.31                1054  -0              9.7717095e+14  2.2604723e-06  0.37852537   
   1560000   0.312               1054  -0              9.4522617e+14  2.2604723e-06  0.37615309   
   1570000   0.314               1054  -0              9.2129975e+14  2.2604723e-06  0.37391512   
   1580000   0.316               1054  -0              8.9265211e+14  2.2604723e-06  0.37180386   
   1590000   0.318               1054  -0              8.5667964e+14  2.2604723e-06  0.36981215   
WARNING: Fewer insertions than requested (src/GRANULAR/fix_pour.cpp:691)
   1600000   0.32                1282  -0              1.5890208e+15  2.7494549e-06  0.61757554   
   1610000   0.322               1282  -0              1.5508788e+15  2.7494549e-06  0.60166861   
   1620000   0.324               1282  -0              1.5104668e+15  2.7494549e-06  0.58666231   
   1630000   0.326               1282  -0              1.4710947e+15  2.7494549e-06  0.57250564   
   1640000   0.328               1282  -0              1.4322607e+15  2.7494549e-06  0.5591505    
   1650000   0.33                1282  -0              1.3881094e+15  2.7494549e-06  0.5465515    
   1660000   0.332               1282  -0              1.3599827e+15  2.7494549e-06  0.52791421   
   1670000   0.334               1282  -0              1.3326812e+15  2.7494549e-06  0.51237238   
   1680000   0.336               1282  -0              1.2836204e+15  2.7494549e-06  0.50242189   
   1690000   0.338               1282  -0              1.2418177e+15  2.7494549e-06  0.49303479   
   1700000   0.34                1282  -0              1.2162312e+15  2.7494549e-06  0.48417916   
   1710000   0.342               1282  -0              1.1868631e+15  2.7494549e-06  0.47582493   
   1720000   0.344               1282  -0              1.1674375e+15  2.7494549e-06  0.4679437    
   1730000   0.346               1282  -0              1.1595784e+15  2.7494549e-06  0.46050869   
   1740000   0.348               1282  -0              1.153871e+15   2.7494549e-06  0.45349464   
   1750000   0.35                1282  -0              1.1425556e+15  2.7494549e-06  0.44687772   
   1760000   0.352               1282  -0              1.1329218e+15  2.7494549e-06  0.44063543   
   1770000   0.354               1282  -0              1.1256874e+15  2.7494549e-06  0.43474658   
   1780000   0.356               1282  -0              1.119806e+15   2.7494549e-06  0.42919114   
   1790000   0.358               1282  -0              1.1173402e+15  2.7494549e-06  0.42395024   
   1800000   0.36                1282  -0              1.107028e+15   2.7494549e-06  0.41900608   
   1810000   0.362               1282  -0              1.0857523e+15  2.7494549e-06  0.40215385   
   1820000   0.364               1282  -0              1.0616759e+15  2.7494549e-06  0.39844376   
   1830000   0.366               1282  -0              1.0372933e+15  2.7494549e-06  0.39494373   
   1840000   0.368               1282  -0              1.0218259e+15  2.7494549e-06  0.39164187   
   1850000   0.37                1282  -0              9.8889903e+14  2.7494549e-06  0.38231794   
   1860000   0.372               1282  -0              9.5734727e+14  2.7494549e-06  0.37973093   
   1870000   0.374               1282  -0              9.3050651e+14  2.7494549e-06  0.361738     
   1880000   0.376               1282  -0              8.989603e+14   2.7494549e-06  0.3606481    
   1890000   0.378               1282  -0              8.7209063e+14  2.7494549e-06  0.35897488   
   1900000   0.38                1282  -0              8.4728025e+14  2.7494549e-06  0.35770952   
   1910000   0.382               1282  -0              8.0433862e+14  2.7494549e-06  0.3565158    
WARNING: Fewer insertions than requested (src/GRANULAR/fix_pour.cpp:691)
   1920000   0.384               1505  -0              1.4758387e+15  3.2277142e-06  0.61702296   
   1930000   0.386               1505  -0              1.4261561e+15  3.2277142e-06  0.60008477   
   1940000   0.388               1505  -0              1.3742245e+15  3.2277142e-06  0.58516814   
   1950000   0.39                1505  -0              1.3246969e+15  3.2277142e-06  0.57109607   
   1960000   0.392               1505  -0              1.2802172e+15  3.2277142e-06  0.55782074   
   1970000   0.394               1505  -0              1.2446297e+15  3.2277142e-06  0.52637986   
   1980000   0.396               1505  -0              1.2122439e+15  3.2277142e-06  0.51560476   
   1990000   0.398               1505  -0              1.1739253e+15  3.2277142e-06  0.50544203   
   2000000   0.4                 1505  -0              1.1419562e+15  3.2277142e-06  0.49585688   
   2010000   0.402               1505  -0              1.1219121e+15  3.2277142e-06  0.48681648   
   2020000   0.404               1505  -0              1.100976e+15   3.2277142e-06  0.47828987   
   2030000   0.406               1505  -0              1.0829277e+15  3.2277142e-06  0.47024784   
   2040000   0.408               1505  -0              1.0567836e+15  3.2277142e-06  0.44339884   
   2050000   0.41                1505  -0              1.038683e+15   3.2277142e-06  0.43733808   
   2060000   0.412               1505  -0              1.0153397e+15  3.2277142e-06  0.4316218    
   2070000   0.414               1505  -0              9.9540849e+14  3.2277142e-06  0.4262304    
   2080000   0.416               1505  -0              9.6162313e+14  3.2277142e-06  0.42114538   
   2090000   0.418               1505  -0              9.3821616e+14  3.2277142e-06  0.40638504   
   2100000   0.42                1505  -0              8.9468979e+14  3.2277142e-06  0.38593222   
   2110000   0.422               1505  -0              8.6987138e+14  3.2277142e-06  0.38104706   
   2120000   0.424               1505  -0              8.27073e+14    3.2277142e-06  0.37838971   
   2130000   0.426               1505  -0              8.0836363e+14  3.2277142e-06  0.37602511   
   2140000   0.428               1505  -0              7.6995158e+14  3.2277142e-06  0.37379439   
   2150000   0.43                1505  -0              7.3437278e+14  3.2277142e-06  0.37168997   
   2160000   0.432               1505  -0              7.1352917e+14  3.2277142e-06  0.36211068   
   2170000   0.434               1505  -0              6.8079653e+14  3.2277142e-06  0.3606661    
   2180000   0.436               1505  -0              6.3101865e+14  3.2277142e-06  0.35711781   
   2190000   0.438               1505  -0              5.8264034e+14  3.2277142e-06  0.35595687   
   2200000   0.44                1505  -0              5.4651984e+14  3.2277142e-06  0.35486173   
   2210000   0.442               1505  -0              4.8222352e+14  3.2277142e-06  0.35049473   
   2220000   0.444               1505  -0              4.5071054e+14  3.2277142e-06  0.34905336   
   2230000   0.446               1505  -0              4.2165978e+14  3.2277142e-06  0.34834974   
WARNING: Fewer insertions than requested (src/GRANULAR/fix_pour.cpp:691)
   2240000   0.448               1718  -0              1.0006476e+15  3.6845269e-06  0.61609311   
   2250000   0.45                1718  -0              9.6756535e+14  3.6845269e-06  0.60027012   
   2260000   0.452               1718  -0              9.3641314e+14  3.6845269e-06  0.585343     
   2270000   0.454               1718  -0              9.0861889e+14  3.6845269e-06  0.57126102   
   2280000   0.456               1718  -0              8.9053152e+14  3.6845269e-06  0.55797635   
   2290000   0.458               1718  -0              8.7204531e+14  3.6845269e-06  0.54544384   
   2300000   0.46                1718  -0              8.5761865e+14  3.6845269e-06  0.53362089   
   2310000   0.462               1718  -0              8.3554873e+14  3.6845269e-06  0.52246735   
   2320000   0.464               1718  -0              8.2108092e+14  3.6845269e-06  0.5119453    
   2330000   0.466               1718  -0              8.0175196e+14  3.6845269e-06  0.49336763   
   2340000   0.468               1718  -0              7.7348836e+14  3.6845269e-06  0.47801821   
   2350000   0.47                1718  -0              7.3951859e+14  3.6845269e-06  0.45304463   
   2360000   0.472               1718  -0              7.1089736e+14  3.6845269e-06  0.44488999   
   2370000   0.474               1718  -0              6.7697769e+14  3.6845269e-06  0.43722827   
   2380000   0.476               1718  -0              6.5560466e+14  3.6845269e-06  0.42388481   
   2390000   0.478               1718  -0              6.2461015e+14  3.6845269e-06  0.4189442    
   2400000   0.48                1718  -0              5.8686138e+14  3.6845269e-06  0.39722211   
   2410000   0.482               1718  -0              5.6054748e+14  3.6845269e-06  0.37752489   
   2420000   0.484               1718  -0              5.4839624e+14  3.6845269e-06  0.37520925   
   2430000   0.486               1718  -0              5.2733302e+14  3.6845269e-06  0.37302473   
   2440000   0.488               1718  -0              4.9360182e+14  3.6845269e-06  0.37096388   
   2450000   0.49                1718  -0              4.7110102e+14  3.6845269e-06  0.36901972   
   2460000   0.492               1718  -0              4.3782804e+14  3.6845269e-06  0.36718564   
   2470000   0.494               1718  -0              4.04557e+14    3.6845269e-06  0.35849675   
   2480000   0.496               1718  -0              3.7862855e+14  3.6845269e-06  0.35413827   
   2490000   0.498               1718  -0              3.4391581e+14  3.6845269e-06  0.35314674   
   2500000   0.5                 1718  -0              3.2431202e+14  3.6845269e-06  0.34587754   
   2510000   0.502               1718  -0              3.1031128e+14  3.6845269e-06  0.34388795   
   2520000   0.504               1718  -0              3.0281828e+14  3.6845269e-06  0.34347679   
   2530000   0.506               1718  -0              2.9781238e+14  3.6845269e-06  0.3430889    
   2540000   0.508               1718  -0              2.8953073e+14  3.6845269e-06  0.34228819   
   2550000   0.51                1718  -0              2.7409783e+14  3.6845269e-06  0.33557267   
   2560000   0.512               1850  -0              6.2393668e+14  3.9676221e-06  0.5981353    
   2570000   0.514               1850  -0              6.0466843e+14  3.9676221e-06  0.57465885   
   2580000   0.516               1850  -0              5.8792808e+14  3.9676221e-06  0.54900125   
   2590000   0.518               1850  -0              5.7140018e+14  3.9676221e-06  0.52315581   
   2600000   0.52                1850  -0              5.5393944e+14  3.9676221e-06  0.51259478   
   2610000   0.522               1850  -0              5.4595426e+14  3.9676221e-06  0.50263169   
   2620000   0.524               1850  -0              5.2770486e+14  3.9676221e-06  0.48285386   
   2630000   0.526               1850  -0              5.0578503e+14  3.9676221e-06  0.45322432   
   2640000   0.528               1850  -0              4.7212074e+14  3.9676221e-06  0.44657835   
   2650000   0.53                1850  -0              4.3191442e+14  3.9676221e-06  0.41411775   
   2660000   0.532               1850  -0              3.9321771e+14  3.9676221e-06  0.40971756   
   2670000   0.534               1850  -0              3.6323432e+14  3.9676221e-06  0.40556767   
   2680000   0.536               1850  -0              3.4245828e+14  3.9676221e-06  0.3901403    
   2690000   0.538               1850  -0              3.1477263e+14  3.9676221e-06  0.3871104    
   2700000   0.54                1850  -0              2.9224326e+14  3.9676221e-06  0.38425204   
   2710000   0.542               1850  -0              2.7829245e+14  3.9676221e-06  0.38155553   
   2720000   0.544               1850  -0              2.5462277e+14  3.9676221e-06  0.37626043   
   2730000   0.546               1850  -0              2.2796913e+14  3.9676221e-06  0.36919592   
   2740000   0.548               1850  -0              2.0681129e+14  3.9676221e-06  0.36115523   
   2750000   0.55                1850  -0              1.938302e+14   3.9676221e-06  0.35661916   
   2760000   0.552               1850  -0              1.8332294e+14  3.9676221e-06  0.35443617   
   2770000   0.554               1850  -0              1.7674933e+14  3.9676221e-06  0.35197746   
   2780000   0.556               1850  -0              1.6911568e+14  3.9676221e-06  0.34798296   
   2790000   0.558               1850  -0              1.6080984e+14  3.9676221e-06  0.34308027   
   2800000   0.56                1850  -0              1.5545897e+14  3.9676221e-06  0.33959731   
   2810000   0.562               1850  -0              1.530946e+14   3.9676221e-06  0.33942907   
   2820000   0.564               1850  -0              1.4604068e+14  3.9676221e-06  0.33165139   
   2830000   0.566               1850  -0              1.4509106e+14  3.9676221e-06  0.33193304   
   2840000   0.568               1850  -0              1.4241391e+14  3.9676221e-06  0.33206139   
   2850000   0.57                1850  -0              1.3814141e+14  3.9676221e-06  0.32700719   
   2860000   0.572               1850  -0              1.3149268e+14  3.9676221e-06  0.32742949   
   2870000   0.574               1850  -0              1.2751357e+14  3.9676221e-06  0.32606776   
   2880000   0.576               1850  -0              1.2503852e+14  3.9676221e-06  0.32666554   
   2890000   0.578               1850  -0              1.1910198e+14  3.9676221e-06  0.32371471   
   2900000   0.58                1850  -0              1.1349503e+14  3.9676221e-06  0.32212025   
   2910000   0.582               1850  -0              1.0928481e+14  3.9676221e-06  0.32294154   
   2920000   0.584               1850  -0              1.0333069e+14  3.9676221e-06  0.32164257   
   2930000   0.586               1850  -0              9.9330324e+13  3.9676221e-06  0.32147705   
   2940000   0.588               1850  -0              9.231099e+13   3.9676221e-06  0.32096025   
   2950000   0.59                1850  -0              8.5019838e+13  3.9676221e-06  0.31895867   
   2960000   0.592               1850  -0              7.9518477e+13  3.9676221e-06  0.31925074   
   2970000   0.594               1850  -0              7.0005973e+13  3.9676221e-06  0.31901254   
   2980000   0.596               1850  -0              6.2736298e+13  3.9676221e-06  0.31964543   
   2990000   0.598               1850  -0              5.5201955e+13  3.9676221e-06  0.3191999    
   3000000   0.6                 1850  -0              4.4963269e+13  3.9676221e-06  0.31988864   
Loop time of 346.379 on 1 procs for 3000000 steps with 1850 atoms

100.0% CPU use with 1 MPI tasks x 1 OpenMP threads

MPI task timing breakdown:
Section |  min time  |  avg time  |  max time  |%varavg| %total
---------------------------------------------------------------
Pair    | 248.62     | 248.62     | 248.62     |   0.0 | 71.78
Neigh   | 0.58412    | 0.58412    | 0.58412    |   0.0 |  0.17
Comm    | 0.061036   | 0.061036   | 0.061036   |   0.0 |  0.02
Output  | 0.12397    | 0.12397    | 0.12397    |   0.0 |  0.04
Modify  | 92.745     | 92.745     | 92.745     |   0.0 | 26.78
Other   |            | 4.241      |            |       |  1.22

Nlocal:           1850 ave        1850 max        1850 min
Histogram: 1 0 0 0 0 0 0 0 0 0
Nghost:              0 ave           0 max           0 min
Histogram: 1 0 0 0 0 0 0 0 0 0
Neighs:           6994 ave        6994 max        6994 min
Histogram: 1 0 0 0 0 0 0 0 0 0

Total # of neighbors = 6994
Ave neighs/atom = 3.7805405
Neighbor list builds = 2116
Dangerous builds = 0
Generated 0 of 0 mixed pair_coeff terms from geometric mixing rule
Setting up Verlet run ...
  Unit style    : si
  Current step  : 0
  Time step     : 2e-07
Per MPI rank memory allocation (min/avg/max) = 14.72 | 14.72 | 14.72 Mbytes
   Step          Time         Atoms        KinEng     c_granularTemp c_solidVolume    c_maxSpeed  
         0   0                   1850   3.2263566e-06  4.4451135e+13  3.9676221e-06  0.31639483   
     10000   0.002               1850   1.6236788e-06  2.3839441e+13  3.9676221e-06  0.25129457   
     20000   0.004               1850   9.7806974e-07  1.4896469e+13  3.9676221e-06  0.20478665   
     30000   0.006               1850   6.2343168e-07  9.8120588e+12  3.9676221e-06  0.17003605   
     40000   0.008               1850   3.6278069e-07  6.0860105e+12  3.9676221e-06  0.143495     
     50000   0.01                1850   2.105064e-07   3.9041088e+12  3.9676221e-06  0.12389474   
     60000   0.012               1850   1.2255214e-07  2.4728931e+12  3.9676221e-06  0.10934222   
     70000   0.014               1850   8.9391819e-08  1.8253591e+12  3.9676221e-06  0.098720206  
     80000   0.016               1850   6.9941295e-08  1.3871635e+12  3.9676221e-06  0.090783467  
     90000   0.018               1850   5.3123233e-08  1.0688949e+12  3.9676221e-06  0.08483806   
    100000   0.02                1850   4.614522e-08   9.0544017e+11  3.9676221e-06  0.080410762  
    110000   0.022               1850   4.0417378e-08  8.2089147e+11  3.9676221e-06  0.077102696  
    120000   0.024               1850   2.7261009e-08  6.2055998e+11  3.9676221e-06  0.047817924  
    130000   0.026               1850   2.6065799e-08  6.1730585e+11  3.9676221e-06  0.044942715  
    140000   0.028               1850   2.5633543e-08  6.0494835e+11  3.9676221e-06  0.046567614  
    150000   0.03                1850   2.5602124e-08  6.0395958e+11  3.9676221e-06  0.048596549  
    160000   0.032               1850   1.7119015e-08  4.5401189e+11  3.9676221e-06  0.039605693  
    170000   0.034               1850   1.5161976e-08  4.2163254e+11  3.9676221e-06  0.041432493  
    180000   0.036               1850   1.5143167e-08  4.2469765e+11  3.9676221e-06  0.043339136  
    190000   0.038               1850   1.4733112e-08  4.3184069e+11  3.9676221e-06  0.035311732  
    200000   0.04                1850   1.6417916e-08  4.5540635e+11  3.9676221e-06  0.037716685  
    210000   0.042               1850   1.7465379e-08  4.8331671e+11  3.9676221e-06  0.040116098  
    220000   0.044               1850   1.8537066e-08  5.2588227e+11  3.9676221e-06  0.042683945  
    230000   0.046               1850   2.1480878e-08  5.8255392e+11  3.9676221e-06  0.046019452  
    240000   0.048               1850   1.927942e-08   5.2275202e+11  3.9676221e-06  0.047692128  
    250000   0.05                1850   1.9950802e-08  5.2777676e+11  3.9676221e-06  0.052292051  
    260000   0.052               1850   1.6458509e-08  4.1740862e+11  3.9676221e-06  0.041279293  
    270000   0.054               1850   1.483299e-08   3.5651025e+11  3.9676221e-06  0.041069827  
    280000   0.056               1850   1.3608967e-08  3.4968701e+11  3.9676221e-06  0.040493421  
    290000   0.058               1850   1.2834996e-08  3.3501729e+11  3.9676221e-06  0.041119685  
    300000   0.06                1850   1.2976104e-08  3.3884783e+11  3.9676221e-06  0.04207086   
    310000   0.062               1850   1.1009791e-08  2.983967e+11   3.9676221e-06  0.039201832  
    320000   0.064               1850   1.1052976e-08  2.8662177e+11  3.9676221e-06  0.04031387   
    330000   0.066               1850   9.3968259e-09  2.5437951e+11  3.9676221e-06  0.032221859  
    340000   0.068               1850   1.0039606e-08  2.7375615e+11  3.9676221e-06  0.034673629  
    350000   0.07                1850   1.0712215e-08  2.909408e+11   3.9676221e-06  0.036246526  
    360000   0.072               1850   1.0627222e-08  2.9885235e+11  3.9676221e-06  0.038277586  
    370000   0.074               1850   9.6623777e-09  2.7267436e+11  3.9676221e-06  0.040456304  
    380000   0.076               1850   7.0709681e-09  1.9286987e+11  3.9676221e-06  0.023755623  
    390000   0.078               1850   5.8478777e-09  1.5812009e+11  3.9676221e-06  0.024391736  
    400000   0.08                1850   5.3060416e-09  1.370995e+11   3.9676221e-06  0.025927141  
    410000   0.082               1850   4.8153287e-09  1.1653496e+11  3.9676221e-06  0.022072735  
    420000   0.084               1850   4.1262122e-09  1.0280096e+11  3.9676221e-06  0.023767874  
    430000   0.086               1850   4.5349857e-09  1.1316191e+11  3.9676221e-06  0.025799709  
    440000   0.088               1850   4.7173586e-09  1.2074033e+11  3.9676221e-06  0.027977596  
    450000   0.09                1850   5.3588727e-09  1.3608128e+11  3.9676221e-06  0.030712997  
    460000   0.092               1850   6.4428173e-09  1.5926076e+11  3.9676221e-06  0.035315624  
    470000   0.094               1850   7.4557989e-09  1.8620153e+11  3.9676221e-06  0.037791481  
    480000   0.096               1850   6.2666282e-09  1.6573109e+11  3.9676221e-06  0.027543949  
    490000   0.098               1850   7.2395648e-09  1.8535932e+11  3.9676221e-06  0.029295974  
    500000   0.1                 1850   6.8302886e-09  1.5863626e+11  3.9676221e-06  0.031110363  
    510000   0.102               1850   7.982047e-09   1.7542588e+11  3.9676221e-06  0.033088872  
    520000   0.104               1850   9.1512365e-09  2.0038524e+11  3.9676221e-06  0.035065183  
    530000   0.106               1850   8.8613372e-09  1.9541427e+11  3.9676221e-06  0.037127385  
    540000   0.108               1850   9.6262737e-09  2.0940544e+11  3.9676221e-06  0.039287704  
    550000   0.11                1850   3.1586249e-09  8.3654769e+10  3.9676221e-06  0.024731536  
    560000   0.112               1850   2.6911316e-09  7.3033568e+10  3.9676221e-06  0.0243432    
    570000   0.114               1850   2.2659829e-09  7.1296724e+10  3.9676221e-06  0.019892087  
    580000   0.116               1850   2.526091e-09   7.9732097e+10  3.9676221e-06  0.022429835  
    590000   0.118               1850   2.888289e-09   9.1663197e+10  3.9676221e-06  0.022436568  
    600000   0.12                1850   3.6994014e-09  1.0929322e+11  3.9676221e-06  0.024686654  
    610000   0.122               1850   2.8380424e-09  9.3222054e+10  3.9676221e-06  0.026324573  
    620000   0.124               1850   3.3359633e-09  1.0321033e+11  3.9676221e-06  0.028565161  
    630000   0.126               1850   4.2199365e-09  1.1088029e+11  3.9676221e-06  0.036572096  
    640000   0.128               1850   2.1871619e-09  6.4579222e+10  3.9676221e-06  0.026616906  
    650000   0.13                1850   2.3157482e-09  6.7482989e+10  3.9676221e-06  0.027999998  
    660000   0.132               1850   7.8206672e-10  2.8517405e+10  3.9676221e-06  0.010268819  
    670000   0.134               1850   5.6923601e-10  1.5554422e+10  3.9676221e-06  0.0085187354 
    680000   0.136               1850   4.1524436e-10  1.052097e+10   3.9676221e-06  0.0078143098 
    690000   0.138               1850   4.3321153e-10  1.1153395e+10  3.9676221e-06  0.0085778201 
    700000   0.14                1850   3.4501615e-10  9.1760229e+09  3.9676221e-06  0.0091738019 
    710000   0.142               1850   3.6462464e-10  9.8333726e+09  3.9676221e-06  0.0099667674 
    720000   0.144               1850   4.1555476e-10  1.1240017e+10  3.9676221e-06  0.011045271  
    730000   0.146               1850   4.9501918e-10  1.338399e+10   3.9676221e-06  0.01231959   
    740000   0.148               1850   3.0543622e-10  8.4891913e+09  3.9676221e-06  0.0085639691 
    750000   0.15                1850   3.1767011e-10  9.2603702e+09  3.9676221e-06  0.0091321485 
    760000   0.152               1850   3.4780386e-10  1.0492332e+10  3.9676221e-06  0.0097987831 
    770000   0.154               1850   3.429839e-10   9.8448836e+09  3.9676221e-06  0.010609781  
    780000   0.156               1850   3.0556903e-10  1.0026825e+10  3.9676221e-06  0.011551088  
    790000   0.158               1850   1.3990692e-10  5.2423096e+09  3.9676221e-06  0.005281993  
    800000   0.16                1850   6.9966462e-11  2.8412564e+09  3.9676221e-06  0.0042153193 
    810000   0.162               1850   5.8721563e-11  2.5737432e+09  3.9676221e-06  0.0044098953 
    820000   0.164               1850   6.8858981e-11  2.7430003e+09  3.9676221e-06  0.0045107056 
    830000   0.166               1850   7.6767286e-11  2.7496918e+09  3.9676221e-06  0.0047683462 
    840000   0.168               1850   5.5656346e-11  2.424246e+09   3.9676221e-06  0.0050742407 
    850000   0.17                1850   5.1535871e-11  2.2701606e+09  3.9676221e-06  0.0054277186 
    860000   0.172               1850   6.2593631e-11  2.5524221e+09  3.9676221e-06  0.0058274086 
    870000   0.174               1850   7.6254826e-11  2.8274109e+09  3.9676221e-06  0.0062718027 
    880000   0.176               1850   7.9028716e-11  2.9622618e+09  3.9676221e-06  0.006764061  
    890000   0.178               1850   9.8211775e-11  3.4144966e+09  3.9676221e-06  0.0073055622 
    900000   0.18                1850   1.0752942e-10  3.6853433e+09  3.9676221e-06  0.007891859  
    910000   0.182               1850   1.2545091e-10  4.1424746e+09  3.9676221e-06  0.0085314239 
    920000   0.184               1850   1.470137e-10   4.6882247e+09  3.9676221e-06  0.0092330627 
    930000   0.186               1850   1.7197605e-10  5.3155019e+09  3.9676221e-06  0.0099961395 
    940000   0.188               1850   2.0158316e-10  6.0595823e+09  3.9676221e-06  0.01082409   
    950000   0.19                1850   2.3619773e-10  6.9310247e+09  3.9676221e-06  0.011717831  
    960000   0.192               1850   2.7660641e-10  7.9486984e+09  3.9676221e-06  0.012682749  
    970000   0.194               1850   3.2388474e-10  9.1392318e+09  3.9676221e-06  0.013725285  
    980000   0.196               1850   3.7860653e-10  1.032167e+10   3.9676221e-06  0.014851609  
    990000   0.198               1850   4.4294363e-10  1.191991e+10   3.9676221e-06  0.01606735   
   1000000   0.2                 1850   5.1808658e-10  1.3787997e+10  3.9676221e-06  0.017376127  
   1010000   0.202               1850   6.0517479e-10  1.5954662e+10  3.9676221e-06  0.018780625  
   1020000   0.204               1850   2.548041e-11   1.99829e+09    3.9676221e-06  0.0029355897 
   1030000   0.206               1850   7.8890793e-13  9.0773834e+08  3.9676221e-06  0.00021313998
   1040000   0.208               1850   1.0063037e-13  8.9395272e+08  3.9676221e-06  5.6235303e-05
   1050000   0.21                1850   3.6239258e-14  8.9139987e+08  3.9676221e-06  4.3079738e-05
   1060000   0.212               1850   1.2534423e-14  8.9084232e+08  3.9676221e-06  2.48284e-05  
   1070000   0.214               1850   5.6592776e-15  8.9070561e+08  3.9676221e-06  2.7086702e-05
   1080000   0.216               1850   3.2059687e-15  8.9062389e+08  3.9676221e-06  2.4810772e-05
   1090000   0.218               1850   4.162234e-16   8.9053387e+08  3.9676221e-06  7.4882496e-06
   1100000   0.22                1850   1.4940943e-15  8.9057614e+08  3.9676221e-06  2.2778555e-05
   1110000   0.222               1850   1.3164209e-15  8.9057164e+08  3.9676221e-06  2.2991704e-05
   1120000   0.224               1850   8.8952981e-17  8.9052147e+08  3.9676221e-06  3.0244374e-06
   1130000   0.226               1850   7.0427921e-16  8.9054789e+08  3.9676221e-06  1.7559226e-05
   1140000   0.228               1850   9.3645361e-16  8.9055788e+08  3.9676221e-06  2.0682211e-05
   1150000   0.23                1850   7.3850412e-17  8.905218e+08   3.9676221e-06  5.4186673e-06
   1160000   0.232               1850   3.6854734e-16  8.9053393e+08  3.9676221e-06  1.294356e-05 
   1170000   0.234               1850   7.1035576e-16  8.9054836e+08  3.9676221e-06  1.8050362e-05
   1180000   0.236               1850   1.0330113e-16  8.9052306e+08  3.9676221e-06  6.9047172e-06
   1190000   0.238               1850   1.7916594e-16  8.9052619e+08  3.9676221e-06  9.0445868e-06
   1200000   0.24                1850   5.1334476e-16  8.9054021e+08  3.9676221e-06  1.5388857e-05
   1210000   0.242               1850   1.2670285e-16  8.9052405e+08  3.9676221e-06  7.6298059e-06
   1220000   0.244               1850   7.6456221e-17  8.90522e+08    3.9676221e-06  5.9432883e-06
   1230000   0.246               1850   3.5970725e-16  8.9053385e+08  3.9676221e-06  1.2877494e-05
   1240000   0.248               1850   1.3407501e-16  8.9052442e+08  3.9676221e-06  7.85164e-06  
   1250000   0.25                1850   2.6030376e-17  8.9051996e+08  3.9676221e-06  3.4675756e-06
   1260000   0.252               1850   2.4165373e-16  8.9052898e+08  3.9676221e-06  1.0546044e-05
   1270000   0.254               1850   1.2791359e-16  8.9052425e+08  3.9676221e-06  7.6661571e-06
   1280000   0.256               1850   5.4759051e-18  8.9051919e+08  3.9676221e-06  1.590882e-06 
   1290000   0.258               1850   1.5562667e-16  8.905255e+08   3.9676221e-06  8.4650968e-06
   1300000   0.26                1850   1.1352333e-16  8.9052378e+08  3.9676221e-06  7.2277508e-06
   1310000   0.262               1850   6.2958337e-20  8.9051909e+08  3.9676221e-06  1.6783225e-07
   1320000   0.264               1850   9.5267027e-17  8.9052311e+08  3.9676221e-06  6.621572e-06 
   1330000   0.266               1850   9.4868892e-17  8.9052314e+08  3.9676221e-06  6.6061387e-06
   1340000   0.268               1850   1.5106144e-18  8.905193e+08   3.9676221e-06  8.306114e-07 
   1350000   0.27                1850   5.5298177e-17  8.9052161e+08  3.9676221e-06  5.0474072e-06
   1360000   0.272               1850   7.5553147e-17  8.9052251e+08  3.9676221e-06  5.8975598e-06
   1370000   0.274               1850   5.0443703e-18  8.9051962e+08  3.9676221e-06  1.5216846e-06
   1380000   0.276               1850   2.9879331e-17  8.9052072e+08  3.9676221e-06  3.7087323e-06
   1390000   0.278               1850   5.7480023e-17  8.9052194e+08  3.9676221e-06  5.1424324e-06
   1400000   0.28                1850   8.1704111e-18  8.9051995e+08  3.9676221e-06  1.9370069e-06
   1410000   0.282               1850   1.4812968e-17  8.905203e+08   3.9676221e-06  2.6124043e-06
   1420000   0.284               1850   4.1994734e-17  8.9052151e+08  3.9676221e-06  4.3971397e-06
   1430000   0.286               1850   1.0162508e-17  8.9052026e+08  3.9676221e-06  2.161411e-06 
   1440000   0.288               1850   6.3982923e-18  8.9052018e+08  3.9676221e-06  1.7159569e-06
   1450000   0.29                1850   2.9440772e-17  8.9052123e+08  3.9676221e-06  3.6803093e-06
   1460000   0.292               1850   1.0761711e-17  8.9052053e+08  3.9676221e-06  2.2236069e-06
   1470000   0.294               1850   2.2445821e-18  8.9052027e+08  3.9676221e-06  1.0155387e-06
   1480000   0.296               1850   1.9832873e-17  8.9052109e+08  3.9676221e-06  3.0215635e-06
   1490000   0.298               1850   1.0346574e-17  8.9052079e+08  3.9676221e-06  2.1810641e-06
   1500000   0.3                 1850   4.8484576e-19  8.9052047e+08  3.9676221e-06  4.6795572e-07
   1510000   0.302               1850   1.2780499e-17  8.9052108e+08  3.9676221e-06  2.4242776e-06
   1520000   0.304               1850   9.2005667e-18  8.9052103e+08  3.9676221e-06  2.0558065e-06
   1530000   0.306               1850   2.1920296e-20  8.9052076e+08  3.9676221e-06  8.5821647e-08
   1540000   0.308               1850   7.8671827e-18  8.9052119e+08  3.9676221e-06  1.9021115e-06
   1550000   0.31                1850   7.729349e-18   8.9052129e+08  3.9676221e-06  1.8846236e-06
   1560000   0.312               1850   1.2835278e-19  8.9052109e+08  3.9676221e-06  2.2820069e-07
   1570000   0.314               1850   4.5753571e-18  8.9052139e+08  3.9676221e-06  1.4489042e-06
   1580000   0.316               1850   6.1660082e-18  8.9052157e+08  3.9676221e-06  1.6820535e-06
   1590000   0.318               1850   4.0683402e-19  8.9052145e+08  3.9676221e-06  4.2312837e-07
   1600000   0.32                1850   2.4987147e-18  8.9052166e+08  3.9676221e-06  1.0692514e-06
   1610000   0.322               1850   4.7118998e-18  8.9052188e+08  3.9676221e-06  1.4700665e-06
   1620000   0.324               1850   6.7191773e-19  8.9052184e+08  3.9676221e-06  5.4787244e-07
   1630000   0.326               1850   1.2489843e-18  8.9052199e+08  3.9676221e-06  7.5236579e-07
   1640000   0.328               1850   3.4531207e-18  8.9052222e+08  3.9676221e-06  1.2567448e-06
   1650000   0.33                1850   8.3322294e-19  8.9052224e+08  3.9676221e-06  6.1081986e-07
   1660000   0.332               1850   5.6080369e-19  8.9052237e+08  3.9676221e-06  4.9821561e-07
   1670000   0.334               1850   2.4360296e-18  8.9052259e+08  3.9676221e-06  1.0540848e-06
   1680000   0.336               1850   8.9343745e-19  8.9052267e+08  3.9676221e-06  6.3243972e-07
   1690000   0.338               1850   2.1327821e-19  8.9052278e+08  3.9676221e-06  2.9457151e-07
   1700000   0.34                1850   1.6522286e-18  8.9052299e+08  3.9676221e-06  8.651252e-07 
   1710000   0.342               1850   8.6219837e-19  8.9052311e+08  3.9676221e-06  6.1978743e-07
   1720000   0.344               1850   7.009007e-20   8.9052323e+08  3.9676221e-06  1.3969166e-07
   1730000   0.346               1850   1.0798663e-18  8.9052343e+08  3.9676221e-06  6.9579356e-07
   1740000   0.348               1850   7.7665633e-19  8.9052357e+08  3.9676221e-06  5.863262e-07 
   1750000   0.35                1850   3.1791817e-20  8.905237e+08   3.9676221e-06  1.3392261e-07
   1760000   0.352               1850   6.7845737e-19  8.9052389e+08  3.9676221e-06  5.4559918e-07
   1770000   0.354               1850   6.6006947e-19  8.9052406e+08  3.9676221e-06  5.3716866e-07
   1780000   0.356               1850   4.200811e-20   8.905242e+08   3.9676221e-06  1.4041938e-07
   1790000   0.358               1850   4.1226089e-19  8.9052438e+08  3.9676221e-06  4.169717e-07 
   1800000   0.36                1850   5.3772146e-19  8.9052456e+08  3.9676221e-06  4.8064463e-07
   1810000   0.362               1850   6.7854538e-20  8.9052472e+08  3.9676221e-06  1.4690088e-07
   1820000   0.364               1850   2.4336475e-19  8.905249e+08   3.9676221e-06  3.0741815e-07
   1830000   0.366               1850   4.2244492e-19  8.9052509e+08  3.9676221e-06  4.1990348e-07
   1840000   0.368               1850   9.2026309e-20  8.9052526e+08  3.9676221e-06  1.5408098e-07
   1850000   0.37                1850   1.4411094e-19  8.9052545e+08  3.9676221e-06  2.1747619e-07
   1860000   0.372               1850   3.2362116e-19  8.9052564e+08  3.9676221e-06  3.5969964e-07
   1870000   0.374               1850   1.0923071e-19  8.9052582e+08  3.9676221e-06  1.7345989e-07
   1880000   0.376               1850   8.9897327e-20  8.9052602e+08  3.9676221e-06  1.6195294e-07
   1890000   0.378               1850   2.4385103e-19  8.9052622e+08  3.9676221e-06  3.0159345e-07
   1900000   0.38                1850   1.1737836e-19  8.9052641e+08  3.9676221e-06  1.7935478e-07
   1910000   0.382               1850   6.4718785e-20  8.9052661e+08  3.9676221e-06  1.6837234e-07
   1920000   0.384               1850   1.8347274e-19  8.9052681e+08  3.9676221e-06  2.4804649e-07
   1930000   0.386               1850   1.189072e-19   8.9052701e+08  3.9676221e-06  1.7660507e-07
   1940000   0.388               1850   5.6032564e-20  8.9052722e+08  3.9676221e-06  1.7477117e-07
   1950000   0.39                1850   1.4007651e-19  8.9052743e+08  3.9676221e-06  1.9939804e-07
   1960000   0.392               1850   1.1557183e-19  8.9052764e+08  3.9676221e-06  1.7902552e-07
   1970000   0.394               1850   5.6426905e-20  8.9052785e+08  3.9676221e-06  1.8114963e-07
   1980000   0.396               1850   1.1098537e-19  8.9052807e+08  3.9676221e-06  1.8327209e-07
   1990000   0.398               1850   1.1007368e-19  8.9052828e+08  3.9676221e-06  1.8539063e-07
   2000000   0.4                 1850   6.0939661e-20  8.905285e+08   3.9676221e-06  1.8750569e-07
   2010000   0.402               1850   9.2826748e-20  8.9052873e+08  3.9676221e-06  1.8961926e-07
   2020000   0.404               1850   1.0396973e-19  8.9052895e+08  3.9676221e-06  1.917306e-07 
   2030000   0.406               1850   6.6852406e-20  8.9052918e+08  3.9676221e-06  1.9383942e-07
   2040000   0.408               1850   8.2927486e-20  8.905294e+08   3.9676221e-06  1.9594685e-07
   2050000   0.41                1850   9.862268e-20   8.9052964e+08  3.9676221e-06  1.9804962e-07
   2060000   0.412               1850   7.287049e-20   8.9052987e+08  3.9676221e-06  2.0015117e-07
   2070000   0.414               1850   7.8700745e-20  8.905301e+08   3.9676221e-06  2.0224882e-07
   2080000   0.416               1850   9.4627682e-20  8.9053034e+08  3.9676221e-06  2.0434416e-07
   2090000   0.418               1850   7.8341653e-20  8.9053058e+08  3.9676221e-06  2.0643742e-07
   2100000   0.42                1850   7.8392475e-20  8.9053082e+08  3.9676221e-06  2.0852742e-07
   2110000   0.422               1850   9.2326665e-20  8.9053107e+08  3.9676221e-06  2.1061502e-07
   2120000   0.424               1850   8.3273323e-20  8.9053131e+08  3.9676221e-06  2.1269972e-07
   2130000   0.426               1850   8.0505438e-20  8.9053156e+08  3.9676221e-06  2.1478122e-07
   2140000   0.428               1850   9.1653749e-20  8.9053181e+08  3.9676221e-06  2.1686041e-07
   2150000   0.43                1850   8.7707112e-20  8.9053206e+08  3.9676221e-06  2.1893608e-07
   2160000   0.432               1850   8.4128448e-20  8.9053232e+08  3.9676221e-06  2.210091e-07 
   2170000   0.434               1850   9.2493205e-20  8.9053257e+08  3.9676221e-06  2.2307936e-07
   2180000   0.436               1850   9.1885274e-20  8.9053283e+08  3.9676221e-06  2.2514644e-07
   2190000   0.438               1850   8.8587566e-20  8.9053309e+08  3.9676221e-06  2.2721109e-07
   2200000   0.44                1850   9.4583027e-20  8.9053335e+08  3.9676221e-06  2.292719e-07 
   2210000   0.442               1850   9.5958141e-20  8.9053362e+08  3.9676221e-06  2.3133028e-07
   2220000   0.444               1850   9.349632e-20   8.9053388e+08  3.9676221e-06  2.3338543e-07
   2230000   0.446               1850   9.7681395e-20  8.9053415e+08  3.9676221e-06  2.3543856e-07
   2240000   0.448               1850   1.0009373e-19  8.9053442e+08  3.9676221e-06  2.3748649e-07
   2250000   0.45                1850   9.8629167e-20  8.9053469e+08  3.9676221e-06  2.395328e-07 
   2260000   0.452               1850   1.0153432e-19  8.9053497e+08  3.9676221e-06  2.4157449e-07
   2270000   0.454               1850   1.0437062e-19  8.9053524e+08  3.9676221e-06  2.4361402e-07
   2280000   0.456               1850   1.0385756e-19  8.9053552e+08  3.9676221e-06  2.4565017e-07
   2290000   0.458               1850   1.0596549e-19  8.905358e+08   3.9676221e-06  2.4768354e-07
   2300000   0.46                1850   1.0885822e-19  8.9053608e+08  3.9676221e-06  2.4971366e-07
   2310000   0.462               1850   1.0914625e-19  8.9053637e+08  3.9676221e-06  2.5173947e-07
   2320000   0.464               1850   1.1079989e-19  8.9053665e+08  3.9676221e-06  2.5376235e-07
   2330000   0.466               1850   1.1356948e-19  8.9053694e+08  3.9676221e-06  2.55782e-07  
   2340000   0.468               1850   1.1447752e-19  8.9053723e+08  3.9676221e-06  2.5779805e-07
   2350000   0.47                1850   1.1592923e-19  8.9053752e+08  3.9676221e-06  2.5981051e-07
   2360000   0.472               1850   1.1850386e-19  8.9053781e+08  3.9676221e-06  2.6182055e-07
   2370000   0.474               1850   1.1986078e-19  8.905381e+08   3.9676221e-06  2.6382688e-07
   2380000   0.476               1850   1.212697e-19   8.905384e+08   3.9676221e-06  2.6582931e-07
   2390000   0.478               1850   1.2364888e-19  8.905387e+08   3.9676221e-06  2.6782792e-07
   2400000   0.48                1850   1.2530704e-19  8.9053899e+08  3.9676221e-06  2.6982325e-07
   2410000   0.482               1850   1.2676514e-19  8.905393e+08   3.9676221e-06  2.7181497e-07
   2420000   0.484               1850   1.2898053e-19  8.905396e+08   3.9676221e-06  2.738037e-07 
   2430000   0.486               1850   1.3083283e-19  8.905399e+08   3.9676221e-06  2.7578908e-07
   2440000   0.488               1850   1.3238259e-19  8.9054021e+08  3.9676221e-06  2.7776974e-07
   2450000   0.49                1850   1.3447526e-19  8.9054051e+08  3.9676221e-06  2.7974619e-07
   2460000   0.492               1850   1.3643816e-19  8.9054082e+08  3.9676221e-06  2.8171981e-07
   2470000   0.494               1850   1.3809697e-19  8.9054113e+08  3.9676221e-06  2.8368997e-07
   2480000   0.496               1850   1.4011609e-19  8.9054145e+08  3.9676221e-06  2.8565704e-07
   2490000   0.498               1850   1.4213742e-19  8.9054176e+08  3.9676221e-06  2.8761892e-07
   2500000   0.5                 1850   1.4389908e-19  8.9054207e+08  3.9676221e-06  2.8957725e-07
   2510000   0.502               1850   1.458775e-19   8.9054239e+08  3.9676221e-06  2.9153248e-07
   2520000   0.504               1850   1.4792834e-19  8.9054271e+08  3.9676221e-06  2.9348279e-07
   2530000   0.506               1850   1.4978077e-19  8.9054303e+08  3.9676221e-06  2.9542965e-07
   2540000   0.508               1850   1.5174724e-19  8.9054335e+08  3.9676221e-06  2.9737295e-07
   2550000   0.51                1850   1.5381323e-19  8.9054367e+08  3.9676221e-06  2.9931293e-07
   2560000   0.512               1850   1.5573993e-19  8.90544e+08    3.9676221e-06  3.0124817e-07
   2570000   0.514               1850   1.5771414e-19  8.9054432e+08  3.9676221e-06  3.0317925e-07
   2580000   0.516               1850   1.5978571e-19  8.9054465e+08  3.9676221e-06  3.0510569e-07
   2590000   0.518               1850   1.617705e-19   8.9054498e+08  3.9676221e-06  3.0702893e-07
   2600000   0.52                1850   1.6376704e-19  8.9054531e+08  3.9676221e-06  3.089485e-07 
   2610000   0.522               1850   1.6584779e-19  8.9054564e+08  3.9676221e-06  3.108651e-07 
   2620000   0.524               1850   1.6787678e-19  8.9054597e+08  3.9676221e-06  3.1277506e-07
   2630000   0.526               1850   1.699001e-19   8.905463e+08   3.9676221e-06  3.1468228e-07
   2640000   0.528               1850   1.7198782e-19  8.9054664e+08  3.9676221e-06  3.1658443e-07
   2650000   0.53                1850   1.7405378e-19  8.9054697e+08  3.9676221e-06  3.1848299e-07
   2660000   0.532               1850   1.7610568e-19  8.9054731e+08  3.9676221e-06  3.203776e-07 
   2670000   0.534               1850   1.782068e-19   8.9054765e+08  3.9676221e-06  3.2226853e-07
   2680000   0.536               1850   1.8030177e-19  8.9054799e+08  3.9676221e-06  3.2415381e-07
   2690000   0.538               1850   1.8238236e-19  8.9054833e+08  3.9676221e-06  3.2603615e-07
   2700000   0.54                1850   1.8449547e-19  8.9054867e+08  3.9676221e-06  3.2791294e-07
   2710000   0.542               1850   1.8661539e-19  8.9054902e+08  3.9676221e-06  3.2978534e-07
   2720000   0.544               1850   1.8872324e-19  8.9054936e+08  3.9676221e-06  3.3165438e-07
   2730000   0.546               1850   1.9085266e-19  8.9054971e+08  3.9676221e-06  3.3351903e-07
   2740000   0.548               1850   1.9299452e-19  8.9055005e+08  3.9676221e-06  3.3537876e-07
   2750000   0.55                1850   1.9512815e-19  8.905504e+08   3.9676221e-06  3.3723469e-07
   2760000   0.552               1850   1.9727433e-19  8.9055075e+08  3.9676221e-06  3.3908581e-07
   2770000   0.554               1850   1.9943427e-19  8.905511e+08   3.9676221e-06  3.4093181e-07
   2780000   0.556               1850   2.0159094e-19  8.9055145e+08  3.9676221e-06  3.427738e-07 
   2790000   0.558               1850   2.0375532e-19  8.905518e+08   3.9676221e-06  3.4461161e-07
   2800000   0.56                1850   2.0593344e-19  8.9055215e+08  3.9676221e-06  3.46445e-07  
   2810000   0.562               1850   2.0811127e-19  8.9055251e+08  3.9676221e-06  3.4827337e-07
   2820000   0.564               1850   2.1029329e-19  8.9055286e+08  3.9676221e-06  3.5009699e-07
   2830000   0.566               1850   2.1248735e-19  8.9055322e+08  3.9676221e-06  3.5191643e-07
   2840000   0.568               1850   2.1468461e-19  8.9055358e+08  3.9676221e-06  3.537311e-07 
   2850000   0.57                1850   2.168839e-19   8.9055393e+08  3.9676221e-06  3.5554059e-07
   2860000   0.572               1850   2.1909346e-19  8.9055429e+08  3.9676221e-06  3.5734624e-07
   2870000   0.574               1850   2.2130785e-19  8.9055465e+08  3.9676221e-06  3.5914666e-07
   2880000   0.576               1850   2.2352513e-19  8.9055501e+08  3.9676221e-06  3.6094283e-07
   2890000   0.578               1850   2.2574905e-19  8.9055537e+08  3.9676221e-06  3.6273401e-07
   2900000   0.58                1850   2.2797837e-19  8.9055574e+08  3.9676221e-06  3.6451965e-07
   2910000   0.582               1850   2.3021194e-19  8.905561e+08   3.9676221e-06  3.6630171e-07
   2920000   0.584               1850   2.3244941e-19  8.9055646e+08  3.9676221e-06  3.6807799e-07
   2930000   0.586               1850   2.3469389e-19  8.9055683e+08  3.9676221e-06  3.6984998e-07
   2940000   0.588               1850   2.3694182e-19  8.9055719e+08  3.9676221e-06  3.7161726e-07
   2950000   0.59                1850   2.3919335e-19  8.9055756e+08  3.9676221e-06  3.733793e-07 
   2960000   0.592               1850   2.4145058e-19  8.9055793e+08  3.9676221e-06  3.7513646e-07
   2970000   0.594               1850   2.437117e-19   8.9055829e+08  3.9676221e-06  3.7688883e-07
   2980000   0.596               1850   2.4597597e-19  8.9055866e+08  3.9676221e-06  3.7863608e-07
   2990000   0.598               1850   2.4824501e-19  8.9055903e+08  3.9676221e-06  3.8037827e-07
   3000000   0.6                 1850   2.5051807e-19  8.905594e+08   3.9676221e-06  3.8211559e-07
   3010000   0.602               1850   2.527943e-19   8.9055977e+08  3.9676221e-06  3.8384798e-07
   3020000   0.604               1850   2.5507465e-19  8.9056014e+08  3.9676221e-06  3.8557533e-07
   3030000   0.606               1850   2.5735871e-19  8.9056051e+08  3.9676221e-06  3.8729758e-07
   3040000   0.608               1850   2.5964543e-19  8.9056088e+08  3.9676221e-06  3.8901459e-07
   3050000   0.61                1850   2.6193556e-19  8.9056125e+08  3.9676221e-06  3.9072654e-07
   3060000   0.612               1850   2.6422934e-19  8.9056163e+08  3.9676221e-06  3.9243345e-07
   3070000   0.614               1850   2.6652607e-19  8.90562e+08    3.9676221e-06  3.9413534e-07
   3080000   0.616               1850   2.6882493e-19  8.9056237e+08  3.9676221e-06  3.958316e-07 
   3090000   0.618               1850   2.7112746e-19  8.9056275e+08  3.9676221e-06  3.9752308e-07
   3100000   0.62                1850   2.7343195e-19  8.9056312e+08  3.9676221e-06  3.9920886e-07
   3110000   0.622               1850   2.7573933e-19  8.905635e+08   3.9676221e-06  4.0088982e-07
   3120000   0.624               1850   2.7804943e-19  8.9056387e+08  3.9676221e-06  4.0256561e-07
   3130000   0.626               1850   2.8036163e-19  8.9056425e+08  3.9676221e-06  4.042359e-07 
   3140000   0.628               1850   2.8267569e-19  8.9056462e+08  3.9676221e-06  4.0590078e-07
   3150000   0.63                1850   2.8499154e-19  8.90565e+08    3.9676221e-06  4.0756011e-07
   3160000   0.632               1850   2.8731028e-19  8.9056537e+08  3.9676221e-06  4.0921468e-07
   3170000   0.634               1850   2.8962955e-19  8.9056575e+08  3.9676221e-06  4.1086304e-07
   3180000   0.636               1850   2.9195175e-19  8.9056613e+08  3.9676221e-06  4.1250692e-07
   3190000   0.638               1850   2.9427527e-19  8.9056651e+08  3.9676221e-06  4.1414512e-07
   3200000   0.64                1850   2.9659991e-19  8.9056688e+08  3.9676221e-06  4.1577766e-07
   3210000   0.642               1850   2.9892583e-19  8.9056726e+08  3.9676221e-06  4.1740477e-07
   3220000   0.644               1850   3.0125329e-19  8.9056764e+08  3.9676221e-06  4.1902659e-07
   3230000   0.646               1850   3.0358172e-19  8.9056802e+08  3.9676221e-06  4.2064279e-07
   3240000   0.648               1850   3.0591077e-19  8.905684e+08   3.9676221e-06  4.2225331e-07
   3250000   0.65                1850   3.0824082e-19  8.9056877e+08  3.9676221e-06  4.2385838e-07
   3260000   0.652               1850   3.1057181e-19  8.9056915e+08  3.9676221e-06  4.2545798e-07
   3270000   0.654               1850   3.1290296e-19  8.9056953e+08  3.9676221e-06  4.2705175e-07
   3280000   0.656               1850   3.1523451e-19  8.9056991e+08  3.9676221e-06  4.2863988e-07
   3290000   0.658               1850   3.1756719e-19  8.9057029e+08  3.9676221e-06  4.3022286e-07
   3300000   0.66                1850   3.1989947e-19  8.9057067e+08  3.9676221e-06  4.3179979e-07
   3310000   0.662               1850   3.22232e-19    8.9057105e+08  3.9676221e-06  4.3337118e-07
   3320000   0.664               1850   3.2456452e-19  8.9057143e+08  3.9676221e-06  4.3493685e-07
   3330000   0.666               1850   3.2689674e-19  8.9057181e+08  3.9676221e-06  4.364967e-07 
   3340000   0.668               1850   3.2922874e-19  8.9057218e+08  3.9676221e-06  4.3805088e-07
   3350000   0.67                1850   3.3156064e-19  8.9057256e+08  3.9676221e-06  4.3959949e-07
   3360000   0.672               1850   3.3389193e-19  8.9057294e+08  3.9676221e-06  4.4114224e-07
   3370000   0.674               1850   3.3622263e-19  8.9057332e+08  3.9676221e-06  4.4267924e-07
   3380000   0.676               1850   3.3855235e-19  8.905737e+08   3.9676221e-06  4.4421029e-07
   3390000   0.678               1850   3.4088137e-19  8.9057408e+08  3.9676221e-06  4.457356e-07 
   3400000   0.68                1850   3.4320976e-19  8.9057446e+08  3.9676221e-06  4.472553e-07 
   3410000   0.682               1850   3.4553661e-19  8.9057483e+08  3.9676221e-06  4.4876889e-07
   3420000   0.684               1850   2.8727281e-19  8.9057157e+08  3.9676221e-06  4.0873204e-07
   3430000   0.686               1850   1.0511025e-19  8.9053929e+08  3.9676221e-06  2.4692348e-07
   3440000   0.688               1850   2.110722e-19   8.9051871e+08  3.9676221e-06  2.6583971e-07
   3450000   0.69                1850   8.2812724e-21  8.905187e+08   3.9676221e-06  1.899877e-08 
   3460000   0.692               1850   1.2175282e-21  8.905187e+08   3.9676221e-06  6.0067399e-09
   3470000   0.694               1850   3.1161902e-22  8.905187e+08   3.9676221e-06  4.771867e-09 
   3480000   0.696               1850   6.740878e-23   8.905187e+08   3.9676221e-06  2.8291077e-09
   3490000   0.698               1850   1.6310668e-23  8.905187e+08   3.9676221e-06  1.1070514e-09
   3500000   0.7                 1850   4.2529807e-24  8.905187e+08   3.9676221e-06  2.9930746e-10
   3510000   0.702               1850   7.1472122e-25  8.905187e+08   3.9676221e-06  1.0861979e-10
   3520000   0.704               1850   2.1091599e-25  8.905187e+08   3.9676221e-06  8.7975084e-11
   3530000   0.706               1850   7.8703257e-26  8.905187e+08   3.9676221e-06  3.6472148e-11
   3540000   0.708               1850   3.818237e-26   8.905187e+08   3.9676221e-06  2.5898346e-11
   3550000   0.71                1850   2.1734106e-26  8.905187e+08   3.9676221e-06  4.1142384e-11
   3560000   0.712               1850   1.8382753e-26  8.905187e+08   3.9676221e-06  3.5064551e-11
   3570000   0.714               1850   1.5091237e-26  8.905187e+08   3.9676221e-06  1.7677513e-11
   3580000   0.716               1850   2.3552716e-26  8.905187e+08   3.9676221e-06  4.4826713e-11
   3590000   0.718               1850   1.9001294e-26  8.905187e+08   3.9676221e-06  3.3396372e-11
   3600000   0.72                1850   1.5171682e-26  8.905187e+08   3.9676221e-06  2.1100134e-11
   3610000   0.722               1850   1.9949009e-26  8.905187e+08   3.9676221e-06  4.6383622e-11
   3620000   0.724               1850   1.7829552e-26  8.905187e+08   3.9676221e-06  2.2895691e-11
   3630000   0.726               1850   1.856166e-26   8.905187e+08   3.9676221e-06  3.4141376e-11
   3640000   0.728               1850   2.1662584e-26  8.905187e+08   3.9676221e-06  3.9526804e-11
   3650000   0.73                1850   1.731413e-26   8.905187e+08   3.9676221e-06  1.7689251e-11
   3660000   0.732               1850   2.2847618e-26  8.905187e+08   3.9676221e-06  5.2956472e-11
   3670000   0.734               1850   2.5113899e-26  8.905187e+08   3.9676221e-06  4.5402053e-11
   3680000   0.736               1850   1.9608103e-26  8.905187e+08   3.9676221e-06  1.9688075e-11
   3690000   0.738               1850   2.5276852e-26  8.905187e+08   3.9676221e-06  6.1096889e-11
   3700000   0.74                1850   2.2183031e-26  8.905187e+08   3.9676221e-06  3.9322452e-11
   3710000   0.742               1850   2.4732833e-26  8.905187e+08   3.9676221e-06  3.4183074e-11
   3720000   0.744               1850   3.3295897e-26  8.905187e+08   3.9676221e-06  7.0708234e-11
   3730000   0.746               1850   2.8925636e-26  8.905187e+08   3.9676221e-06  4.20864e-11  
   3740000   0.748               1850   2.6064191e-26  8.905187e+08   3.9676221e-06  3.1679793e-11
   3750000   0.75                1850   3.4428955e-26  8.905187e+08   3.9676221e-06  6.6700382e-11
   3760000   0.752               1850   2.6525496e-26  8.905187e+08   3.9676221e-06  3.8360068e-11
   3770000   0.754               1850   2.7074956e-26  8.905187e+08   3.9676221e-06  4.4780241e-11
   3780000   0.756               1850   4.1200691e-26  8.905187e+08   3.9676221e-06  8.4838461e-11
   3790000   0.758               1850   3.0791832e-26  8.905187e+08   3.9676221e-06  5.2744367e-11
   3800000   0.76                1850   2.5682663e-26  8.905187e+08   3.9676221e-06  3.4241372e-11
   3810000   0.762               1850   4.1068848e-26  8.905187e+08   3.9676221e-06  8.6739782e-11
   3820000   0.764               1850   3.3014896e-26  8.905187e+08   3.9676221e-06  6.4981401e-11
   3830000   0.766               1850   2.2360514e-26  8.905187e+08   3.9676221e-06  1.7888399e-11
   3840000   0.768               1850   3.1518376e-26  8.905187e+08   3.9676221e-06  7.024603e-11 
   3850000   0.77                1850   2.7755268e-26  8.905187e+08   3.9676221e-06  5.6372782e-11
   3860000   0.772               1850   2.5861663e-26  8.905187e+08   3.9676221e-06  1.7846167e-11
   3870000   0.774               1850   3.2619203e-26  8.905187e+08   3.9676221e-06  7.3789583e-11
   3880000   0.776               1850   2.6902785e-26  8.905187e+08   3.9676221e-06  6.336075e-11 
   3890000   0.778               1850   1.5614549e-26  8.905187e+08   3.9676221e-06  1.7556517e-11
   3900000   0.78                1850   2.8917082e-26  8.905187e+08   3.9676221e-06  6.3611587e-11
   3910000   0.782               1850   2.9592913e-26  8.905187e+08   3.9676221e-06  5.6881319e-11
   3920000   0.784               1850   1.8320465e-26  8.905187e+08   3.9676221e-06  1.7319583e-11
   3930000   0.786               1850   2.5459848e-26  8.905187e+08   3.9676221e-06  6.1091332e-11
   3940000   0.788               1850   2.3582614e-26  8.905187e+08   3.9676221e-06  5.3666321e-11
   3950000   0.79                1850   2.082002e-26   8.905187e+08   3.9676221e-06  1.825973e-11 
   3960000   0.792               1850   2.9416907e-26  8.905187e+08   3.9676221e-06  6.4824638e-11
   3970000   0.794               1850   2.7200426e-26  8.905187e+08   3.9676221e-06  4.9396537e-11
   3980000   0.796               1850   2.0939962e-26  8.905187e+08   3.9676221e-06  2.2803325e-11
   3990000   0.798               1850   3.1967169e-26  8.905187e+08   3.9676221e-06  7.7181378e-11
   4000000   0.8                 1850   2.7623632e-26  8.905187e+08   3.9676221e-06  6.332193e-11 
Loop time of 1018.02 on 1 procs for 4000000 steps with 1850 atoms

100.0% CPU use with 1 MPI tasks x 1 OpenMP threads

MPI task timing breakdown:
Section |  min time  |  avg time  |  max time  |%varavg| %total
---------------------------------------------------------------
Pair    | 776        | 776        | 776        |   0.0 | 76.23
Neigh   | 0.034985   | 0.034985   | 0.034985   |   0.0 |  0.00
Comm    | 0.082504   | 0.082504   | 0.082504   |   0.0 |  0.01
Output  | 0.33875    | 0.33875    | 0.33875    |   0.0 |  0.03
Modify  | 231.45     | 231.45     | 231.45     |   0.0 | 22.73
Other   |            | 10.12      |            |       |  0.99

Nlocal:           1850 ave        1850 max        1850 min
Histogram: 1 0 0 0 0 0 0 0 0 0
Nghost:              0 ave           0 max           0 min
Histogram: 1 0 0 0 0 0 0 0 0 0
Neighs:           7105 ave        7105 max        7105 min
Histogram: 1 0 0 0 0 0 0 0 0 0

Total # of neighbors = 7105
Ave neighs/atom = 3.8405405
Neighbor list builds = 58
Dangerous builds = 0
Generated 0 of 0 mixed pair_coeff terms from geometric mixing rule
Setting up Verlet run ...
  Unit style    : si
  Current step  : 4000000
  Time step     : 2e-07
Per MPI rank memory allocation (min/avg/max) = 13 | 13 | 13 Mbytes
   Step          Time         Atoms        KinEng     c_granularTemp c_solidVolume    c_maxSpeed  
   4000000   0.8                 1850   2.7623632e-26  8.905187e+08   3.9676221e-06  6.332193e-11 
Loop time of 2.09e-07 on 1 procs for 0 steps with 1850 atoms

478.5% CPU use with 1 MPI tasks x 1 OpenMP threads

MPI task timing breakdown:
Section |  min time  |  avg time  |  max time  |%varavg| %total
---------------------------------------------------------------
Pair    | 0          | 0          | 0          |   0.0 |  0.00
Neigh   | 0          | 0          | 0          |   0.0 |  0.00
Comm    | 0          | 0          | 0          |   0.0 |  0.00
Output  | 0          | 0          | 0          |   0.0 |  0.00
Modify  | 0          | 0          | 0          |   0.0 |  0.00
Other   |            | 2.09e-07   |            |       |100.00

Nlocal:           1850 ave        1850 max        1850 min
Histogram: 1 0 0 0 0 0 0 0 0 0
Nghost:              0 ave           0 max           0 min
Histogram: 1 0 0 0 0 0 0 0 0 0
Neighs:           7105 ave        7105 max        7105 min
Histogram: 1 0 0 0 0 0 0 0 0 0

Total # of neighbors = 7105
Ave neighs/atom = 3.8405405
Neighbor list builds = 0
Dangerous builds = 0
Generated 0 of 0 mixed pair_coeff terms from geometric mixing rule
Neighbor list info ...
  update: every = 1 steps, delay = 0 steps, check = yes
  max neighbors/atom: 2000, page size: 100000
  master list distance cutoff = 0.00185
  ghost atom cutoff = 0.00185
  binsize = 0.000925, bins = 18 18 76
  3 neighbor lists, perpetual/occasional/extra = 1 2 0
  (1) pair granular, perpetual
      attributes: half, newton off, size, history
      pair build: half/size/bin/atomonly/newtoff
      stencil: full/bin/3d
      bin: standard
  (2) compute property/local, occasional
      attributes: half, newton off, size
      pair build: half/size/bin/atomonly/newtoff
      stencil: full/bin/3d
      bin: standard
  (3) compute pair/local, occasional
      attributes: half, newton off, size
      pair build: half/size/bin/atomonly/newtoff
      stencil: full/bin/3d
      bin: standard
Setting up Verlet run ...
  Unit style    : si
  Current step  : 4000000
  Time step     : 2e-07
Per MPI rank memory allocation (min/avg/max) = 14.26 | 14.26 | 14.26 Mbytes
   Step          Time         Atoms        KinEng     c_granularTemp c_solidVolume    c_maxSpeed  
   4000000   0.8                 1850   2.7623632e-26  8.905187e+08   3.9676221e-06  6.332193e-11 
   4000001   0.8000002           1850   2.7621686e-26  8.905187e+08   3.9676221e-06  6.3317292e-11
Loop time of 0.00625971 on 1 procs for 1 steps with 1850 atoms

100.0% CPU use with 1 MPI tasks x 1 OpenMP threads

MPI task timing breakdown:
Section |  min time  |  avg time  |  max time  |%varavg| %total
---------------------------------------------------------------
Pair    | 0.00020668 | 0.00020668 | 0.00020668 |   0.0 |  3.30
Neigh   | 0          | 0          | 0          |   0.0 |  0.00
Comm    | 1.16e-07   | 1.16e-07   | 1.16e-07   |   0.0 |  0.00
Output  | 0.0059886  | 0.0059886  | 0.0059886  |   0.0 | 95.67
Modify  | 6.035e-05  | 6.035e-05  | 6.035e-05  |   0.0 |  0.96
Other   |            | 3.931e-06  |            |       |  0.06

Nlocal:           1850 ave        1850 max        1850 min
Histogram: 1 0 0 0 0 0 0 0 0 0
Nghost:              0 ave           0 max           0 min
Histogram: 1 0 0 0 0 0 0 0 0 0
Neighs:           7105 ave        7105 max        7105 min
Histogram: 1 0 0 0 0 0 0 0 0 0

Total # of neighbors = 7105
Ave neighs/atom = 3.8405405
Neighbor list builds = 0
Dangerous builds = 0
System init for write_data ...
Generated 0 of 0 mixed pair_coeff terms from geometric mixing rule
System init for write_restart ...
Generated 0 of 0 mixed pair_coeff terms from geometric mixing rule
seed Ntarget Nfinal dp_m density_kgm3 Dtube_m D_over_dp solidVolume_m3 bedHeight_m bedVolume_m3 packingFraction porosity minParticleBottom_m kineticEnergy_J maxSpeed_ms
40213 1850 1850 0.0016 1600 0.016 10 3.96762208197362e-06 0.0363782500766138 7.3142811642331e-06 0.542448668964946 0.457551331035054 -1.17057259426897e-06 2.76216860833173e-26 6.33172918964925e-11
Packing generation completed: co2_13x_seed_40213
ACCEPT only if Nfinal=Ntarget, the bed is settled, and overlap/geometry checks pass.
For the 20-packing pilot, change only seed_realization.
CO2 diffusion and particle LDF adsorption are added later in the pore-network solver, not here.
Total wall time: 0:22:44
