Authorization required, but no authorization protocol specified

Authorization required, but no authorization protocol specified

Authorization required, but no authorization protocol specified

Authorization required, but no authorization protocol specified

LAMMPS (22 Jul 2025 - Update 5)
OMP_NUM_THREADS environment is not set. Defaulting to 1 thread.
  using 1 OpenMP thread(s) per MPI task
OMP_NUM_THREADS environment is not set. Defaulting to 1 thread.
  using 1 OpenMP thread(s) per MPI task
CO2 sorbent = commercial zeolite 13X (mechanical packing only)
Realization seed = 98251
Target particle count = 1850
Bead diameter [m] = 0.0016
Tube diameter [m] = 0.016
Tube-to-particle diameter ratio = 10
Target solid volume [m^3] = 3.96762208197367e-06
Created orthogonal box = (-0.008 -0.008 0) to (0.008 0.008 0.07)
  1 by 1 by 1 MPI processor grid
Generated 0 of 0 mixed pair_coeff terms from geometric mixing rule
Particle insertion: 303 every 319275 steps, 1850 by step 1915651
Neighbor list info ...
  update: every = 1 steps, delay = 0 steps, check = yes
  max neighbors/atom: 2000, page size: 100000
  master list distance cutoff = 0.00185
  ghost atom cutoff = 0.00185
  binsize = 0.000925, bins = 18 18 76
  1 neighbor lists, perpetual/occasional/extra = 1 0 0
  (1) pair granular, perpetual
      attributes: half, newton off, size, history
      pair build: half/size/bin/atomonly/newtoff
      stencil: full/bin/3d
      bin: standard
Setting up Verlet run ...
  Unit style    : si
  Current step  : 0
  Time step     : 2e-07
Per MPI rank memory allocation (min/avg/max) = 7.438 | 7.438 | 7.438 Mbytes
   Step          Time         Atoms        KinEng     c_granularTemp c_solidVolume    c_maxSpeed  
         0   0                      0  -0              0              0             -1e+20        
WARNING: Fewer insertions than requested (src/GRANULAR/fix_pour.cpp:691)
     10000   0.002                259  -0              5.5044069e+15  5.5546709e-07  0.6046079    
     20000   0.004                259  -0              5.4003685e+15  5.5546709e-07  0.58943518   
     30000   0.006                259  -0              5.3086757e+15  5.5546709e-07  0.57512152   
     40000   0.008                259  -0              5.2279192e+15  5.5546709e-07  0.56161827   
     50000   0.01                 259  -0              5.1568477e+15  5.5546709e-07  0.54887955   
     60000   0.012                259  -0              5.0943503e+15  5.5546709e-07  0.53686209   
     70000   0.014                259  -0              5.0394409e+15  5.5546709e-07  0.52552503   
     80000   0.016                259  -0              4.9912442e+15  5.5546709e-07  0.51482986   
     90000   0.018                259  -0              4.9489838e+15  5.5546709e-07  0.50474023   
    100000   0.02                 259  -0              4.9119706e+15  5.5546709e-07  0.49522186   
    110000   0.022                259  -0              4.8795933e+15  5.5546709e-07  0.4862424    
    120000   0.024                259  -0              4.8513101e+15  5.5546709e-07  0.47777135   
    130000   0.026                259  -0              4.8266404e+15  5.5546709e-07  0.46977992   
    140000   0.028                259  -0              4.805158e+15   5.5546709e-07  0.46224095   
    150000   0.03                 259  -0              4.7864857e+15  5.5546709e-07  0.45512882   
    160000   0.032                259  -0              4.7702889e+15  5.5546709e-07  0.44841937   
    170000   0.034                259  -0              4.7562713e+15  5.5546709e-07  0.4420898    
    180000   0.036                259  -0              4.7441708e+15  5.5546709e-07  0.4361186    
    190000   0.038                259  -0              4.7337552e+15  5.5546709e-07  0.43048548   
    200000   0.04                 259  -0              4.724819e+15   5.5546709e-07  0.4251713    
    210000   0.042                259  -0              4.7171807e+15  5.5546709e-07  0.420158     
    220000   0.044                259  -0              4.7106795e+15  5.5546709e-07  0.41542855   
    230000   0.046                259  -0              4.7051736e+15  5.5546709e-07  0.41096687   
    240000   0.048                259  -0              4.7005376e+15  5.5546709e-07  0.4067578    
    250000   0.05                 259  -0              4.6966609e+15  5.5546709e-07  0.40278704   
    260000   0.052                259  -0              4.6934458e+15  5.5546709e-07  0.3990411    
    270000   0.054                259  -0              4.6908061e+15  5.5546709e-07  0.39550725   
    280000   0.056                259  -0              4.6886661e+15  5.5546709e-07  0.39217348   
    290000   0.058                259  -0              4.6869589e+15  5.5546709e-07  0.38902847   
    300000   0.06                 259  -0              4.6856256e+15  5.5546709e-07  0.38606152   
    310000   0.062                259  -0              4.6846147e+15  5.5546709e-07  0.38326255   
WARNING: Fewer insertions than requested (src/GRANULAR/fix_pour.cpp:691)
    320000   0.064                443  -0              4.9463189e+15  9.5008464e-07  0.62197704   
    330000   0.066                443  -0              4.8759809e+15  9.5008464e-07  0.60582091   
    340000   0.068                443  -0              4.8242023e+15  9.5008464e-07  0.59057951   
    350000   0.07                 443  -0              4.7874841e+15  9.5008464e-07  0.57620106   
    360000   0.072                443  -0              4.7519237e+15  9.5008464e-07  0.55152575   
    370000   0.074                443  -0              4.7251136e+15  9.5008464e-07  0.53935846   
    380000   0.076                443  -0              4.7045568e+15  9.5008464e-07  0.52788006   
    390000   0.078                443  -0              4.6857361e+15  9.5008464e-07  0.49977336   
    400000   0.08                 443  -0              4.6720642e+15  9.5008464e-07  0.49053621   
    410000   0.082                443  -0              4.6605297e+15  9.5008464e-07  0.48067922   
    420000   0.084                443  -0              4.6508007e+15  9.5008464e-07  0.46742415   
    430000   0.086                443  -0              4.6301204e+15  9.5008464e-07  0.44311025   
    440000   0.088                443  -0              4.6020271e+15  9.5008464e-07  0.43708127   
    450000   0.09                 443  -0              4.5644658e+15  9.5008464e-07  0.43139365   
    460000   0.092                443  -0              4.4939901e+15  9.5008464e-07  0.42602805   
    470000   0.094                443  -0              4.472728e+15   9.5008464e-07  0.42096624   
    480000   0.096                443  -0              4.4307554e+15  9.5008464e-07  0.41619102   
    490000   0.098                443  -0              4.397666e+15   9.5008464e-07  0.41168617   
    500000   0.1                  443  -0              4.3487899e+15  9.5008464e-07  0.40743638   
    510000   0.102                443  -0              4.2972519e+15  9.5008464e-07  0.4034272    
    520000   0.104                443  -0              4.2478915e+15  9.5008464e-07  0.39964502   
    530000   0.106                443  -0              4.2115828e+15  9.5008464e-07  0.39607698   
    540000   0.108                443  -0              4.1576329e+15  9.5008464e-07  0.39271095   
    550000   0.11                 443  -0              4.0844528e+15  9.5008464e-07  0.3895355    
    560000   0.112                443  -0              4.0665485e+15  9.5008464e-07  0.38653985   
    570000   0.114                443  -0              4.0451689e+15  9.5008464e-07  0.3837138    
    580000   0.116                443  -0              4.0156708e+15  9.5008464e-07  0.38104776   
    590000   0.118                443  -0              4.0011155e+15  9.5008464e-07  0.37853266   
    600000   0.12                 443  -0              3.9649573e+15  9.5008464e-07  0.37615997   
    610000   0.122                443  -0              3.9171397e+15  9.5008464e-07  0.37392161   
    620000   0.124                443  -0              3.8718139e+15  9.5008464e-07  0.37111145   
    630000   0.126                443  -0              3.8572868e+15  9.5008464e-07  0.36915773   
WARNING: Fewer insertions than requested (src/GRANULAR/fix_pour.cpp:691)
    640000   0.128                668  -0              4.3480343e+15  1.4326333e-06  0.62380653   
    650000   0.13                 668  -0              4.2552048e+15  1.4326333e-06  0.60754681   
    660000   0.132                668  -0              4.1751646e+15  1.4326333e-06  0.5872811    
    670000   0.134                668  -0              4.1047621e+15  1.4326333e-06  0.56647865   
    680000   0.136                668  -0              4.0276877e+15  1.4326333e-06  0.55211565   
    690000   0.138                668  -0              3.971975e+15   1.4326333e-06  0.53991496   
    700000   0.14                 668  -0              3.9199775e+15  1.4326333e-06  0.52086786   
    710000   0.142                668  -0              3.867942e+15   1.4326333e-06  0.50015163   
    720000   0.144                668  -0              3.8467809e+15  1.4326333e-06  0.49089306   
    730000   0.146                668  -0              3.8137355e+15  1.4326333e-06  0.48215869   
    740000   0.148                668  -0              3.777283e+15   1.4326333e-06  0.47391886   
    750000   0.15                 668  -0              3.68068e+15    1.4326333e-06  0.46614555   
    760000   0.152                668  -0              3.5942499e+15  1.4326333e-06  0.45881235   
    770000   0.154                668  -0              3.5006967e+15  1.4326333e-06  0.45189434   
    780000   0.156                668  -0              3.3849886e+15  1.4326333e-06  0.44536803   
    790000   0.158                668  -0              3.3024081e+15  1.4326333e-06  0.43921122   
    800000   0.16                 668  -0              3.2160993e+15  1.4326333e-06  0.433403     
    810000   0.162                668  -0              3.1236269e+15  1.4326333e-06  0.42792363   
    820000   0.164                668  -0              3.0597285e+15  1.4326333e-06  0.4227545    
    830000   0.166                668  -0              3.0145318e+15  1.4326333e-06  0.41787803   
    840000   0.168                668  -0              2.9609885e+15  1.4326333e-06  0.41327767   
    850000   0.17                 668  -0              2.905316e+15   1.4326333e-06  0.40893776   
    860000   0.172                668  -0              2.8204569e+15  1.4326333e-06  0.40484358   
    870000   0.174                668  -0              2.7708058e+15  1.4326333e-06  0.4009812    
    880000   0.176                668  -0              2.7159214e+15  1.4326333e-06  0.39733751   
    890000   0.178                668  -0              2.658745e+15   1.4326333e-06  0.39390011   
    900000   0.18                 668  -0              2.5762236e+15  1.4326333e-06  0.39065734   
    910000   0.182                668  -0              2.5122192e+15  1.4326333e-06  0.38759816   
    920000   0.184                668  -0              2.4697738e+15  1.4326333e-06  0.3847122    
    930000   0.186                668  -0              2.4173942e+15  1.4326333e-06  0.38198963   
    940000   0.188                668  -0              2.3777464e+15  1.4326333e-06  0.37942121   
    950000   0.19                 668  -0              2.3473158e+15  1.4326333e-06  0.3769982    
WARNING: Fewer insertions than requested (src/GRANULAR/fix_pour.cpp:691)
    960000   0.192                870  -0              2.9625261e+15  1.8658547e-06  0.6121032    
    970000   0.194                870  -0              2.9105004e+15  1.8658547e-06  0.59650611   
    980000   0.196                870  -0              2.8760854e+15  1.8658547e-06  0.5817921    
    990000   0.198                870  -0              2.8338976e+15  1.8658547e-06  0.56526131   
   1000000   0.2                  870  -0              2.7946559e+15  1.8658547e-06  0.55231633   
   1010000   0.202                870  -0              2.7271218e+15  1.8658547e-06  0.54010428   
   1020000   0.204                870  -0              2.6759356e+15  1.8658547e-06  0.52858365   
   1030000   0.206                870  -0              2.6008624e+15  1.8658547e-06  0.50593804   
   1040000   0.208                870  -0              2.5578762e+15  1.8658547e-06  0.49634573   
   1050000   0.21                 870  -0              2.5096152e+15  1.8658547e-06  0.48729699   
   1060000   0.212                870  -0              2.4713659e+15  1.8658547e-06  0.47876101   
   1070000   0.214                870  -0              2.4076794e+15  1.8658547e-06  0.47070873   
   1080000   0.216                870  -0              2.3584277e+15  1.8658547e-06  0.46311275   
   1090000   0.218                870  -0              2.3250557e+15  1.8658547e-06  0.45594719   
   1100000   0.22                 870  -0              2.2980051e+15  1.8658547e-06  0.44918768   
   1110000   0.222                870  -0              2.2618475e+15  1.8658547e-06  0.44281119   
   1120000   0.224                870  -0              2.2089575e+15  1.8658547e-06  0.43679602   
   1130000   0.226                870  -0              2.1552557e+15  1.8658547e-06  0.43112168   
   1140000   0.228                870  -0              2.111718e+15   1.8658547e-06  0.42576887   
   1150000   0.23                 870  -0              2.0617449e+15  1.8658547e-06  0.42071936   
   1160000   0.232                870  -0              2.0152188e+15  1.8658547e-06  0.41595595   
   1170000   0.234                870  -0              1.9552922e+15  1.8658547e-06  0.41146243   
   1180000   0.236                870  -0              1.9164944e+15  1.8658547e-06  0.40722351   
   1190000   0.238                870  -0              1.8729594e+15  1.8658547e-06  0.40322476   
   1200000   0.24                 870  -0              1.8400029e+15  1.8658547e-06  0.39945256   
   1210000   0.242                870  -0              1.8128189e+15  1.8658547e-06  0.39589407   
   1220000   0.244                870  -0              1.8006326e+15  1.8658547e-06  0.39253719   
   1230000   0.246                870  -0              1.7842255e+15  1.8658547e-06  0.38937048   
   1240000   0.248                870  -0              1.760811e+15   1.8658547e-06  0.36769987   
   1250000   0.25                 870  -0              1.742804e+15   1.8658547e-06  0.3659306    
   1260000   0.252                870  -0              1.71666e+15    1.8658547e-06  0.36426252   
   1270000   0.254                870  -0              1.6754411e+15  1.8658547e-06  0.36268979   
WARNING: Fewer insertions than requested (src/GRANULAR/fix_pour.cpp:691)
   1280000   0.256               1071  -0              2.296555e+15   2.2969315e-06  0.61680403   
   1290000   0.258               1071  -0              2.2292176e+15  2.2969315e-06  0.60094078   
   1300000   0.26                1071  -0              2.1594509e+15  2.2969315e-06  0.57445529   
   1310000   0.262               1071  -0              2.090953e+15   2.2969315e-06  0.56098976   
   1320000   0.264               1071  -0              2.0495264e+15  2.2969315e-06  0.54828663   
   1330000   0.266               1071  -0              1.994974e+15   2.2969315e-06  0.53630273   
   1340000   0.268               1071  -0              1.9495865e+15  2.2969315e-06  0.52002604   
   1350000   0.27                1071  -0              1.9026457e+15  2.2969315e-06  0.50964221   
   1360000   0.272               1071  -0              1.8571422e+15  2.2969315e-06  0.4998463    
   1370000   0.274               1071  -0              1.7952446e+15  2.2969315e-06  0.49060502   
   1380000   0.276               1071  -0              1.7506177e+15  2.2969315e-06  0.48188696   
   1390000   0.278               1071  -0              1.7266983e+15  2.2969315e-06  0.47366251   
   1400000   0.28                1071  -0              1.6733311e+15  2.2969315e-06  0.46590371   
   1410000   0.282               1071  -0              1.6371492e+15  2.2969315e-06  0.45858421   
   1420000   0.284               1071  -0              1.6042528e+15  2.2969315e-06  0.45167912   
   1430000   0.286               1071  -0              1.57106e+15    2.2969315e-06  0.41849743   
   1440000   0.288               1071  -0              1.5345655e+15  2.2969315e-06  0.41386195   
   1450000   0.29                1071  -0              1.485406e+15   2.2969315e-06  0.40948893   
   1460000   0.292               1071  -0              1.4546936e+15  2.2969315e-06  0.4053635    
   1470000   0.294               1071  -0              1.4347137e+15  2.2969315e-06  0.40147166   
   1480000   0.296               1071  -0              1.4129408e+15  2.2969315e-06  0.39780016   
   1490000   0.298               1071  -0              1.4003924e+15  2.2969315e-06  0.39433655   
   1500000   0.3                 1071  -0              1.3769967e+15  2.2969315e-06  0.39106904   
   1510000   0.302               1071  -0              1.3594863e+15  2.2969315e-06  0.38798653   
   1520000   0.304               1071  -0              1.3222925e+15  2.2969315e-06  0.38507856   
   1530000   0.306               1071  -0              1.285085e+15   2.2969315e-06  0.38233523   
   1540000   0.308               1071  -0              1.256721e+15   2.2969315e-06  0.37974722   
   1550000   0.31                1071  -0              1.2170886e+15  2.2969315e-06  0.37730575   
   1560000   0.312               1071  -0              1.1810136e+15  2.2969315e-06  0.37500251   
   1570000   0.314               1071  -0              1.1362249e+15  2.2969315e-06  0.37282967   
   1580000   0.316               1071  -0              1.0963135e+15  2.2969315e-06  0.35872519   
   1590000   0.318               1071  -0              1.0422569e+15  2.2969315e-06  0.35747396   
WARNING: Fewer insertions than requested (src/GRANULAR/fix_pour.cpp:691)
   1600000   0.32                1288  -0              1.7140444e+15  2.7623228e-06  0.61608607   
   1610000   0.322               1288  -0              1.6663787e+15  2.7623228e-06  0.60026348   
   1620000   0.324               1288  -0              1.6320042e+15  2.7623228e-06  0.58533673   
   1630000   0.326               1288  -0              1.5942467e+15  2.7623228e-06  0.57125511   
   1640000   0.328               1288  -0              1.5541172e+15  2.7623228e-06  0.55797078   
   1650000   0.33                1288  -0              1.5056273e+15  2.7623228e-06  0.54543858   
   1660000   0.332               1288  -0              1.4553962e+15  2.7623228e-06  0.53361593   
   1670000   0.334               1288  -0              1.4222968e+15  2.7623228e-06  0.52246267   
   1680000   0.336               1288  -0              1.3661876e+15  2.7623228e-06  0.50138309   
   1690000   0.338               1288  -0              1.3354201e+15  2.7623228e-06  0.49205479   
   1700000   0.34                1288  -0              1.2966221e+15  2.7623228e-06  0.48325465   
   1710000   0.342               1288  -0              1.2581667e+15  2.7623228e-06  0.47495276   
   1720000   0.344               1288  -0              1.2307428e+15  2.7623228e-06  0.46712091   
   1730000   0.346               1288  -0              1.2101866e+15  2.7623228e-06  0.45973249   
   1740000   0.348               1288  -0              1.1901186e+15  2.7623228e-06  0.45276239   
   1750000   0.35                1288  -0              1.1779496e+15  2.7623228e-06  0.44618693   
   1760000   0.352               1288  -0              1.169182e+15   2.7623228e-06  0.43998375   
   1770000   0.354               1288  -0              1.1619924e+15  2.7623228e-06  0.43413179   
   1780000   0.356               1288  -0              1.1443741e+15  2.7623228e-06  0.42861117   
   1790000   0.358               1288  -0              1.1211585e+15  2.7623228e-06  0.41008992   
   1800000   0.36                1288  -0              1.0932949e+15  2.7623228e-06  0.40593044   
   1810000   0.362               1288  -0              1.0594583e+15  2.7623228e-06  0.39788984   
   1820000   0.364               1288  -0              1.0225515e+15  2.7623228e-06  0.39441723   
   1830000   0.366               1288  -0              9.937342e+14   2.7623228e-06  0.39114162   
   1840000   0.368               1288  -0              9.6246775e+14  2.7623228e-06  0.38245248   
   1850000   0.37                1288  -0              9.3362489e+14  2.7623228e-06  0.37985665   
   1860000   0.372               1288  -0              9.0837857e+14  2.7623228e-06  0.36279956   
   1870000   0.374               1288  -0              8.8811261e+14  2.7623228e-06  0.36130922   
   1880000   0.376               1288  -0              8.6670477e+14  2.7623228e-06  0.35990414   
   1890000   0.378               1288  -0              8.4378834e+14  2.7623228e-06  0.35857938   
   1900000   0.38                1288  -0              8.1287469e+14  2.7623228e-06  0.35652803   
   1910000   0.382               1288  -0              7.6619948e+14  2.7623228e-06  0.35540121   
WARNING: Fewer insertions than requested (src/GRANULAR/fix_pour.cpp:691)
   1920000   0.384               1545  -0              1.559718e+15   3.3135006e-06  0.61697562   
   1930000   0.386               1545  -0              1.4997722e+15  3.3135006e-06  0.60110266   
   1940000   0.388               1545  -0              1.4469465e+15  3.3135006e-06  0.5861284    
   1950000   0.39                1545  -0              1.3859145e+15  3.3135006e-06  0.57092629   
   1960000   0.392               1545  -0              1.3328388e+15  3.3135006e-06  0.55766057   
   1970000   0.394               1545  -0              1.2598459e+15  3.3135006e-06  0.54514593   
   1980000   0.396               1545  -0              1.2229351e+15  3.3135006e-06  0.53333986   
   1990000   0.398               1545  -0              1.2021971e+15  3.3135006e-06  0.52220222   
   2000000   0.4                 1545  -0              1.1837277e+15  3.3135006e-06  0.51169518   
   2010000   0.402               1545  -0              1.1649908e+15  3.3135006e-06  0.50178304   
   2020000   0.404               1545  -0              1.1558954e+15  3.3135006e-06  0.48786139   
   2030000   0.406               1545  -0              1.1479906e+15  3.3135006e-06  0.47929868   
   2040000   0.408               1545  -0              1.1353413e+15  3.3135006e-06  0.47122077   
   2050000   0.41                1545  -0              1.1264798e+15  3.3135006e-06  0.46360022   
   2060000   0.412               1545  -0              1.096243e+15   3.3135006e-06  0.45641113   
   2070000   0.414               1545  -0              1.0572482e+15  3.3135006e-06  0.41162686   
   2080000   0.416               1545  -0              9.9839838e+14  3.3135006e-06  0.40010777   
   2090000   0.418               1545  -0              9.6181627e+14  3.3135006e-06  0.39650939   
   2100000   0.42                1545  -0              9.1628278e+14  3.3135006e-06  0.38544213   
   2110000   0.422               1545  -0              8.8301161e+14  3.3135006e-06  0.38267823   
   2120000   0.424               1545  -0              8.4809751e+14  3.3135006e-06  0.38007082   
   2130000   0.426               1545  -0              8.1591899e+14  3.3135006e-06  0.37761104   
   2140000   0.428               1545  -0              7.8022036e+14  3.3135006e-06  0.37529053   
   2150000   0.43                1545  -0              7.3803046e+14  3.3135006e-06  0.3731014    
   2160000   0.432               1545  -0              6.9475957e+14  3.3135006e-06  0.36259832   
   2170000   0.434               1545  -0              6.4928568e+14  3.3135006e-06  0.36112781   
   2180000   0.436               1545  -0              6.0614595e+14  3.3135006e-06  0.35828448   
   2190000   0.438               1545  -0              5.7272191e+14  3.3135006e-06  0.35431008   
   2200000   0.44                1545  -0              5.302442e+14   3.3135006e-06  0.35057097   
   2210000   0.442               1545  -0              4.8448092e+14  3.3135006e-06  0.34907023   
   2220000   0.444               1545  -0              4.5754492e+14  3.3135006e-06  0.34836565   
   2230000   0.446               1545  -0              4.3730037e+14  3.3135006e-06  0.34504903   
WARNING: Fewer insertions than requested (src/GRANULAR/fix_pour.cpp:691)
   2240000   0.448               1725  -0              9.4718815e+14  3.6995395e-06  0.61421785   
   2250000   0.45                1725  -0              9.1635569e+14  3.6995395e-06  0.59850103   
   2260000   0.452               1725  -0              8.9181132e+14  3.6995395e-06  0.58367407   
   2270000   0.454               1725  -0              8.6938506e+14  3.6995395e-06  0.55132104   
   2280000   0.456               1725  -0              8.5010972e+14  3.6995395e-06  0.53916534   
   2290000   0.458               1725  -0              8.3078599e+14  3.6995395e-06  0.52769787   
   2300000   0.46                1725  -0              8.1501862e+14  3.6995395e-06  0.51687968   
   2310000   0.462               1725  -0              7.9828961e+14  3.6995395e-06  0.50667399   
   2320000   0.464               1725  -0              7.6979512e+14  3.6995395e-06  0.49136965   
   2330000   0.466               1725  -0              7.2986707e+14  3.6995395e-06  0.4826083    
   2340000   0.468               1725  -0              6.8852385e+14  3.6995395e-06  0.47208357   
   2350000   0.47                1725  -0              6.353302e+14   3.6995395e-06  0.46441417   
   2360000   0.472               1725  -0              6.0168635e+14  3.6995395e-06  0.457179     
   2370000   0.474               1725  -0              5.6362112e+14  3.6995395e-06  0.41031828   
   2380000   0.476               1725  -0              5.2033385e+14  3.6995395e-06  0.40614593   
   2390000   0.478               1725  -0              5.0068964e+14  3.6995395e-06  0.38716814   
   2400000   0.48                1725  -0              4.7654647e+14  3.6995395e-06  0.38430652   
   2410000   0.482               1725  -0              4.3731904e+14  3.6995395e-06  0.37474611   
   2420000   0.484               1725  -0              4.155523e+14   3.6995395e-06  0.3725878    
   2430000   0.486               1725  -0              3.9192515e+14  3.6995395e-06  0.3705517    
   2440000   0.488               1725  -0              3.6678846e+14  3.6995395e-06  0.3658223    
   2450000   0.49                1725  -0              3.5056666e+14  3.6995395e-06  0.36373415   
   2460000   0.492               1725  -0              3.1793948e+14  3.6995395e-06  0.35532595   
   2470000   0.494               1725  -0              2.9284283e+14  3.6995395e-06  0.35139807   
   2480000   0.496               1725  -0              2.7908952e+14  3.6995395e-06  0.34993931   
   2490000   0.498               1725  -0              2.7315808e+14  3.6995395e-06  0.34918553   
   2500000   0.5                 1725  -0              2.6139041e+14  3.6995395e-06  0.34579233   
   2510000   0.502               1725  -0              2.5644004e+14  3.6995395e-06  0.34298038   
   2520000   0.504               1725  -0              2.5180858e+14  3.6995395e-06  0.3426206    
   2530000   0.506               1725  -0              2.4458594e+14  3.6995395e-06  0.3384905    
   2540000   0.508               1725  -0              2.3821268e+14  3.6995395e-06  0.33726047   
   2550000   0.51                1725  -0              2.2995636e+14  3.6995395e-06  0.33349558   
   2560000   0.512               1850  -0              5.9200068e+14  3.9676221e-06  0.61438685   
   2570000   0.514               1850  -0              5.785262e+14   3.9676221e-06  0.59866047   
   2580000   0.516               1850  -0              5.6289351e+14  3.9676221e-06  0.58382448   
   2590000   0.518               1850  -0              5.5037792e+14  3.9676221e-06  0.56861981   
   2600000   0.52                1850  -0              5.3753958e+14  3.9676221e-06  0.55548468   
   2610000   0.522               1850  -0              5.1752835e+14  3.9676221e-06  0.50810085   
   2620000   0.524               1850  -0              4.9327634e+14  3.9676221e-06  0.49839221   
   2630000   0.526               1850  -0              4.5767726e+14  3.9676221e-06  0.45636196   
   2640000   0.528               1850  -0              4.3192271e+14  3.9676221e-06  0.44953843   
   2650000   0.53                1850  -0              4.1444998e+14  3.9676221e-06  0.43958006   
   2660000   0.532               1850  -0              3.9709357e+14  3.9676221e-06  0.43310342   
   2670000   0.534               1850  -0              3.5973169e+14  3.9676221e-06  0.42482506   
   2680000   0.536               1850  -0              3.3927415e+14  3.9676221e-06  0.39397842   
   2690000   0.538               1850  -0              3.1091132e+14  3.9676221e-06  0.3907266    
   2700000   0.54                1850  -0              2.8577349e+14  3.9676221e-06  0.38765934   
   2710000   0.542               1850  -0              2.5350847e+14  3.9676221e-06  0.38065824   
   2720000   0.544               1850  -0              2.3704219e+14  3.9676221e-06  0.3781652    
   2730000   0.546               1850  -0              2.1546379e+14  3.9676221e-06  0.36637645   
   2740000   0.548               1850  -0              1.9356849e+14  3.9676221e-06  0.36091529   
   2750000   0.55                1850  -0              1.7931584e+14  3.9676221e-06  0.35654998   
   2760000   0.552               1850  -0              1.6509152e+14  3.9676221e-06  0.3526554    
   2770000   0.554               1850  -0              1.5931248e+14  3.9676221e-06  0.35174783   
   2780000   0.556               1850  -0              1.5004361e+14  3.9676221e-06  0.34522048   
   2790000   0.558               1850  -0              1.442556e+14   3.9676221e-06  0.3442246    
   2800000   0.56                1850  -0              1.4056039e+14  3.9676221e-06  0.33929421   
   2810000   0.562               1850  -0              1.3590271e+14  3.9676221e-06  0.33754602   
   2820000   0.564               1850  -0              1.2958603e+14  3.9676221e-06  0.33249206   
   2830000   0.566               1850  -0              1.2708066e+14  3.9676221e-06  0.33272612   
   2840000   0.568               1850  -0              1.2178438e+14  3.9676221e-06  0.33035161   
   2850000   0.57                1850  -0              1.1770652e+14  3.9676221e-06  0.32869252   
   2860000   0.572               1850  -0              1.1255044e+14  3.9676221e-06  0.3291417    
   2870000   0.574               1850  -0              1.1012487e+14  3.9676221e-06  0.32956544   
   2880000   0.576               1850  -0              1.0217147e+14  3.9676221e-06  0.32391881   
   2890000   0.578               1850  -0              9.8187837e+13  3.9676221e-06  0.32316876   
   2900000   0.58                1850  -0              9.3381378e+13  3.9676221e-06  0.32247962   
   2910000   0.582               1850  -0              8.6309741e+13  3.9676221e-06  0.3222883    
   2920000   0.584               1850  -0              8.0051914e+13  3.9676221e-06  0.32310008   
   2930000   0.586               1850  -0              7.5794242e+13  3.9676221e-06  0.31871249   
   2940000   0.588               1850  -0              7.2456285e+13  3.9676221e-06  0.31972672   
   2950000   0.59                1850  -0              7.0079401e+13  3.9676221e-06  0.31694821   
   2960000   0.592               1850  -0              6.6808571e+13  3.9676221e-06  0.3178175    
   2970000   0.594               1850  -0              6.2620184e+13  3.9676221e-06  0.3188824    
   2980000   0.596               1850  -0              5.6870816e+13  3.9676221e-06  0.31906013   
   2990000   0.598               1850  -0              5.1402838e+13  3.9676221e-06  0.31745313   
   3000000   0.6                 1850  -0              4.6580328e+13  3.9676221e-06  0.31718323   
Loop time of 350.664 on 1 procs for 3000000 steps with 1850 atoms

100.0% CPU use with 1 MPI tasks x 1 OpenMP threads

MPI task timing breakdown:
Section |  min time  |  avg time  |  max time  |%varavg| %total
---------------------------------------------------------------
Pair    | 251.47     | 251.47     | 251.47     |   0.0 | 71.71
Neigh   | 0.58576    | 0.58576    | 0.58576    |   0.0 |  0.17
Comm    | 0.065414   | 0.065414   | 0.065414   |   0.0 |  0.02
Output  | 0.12459    | 0.12459    | 0.12459    |   0.0 |  0.04
Modify  | 94.261     | 94.261     | 94.261     |   0.0 | 26.88
Other   |            | 4.161      |            |       |  1.19

Nlocal:           1850 ave        1850 max        1850 min
Histogram: 1 0 0 0 0 0 0 0 0 0
Nghost:              0 ave           0 max           0 min
Histogram: 1 0 0 0 0 0 0 0 0 0
Neighs:           6959 ave        6959 max        6959 min
Histogram: 1 0 0 0 0 0 0 0 0 0

Total # of neighbors = 6959
Ave neighs/atom = 3.7616216
Neighbor list builds = 2115
Dangerous builds = 0
Generated 0 of 0 mixed pair_coeff terms from geometric mixing rule
Setting up Verlet run ...
  Unit style    : si
  Current step  : 0
  Time step     : 2e-07
Per MPI rank memory allocation (min/avg/max) = 14.72 | 14.72 | 14.72 Mbytes
   Step          Time         Atoms        KinEng     c_granularTemp c_solidVolume    c_maxSpeed  
         0   0                   1850   3.4264015e-06  4.6016318e+13  3.9676221e-06  0.3134948    
     10000   0.002               1850   2.0519104e-06  2.8079365e+13  3.9676221e-06  0.2503513    
     20000   0.004               1850   1.2973128e-06  1.8080726e+13  3.9676221e-06  0.20408185   
     30000   0.006               1850   8.8672494e-07  1.2528806e+13  3.9676221e-06  0.17010886   
     40000   0.008               1850   5.7102114e-07  8.2952657e+12  3.9676221e-06  0.14317007   
     50000   0.01                1850   3.4530882e-07  5.2885722e+12  3.9676221e-06  0.12399629   
     60000   0.012               1850   2.418566e-07   3.8239287e+12  3.9676221e-06  0.1096697    
     70000   0.014               1850   1.883757e-07   3.0722421e+12  3.9676221e-06  0.098884325  
     80000   0.016               1850   1.3615139e-07  2.4113578e+12  3.9676221e-06  0.090906097  
     90000   0.018               1850   8.545405e-08   1.6975802e+12  3.9676221e-06  0.084862095  
    100000   0.02                1850   7.5680865e-08  1.4402528e+12  3.9676221e-06  0.080428722  
    110000   0.022               1850   5.9029135e-08  1.190509e+12   3.9676221e-06  0.077098842  
    120000   0.024               1850   5.4753325e-08  1.1030735e+12  3.9676221e-06  0.074628037  
    130000   0.026               1850   5.0826835e-08  1.0159936e+12  3.9676221e-06  0.072781859  
    140000   0.028               1850   4.5580868e-08  9.016992e+11   3.9676221e-06  0.071402398  
    150000   0.03                1850   3.5095483e-08  7.2037784e+11  3.9676221e-06  0.065255813  
    160000   0.032               1850   2.8506642e-08  6.4791406e+11  3.9676221e-06  0.044713771  
    170000   0.034               1850   2.5866675e-08  5.8910684e+11  3.9676221e-06  0.046739804  
    180000   0.036               1850   2.7449827e-08  6.2684075e+11  3.9676221e-06  0.048694171  
    190000   0.038               1850   2.909834e-08   6.6989636e+11  3.9676221e-06  0.050733931  
    200000   0.04                1850   3.1638714e-08  7.2293503e+11  3.9676221e-06  0.052674306  
    210000   0.042               1850   3.1405532e-08  7.2346348e+11  3.9676221e-06  0.054834283  
    220000   0.044               1850   3.0242149e-08  7.1823399e+11  3.9676221e-06  0.056704114  
    230000   0.046               1850   2.2577309e-08  5.7032649e+11  3.9676221e-06  0.0562408    
    240000   0.048               1850   2.1816367e-08  5.3570735e+11  3.9676221e-06  0.058289975  
    250000   0.05                1850   1.8207541e-08  4.7375455e+11  3.9676221e-06  0.045843676  
    260000   0.052               1850   1.9646348e-08  5.0666206e+11  3.9676221e-06  0.047938146  
    270000   0.054               1850   1.7963506e-08  4.738547e+11   3.9676221e-06  0.050074772  
    280000   0.056               1850   2.018496e-08   5.1190612e+11  3.9676221e-06  0.052181843  
    290000   0.058               1850   2.2331296e-08  5.5489382e+11  3.9676221e-06  0.054530134  
    300000   0.06                1850   2.2397439e-08  5.5983573e+11  3.9676221e-06  0.057126563  
    310000   0.062               1850   2.1676903e-08  5.5121947e+11  3.9676221e-06  0.043905248  
    320000   0.064               1850   1.682211e-08   4.6613475e+11  3.9676221e-06  0.045815025  
    330000   0.066               1850   8.5602675e-09  3.1714012e+11  3.9676221e-06  0.028047907  
    340000   0.068               1850   7.9375112e-09  2.8646666e+11  3.9676221e-06  0.030581432  
    350000   0.07                1850   8.4762053e-09  2.9924794e+11  3.9676221e-06  0.033332879  
    360000   0.072               1850   9.5920956e-09  3.2964809e+11  3.9676221e-06  0.036060525  
    370000   0.074               1850   8.7677375e-09  3.2416482e+11  3.9676221e-06  0.035116148  
    380000   0.076               1850   1.0620589e-08  3.2350993e+11  3.9676221e-06  0.039861408  
    390000   0.078               1850   1.1760099e-08  3.26715e+11    3.9676221e-06  0.047049932  
    400000   0.08                1850   1.3453149e-08  3.4735117e+11  3.9676221e-06  0.052242354  
    410000   0.082               1850   1.31072e-08    3.284919e+11   3.9676221e-06  0.055931149  
    420000   0.084               1850   7.5479589e-09  1.9125458e+11  3.9676221e-06  0.045329773  
    430000   0.086               1850   6.5703308e-09  1.6342337e+11  3.9676221e-06  0.047395917  
    440000   0.088               1850   3.1618805e-09  9.5360171e+10  3.9676221e-06  0.024235374  
    450000   0.09                1850   3.211209e-09   9.2945532e+10  3.9676221e-06  0.022474553  
    460000   0.092               1850   3.5773413e-09  9.8273474e+10  3.9676221e-06  0.022878336  
    470000   0.094               1850   4.1441569e-09  1.0795373e+11  3.9676221e-06  0.024500575  
    480000   0.096               1850   3.2829034e-09  8.4637727e+10  3.9676221e-06  0.026242882  
    490000   0.098               1850   3.0346041e-09  8.1725125e+10  3.9676221e-06  0.02735982   
    500000   0.1                 1850   3.4237467e-09  8.9996129e+10  3.9676221e-06  0.029487726  
    510000   0.102               1850   2.9506921e-09  7.7965169e+10  3.9676221e-06  0.031637569  
    520000   0.104               1850   2.8275753e-09  7.6896465e+10  3.9676221e-06  0.032229534  
    530000   0.106               1850   2.0578378e-09  5.3295689e+10  3.9676221e-06  0.024001241  
    540000   0.108               1850   1.4232674e-09  4.1197406e+10  3.9676221e-06  0.02012909   
    550000   0.11                1850   1.2458964e-09  3.8021643e+10  3.9676221e-06  0.018204697  
    560000   0.112               1850   1.2243371e-09  3.8494695e+10  3.9676221e-06  0.018627934  
    570000   0.114               1850   1.2850614e-09  4.0908037e+10  3.9676221e-06  0.019142184  
    580000   0.116               1850   1.3767726e-09  4.3662213e+10  3.9676221e-06  0.019754158  
    590000   0.118               1850   8.5869574e-10  2.6162532e+10  3.9676221e-06  0.016503632  
    600000   0.12                1850   8.3879373e-10  2.0593774e+10  3.9676221e-06  0.017220998  
    610000   0.122               1850   7.5005459e-10  1.6161406e+10  3.9676221e-06  0.018134128  
    620000   0.124               1850   9.5177073e-10  1.9036413e+10  3.9676221e-06  0.01915181   
    630000   0.126               1850   9.2521726e-10  1.7976321e+10  3.9676221e-06  0.020303418  
    640000   0.128               1850   1.0470431e-09  2.0449739e+10  3.9676221e-06  0.021511184  
    650000   0.13                1850   1.1868158e-09  2.300204e+10   3.9676221e-06  0.022828895  
    660000   0.132               1850   1.0207979e-09  1.9340931e+10  3.9676221e-06  0.024205754  
    670000   0.134               1850   9.8196154e-10  1.8739258e+10  3.9676221e-06  0.02376631   
    680000   0.136               1850   1.1070552e-09  2.1003088e+10  3.9676221e-06  0.025367493  
    690000   0.138               1850   1.2302299e-09  2.368034e+10   3.9676221e-06  0.026683341  
    700000   0.14                1850   1.3748893e-09  2.6576204e+10  3.9676221e-06  0.02830569   
    710000   0.142               1850   3.4374177e-10  7.6929052e+09  3.9676221e-06  0.013974931  
    720000   0.144               1850   8.4234842e-11  1.8650249e+09  3.9676221e-06  0.0069761037 
    730000   0.146               1850   9.1319562e-12  4.8068146e+08  3.9676221e-06  0.0022910786 
    740000   0.148               1850   6.1012656e-11  1.4288565e+09  3.9676221e-06  0.0059616297 
    750000   0.15                1850   1.8050491e-10  3.6113329e+09  3.9676221e-06  0.01025645   
    760000   0.152               1850   2.9471762e-11  8.3431509e+08  3.9676221e-06  0.0038830674 
    770000   0.154               1850   3.0515324e-11  7.9204503e+08  3.9676221e-06  0.0042072337 
    780000   0.156               1850   1.0961094e-12  2.4636225e+08  3.9676221e-06  0.00068678991
    790000   0.158               1850   5.6698843e-12  3.0439993e+08  3.9676221e-06  0.0017696694 
    800000   0.16                1850   3.0077314e-12  2.5739734e+08  3.9676221e-06  0.0012972422 
    810000   0.162               1850   3.8635804e-12  2.7396494e+08  3.9676221e-06  0.0014949969 
    820000   0.164               1850   4.8784276e-12  2.9447492e+08  3.9676221e-06  0.0016845654 
    830000   0.166               1850   6.0183143e-12  3.1760069e+08  3.9676221e-06  0.0018722069 
    840000   0.168               1850   7.2851752e-12  3.4334657e+08  3.9676221e-06  0.0020601385 
    850000   0.17                1850   1.1338483e-12  2.1854902e+08  3.9676221e-06  0.00058410352
    860000   0.172               1850   1.0991811e-13  1.9965192e+08  3.9676221e-06  0.00020181807
    870000   0.174               1850   2.3829101e-14  1.9848797e+08  3.9676221e-06  4.6882565e-05
    880000   0.176               1850   1.1190365e-14  1.9902015e+08  3.9676221e-06  5.6605188e-05
    890000   0.178               1850   1.1673093e-14  1.9997543e+08  3.9676221e-06  6.6510338e-05
    900000   0.18                1850   1.4070334e-14  2.010497e+08   3.9676221e-06  7.5884654e-05
    910000   0.182               1850   1.6528307e-14  2.021833e+08   3.9676221e-06  8.4546876e-05
    920000   0.184               1850   1.9211871e-14  2.0334532e+08  3.9676221e-06  9.2635912e-05
    930000   0.186               1850   2.1947786e-14  2.0450315e+08  3.9676221e-06  0.0001000097 
    940000   0.188               1850   2.4650256e-14  2.0562695e+08  3.9676221e-06  0.00010664974
    950000   0.19                1850   2.7211002e-14  2.0668866e+08  3.9676221e-06  0.00011251327
    960000   0.192               1850   2.9577549e-14  2.0766243e+08  3.9676221e-06  0.0001175713 
    970000   0.194               1850   3.1675588e-14  2.0852529e+08  3.9676221e-06  0.00012179462
    980000   0.196               1850   3.3466294e-14  2.0925766e+08  3.9676221e-06  0.00012516306
    990000   0.198               1850   3.4903159e-14  2.0984379e+08  3.9676221e-06  0.00012766174
   1000000   0.2                 1850   3.59622e-14    2.102721e+08   3.9676221e-06  0.00012928228
   1010000   0.202               1850   3.6624703e-14  2.1053534e+08  3.9676221e-06  0.0001300217 
   1020000   0.204               1850   3.6882264e-14  2.1063072e+08  3.9676221e-06  0.00012988294
   1030000   0.206               1850   3.6742399e-14  2.1055989e+08  3.9676221e-06  0.00012887494
   1040000   0.208               1850   3.6214249e-14  2.1032878e+08  3.9676221e-06  0.00012701232
   1050000   0.21                1850   3.5327167e-14  2.0994739e+08  3.9676221e-06  0.00012431533
   1060000   0.212               1850   3.4108502e-14  2.094294e+08   3.9676221e-06  0.0001208096 
   1070000   0.214               1850   3.2603413e-14  2.0879175e+08  3.9676221e-06  0.00011652597
   1080000   0.216               1850   3.0855412e-14  2.0805414e+08  3.9676221e-06  0.00011150018
   1090000   0.218               1850   2.8919104e-14  2.0723839e+08  3.9676221e-06  0.00010577268
   1100000   0.22                1850   2.6849341e-14  2.0636788e+08  3.9676221e-06  9.93882e-05  
   1110000   0.222               1850   2.4704149e-14  2.0546686e+08  3.9676221e-06  9.2395509e-05
   1120000   0.224               1850   2.2542989e-14  2.0455977e+08  3.9676221e-06  8.4846987e-05
   1130000   0.226               1850   2.0421816e-14  2.036706e+08   3.9676221e-06  7.7490117e-05
   1140000   0.228               1850   1.8397352e-14  2.0282227e+08  3.9676221e-06  7.7825327e-05
   1150000   0.23                1850   1.6518568e-14  2.0203601e+08  3.9676221e-06  7.8070497e-05
   1160000   0.232               1850   1.4832745e-14  2.0133082e+08  3.9676221e-06  7.8232534e-05
   1170000   0.234               1850   1.3377608e-14  2.0072302e+08  3.9676221e-06  7.8306985e-05
   1180000   0.236               1850   1.2185949e-14  2.0022589e+08  3.9676221e-06  7.8298293e-05
   1190000   0.238               1850   1.1280907e-14  1.9984929e+08  3.9676221e-06  7.8205192e-05
   1200000   0.24                1850   1.067785e-14   1.9959955e+08  3.9676221e-06  7.8029305e-05
   1210000   0.242               1850   1.0383309e-14  1.9947932e+08  3.9676221e-06  7.7772146e-05
   1220000   0.244               1850   1.0394515e-14  1.9948759e+08  3.9676221e-06  7.7433432e-05
   1230000   0.246               1850   1.0701036e-14  1.9961975e+08  3.9676221e-06  7.7016238e-05
   1240000   0.248               1850   1.1283255e-14  1.9986784e+08  3.9676221e-06  7.6519695e-05
   1250000   0.25                1850   1.2115251e-14  2.0022078e+08  3.9676221e-06  7.5947159e-05
   1260000   0.252               1850   1.3163502e-14  2.0066475e+08  3.9676221e-06  7.5298242e-05
   1270000   0.254               1850   1.4389769e-14  2.011836e+08   3.9676221e-06  7.457576e-05 
   1280000   0.256               1850   1.5750804e-14  2.0175937e+08  3.9676221e-06  7.3780326e-05
   1290000   0.258               1850   1.7200554e-14  2.0237273e+08  3.9676221e-06  7.2913972e-05
   1300000   0.26                1850   1.8690971e-14  2.0300362e+08  3.9676221e-06  7.5584458e-05
   1310000   0.262               1850   2.0173453e-14  2.0363174e+08  3.9676221e-06  8.1978853e-05
   1320000   0.264               1850   2.1600372e-14  2.0423712e+08  3.9676221e-06  8.7765854e-05
   1330000   0.266               1850   2.2925945e-14  2.0480068e+08  3.9676221e-06  9.2912178e-05
   1340000   0.268               1850   2.410797e-14   2.053047e+08   3.9676221e-06  9.738914e-05 
   1350000   0.27                1850   2.510834e-14   2.0573329e+08  3.9676221e-06  0.00010117279
   1360000   0.272               1850   2.5894564e-14  2.0607281e+08  3.9676221e-06  0.00010424406
   1370000   0.274               1850   2.6440089e-14  2.0631216e+08  3.9676221e-06  0.00010658882
   1380000   0.276               1850   2.6725268e-14  2.0644307e+08  3.9676221e-06  0.00010819793
   1390000   0.278               1850   2.6737585e-14  2.0646029e+08  3.9676221e-06  0.00010906728
   1400000   0.28                1850   2.6471972e-14  2.0636165e+08  3.9676221e-06  0.00010919774
   1410000   0.282               1850   2.5930835e-14  2.0614811e+08  3.9676221e-06  0.00010859514
   1420000   0.284               1850   2.5123827e-14  2.0582366e+08  3.9676221e-06  0.00010727017
   1430000   0.286               1850   2.4067582e-14  2.0539518e+08  3.9676221e-06  0.00010523825
   1440000   0.288               1850   2.2785051e-14  2.0487221e+08  3.9676221e-06  0.00010251941
   1450000   0.29                1850   2.1304925e-14  2.0426667e+08  3.9676221e-06  9.913811e-05 
   1460000   0.292               1850   1.966069e-14   2.0359251e+08  3.9676221e-06  9.5123021e-05
   1470000   0.294               1850   1.7889748e-14  2.0286527e+08  3.9676221e-06  9.0506803e-05
   1480000   0.296               1850   1.6032319e-14  2.0210172e+08  3.9676221e-06  8.5325848e-05
   1490000   0.298               1850   1.4130369e-14  2.013193e+08   3.9676221e-06  7.9619999e-05
   1500000   0.3                 1850   1.2226481e-14  2.0053577e+08  3.9676221e-06  7.3432271e-05
   1510000   0.302               1850   1.0362715e-14  1.9976863e+08  3.9676221e-06  6.6808502e-05
   1520000   0.304               1850   8.5795357e-15  1.9903474e+08  3.9676221e-06  5.979704e-05 
   1530000   0.306               1850   6.914758e-15   1.9834984e+08  3.9676221e-06  5.2448395e-05
   1540000   0.308               1850   5.4026287e-15  1.977282e+08   3.9676221e-06  4.4814879e-05
   1550000   0.31                1850   4.0729729e-15  1.9718223e+08  3.9676221e-06  3.6950233e-05
   1560000   0.312               1850   2.9505094e-15  1.9672223e+08  3.9676221e-06  2.9731039e-05
   1570000   0.314               1850   2.0542871e-15  1.9635613e+08  3.9676221e-06  2.769236e-05 
   1580000   0.316               1850   1.3972956e-15  1.9608932e+08  3.9676221e-06  2.5644408e-05
   1590000   0.318               1850   9.8623826e-16  1.9592458e+08  3.9676221e-06  2.3589476e-05
   1600000   0.32                1850   8.2147306e-16  1.9586206e+08  3.9676221e-06  2.1529813e-05
   1610000   0.322               1850   8.971294e-16   1.9589929e+08  3.9676221e-06  1.9467695e-05
   1620000   0.324               1850   1.2013763e-15  1.9603134e+08  3.9676221e-06  1.9931555e-05
   1630000   0.326               1850   1.7168566e-15  1.9625094e+08  3.9676221e-06  2.7662045e-05
   1640000   0.328               1850   2.4212438e-15  1.9654879e+08  3.9676221e-06  3.5137066e-05
   1650000   0.33                1850   3.2879345e-15  1.9691378e+08  3.9676221e-06  4.2308828e-05
   1660000   0.332               1850   4.2868294e-15  1.9733336e+08  3.9676221e-06  4.9132019e-05
   1670000   0.334               1850   5.3851991e-15  1.9779387e+08  3.9676221e-06  5.5564067e-05
   1680000   0.336               1850   6.5486008e-15  1.9828095e+08  3.9676221e-06  6.1565416e-05
   1690000   0.338               1850   7.74182e-15    1.9877992e+08  3.9676221e-06  6.7099741e-05
   1700000   0.34                1850   8.9298196e-15  1.9927617e+08  3.9676221e-06  7.2134185e-05
   1710000   0.342               1850   1.0078664e-14  1.9975556e+08  3.9676221e-06  7.6639541e-05
   1720000   0.344               1850   1.1156392e-14  2.0020476e+08  3.9676221e-06  8.0590402e-05
   1730000   0.346               1850   1.2133826e-14  2.0061162e+08  3.9676221e-06  8.3965311e-05
   1740000   0.348               1850   1.2985292e-14  2.0096544e+08  3.9676221e-06  8.6746875e-05
   1750000   0.35                1850   1.3689222e-14  2.0125725e+08  3.9676221e-06  8.8921815e-05
   1760000   0.352               1850   1.4228654e-14  2.0147999e+08  3.9676221e-06  9.0481068e-05
   1770000   0.354               1850   1.4591576e-14  2.0162867e+08  3.9676221e-06  9.1419752e-05
   1780000   0.356               1850   1.477115e-14   2.0170047e+08  3.9676221e-06  9.17372e-05  
   1790000   0.358               1850   1.4765788e-14  2.0169476e+08  3.9676221e-06  9.1436923e-05
   1800000   0.36                1850   1.457908e-14   2.0161304e+08  3.9676221e-06  9.0526529e-05
   1810000   0.362               1850   1.421959e-14   2.0145894e+08  3.9676221e-06  8.9017649e-05
   1820000   0.364               1850   1.3700527e-14  2.0123798e+08  3.9676221e-06  8.6925825e-05
   1830000   0.366               1850   1.303929e-14   2.0095745e+08  3.9676221e-06  8.4270363e-05
   1840000   0.368               1850   1.2256909e-14  2.0062617e+08  3.9676221e-06  8.1074175e-05
   1850000   0.37                1850   1.1377408e-14  2.0025418e+08  3.9676221e-06  7.7363583e-05
   1860000   0.372               1850   1.0427088e-14  1.9985248e+08  3.9676221e-06  7.3168126e-05
   1870000   0.374               1850   9.4337708e-15  1.9943272e+08  3.9676221e-06  6.8520319e-05
   1880000   0.376               1850   8.4260162e-15  1.9900684e+08  3.9676221e-06  6.3455418e-05
   1890000   0.378               1850   7.4323239e-15  1.9858676e+08  3.9676221e-06  5.8011153e-05
   1900000   0.38                1850   6.4803628e-15  1.9818406e+08  3.9676221e-06  5.2227458e-05
   1910000   0.382               1850   5.5962296e-15  1.9780964e+08  3.9676221e-06  4.6146158e-05
   1920000   0.384               1850   4.8037682e-15  1.974735e+08   3.9676221e-06  3.9810726e-05
   1930000   0.386               1850   4.1239585e-15  1.971844e+08   3.9676221e-06  3.6013795e-05
   1940000   0.388               1850   3.5743871e-15  1.9694972e+08  3.9676221e-06  3.7121418e-05
   1950000   0.39                1850   3.1688334e-15  1.9677522e+08  3.9676221e-06  3.8178232e-05
   1960000   0.392               1850   2.9169516e-15  1.9666496e+08  3.9676221e-06  3.9183618e-05
   1970000   0.394               1850   2.8240734e-15  1.9662118e+08  3.9676221e-06  4.0137012e-05
   1980000   0.396               1850   2.8911327e-15  1.966443e+08   3.9676221e-06  4.1037916e-05
   1990000   0.398               1850   3.1147032e-15  1.9673292e+08  3.9676221e-06  4.1885882e-05
   2000000   0.4                 1850   3.4871592e-15  1.9688386e+08  3.9676221e-06  4.2680531e-05
   2010000   0.402               1850   3.9969432e-15  1.9709232e+08  3.9676221e-06  4.3421555e-05
   2020000   0.404               1850   4.6289297e-15  1.9735201e+08  3.9676221e-06  4.4108691e-05
   2030000   0.406               1850   5.3648834e-15  1.9765534e+08  3.9676221e-06  4.474173e-05 
   2040000   0.408               1850   6.1840001e-15  1.9799364e+08  3.9676221e-06  4.5320558e-05
   2050000   0.41                1850   7.0634835e-15  1.9835741e+08  3.9676221e-06  4.5845077e-05
   2060000   0.412               1850   7.9791919e-15  1.987366e+08   3.9676221e-06  5.0054999e-05
   2070000   0.414               1850   8.9063001e-15  1.9912084e+08  3.9676221e-06  5.4837587e-05
   2080000   0.416               1850   9.8199531e-15  1.9949978e+08  3.9676221e-06  5.9209275e-05
   2090000   0.418               1850   1.0695945e-14  1.9986334e+08  3.9676221e-06  6.3144502e-05
   2100000   0.42                1850   1.151133e-14   2.0020193e+08  3.9676221e-06  6.6620847e-05
   2110000   0.422               1850   1.2245014e-14  2.0050676e+08  3.9676221e-06  6.9619159e-05
   2120000   0.424               1850   1.2878287e-14  2.0077003e+08  3.9676221e-06  7.2123685e-05
   2130000   0.426               1850   1.3395262e-14  2.0098512e+08  3.9676221e-06  7.4122106e-05
   2140000   0.428               1850   1.3783268e-14  2.0114672e+08  3.9676221e-06  7.5605624e-05
   2150000   0.43                1850   1.4033106e-14  2.0125101e+08  3.9676221e-06  7.6568956e-05
   2160000   0.432               1850   1.4139255e-14  2.0129568e+08  3.9676221e-06  7.7010367e-05
   2170000   0.434               1850   1.4099935e-14  2.0127998e+08  3.9676221e-06  7.6931628e-05
   2180000   0.436               1850   1.3917107e-14  2.0120471e+08  3.9676221e-06  7.6337985e-05
   2190000   0.438               1850   1.3596339e-14  2.0107221e+08  3.9676221e-06  7.5238071e-05
   2200000   0.44                1850   1.3146617e-14  2.008862e+08   3.9676221e-06  7.3643869e-05
   2210000   0.442               1850   1.2580033e-14  2.0065173e+08  3.9676221e-06  7.1570533e-05
   2220000   0.444               1850   1.1911411e-14  2.0037497e+08  3.9676221e-06  6.9036308e-05
   2230000   0.446               1850   1.1157886e-14  2.0006305e+08  3.9676221e-06  6.6062361e-05
   2240000   0.448               1850   1.0338395e-14  1.9972387e+08  3.9676221e-06  6.2672612e-05
   2250000   0.45                1850   9.4731516e-15  1.9936585e+08  3.9676221e-06  5.8893548e-05
   2260000   0.452               1850   8.5831033e-15  1.989977e+08   3.9676221e-06  5.4754034e-05
   2270000   0.454               1850   7.6893503e-15  1.9862823e+08  3.9676221e-06  5.0285079e-05
   2280000   0.456               1850   6.8126022e-15  1.9826605e+08  3.9676221e-06  4.5519625e-05
   2290000   0.458               1850   5.9726383e-15  1.979194e+08   3.9676221e-06  4.291243e-05 
   2300000   0.46                1850   5.1878073e-15  1.9759591e+08  3.9676221e-06  4.2212211e-05
   2310000   0.462               1850   4.4745729e-15  1.9730245e+08  3.9676221e-06  4.1473796e-05
   2320000   0.464               1850   3.8471207e-15  1.9704491e+08  3.9676221e-06  4.0698362e-05
   2330000   0.466               1850   3.3170299e-15  1.9682811e+08  3.9676221e-06  3.9887107e-05
   2340000   0.468               1850   2.8930213e-15  1.9665566e+08  3.9676221e-06  3.9041251e-05
   2350000   0.47                1850   2.5807902e-15  1.9652992e+08  3.9676221e-06  3.8162042e-05
   2360000   0.472               1850   2.3829182e-15  1.9645196e+08  3.9676221e-06  3.7250762e-05
   2370000   0.474               1850   2.2988706e-15  1.9642152e+08  3.9676221e-06  3.6308715e-05
   2380000   0.476               1850   2.325074e-15   1.9643711e+08  3.9676221e-06  3.5337202e-05
   2390000   0.478               1850   2.455083e-15   1.9649601e+08  3.9676221e-06  3.4337567e-05
   2400000   0.48                1850   2.6798088e-15  1.9659441e+08  3.9676221e-06  3.3311158e-05
   2410000   0.482               1850   2.9878201e-15  1.9672753e+08  3.9676221e-06  3.2259337e-05
   2420000   0.484               1850   3.3657025e-15  1.9688976e+08  3.9676221e-06  3.1452526e-05
   2430000   0.486               1850   3.7984537e-15  1.9707481e+08  3.9676221e-06  3.6177205e-05
   2440000   0.488               1850   4.2699318e-15  1.9727594e+08  3.9676221e-06  4.061658e-05 
   2450000   0.49                1850   4.7633028e-15  1.9748611e+08  3.9676221e-06  4.474349e-05 
   2460000   0.492               1850   5.2615202e-15  1.976982e+08   3.9676221e-06  4.8533106e-05
   2470000   0.494               1850   5.7477826e-15  1.9790517e+08  3.9676221e-06  5.1963078e-05
   2480000   0.496               1850   6.2059937e-15  1.981003e+08   3.9676221e-06  5.5013695e-05
   2490000   0.498               1850   6.6211764e-15  1.9827733e+08  3.9676221e-06  5.7667938e-05
   2500000   0.5                 1850   6.9798641e-15  1.9843063e+08  3.9676221e-06  5.991161e-05 
   2510000   0.502               1850   7.2704364e-15  1.9855534e+08  3.9676221e-06  6.1733394e-05
   2520000   0.504               1850   7.4834008e-15  1.986475e+08   3.9676221e-06  6.3124905e-05
   2530000   0.506               1850   7.6116175e-15  1.9870411e+08  3.9676221e-06  6.4080723e-05
   2540000   0.508               1850   7.6504443e-15  1.9872323e+08  3.9676221e-06  6.4598386e-05
   2550000   0.51                1850   7.5978223e-15  1.98704e+08    3.9676221e-06  6.4678393e-05
   2560000   0.512               1850   7.4542922e-15  1.9864663e+08  3.9676221e-06  6.4324183e-05
   2570000   0.514               1850   7.2229287e-15  1.9855241e+08  3.9676221e-06  6.3542063e-05
   2580000   0.516               1850   6.9092215e-15  1.9842362e+08  3.9676221e-06  6.2341152e-05
   2590000   0.518               1850   6.520885e-15   1.9826348e+08  3.9676221e-06  6.0733303e-05
   2600000   0.52                1850   6.0676131e-15  1.9807603e+08  3.9676221e-06  5.8732977e-05
   2610000   0.522               1850   5.5607867e-15  1.9786602e+08  3.9676221e-06  5.6357137e-05
   2620000   0.524               1850   5.0131452e-15  1.9763876e+08  3.9676221e-06  5.3625122e-05
   2630000   0.526               1850   4.4384132e-15  1.9739999e+08  3.9676221e-06  5.0558465e-05
   2640000   0.528               1850   3.8509235e-15  1.9715569e+08  3.9676221e-06  4.7180756e-05
   2650000   0.53                1850   3.2652208e-15  1.9691192e+08  3.9676221e-06  4.3517448e-05
   2660000   0.532               1850   2.6956712e-15  1.9667468e+08  3.9676221e-06  3.9595701e-05
   2670000   0.534               1850   2.1560747e-15  1.9644975e+08  3.9676221e-06  3.5444129e-05
   2680000   0.536               1850   1.6593105e-15  1.9624248e+08  3.9676221e-06  3.1092644e-05
   2690000   0.538               1850   1.2170063e-15  1.9605775e+08  3.9676221e-06  2.6572225e-05
   2700000   0.54                1850   8.392461e-16   1.9589977e+08  3.9676221e-06  2.1914698e-05
   2710000   0.542               1850   5.3432798e-16  1.95772e+08    3.9676221e-06  1.7152528e-05
   2720000   0.544               1850   3.0856882e-16  1.9567709e+08  3.9676221e-06  1.2318571e-05
   2730000   0.546               1850   1.6616858e-16  1.956168e+08   3.9676221e-06  7.4458875e-06
   2740000   0.548               1850   1.0913166e-16  1.9559197e+08  3.9676221e-06  7.550796e-06 
   2750000   0.55                1850   1.3724751e-16  1.9560253e+08  3.9676221e-06  8.6473853e-06
   2760000   0.552               1850   2.4813152e-16  1.9564749e+08  3.9676221e-06  9.7237639e-06
   2770000   0.554               1850   4.3732175e-16  1.9572499e+08  3.9676221e-06  1.1777228e-05
   2780000   0.556               1850   6.984288e-16   1.9583239e+08  3.9676221e-06  1.6356894e-05
   2790000   0.558               1850   1.0233369e-15  1.959663e+08   3.9676221e-06  2.0785414e-05
   2800000   0.56                1850   1.4024418e-15  1.9612273e+08  3.9676221e-06  2.5034471e-05
   2810000   0.562               1850   1.82493e-15    1.9629718e+08  3.9676221e-06  2.9077216e-05
   2820000   0.564               1850   2.2790824e-15  1.9648477e+08  3.9676221e-06  3.2888427e-05
   2830000   0.566               1850   2.7525934e-15  1.9668038e+08  3.9676221e-06  3.6444661e-05
   2840000   0.568               1850   3.2329062e-15  1.9687878e+08  3.9676221e-06  3.9724392e-05
   2850000   0.57                1850   3.7075428e-15  1.9707477e+08  3.9676221e-06  4.2708139e-05
   2860000   0.572               1850   4.1644302e-15  1.9726333e+08  3.9676221e-06  4.5378593e-05
   2870000   0.574               1850   4.592209e-15   1.9743972e+08  3.9676221e-06  4.7720695e-05
   2880000   0.576               1850   4.9805142e-15  1.9759965e+08  3.9676221e-06  4.9721726e-05
   2890000   0.578               1850   5.3202277e-15  1.977393e+08   3.9676221e-06  5.1371359e-05
   2900000   0.58                1850   5.6036964e-15  1.978555e+08   3.9676221e-06  5.2661736e-05
   2910000   0.582               1850   5.8248974e-15  1.9794575e+08  3.9676221e-06  5.3587455e-05
   2920000   0.584               1850   5.9795709e-15  1.9800828e+08  3.9676221e-06  5.4145623e-05
   2930000   0.586               1850   6.0652845e-15  1.9804208e+08  3.9676221e-06  5.4335823e-05
   2940000   0.588               1850   6.0814742e-15  1.9804692e+08  3.9676221e-06  5.4160124e-05
   2950000   0.59                1850   6.0294094e-15  1.9802336e+08  3.9676221e-06  5.3623024e-05
   2960000   0.592               1850   5.9121262e-15  1.9797265e+08  3.9676221e-06  5.2731386e-05
   2970000   0.594               1850   5.734308e-15   1.9789676e+08  3.9676221e-06  5.1494416e-05
   2980000   0.596               1850   5.5021273e-15  1.9779828e+08  3.9676221e-06  4.9923525e-05
   2990000   0.598               1850   5.22305e-15    1.9768033e+08  3.9676221e-06  4.8032272e-05
   3000000   0.6                 1850   4.90561e-15    1.9754647e+08  3.9676221e-06  4.5836249e-05
   3010000   0.602               1850   4.5591569e-15  1.9740061e+08  3.9676221e-06  4.3352924e-05
   3020000   0.604               1850   4.1935904e-15  1.9724688e+08  3.9676221e-06  4.0601553e-05
   3030000   0.606               1850   3.8190846e-15  1.9708954e+08  3.9676221e-06  3.7602999e-05
   3040000   0.608               1850   3.4458079e-15  1.9693283e+08  3.9676221e-06  3.4379618e-05
   3050000   0.61                1850   3.0836531e-15  1.9678089e+08  3.9676221e-06  3.0955041e-05
   3060000   0.612               1850   2.7419683e-15  1.966376e+08   3.9676221e-06  2.9152878e-05
   3070000   0.614               1850   2.4293302e-15  1.9650656e+08  3.9676221e-06  2.9306031e-05
   3080000   0.616               1850   2.1533136e-15  1.9639093e+08  3.9676221e-06  2.9426271e-05
   3090000   0.618               1850   1.9203163e-15  1.9629338e+08  3.9676221e-06  2.95138e-05  
   3100000   0.62                1850   1.7354091e-15  1.9621602e+08  3.9676221e-06  2.9568868e-05
   3110000   0.622               1850   1.6022176e-15  1.9616036e+08  3.9676221e-06  2.9591729e-05
   3120000   0.624               1850   1.5228589e-15  1.9612729e+08  3.9676221e-06  2.9582682e-05
   3130000   0.626               1850   1.4979076e-15  1.9611705e+08  3.9676221e-06  2.9542039e-05
   3140000   0.628               1850   1.5264161e-15  1.9612923e+08  3.9676221e-06  2.9470185e-05
   3150000   0.63                1850   1.6059599e-15  1.9616283e+08  3.9676221e-06  2.9367496e-05
   3160000   0.632               1850   1.7327359e-15  1.9621625e+08  3.9676221e-06  2.9234391e-05
   3170000   0.634               1850   1.9016894e-15  1.9628738e+08  3.9676221e-06  2.9071328e-05
   3180000   0.636               1850   2.1066687e-15  1.9637365e+08  3.9676221e-06  2.8878755e-05
   3190000   0.638               1850   2.3406192e-15  1.9647212e+08  3.9676221e-06  2.8657196e-05
   3200000   0.64                1850   2.5957816e-15  1.9657954e+08  3.9676221e-06  2.8407157e-05
   3210000   0.642               1850   2.8639202e-15  1.9669246e+08  3.9676221e-06  2.9630389e-05
   3220000   0.644               1850   3.1365506e-15  1.9680735e+08  3.9676221e-06  3.2464477e-05
   3230000   0.646               1850   3.405173e-15   1.9692066e+08  3.9676221e-06  3.5055285e-05
   3240000   0.648               1850   3.6615033e-15  1.9702891e+08  3.9676221e-06  3.7387652e-05
   3250000   0.65                1850   3.8976912e-15  1.9712883e+08  3.9676221e-06  3.9448294e-05
   3260000   0.652               1850   4.1065301e-15  1.9721741e+08  3.9676221e-06  4.1225857e-05
   3270000   0.654               1850   4.2816318e-15  1.9729197e+08  3.9676221e-06  4.2710992e-05
   3280000   0.656               1850   4.4175974e-15  1.9735025e+08  3.9676221e-06  4.3896404e-05
   3290000   0.658               1850   4.5101378e-15  1.9739047e+08  3.9676221e-06  4.4776863e-05
   3300000   0.66                1850   4.5561706e-15  1.9741132e+08  3.9676221e-06  4.5349225e-05
   3310000   0.662               1850   4.5538976e-15  1.9741205e+08  3.9676221e-06  4.5612455e-05
   3320000   0.664               1850   4.5028164e-15  1.9739244e+08  3.9676221e-06  4.5567591e-05
   3330000   0.666               1850   4.4037255e-15  1.9735282e+08  3.9676221e-06  4.5217724e-05
   3340000   0.668               1850   4.2586798e-15  1.9729405e+08  3.9676221e-06  4.4567966e-05
   3350000   0.67                1850   4.0709171e-15  1.9721745e+08  3.9676221e-06  4.3625392e-05
   3360000   0.672               1850   3.8447538e-15  1.9712484e+08  3.9676221e-06  4.2398968e-05
   3370000   0.674               1850   3.585456e-15   1.9701839e+08  3.9676221e-06  4.0899494e-05
   3380000   0.676               1850   3.2990848e-15  1.9690064e+08  3.9676221e-06  3.9139494e-05
   3390000   0.678               1850   2.9923221e-15  1.9677436e+08  3.9676221e-06  3.7133131e-05
   3400000   0.68                1850   2.6722894e-15  1.9664252e+08  3.9676221e-06  3.489608e-05 
   3410000   0.682               1850   2.3463493e-15  1.9650819e+08  3.9676221e-06  3.2445427e-05
   3420000   0.684               1850   2.0219093e-15  1.9637445e+08  3.9676221e-06  2.9799527e-05
   3430000   0.686               1850   1.7062313e-15  1.9624432e+08  3.9676221e-06  2.6977908e-05
   3440000   0.688               1850   1.4062347e-15  1.9612069e+08  3.9676221e-06  2.4001045e-05
   3450000   0.69                1850   1.1283291e-15  1.9600623e+08  3.9676221e-06  2.0890316e-05
   3460000   0.692               1850   8.7825359e-16  1.9590333e+08  3.9676221e-06  1.7667783e-05
   3470000   0.694               1850   6.6093519e-16  1.9581403e+08  3.9676221e-06  1.4356044e-05
   3480000   0.696               1850   4.803785e-16   1.9574001e+08  3.9676221e-06  1.2627961e-05
   3490000   0.698               1850   3.395764e-16   1.9568251e+08  3.9676221e-06  1.1866218e-05
   3500000   0.7                 1850   2.4044937e-16  1.9564233e+08  3.9676221e-06  1.1099377e-05
   3510000   0.702               1850   1.8381789e-16  1.9561981e+08  3.9676221e-06  1.0328328e-05
   3520000   0.704               1850   1.6939885e-16  1.9561483e+08  3.9676221e-06  9.5539057e-06
   3530000   0.706               1850   1.9583886e-16  1.9562681e+08  3.9676221e-06  8.7770157e-06
   3540000   0.708               1850   2.6076526e-16  1.9565478e+08  3.9676221e-06  9.3813315e-06
   3550000   0.71                1850   3.6087415e-16  1.9569734e+08  3.9676221e-06  1.2578409e-05
   3560000   0.712               1850   4.9203096e-16  1.9575278e+08  3.9676221e-06  1.5662194e-05
   3570000   0.714               1850   6.4940098e-16  1.9581907e+08  3.9676221e-06  1.8613053e-05
   3580000   0.716               1850   8.2758674e-16  1.9589397e+08  3.9676221e-06  2.1412401e-05
   3590000   0.718               1850   1.0207858e-15  1.9597504e+08  3.9676221e-06  2.4042865e-05
   3600000   0.72                1850   1.2229487e-15  1.9605978e+08  3.9676221e-06  2.6488327e-05
   3610000   0.722               1850   1.4279496e-15  1.9614561e+08  3.9676221e-06  2.8734096e-05
   3620000   0.724               1850   1.6297436e-15  1.9623003e+08  3.9676221e-06  3.0766907e-05
   3630000   0.726               1850   1.8225327e-15  1.9631061e+08  3.9676221e-06  3.2575082e-05
   3640000   0.728               1850   2.0009097e-15  1.9638511e+08  3.9676221e-06  3.4148531e-05
   3650000   0.73                1850   2.1599985e-15  1.9645147e+08  3.9676221e-06  3.547885e-05 
   3660000   0.732               1850   2.2955681e-15  1.9650796e+08  3.9676221e-06  3.6559311e-05
   3670000   0.734               1850   2.4041373e-15  1.9655311e+08  3.9676221e-06  3.7384945e-05
   3680000   0.736               1850   2.4830491e-15  1.9658581e+08  3.9676221e-06  3.7952521e-05
   3690000   0.738               1850   2.5305287e-15  1.9660534e+08  3.9676221e-06  3.8260585e-05
   3700000   0.74                1850   2.5457089e-15  1.9661133e+08  3.9676221e-06  3.8309422e-05
   3710000   0.742               1850   2.5286376e-15  1.966038e+08   3.9676221e-06  3.8101055e-05
   3720000   0.744               1850   2.4802564e-15  1.9658316e+08  3.9676221e-06  3.7639205e-05
   3730000   0.746               1850   2.4023602e-15  1.9655016e+08  3.9676221e-06  3.6929279e-05
   3740000   0.748               1850   2.2975288e-15  1.9650586e+08  3.9676221e-06  3.5978277e-05
   3750000   0.75                1850   2.1690417e-15  1.9645166e+08  3.9676221e-06  3.4794755e-05
   3760000   0.752               1850   2.0207801e-15  1.9638917e+08  3.9676221e-06  3.3388763e-05
   3770000   0.754               1850   1.8571045e-15  1.9632021e+08  3.9676221e-06  3.1771734e-05
   3780000   0.756               1850   1.6827305e-15  1.9624676e+08  3.9676221e-06  2.9956418e-05
   3790000   0.758               1850   1.5025964e-15  1.9617088e+08  3.9676221e-06  2.7956792e-05
   3800000   0.76                1850   1.32172e-15    1.9609467e+08  3.9676221e-06  2.5787919e-05
   3810000   0.762               1850   1.1450649e-15  1.960202e+08   3.9676221e-06  2.3465875e-05
   3820000   0.764               1850   9.7740536e-16  1.9594947e+08  3.9676221e-06  2.1007603e-05
   3830000   0.766               1850   8.2320104e-16  1.9588435e+08  3.9676221e-06  1.8430822e-05
   3840000   0.768               1850   6.8648071e-16  1.9582652e+08  3.9676221e-06  1.5753877e-05
   3850000   0.77                1850   5.7074035e-16  1.9577744e+08  3.9676221e-06  1.2995621e-05
   3860000   0.772               1850   4.7885569e-16  1.9573832e+08  3.9676221e-06  1.3249936e-05
   3870000   0.774               1850   4.1301827e-16  1.9571008e+08  3.9676221e-06  1.3684095e-05
   3880000   0.776               1850   3.7468395e-16  1.9569332e+08  3.9676221e-06  1.4099267e-05
   3890000   0.778               1850   3.6454595e-16  1.9568834e+08  3.9676221e-06  1.4495197e-05
   3900000   0.78                1850   3.8252767e-16  1.956951e+08   3.9676221e-06  1.4871635e-05
   3910000   0.782               1850   4.2779971e-16  1.9571328e+08  3.9676221e-06  1.5228411e-05
   3920000   0.784               1850   4.9880785e-16  1.9574222e+08  3.9676221e-06  1.5565312e-05
   3930000   0.786               1850   5.9333028e-16  1.95781e+08    3.9676221e-06  1.5882175e-05
   3940000   0.788               1850   7.0854621e-16  1.9582844e+08  3.9676221e-06  1.6178876e-05
   3950000   0.79                1850   8.4111845e-16  1.9588315e+08  3.9676221e-06  1.6455287e-05
   3960000   0.792               1850   9.8729233e-16  1.9594358e+08  3.9676221e-06  1.7209503e-05
   3970000   0.794               1850   1.1429991e-15  1.9600802e+08  3.9676221e-06  1.9467675e-05
   3980000   0.796               1850   1.3039732e-15  1.9607469e+08  3.9676221e-06  2.1574904e-05
   3990000   0.798               1850   1.4658625e-15  1.9614179e+08  3.9676221e-06  2.3518424e-05
   4000000   0.8                 1850   1.6243483e-15  1.9620751e+08  3.9676221e-06  2.5286696e-05
Loop time of 1031.32 on 1 procs for 4000000 steps with 1850 atoms

100.0% CPU use with 1 MPI tasks x 1 OpenMP threads

MPI task timing breakdown:
Section |  min time  |  avg time  |  max time  |%varavg| %total
---------------------------------------------------------------
Pair    | 788.44     | 788.44     | 788.44     |   0.0 | 76.45
Neigh   | 0.035992   | 0.035992   | 0.035992   |   0.0 |  0.00
Comm    | 0.084939   | 0.084939   | 0.084939   |   0.0 |  0.01
Output  | 0.34379    | 0.34379    | 0.34379    |   0.0 |  0.03
Modify  | 232.95     | 232.95     | 232.95     |   0.0 | 22.59
Other   |            | 9.469      |            |       |  0.92

Nlocal:           1850 ave        1850 max        1850 min
Histogram: 1 0 0 0 0 0 0 0 0 0
Nghost:              0 ave           0 max           0 min
Histogram: 1 0 0 0 0 0 0 0 0 0
Neighs:           7075 ave        7075 max        7075 min
Histogram: 1 0 0 0 0 0 0 0 0 0

Total # of neighbors = 7075
Ave neighs/atom = 3.8243243
Neighbor list builds = 60
Dangerous builds = 0
Generated 0 of 0 mixed pair_coeff terms from geometric mixing rule
Setting up Verlet run ...
  Unit style    : si
  Current step  : 4000000
  Time step     : 2e-07
Per MPI rank memory allocation (min/avg/max) = 13 | 13 | 13 Mbytes
   Step          Time         Atoms        KinEng     c_granularTemp c_solidVolume    c_maxSpeed  
   4000000   0.8                 1850   1.6243483e-15  1.9620751e+08  3.9676221e-06  2.5286696e-05
Loop time of 2.96e-07 on 1 procs for 0 steps with 1850 atoms

0.0% CPU use with 1 MPI tasks x 1 OpenMP threads

MPI task timing breakdown:
Section |  min time  |  avg time  |  max time  |%varavg| %total
---------------------------------------------------------------
Pair    | 0          | 0          | 0          |   0.0 |  0.00
Neigh   | 0          | 0          | 0          |   0.0 |  0.00
Comm    | 0          | 0          | 0          |   0.0 |  0.00
Output  | 0          | 0          | 0          |   0.0 |  0.00
Modify  | 0          | 0          | 0          |   0.0 |  0.00
Other   |            | 2.96e-07   |            |       |100.00

Nlocal:           1850 ave        1850 max        1850 min
Histogram: 1 0 0 0 0 0 0 0 0 0
Nghost:              0 ave           0 max           0 min
Histogram: 1 0 0 0 0 0 0 0 0 0
Neighs:           7074 ave        7074 max        7074 min
Histogram: 1 0 0 0 0 0 0 0 0 0

Total # of neighbors = 7074
Ave neighs/atom = 3.8237838
Neighbor list builds = 0
Dangerous builds = 0
Generated 0 of 0 mixed pair_coeff terms from geometric mixing rule
Neighbor list info ...
  update: every = 1 steps, delay = 0 steps, check = yes
  max neighbors/atom: 2000, page size: 100000
  master list distance cutoff = 0.00185
  ghost atom cutoff = 0.00185
  binsize = 0.000925, bins = 18 18 76
  3 neighbor lists, perpetual/occasional/extra = 1 2 0
  (1) pair granular, perpetual
      attributes: half, newton off, size, history
      pair build: half/size/bin/atomonly/newtoff
      stencil: full/bin/3d
      bin: standard
  (2) compute property/local, occasional
      attributes: half, newton off, size
      pair build: half/size/bin/atomonly/newtoff
      stencil: full/bin/3d
      bin: standard
  (3) compute pair/local, occasional
      attributes: half, newton off, size
      pair build: half/size/bin/atomonly/newtoff
      stencil: full/bin/3d
      bin: standard
Setting up Verlet run ...
  Unit style    : si
  Current step  : 4000000
  Time step     : 2e-07
Per MPI rank memory allocation (min/avg/max) = 14.26 | 14.26 | 14.26 Mbytes
   Step          Time         Atoms        KinEng     c_granularTemp c_solidVolume    c_maxSpeed  
   4000000   0.8                 1850   1.6243483e-15  1.9620751e+08  3.9676221e-06  2.5286696e-05
   4000001   0.8000002           1850   1.6243639e-15  1.9620752e+08  3.9676221e-06  2.5286864e-05
Loop time of 0.00635273 on 1 procs for 1 steps with 1850 atoms

84.3% CPU use with 1 MPI tasks x 1 OpenMP threads

MPI task timing breakdown:
Section |  min time  |  avg time  |  max time  |%varavg| %total
---------------------------------------------------------------
Pair    | 0.00021586 | 0.00021586 | 0.00021586 |   0.0 |  3.40
Neigh   | 0          | 0          | 0          |   0.0 |  0.00
Comm    | 1.26e-07   | 1.26e-07   | 1.26e-07   |   0.0 |  0.00
Output  | 0.0060721  | 0.0060721  | 0.0060721  |   0.0 | 95.58
Modify  | 6.1163e-05 | 6.1163e-05 | 6.1163e-05 |   0.0 |  0.96
Other   |            | 3.466e-06  |            |       |  0.05

Nlocal:           1850 ave        1850 max        1850 min
Histogram: 1 0 0 0 0 0 0 0 0 0
Nghost:              0 ave           0 max           0 min
Histogram: 1 0 0 0 0 0 0 0 0 0
Neighs:           7074 ave        7074 max        7074 min
Histogram: 1 0 0 0 0 0 0 0 0 0

Total # of neighbors = 7074
Ave neighs/atom = 3.8237838
Neighbor list builds = 0
Dangerous builds = 0
System init for write_data ...
Generated 0 of 0 mixed pair_coeff terms from geometric mixing rule
System init for write_restart ...
Generated 0 of 0 mixed pair_coeff terms from geometric mixing rule
seed Ntarget Nfinal dp_m density_kgm3 Dtube_m D_over_dp solidVolume_m3 bedHeight_m bedVolume_m3 packingFraction porosity minParticleBottom_m kineticEnergy_J maxSpeed_ms
98251 1850 1850 0.0016 1600 0.016 10 3.96762208197362e-06 0.0361982294471268 7.27808586905927e-06 0.545146368613325 0.454853631386675 -1.17184856391218e-06 1.62436387557451e-15 2.5286863678274e-05
Packing generation completed: co2_13x_seed_98251
ACCEPT only if Nfinal=Ntarget, the bed is settled, and overlap/geometry checks pass.
For the 20-packing pilot, change only seed_realization.
CO2 diffusion and particle LDF adsorption are added later in the pore-network solver, not here.
Total wall time: 0:23:02
