Authorization required, but no authorization protocol specified

Authorization required, but no authorization protocol specified

Authorization required, but no authorization protocol specified

Authorization required, but no authorization protocol specified

LAMMPS (22 Jul 2025 - Update 5)
OMP_NUM_THREADS environment is not set. Defaulting to 1 thread.
  using 1 OpenMP thread(s) per MPI task
OMP_NUM_THREADS environment is not set. Defaulting to 1 thread.
  using 1 OpenMP thread(s) per MPI task
CO2 sorbent = commercial zeolite 13X (mechanical packing only)
Realization seed = 18427
Target particle count = 1850
Bead diameter [m] = 0.0016
Tube diameter [m] = 0.016
Tube-to-particle diameter ratio = 10
Target solid volume [m^3] = 3.96762208197367e-06
Created orthogonal box = (-0.008 -0.008 0) to (0.008 0.008 0.07)
  1 by 1 by 1 MPI processor grid
Generated 0 of 0 mixed pair_coeff terms from geometric mixing rule
Particle insertion: 303 every 319275 steps, 1850 by step 1915651
Neighbor list info ...
  update: every = 1 steps, delay = 0 steps, check = yes
  max neighbors/atom: 2000, page size: 100000
  master list distance cutoff = 0.00185
  ghost atom cutoff = 0.00185
  binsize = 0.000925, bins = 18 18 76
  1 neighbor lists, perpetual/occasional/extra = 1 0 0
  (1) pair granular, perpetual
      attributes: half, newton off, size, history
      pair build: half/size/bin/atomonly/newtoff
      stencil: full/bin/3d
      bin: standard
Setting up Verlet run ...
  Unit style    : si
  Current step  : 0
  Time step     : 2e-07
Per MPI rank memory allocation (min/avg/max) = 7.438 | 7.438 | 7.438 Mbytes
   Step          Time         Atoms        KinEng     c_granularTemp c_solidVolume    c_maxSpeed  
         0   0                      0  -0              0              0             -1e+20        
WARNING: Fewer insertions than requested (src/GRANULAR/fix_pour.cpp:691)
     10000   0.002                225  -0              5.2709941e+15  4.8254863e-07  0.60826128   
     20000   0.004                225  -0              5.1733474e+15  4.8254863e-07  0.59288171   
     30000   0.006                225  -0              5.0884438e+15  4.8254863e-07  0.57837291   
     40000   0.008                225  -0              5.0147679e+15  4.8254863e-07  0.56468557   
     50000   0.01                 225  -0              4.9509776e+15  4.8254863e-07  0.55177319   
     60000   0.012                225  -0              4.8958845e+15  4.8254863e-07  0.53959189   
     70000   0.014                225  -0              4.8484365e+15  4.8254863e-07  0.52810028   
     80000   0.016                225  -0              4.8077029e+15  4.8254863e-07  0.5172593    
     90000   0.018                225  -0              4.7728602e+15  4.8254863e-07  0.50703212   
    100000   0.02                 225  -0              4.7431805e+15  4.8254863e-07  0.49738399   
    110000   0.022                225  -0              4.7180205e+15  4.8254863e-07  0.48828212   
    120000   0.024                225  -0              4.6968118e+15  4.8254863e-07  0.47969558   
    130000   0.026                225  -0              4.6790528e+15  4.8254863e-07  0.4715952    
    140000   0.028                225  -0              4.6643006e+15  4.8254863e-07  0.46395345   
    150000   0.03                 225  -0              4.6521648e+15  4.8254863e-07  0.45674436   
    160000   0.032                225  -0              4.6423013e+15  4.8254863e-07  0.44994345   
    170000   0.034                225  -0              4.634407e+15   4.8254863e-07  0.44352759   
    180000   0.036                225  -0              4.6282151e+15  4.8254863e-07  0.43747498   
    190000   0.038                225  -0              4.6234913e+15  4.8254863e-07  0.43176507   
    200000   0.04                 225  -0              4.6200293e+15  4.8254863e-07  0.42637844   
    210000   0.042                225  -0              4.6176483e+15  4.8254863e-07  0.42129679   
    220000   0.044                225  -0              4.6161898e+15  4.8254863e-07  0.41650286   
    230000   0.046                225  -0              4.6155149e+15  4.8254863e-07  0.41198035   
    240000   0.048                225  -0              4.615502e+15   4.8254863e-07  0.4077139    
    250000   0.05                 225  -0              4.616045e+15   4.8254863e-07  0.40368901   
    260000   0.052                225  -0              4.6170514e+15  4.8254863e-07  0.399892     
    270000   0.054                225  -0              4.6184405e+15  4.8254863e-07  0.39630998   
    280000   0.056                225  -0              4.6201424e+15  4.8254863e-07  0.39293076   
    290000   0.058                225  -0              4.6220962e+15  4.8254863e-07  0.38974287   
    300000   0.06                 225  -0              4.6242493e+15  4.8254863e-07  0.38673547   
    310000   0.062                225  -0              4.6265564e+15  4.8254863e-07  0.38389835   
WARNING: Fewer insertions than requested (src/GRANULAR/fix_pour.cpp:691)
    320000   0.064                431  -0              5.1724317e+15  9.2434871e-07  0.61841841   
    330000   0.066                431  -0              5.0857765e+15  9.2434871e-07  0.60212316   
    340000   0.068                431  -0              5.0073888e+15  9.2434871e-07  0.58709113   
    350000   0.07                 431  -0              4.9467624e+15  9.2434871e-07  0.55175566   
    360000   0.072                431  -0              4.8975387e+15  9.2434871e-07  0.52920931   
    370000   0.074                431  -0              4.8635244e+15  9.2434871e-07  0.51830554   
    380000   0.076                431  -0              4.8325056e+15  9.2434871e-07  0.50801912   
    390000   0.078                431  -0              4.8047637e+15  9.2434871e-07  0.49831511   
    400000   0.08                 431  -0              4.7817099e+15  9.2434871e-07  0.48905094   
    410000   0.082                431  -0              4.7640115e+15  9.2434871e-07  0.48042087   
    420000   0.084                431  -0              4.7494799e+15  9.2434871e-07  0.47227943   
    430000   0.086                431  -0              4.7116347e+15  9.2434871e-07  0.44858706   
    440000   0.088                431  -0              4.6024733e+15  9.2434871e-07  0.44224799   
    450000   0.09                 431  -0              4.5437069e+15  9.2434871e-07  0.43626784   
    460000   0.092                431  -0              4.5269504e+15  9.2434871e-07  0.43062627   
    470000   0.094                431  -0              4.5150162e+15  9.2434871e-07  0.42530411   
    480000   0.096                431  -0              4.4612744e+15  9.2434871e-07  0.42028329   
    490000   0.098                431  -0              4.4022494e+15  9.2434871e-07  0.41554674   
    500000   0.1                  431  -0              4.3884398e+15  9.2434871e-07  0.41107837   
    510000   0.102                431  -0              4.33084e+15    9.2434871e-07  0.40686299   
    520000   0.104                431  -0              4.2816424e+15  9.2434871e-07  0.39998203   
    530000   0.106                431  -0              4.2381433e+15  9.2434871e-07  0.39639491   
    540000   0.108                431  -0              4.1994951e+15  9.2434871e-07  0.39301088   
    550000   0.11                 431  -0              4.1824759e+15  9.2434871e-07  0.38981845   
    560000   0.112                431  -0              4.1581631e+15  9.2434871e-07  0.38680678   
    570000   0.114                431  -0              4.1419788e+15  9.2434871e-07  0.38396561   
    580000   0.116                431  -0              4.1249127e+15  9.2434871e-07  0.38128531   
    590000   0.118                431  -0              4.107049e+15   9.2434871e-07  0.37875677   
    600000   0.12                 431  -0              4.0706107e+15  9.2434871e-07  0.37637139   
    610000   0.122                431  -0              4.0513706e+15  9.2434871e-07  0.37412106   
    620000   0.124                431  -0              4.0162826e+15  9.2434871e-07  0.37199815   
    630000   0.126                431  -0              3.9877816e+15  9.2434871e-07  0.36999543   
WARNING: Fewer insertions than requested (src/GRANULAR/fix_pour.cpp:691)
    640000   0.128                624  -0              4.4039637e+15  1.3382682e-06  0.61745426   
    650000   0.13                 624  -0              4.3031907e+15  1.3382682e-06  0.6015542    
    660000   0.132                624  -0              4.2508506e+15  1.3382682e-06  0.58655437   
    670000   0.134                624  -0              4.2081295e+15  1.3382682e-06  0.57240381   
    680000   0.136                624  -0              4.1659066e+15  1.3382682e-06  0.55905444   
    690000   0.138                624  -0              4.1265432e+15  1.3382682e-06  0.54325328   
    700000   0.14                 624  -0              4.1099372e+15  1.3382682e-06  0.53155436   
    710000   0.142                624  -0              4.0802905e+15  1.3382682e-06  0.51413705   
    720000   0.144                624  -0              4.0468024e+15  1.3382682e-06  0.50408665   
    730000   0.146                624  -0              3.988685e+15   1.3382682e-06  0.49460528   
    740000   0.148                624  -0              3.9294708e+15  1.3382682e-06  0.48566074   
    750000   0.15                 624  -0              3.8634841e+15  1.3382682e-06  0.47722262   
    760000   0.152                624  -0              3.7943202e+15  1.3382682e-06  0.46808051   
    770000   0.154                624  -0              3.7149181e+15  1.3382682e-06  0.46016719   
    780000   0.156                624  -0              3.6202489e+15  1.3382682e-06  0.45317248   
    790000   0.158                624  -0              3.4876649e+15  1.3382682e-06  0.44657379   
    800000   0.16                 624  -0              3.3674603e+15  1.3382682e-06  0.44034872   
    810000   0.162                624  -0              3.3005277e+15  1.3382682e-06  0.43447609   
    820000   0.164                624  -0              3.2300313e+15  1.3382682e-06  0.42893597   
    830000   0.166                624  -0              3.1280363e+15  1.3382682e-06  0.42370952   
    840000   0.168                624  -0              3.0530667e+15  1.3382682e-06  0.41877898   
    850000   0.17                 624  -0              3.0007077e+15  1.3382682e-06  0.41412761   
    860000   0.172                624  -0              2.9403932e+15  1.3382682e-06  0.40973958   
    870000   0.174                624  -0              2.8965141e+15  1.3382682e-06  0.4056       
    880000   0.176                624  -0              2.8318408e+15  1.3382682e-06  0.4016948    
    890000   0.178                624  -0              2.7722806e+15  1.3382682e-06  0.3980107    
    900000   0.18                 624  -0              2.6572146e+15  1.3382682e-06  0.39453519   
    910000   0.182                624  -0              2.5841293e+15  1.3382682e-06  0.39125646   
    920000   0.184                624  -0              2.481463e+15   1.3382682e-06  0.38816336   
    930000   0.186                624  -0              2.433411e+15   1.3382682e-06  0.38524539   
    940000   0.188                624  -0              2.349516e+15   1.3382682e-06  0.38249263   
    950000   0.19                 624  -0              2.3072072e+15  1.3382682e-06  0.37989573   
WARNING: Fewer insertions than requested (src/GRANULAR/fix_pour.cpp:691)
    960000   0.192                841  -0              3.029942e+15   1.8036596e-06  0.62000314   
    970000   0.194                841  -0              2.982045e+15   1.8036596e-06  0.60395877   
    980000   0.196                841  -0              2.9343763e+15  1.8036596e-06  0.5888228    
    990000   0.198                841  -0              2.8855195e+15  1.8036596e-06  0.57454381   
   1000000   0.2                  841  -0              2.8037706e+15  1.8036596e-06  0.56107327   
   1010000   0.202                841  -0              2.7435589e+15  1.8036596e-06  0.54638025   
   1020000   0.204                841  -0              2.6963645e+15  1.8036596e-06  0.53448621   
   1030000   0.206                841  -0              2.6454045e+15  1.8036596e-06  0.52326687   
   1040000   0.208                841  -0              2.5954086e+15  1.8036596e-06  0.51268397   
   1050000   0.21                 841  -0              2.5552886e+15  1.8036596e-06  0.50270141   
   1060000   0.212                841  -0              2.5298465e+15  1.8036596e-06  0.49328512   
   1070000   0.214                841  -0              2.4824907e+15  1.8036596e-06  0.48440299   
   1080000   0.216                841  -0              2.4501663e+15  1.8036596e-06  0.47602471   
   1090000   0.218                841  -0              2.418782e+15   1.8036596e-06  0.4681217    
   1100000   0.22                 841  -0              2.3572618e+15  1.8036596e-06  0.46066699   
   1110000   0.222                841  -0              2.3245254e+15  1.8036596e-06  0.42181584   
   1120000   0.224                841  -0              2.2662187e+15  1.8036596e-06  0.41699252   
   1130000   0.226                841  -0              2.2029946e+15  1.8036596e-06  0.41244229   
   1140000   0.228                841  -0              2.1497757e+15  1.8036596e-06  0.40814968   
   1150000   0.23                 841  -0              2.0877109e+15  1.8036596e-06  0.40410012   
   1160000   0.232                841  -0              2.0394784e+15  1.8036596e-06  0.40027984   
   1170000   0.234                841  -0              1.9780135e+15  1.8036596e-06  0.39667585   
   1180000   0.236                841  -0              1.9426105e+15  1.8036596e-06  0.39327592   
   1190000   0.238                841  -0              1.9052212e+15  1.8036596e-06  0.39006848   
   1200000   0.24                 841  -0              1.8615546e+15  1.8036596e-06  0.38704265   
   1210000   0.242                841  -0              1.8509155e+15  1.8036596e-06  0.38418813   
   1220000   0.244                841  -0              1.8345543e+15  1.8036596e-06  0.38149524   
   1230000   0.246                841  -0              1.8274445e+15  1.8036596e-06  0.37895481   
   1240000   0.248                841  -0              1.8146382e+15  1.8036596e-06  0.37655821   
   1250000   0.25                 841  -0              1.7891147e+15  1.8036596e-06  0.37429731   
   1260000   0.252                841  -0              1.7644558e+15  1.8036596e-06  0.37216441   
   1270000   0.254                841  -0              1.7374006e+15  1.8036596e-06  0.37015228   
WARNING: Fewer insertions than requested (src/GRANULAR/fix_pour.cpp:691)
   1280000   0.256               1022  -0              2.3243107e+15  2.1918431e-06  0.62046762   
   1290000   0.258               1022  -0              2.2579571e+15  2.1918431e-06  0.60439694   
   1300000   0.26                1022  -0              2.1907899e+15  2.1918431e-06  0.58923617   
   1310000   0.262               1022  -0              2.1535959e+15  2.1918431e-06  0.57493377   
   1320000   0.264               1022  -0              2.1003598e+15  2.1918431e-06  0.56144115   
   1330000   0.266               1022  -0              2.0497594e+15  2.1918431e-06  0.54871247   
   1340000   0.268               1022  -0              2.0067242e+15  2.1918431e-06  0.53670446   
   1350000   0.27                1022  -0              1.9742635e+15  2.1918431e-06  0.52537632   
   1360000   0.272               1022  -0              1.9402752e+15  2.1918431e-06  0.51468957   
   1370000   0.274               1022  -0              1.9048617e+15  2.1918431e-06  0.50460789   
   1380000   0.276               1022  -0              1.8655859e+15  2.1918431e-06  0.49509701   
   1390000   0.278               1022  -0              1.8101681e+15  2.1918431e-06  0.47433664   
   1400000   0.28                1022  -0              1.7681829e+15  2.1918431e-06  0.46350079   
   1410000   0.282               1022  -0              1.735817e+15   2.1918431e-06  0.45630015   
   1420000   0.284               1022  -0              1.6875324e+15  2.1918431e-06  0.44950862   
   1430000   0.286               1022  -0              1.6390951e+15  2.1918431e-06  0.44310293   
   1440000   0.288               1022  -0              1.5798991e+15  2.1918431e-06  0.43706114   
   1450000   0.29                1022  -0              1.5314753e+15  2.1918431e-06  0.42913868   
   1460000   0.292               1022  -0              1.4875835e+15  2.1918431e-06  0.42388301   
   1470000   0.294               1022  -0              1.4548214e+15  2.1918431e-06  0.41892648   
   1480000   0.296               1022  -0              1.421501e+15   2.1918431e-06  0.41425202   
   1490000   0.298               1022  -0              1.4017721e+15  2.1918431e-06  0.40984356   
   1500000   0.3                 1022  -0              1.3883793e+15  2.1918431e-06  0.40568591   
   1510000   0.302               1022  -0              1.3720662e+15  2.1918431e-06  0.40176479   
   1520000   0.304               1022  -0              1.3523566e+15  2.1918431e-06  0.38840678   
   1530000   0.306               1022  -0              1.3195003e+15  2.1918431e-06  0.38547459   
   1540000   0.308               1022  -0              1.300192e+15   2.1918431e-06  0.38270846   
   1550000   0.31                1022  -0              1.2382774e+15  2.1918431e-06  0.38009898   
   1560000   0.312               1022  -0              1.1931673e+15  2.1918431e-06  0.36760099   
   1570000   0.314               1022  -0              1.1407551e+15  2.1918431e-06  0.36584372   
   1580000   0.316               1022  -0              1.0875284e+15  2.1918431e-06  0.36400125   
   1590000   0.318               1022  -0              1.0597808e+15  2.1918431e-06  0.35899262   
WARNING: Fewer insertions than requested (src/GRANULAR/fix_pour.cpp:691)
   1600000   0.32                1207  -0              1.6045121e+15  2.5886053e-06  0.61219144   
   1610000   0.322               1207  -0              1.5635369e+15  2.5886053e-06  0.59658936   
   1620000   0.324               1207  -0              1.5292087e+15  2.5886053e-06  0.58168606   
   1630000   0.326               1207  -0              1.5022908e+15  2.5886053e-06  0.56781114   
   1640000   0.328               1207  -0              1.441583e+15   2.5886053e-06  0.54206881   
   1650000   0.33                1207  -0              1.4159495e+15  2.5886053e-06  0.53043696   
   1660000   0.332               1207  -0              1.3796206e+15  2.5886053e-06  0.51946368   
   1670000   0.334               1207  -0              1.3142481e+15  2.5886053e-06  0.50911169   
   1680000   0.336               1207  -0              1.2766395e+15  2.5886053e-06  0.49934582   
   1690000   0.338               1207  -0              1.2486182e+15  2.5886053e-06  0.49013287   
   1700000   0.34                1207  -0              1.2145225e+15  2.5886053e-06  0.47561121   
   1710000   0.342               1207  -0              1.1701102e+15  2.5886053e-06  0.46773593   
   1720000   0.344               1207  -0              1.146417e+15   2.5886053e-06  0.46030703   
   1730000   0.346               1207  -0              1.1291504e+15  2.5886053e-06  0.4532992    
   1740000   0.348               1207  -0              1.1179932e+15  2.5886053e-06  0.44668857   
   1750000   0.35                1207  -0              1.1071423e+15  2.5886053e-06  0.44045263   
   1760000   0.352               1207  -0              1.0885291e+15  2.5886053e-06  0.43457014   
   1770000   0.354               1207  -0              1.0777819e+15  2.5886053e-06  0.42902104   
   1780000   0.356               1207  -0              1.0555928e+15  2.5886053e-06  0.42378644   
   1790000   0.358               1207  -0              1.0371156e+15  2.5886053e-06  0.41884852   
   1800000   0.36                1207  -0              1.0209375e+15  2.5886053e-06  0.40930086   
   1810000   0.362               1207  -0              1.0071883e+15  2.5886053e-06  0.40518612   
   1820000   0.364               1207  -0              9.9338429e+14  2.5886053e-06  0.40130435   
   1830000   0.366               1207  -0              9.591851e+14   2.5886053e-06  0.39764236   
   1840000   0.368               1207  -0              9.2151863e+14  2.5886053e-06  0.38978877   
   1850000   0.37                1207  -0              8.8368645e+14  2.5886053e-06  0.38677877   
   1860000   0.372               1207  -0              8.4848594e+14  2.5886053e-06  0.36956994   
   1870000   0.374               1207  -0              8.1128034e+14  2.5886053e-06  0.36490813   
   1880000   0.376               1207  -0              7.8465279e+14  2.5886053e-06  0.36330551   
   1890000   0.378               1207  -0              7.6155431e+14  2.5886053e-06  0.35726476   
   1900000   0.38                1207  -0              7.4148306e+14  2.5886053e-06  0.35609623   
   1910000   0.382               1207  -0              7.2138248e+14  2.5886053e-06  0.35499385   
WARNING: Fewer insertions than requested (src/GRANULAR/fix_pour.cpp:691)
   1920000   0.384               1389  -0              1.3243113e+15  2.9789336e-06  0.61093029   
   1930000   0.386               1389  -0              1.2920714e+15  2.9789336e-06  0.59539961   
   1940000   0.388               1389  -0              1.2432556e+15  2.9789336e-06  0.58074825   
   1950000   0.39                1389  -0              1.207617e+15   2.9789336e-06  0.56692642   
   1960000   0.392               1389  -0              1.1765636e+15  2.9789336e-06  0.55388717   
   1970000   0.394               1389  -0              1.1349129e+15  2.9789336e-06  0.54158618   
   1980000   0.396               1389  -0              1.0925586e+15  2.9789336e-06  0.52998165   
   1990000   0.398               1389  -0              1.0617641e+15  2.9789336e-06  0.51903415   
   2000000   0.4                 1389  -0              1.0415006e+15  2.9789336e-06  0.50870648   
   2010000   0.402               1389  -0              1.0309007e+15  2.9789336e-06  0.49896355   
   2020000   0.404               1389  -0              1.0087882e+15  2.9789336e-06  0.48977225   
   2030000   0.406               1389  -0              9.9115378e+14  2.9789336e-06  0.48110134   
   2040000   0.408               1389  -0              9.8534239e+14  2.9789336e-06  0.47292137   
   2050000   0.41                1389  -0              9.7305207e+14  2.9789336e-06  0.46520453   
   2060000   0.412               1389  -0              9.6319319e+14  2.9789336e-06  0.45792461   
   2070000   0.414               1389  -0              9.5095941e+14  2.9789336e-06  0.45105687   
   2080000   0.416               1389  -0              9.4182176e+14  2.9789336e-06  0.44457797   
   2090000   0.418               1389  -0              9.2152359e+14  2.9789336e-06  0.42185796   
   2100000   0.42                1389  -0              8.9023145e+14  2.9789336e-06  0.41703029   
   2110000   0.422               1389  -0              8.4463656e+14  2.9789336e-06  0.40000115   
   2120000   0.424               1389  -0              7.9928045e+14  2.9789336e-06  0.3847759    
   2130000   0.426               1389  -0              7.7019331e+14  2.9789336e-06  0.38202091   
   2140000   0.428               1389  -0              7.4307265e+14  2.9789336e-06  0.37853746   
   2150000   0.43                1389  -0              7.2428999e+14  2.9789336e-06  0.37616449   
   2160000   0.432               1389  -0              6.8876478e+14  2.9789336e-06  0.37392588   
   2170000   0.434               1389  -0              6.607516e+14   2.9789336e-06  0.37181401   
   2180000   0.436               1389  -0              6.2869258e+14  2.9789336e-06  0.36251682   
   2190000   0.438               1389  -0              5.954603e+14   2.9789336e-06  0.36104825   
   2200000   0.44                1389  -0              5.4083444e+14  2.9789336e-06  0.35306829   
   2210000   0.442               1389  -0              5.1075613e+14  2.9789336e-06  0.35213735   
   2220000   0.444               1389  -0              4.8144425e+14  2.9789336e-06  0.35125912   
   2230000   0.446               1389  -0              4.4961622e+14  2.9789336e-06  0.35043061   
WARNING: Fewer insertions than requested (src/GRANULAR/fix_pour.cpp:691)
   2240000   0.448               1620  -0              1.147039e+15   3.4743501e-06  0.61404799   
   2250000   0.45                1620  -0              1.0993489e+15  3.4743501e-06  0.59784862   
   2260000   0.452               1620  -0              1.0639686e+15  3.4743501e-06  0.5830586    
   2270000   0.454               1620  -0              1.0354462e+15  3.4743501e-06  0.56910597   
   2280000   0.456               1620  -0              1.0117312e+15  3.4743501e-06  0.55594331   
   2290000   0.458               1620  -0              9.9361627e+14  3.4743501e-06  0.54352591   
   2300000   0.46                1620  -0              9.8042516e+14  3.4743501e-06  0.52948969   
   2310000   0.462               1620  -0              9.683888e+14   3.4743501e-06  0.51857005   
   2320000   0.464               1620  -0              9.5669664e+14  3.4743501e-06  0.50826865   
   2330000   0.466               1620  -0              9.467597e+14   3.4743501e-06  0.49855051   
   2340000   0.468               1620  -0              9.3780841e+14  3.4743501e-06  0.48938259   
   2350000   0.47                1620  -0              9.1832248e+14  3.4743501e-06  0.47814557   
   2360000   0.472               1620  -0              8.8158886e+14  3.4743501e-06  0.46452729   
   2370000   0.474               1620  -0              8.5606935e+14  3.4743501e-06  0.43126691   
   2380000   0.476               1620  -0              8.1693277e+14  3.4743501e-06  0.41844515   
   2390000   0.478               1620  -0              7.7282799e+14  3.4743501e-06  0.40361488   
   2400000   0.48                1620  -0              7.5217072e+14  3.4743501e-06  0.39870746   
   2410000   0.482               1620  -0              7.1345878e+14  3.4743501e-06  0.39517836   
   2420000   0.484               1620  -0              6.9139088e+14  3.4743501e-06  0.38458224   
   2430000   0.486               1620  -0              6.6336608e+14  3.4743501e-06  0.38186703   
   2440000   0.488               1620  -0              6.3637632e+14  3.4743501e-06  0.37930555   
   2450000   0.49                1620  -0              5.8890499e+14  3.4743501e-06  0.37598794   
   2460000   0.492               1620  -0              5.4931266e+14  3.4743501e-06  0.36933472   
   2470000   0.494               1620  -0              4.9781295e+14  3.4743501e-06  0.3674828    
   2480000   0.496               1620  -0              4.5450669e+14  3.4743501e-06  0.36081764   
   2490000   0.498               1620  -0              4.2354092e+14  3.4743501e-06  0.35714463   
   2500000   0.5                 1620  -0              3.9434185e+14  3.4743501e-06  0.3543442    
   2510000   0.502               1620  -0              3.7225616e+14  3.4743501e-06  0.35332403   
   2520000   0.504               1620  -0              3.5514424e+14  3.4743501e-06  0.34690406   
   2530000   0.506               1620  -0              3.4980961e+14  3.4743501e-06  0.34387875   
   2540000   0.508               1620  -0              3.4483324e+14  3.4743501e-06  0.34228618   
   2550000   0.51                1620  -0              3.4047509e+14  3.4743501e-06  0.34094882   
WARNING: Fewer insertions than requested (src/GRANULAR/fix_pour.cpp:691)
   2560000   0.512               1827  -0              9.5784856e+14  3.9182949e-06  0.61609689   
   2570000   0.514               1827  -0              9.3337037e+14  3.9182949e-06  0.60027369   
   2580000   0.516               1827  -0              9.1005848e+14  3.9182949e-06  0.58498405   
   2590000   0.518               1827  -0              8.8753392e+14  3.9182949e-06  0.5709224    
   2600000   0.52                1827  -0              8.68996e+14    3.9182949e-06  0.5576569    
   2610000   0.522               1827  -0              8.4628801e+14  3.9182949e-06  0.54514247   
   2620000   0.524               1827  -0              8.1357343e+14  3.9182949e-06  0.52074424   
   2630000   0.526               1827  -0              7.9158836e+14  3.9182949e-06  0.51031975   
   2640000   0.528               1827  -0              7.5972366e+14  3.9182949e-06  0.50048548   
   2650000   0.53                1827  -0              7.1066272e+14  3.9182949e-06  0.46514783   
   2660000   0.532               1827  -0              6.6917588e+14  3.9182949e-06  0.43302307   
   2670000   0.534               1827  -0              6.3710865e+14  3.9182949e-06  0.42755331   
   2680000   0.536               1827  -0              5.8717109e+14  3.9182949e-06  0.42239429   
   2690000   0.538               1827  -0              5.3970602e+14  3.9182949e-06  0.41209905   
   2700000   0.54                1827  -0              4.984993e+14   3.9182949e-06  0.40773245   
   2710000   0.542               1827  -0              4.6480852e+14  3.9182949e-06  0.37636146   
   2720000   0.544               1827  -0              4.3141259e+14  3.9182949e-06  0.37409199   
   2730000   0.546               1827  -0              4.0487699e+14  3.9182949e-06  0.36800149   
   2740000   0.548               1827  -0              3.6496603e+14  3.9182949e-06  0.36622492   
   2750000   0.55                1827  -0              3.2441494e+14  3.9182949e-06  0.36454895   
   2760000   0.552               1827  -0              2.9650575e+14  3.9182949e-06  0.36106076   
   2770000   0.554               1827  -0              2.7368347e+14  3.9182949e-06  0.35386137   
   2780000   0.556               1827  -0              2.5613441e+14  3.9182949e-06  0.34963995   
   2790000   0.558               1827  -0              2.3609433e+14  3.9182949e-06  0.34538658   
   2800000   0.56                1827  -0              2.3210147e+14  3.9182949e-06  0.3414525    
   2810000   0.562               1827  -0              2.268787e+14   3.9182949e-06  0.34088759   
   2820000   0.564               1827  -0              2.2047456e+14  3.9182949e-06  0.33743874   
   2830000   0.566               1827  -0              2.1316618e+14  3.9182949e-06  0.33604271   
   2840000   0.568               1827  -0              2.1086261e+14  3.9182949e-06  0.33607573   
   2850000   0.57                1827  -0              2.0001979e+14  3.9182949e-06  0.33167655   
   2860000   0.572               1827  -0              1.9048093e+14  3.9182949e-06  0.32896603   
   2870000   0.574               1827  -0              1.8563779e+14  3.9182949e-06  0.32800976   
   2880000   0.576               1850  -0              2.2370796e+14  3.9676221e-06  0.58820309   
   2890000   0.578               1850  -0              2.1949791e+14  3.9676221e-06  0.56447005   
   2900000   0.58                1850  -0              2.1839141e+14  3.9676221e-06  0.55156987   
   2910000   0.582               1850  -0              2.1237383e+14  3.9676221e-06  0.53940008   
   2920000   0.584               1850  -0              1.9671651e+14  3.9676221e-06  0.52791932   
   2930000   0.586               1850  -0              1.9088268e+14  3.9676221e-06  0.51708859   
   2940000   0.588               1850  -0              1.7819664e+14  3.9676221e-06  0.39302916   
   2950000   0.59                1850  -0              1.6544559e+14  3.9676221e-06  0.3898357    
   2960000   0.592               1850  -0              1.5992832e+14  3.9676221e-06  0.38682304   
   2970000   0.594               1850  -0              1.532923e+14   3.9676221e-06  0.38398096   
   2980000   0.596               1850  -0              1.4133994e+14  3.9676221e-06  0.38129979   
   2990000   0.598               1850  -0              1.3233269e+14  3.9676221e-06  0.37877043   
   3000000   0.6                 1850  -0              1.2155908e+14  3.9676221e-06  0.37638427   
Loop time of 324.436 on 1 procs for 3000000 steps with 1850 atoms

100.0% CPU use with 1 MPI tasks x 1 OpenMP threads

MPI task timing breakdown:
Section |  min time  |  avg time  |  max time  |%varavg| %total
---------------------------------------------------------------
Pair    | 231.83     | 231.83     | 231.83     |   0.0 | 71.46
Neigh   | 0.57453    | 0.57453    | 0.57453    |   0.0 |  0.18
Comm    | 0.062367   | 0.062367   | 0.062367   |   0.0 |  0.02
Output  | 0.13813    | 0.13813    | 0.13813    |   0.0 |  0.04
Modify  | 87.876     | 87.876     | 87.876     |   0.0 | 27.09
Other   |            | 3.954      |            |       |  1.22

Nlocal:           1850 ave        1850 max        1850 min
Histogram: 1 0 0 0 0 0 0 0 0 0
Nghost:              0 ave           0 max           0 min
Histogram: 1 0 0 0 0 0 0 0 0 0
Neighs:           6763 ave        6763 max        6763 min
Histogram: 1 0 0 0 0 0 0 0 0 0

Total # of neighbors = 6763
Ave neighs/atom = 3.6556757
Neighbor list builds = 2166
Dangerous builds = 0
Generated 0 of 0 mixed pair_coeff terms from geometric mixing rule
Setting up Verlet run ...
  Unit style    : si
  Current step  : 0
  Time step     : 2e-07
Per MPI rank memory allocation (min/avg/max) = 14.72 | 14.72 | 14.72 Mbytes
   Step          Time         Atoms        KinEng     c_granularTemp c_solidVolume    c_maxSpeed  
         0   0                   1850   8.735599e-06   1.1730826e+14  3.9676221e-06  0.36625573   
     10000   0.002               1850   4.9860461e-06  6.8337253e+13  3.9676221e-06  0.29068536   
     20000   0.004               1850   2.947118e-06   4.1174508e+13  3.9676221e-06  0.23421937   
     30000   0.006               1850   1.9408592e-06  2.742202e+13   3.9676221e-06  0.19202811   
     40000   0.008               1850   1.3141866e-06  1.8725681e+13  3.9676221e-06  0.16050291   
     50000   0.01                1850   9.5789725e-07  1.3716058e+13  3.9676221e-06  0.13694735   
     60000   0.012               1850   7.1743465e-07  1.0377021e+13  3.9676221e-06  0.1193467    
     70000   0.014               1850   5.7189345e-07  8.2703885e+12  3.9676221e-06  0.10619553   
     80000   0.016               1850   4.7103307e-07  6.8272489e+12  3.9676221e-06  0.096369015  
     90000   0.018               1850   4.0460606e-07  5.9223679e+12  3.9676221e-06  0.089026664  
    100000   0.02                1850   3.3010342e-07  4.8763596e+12  3.9676221e-06  0.083540477  
    110000   0.022               1850   2.9798632e-07  4.4028087e+12  3.9676221e-06  0.079441212  
    120000   0.024               1850   2.8174243e-07  4.1656248e+12  3.9676221e-06  0.075488849  
    130000   0.026               1850   2.4335011e-07  3.6305455e+12  3.9676221e-06  0.073425055  
    140000   0.028               1850   2.1347567e-07  3.1828764e+12  3.9676221e-06  0.071882993  
    150000   0.03                1850   2.0679793e-07  3.0782349e+12  3.9676221e-06  0.070730768  
    160000   0.032               1850   1.9624611e-07  2.9232987e+12  3.9676221e-06  0.069869828  
    170000   0.034               1850   1.911751e-07   2.870098e+12   3.9676221e-06  0.069226536  
    180000   0.036               1850   1.928091e-07   2.8959848e+12  3.9676221e-06  0.06874587   
    190000   0.038               1850   1.8719534e-07  2.7953958e+12  3.9676221e-06  0.068386717  
    200000   0.04                1850   1.8371791e-07  2.736841e+12   3.9676221e-06  0.068118359  
    210000   0.042               1850   1.6904104e-07  2.4749311e+12  3.9676221e-06  0.067917843  
    220000   0.044               1850   1.6587295e-07  2.4242209e+12  3.9676221e-06  0.067768018  
    230000   0.046               1850   1.6525998e-07  2.4081394e+12  3.9676221e-06  0.067656069  
    240000   0.048               1850   1.6541241e-07  2.3972934e+12  3.9676221e-06  0.06757242   
    250000   0.05                1850   1.6033269e-07  2.2779666e+12  3.9676221e-06  0.067509919  
    260000   0.052               1850   1.5223326e-07  2.1404881e+12  3.9676221e-06  0.067463218  
    270000   0.054               1850   1.5161279e-07  2.1265028e+12  3.9676221e-06  0.067428323  
    280000   0.056               1850   1.5195538e-07  2.13177e+12    3.9676221e-06  0.067402249  
    290000   0.058               1850   1.5084102e-07  2.0976716e+12  3.9676221e-06  0.067382767  
    300000   0.06                1850   1.4858566e-07  2.0525811e+12  3.9676221e-06  0.06736821   
    310000   0.062               1850   1.4868109e-07  2.0475871e+12  3.9676221e-06  0.067357333  
    320000   0.064               1850   1.4127051e-07  1.950971e+12   3.9676221e-06  0.067347292  
    330000   0.066               1850   1.4223486e-07  1.9650164e+12  3.9676221e-06  0.067341703  
    340000   0.068               1850   1.4363505e-07  1.9892482e+12  3.9676221e-06  0.067337527  
    350000   0.07                1850   1.4433471e-07  2.0061769e+12  3.9676221e-06  0.067334407  
    360000   0.072               1850   1.4213948e-07  1.9709479e+12  3.9676221e-06  0.067332076  
    370000   0.074               1850   1.4340391e-07  1.9978819e+12  3.9676221e-06  0.067330334  
    380000   0.076               1850   1.4295545e-07  1.9798541e+12  3.9676221e-06  0.067329032  
    390000   0.078               1850   1.4385161e-07  2.0025205e+12  3.9676221e-06  0.06732806   
    400000   0.08                1850   1.4194989e-07  1.9585995e+12  3.9676221e-06  0.067327333  
    410000   0.082               1850   1.4286881e-07  1.9713877e+12  3.9676221e-06  0.06732679   
    420000   0.084               1850   1.4435268e-07  1.9903035e+12  3.9676221e-06  0.067326384  
    430000   0.086               1850   1.4643e-07     2.0239321e+12  3.9676221e-06  0.067326081  
    440000   0.088               1850   1.4673661e-07  2.0208953e+12  3.9676221e-06  0.067325855  
    450000   0.09                1850   1.4382165e-07  1.9726826e+12  3.9676221e-06  0.067325685  
    460000   0.092               1850   1.4143911e-07  1.9218241e+12  3.9676221e-06  0.067325559  
    470000   0.094               1850   1.3812612e-07  1.8581458e+12  3.9676221e-06  0.067325464  
    480000   0.096               1850   1.382229e-07   1.8579101e+12  3.9676221e-06  0.067325394  
    490000   0.098               1850   1.3742639e-07  1.8431846e+12  3.9676221e-06  0.067325341  
    500000   0.1                 1850   1.3775025e-07  1.848918e+12   3.9676221e-06  0.067325302  
    510000   0.102               1850   1.3816765e-07  1.8578235e+12  3.9676221e-06  0.067325272  
    520000   0.104               1850   1.3354998e-07  1.7686623e+12  3.9676221e-06  0.06732525   
    530000   0.106               1850   1.3363072e-07  1.7717819e+12  3.9676221e-06  0.067325234  
    540000   0.108               1850   1.3348696e-07  1.7676852e+12  3.9676221e-06  0.067325221  
    550000   0.11                1850   1.2875883e-07  1.7162989e+12  3.9676221e-06  0.067325211  
    560000   0.112               1850   1.2797838e-07  1.7086047e+12  3.9676221e-06  0.067325205  
    570000   0.114               1850   1.2715496e-07  1.7029367e+12  3.9676221e-06  0.0673252    
    580000   0.116               1850   1.2691759e-07  1.6974889e+12  3.9676221e-06  0.067325196  
    590000   0.118               1850   1.2671464e-07  1.6942066e+12  3.9676221e-06  0.067325193  
    600000   0.12                1850   1.2092962e-07  1.633692e+12   3.9676221e-06  0.067325191  
    610000   0.122               1850   1.2148218e-07  1.6462515e+12  3.9676221e-06  0.06732519   
    620000   0.124               1850   1.2006855e-07  1.6259551e+12  3.9676221e-06  0.067325188  
    630000   0.126               1850   1.1947458e-07  1.5908065e+12  3.9676221e-06  0.067325188  
    640000   0.128               1850   1.1979138e-07  1.5905768e+12  3.9676221e-06  0.067325187  
    650000   0.13                1850   1.200202e-07   1.5940089e+12  3.9676221e-06  0.067325186  
    660000   0.132               1850   1.143612e-07   1.5280306e+12  3.9676221e-06  0.067325186  
    670000   0.134               1850   1.1420838e-07  1.5284321e+12  3.9676221e-06  0.067325186  
    680000   0.136               1850   1.1314223e-07  1.5098373e+12  3.9676221e-06  0.067325186  
    690000   0.138               1850   1.1336282e-07  1.5134697e+12  3.9676221e-06  0.067325185  
    700000   0.14                1850   1.1380683e-07  1.5215672e+12  3.9676221e-06  0.067325185  
    710000   0.142               1850   1.1006912e-07  1.450558e+12   3.9676221e-06  0.067325185  
    720000   0.144               1850   1.1025661e-07  1.4529596e+12  3.9676221e-06  0.067325185  
    730000   0.146               1850   1.1023828e-07  1.44846e+12    3.9676221e-06  0.067325185  
    740000   0.148               1850   1.102077e-07   1.4492258e+12  3.9676221e-06  0.067325185  
    750000   0.15                1850   1.0925928e-07  1.4315403e+12  3.9676221e-06  0.067325185  
    760000   0.152               1850   1.0664251e-07  1.3983869e+12  3.9676221e-06  0.067325185  
    770000   0.154               1850   1.0300959e-07  1.3583294e+12  3.9676221e-06  0.067325185  
    780000   0.156               1850   1.031407e-07   1.3590171e+12  3.9676221e-06  0.067325185  
    790000   0.158               1850   1.0330245e-07  1.3617364e+12  3.9676221e-06  0.067325185  
    800000   0.16                1850   1.0142134e-07  1.3277314e+12  3.9676221e-06  0.067325185  
    810000   0.162               1850   1.0133518e-07  1.3263673e+12  3.9676221e-06  0.067325185  
    820000   0.164               1850   1.0134487e-07  1.326844e+12   3.9676221e-06  0.067325185  
    830000   0.166               1850   1.0138275e-07  1.3275837e+12  3.9676221e-06  0.067325185  
    840000   0.168               1850   1.0142177e-07  1.3286506e+12  3.9676221e-06  0.067325185  
    850000   0.17                1850   1.0147163e-07  1.330011e+12   3.9676221e-06  0.067325185  
    860000   0.172               1850   1.015338e-07   1.3316706e+12  3.9676221e-06  0.067325185  
    870000   0.174               1850   1.0147037e-07  1.3302757e+12  3.9676221e-06  0.067325185  
    880000   0.176               1850   9.3838858e-08  1.2336213e+12  3.9676221e-06  0.067325185  
    890000   0.178               1850   9.3871657e-08  1.2335609e+12  3.9676221e-06  0.067325185  
    900000   0.18                1850   9.3937165e-08  1.2350945e+12  3.9676221e-06  0.067325185  
    910000   0.182               1850   9.4017298e-08  1.2374392e+12  3.9676221e-06  0.067325185  
    920000   0.184               1850   9.4129325e-08  1.2404307e+12  3.9676221e-06  0.067325185  
    930000   0.186               1850   9.4258217e-08  1.2440761e+12  3.9676221e-06  0.067325185  
    940000   0.188               1850   9.4413832e-08  1.2482385e+12  3.9676221e-06  0.067325185  
    950000   0.19                1850   8.8174291e-08  1.1795316e+12  3.9676221e-06  0.067325185  
    960000   0.192               1850   7.997002e-08   1.0595362e+12  3.9676221e-06  0.067325185  
    970000   0.194               1850   7.2895829e-08  9.718274e+11   3.9676221e-06  0.067325185  
    980000   0.196               1850   7.1658796e-08  9.5065715e+11  3.9676221e-06  0.067325185  
    990000   0.198               1850   7.1701781e-08  9.5239414e+11  3.9676221e-06  0.067325185  
   1000000   0.2                 1850   7.2004743e-08  9.5799215e+11  3.9676221e-06  0.067325185  
   1010000   0.202               1850   6.6916945e-08  9.0435005e+11  3.9676221e-06  0.067325185  
   1020000   0.204               1850   6.7415149e-08  9.1414372e+11  3.9676221e-06  0.067325185  
   1030000   0.206               1850   6.8061668e-08  9.2925007e+11  3.9676221e-06  0.067325185  
   1040000   0.208               1850   6.8873776e-08  9.4434873e+11  3.9676221e-06  0.067325185  
   1050000   0.21                1850   6.7305451e-08  9.2095717e+11  3.9676221e-06  0.067325185  
   1060000   0.212               1850   6.7332509e-08  9.1903737e+11  3.9676221e-06  0.067325185  
   1070000   0.214               1850   6.7701856e-08  9.2714889e+11  3.9676221e-06  0.067325185  
   1080000   0.216               1850   6.8320785e-08  9.4010804e+11  3.9676221e-06  0.067325185  
   1090000   0.218               1850   6.6638419e-08  9.0733392e+11  3.9676221e-06  0.067325185  
   1100000   0.22                1850   6.6905195e-08  9.1265632e+11  3.9676221e-06  0.067325185  
   1110000   0.222               1850   5.9836837e-08  8.1816187e+11  3.9676221e-06  0.067325185  
   1120000   0.224               1850   5.867037e-08   8.0321684e+11  3.9676221e-06  0.067325185  
   1130000   0.226               1850   5.9150188e-08  8.1191953e+11  3.9676221e-06  0.067325185  
   1140000   0.228               1850   5.9796507e-08  8.2510673e+11  3.9676221e-06  0.067325185  
   1150000   0.23                1850   6.0614087e-08  8.4118858e+11  3.9676221e-06  0.067325185  
   1160000   0.232               1850   6.127988e-08   8.5612622e+11  3.9676221e-06  0.067325185  
   1170000   0.234               1850   5.5160185e-08  7.859329e+11   3.9676221e-06  0.067325185  
   1180000   0.236               1850   5.259512e-08   7.6037e+11     3.9676221e-06  0.067325185  
   1190000   0.238               1850   5.1439593e-08  7.4830995e+11  3.9676221e-06  0.067325185  
   1200000   0.24                1850   4.3725794e-08  6.3361266e+11  3.9676221e-06  0.067325185  
   1210000   0.242               1850   4.4236664e-08  6.4412119e+11  3.9676221e-06  0.067325185  
   1220000   0.244               1850   4.5210601e-08  6.659532e+11   3.9676221e-06  0.067325185  
   1230000   0.246               1850   4.5981732e-08  6.8438559e+11  3.9676221e-06  0.067325185  
   1240000   0.248               1850   4.4134579e-08  6.5761374e+11  3.9676221e-06  0.067325185  
   1250000   0.25                1850   3.4590224e-08  5.2536535e+11  3.9676221e-06  0.067325185  
   1260000   0.252               1850   2.9786842e-08  4.4617128e+11  3.9676221e-06  0.067325185  
   1270000   0.254               1850   2.9795566e-08  4.303605e+11   3.9676221e-06  0.067325185  
   1280000   0.256               1850   2.5820706e-08  3.7714833e+11  3.9676221e-06  0.067325185  
   1290000   0.258               1850   2.3247234e-08  3.4201243e+11  3.9676221e-06  0.067325185  
   1300000   0.26                1850   2.2952972e-08  3.320781e+11   3.9676221e-06  0.067325185  
   1310000   0.262               1850   2.3713022e-08  3.4507939e+11  3.9676221e-06  0.067325185  
   1320000   0.264               1850   1.931312e-08   2.9123752e+11  3.9676221e-06  0.067325185  
   1330000   0.266               1850   1.9108793e-08  2.9100144e+11  3.9676221e-06  0.067325185  
   1340000   0.268               1850   1.48812e-08    2.3294787e+11  3.9676221e-06  0.067325185  
   1350000   0.27                1850   1.5477842e-08  2.4007255e+11  3.9676221e-06  0.067325185  
   1360000   0.272               1850   1.6072453e-08  2.5279524e+11  3.9676221e-06  0.067325185  
   1370000   0.274               1850   6.7778753e-09  1.3179518e+11  3.9676221e-06  0.038316421  
   1380000   0.276               1850   6.3319138e-09  1.2738195e+11  3.9676221e-06  0.038394839  
   1390000   0.278               1850   5.9303721e-09  1.1386502e+11  3.9676221e-06  0.0397523    
   1400000   0.28                1850   6.4916021e-09  1.2116484e+11  3.9676221e-06  0.041392014  
   1410000   0.282               1850   4.5922383e-09  8.9815734e+10  3.9676221e-06  0.034302577  
   1420000   0.284               1850   5.2277445e-09  1.0136233e+11  3.9676221e-06  0.03649151   
   1430000   0.286               1850   5.9096023e-09  1.1406669e+11  3.9676221e-06  0.038674342  
   1440000   0.288               1850   5.6843295e-09  1.0680929e+11  3.9676221e-06  0.040827058  
   1450000   0.29                1850   6.1596417e-09  1.1543583e+11  3.9676221e-06  0.042923968  
   1460000   0.292               1850   6.7711435e-09  1.2522855e+11  3.9676221e-06  0.045072495  
   1470000   0.294               1850   7.242035e-09   1.3383268e+11  3.9676221e-06  0.04716516   
   1480000   0.296               1850   7.8574999e-09  1.4418708e+11  3.9676221e-06  0.049408169  
   1490000   0.298               1850   8.527527e-09   1.564628e+11   3.9676221e-06  0.05141124   
   1500000   0.3                 1850   9.180215e-09   1.6834216e+11  3.9676221e-06  0.053480365  
   1510000   0.302               1850   9.9256765e-09  1.816406e+11   3.9676221e-06  0.055498953  
   1520000   0.304               1850   1.0420306e-08  1.9178742e+11  3.9676221e-06  0.05755519   
   1530000   0.306               1850   6.6317241e-09  1.2715483e+11  3.9676221e-06  0.059652667  
   1540000   0.308               1850   2.4345732e-09  4.5210312e+10  3.9676221e-06  0.030419393  
   1550000   0.31                1850   2.740734e-09   4.5596405e+10  3.9676221e-06  0.037122759  
   1560000   0.312               1850   5.1985044e-10  1.4076606e+10  3.9676221e-06  0.0090492594 
   1570000   0.314               1850   3.1949805e-10  9.8592203e+09  3.9676221e-06  0.009691396  
   1580000   0.316               1850   2.9720169e-10  9.039126e+09   3.9676221e-06  0.010424225  
   1590000   0.318               1850   2.9523328e-10  8.7959393e+09  3.9676221e-06  0.011187393  
   1600000   0.32                1850   3.189616e-10   9.2408782e+09  3.9676221e-06  0.012015157  
   1610000   0.322               1850   3.515497e-10   9.973554e+09   3.9676221e-06  0.012894448  
   1620000   0.324               1850   3.9262559e-10  1.0958839e+10  3.9676221e-06  0.013843259  
   1630000   0.326               1850   4.4272562e-10  1.2197267e+10  3.9676221e-06  0.014861491  
   1640000   0.328               1850   2.0554722e-10  6.7297318e+09  3.9676221e-06  0.0089499818 
   1650000   0.33                1850   1.5047415e-10  5.3935462e+09  3.9676221e-06  0.0068503713 
   1660000   0.332               1850   1.261968e-10   5.0324954e+09  3.9676221e-06  0.0056027824 
   1670000   0.334               1850   1.1594067e-10  5.0074299e+09  3.9676221e-06  0.0058744273 
   1680000   0.336               1850   1.1432513e-10  5.2402755e+09  3.9676221e-06  0.0062052692 
   1690000   0.338               1850   1.1934411e-10  5.6801146e+09  3.9676221e-06  0.0066133506 
   1700000   0.34                1850   1.2973142e-10  6.3059944e+09  3.9676221e-06  0.0070921153 
   1710000   0.342               1850   1.4495048e-10  7.1146968e+09  3.9676221e-06  0.0076457714 
   1720000   0.344               1850   1.6487049e-10  8.1162566e+09  3.9676221e-06  0.0082746852 
   1730000   0.346               1850   1.8972646e-10  9.3303313e+09  3.9676221e-06  0.0089811745 
   1740000   0.348               1850   2.2008553e-10  1.0785304e+10  3.9676221e-06  0.0097699037 
   1750000   0.35                1850   2.5672908e-10  1.2517569e+10  3.9676221e-06  0.010645784  
   1760000   0.352               1850   3.0060582e-10  1.4571589e+10  3.9676221e-06  0.011613176  
   1770000   0.354               1850   3.5287578e-10  1.7000117e+10  3.9676221e-06  0.01267707   
   1780000   0.356               1850   2.3353819e-10  1.1519782e+10  3.9676221e-06  0.0084855108 
   1790000   0.358               1850   1.355406e-10   8.0883579e+09  3.9676221e-06  0.0073908003 
   1800000   0.36                1850   1.0792669e-10  7.78529e+09    3.9676221e-06  0.0078276709 
   1810000   0.362               1850   1.4224078e-10  9.347262e+09   3.9676221e-06  0.0082899744 
   1820000   0.364               1850   2.1927952e-10  1.2230033e+10  3.9676221e-06  0.0087805597 
   1830000   0.366               1850   1.650877e-10   1.1640414e+10  3.9676221e-06  0.0092436751 
   1840000   0.368               1850   1.7017528e-10  1.2271161e+10  3.9676221e-06  0.009840853  
   1850000   0.37                1850   1.9494198e-10  1.3970912e+10  3.9676221e-06  0.010391331  
   1860000   0.372               1850   2.267191e-10   1.5914122e+10  3.9676221e-06  0.011077068  
   1870000   0.374               1850   2.4075685e-10  1.7338875e+10  3.9676221e-06  0.011621515  
   1880000   0.376               1850   2.6615306e-10  1.9302851e+10  3.9676221e-06  0.01231155   
   1890000   0.378               1850   2.9536495e-10  2.1604289e+10  3.9676221e-06  0.012965684  
   1900000   0.38                1850   3.295195e-10   2.4184761e+10  3.9676221e-06  0.013693359  
   1910000   0.382               1850   3.6815082e-10  2.7068251e+10  3.9676221e-06  0.014468896  
   1920000   0.384               1850   4.1029469e-10  3.0287006e+10  3.9676221e-06  0.015267018  
   1930000   0.386               1850   4.5705981e-10  3.3875667e+10  3.9676221e-06  0.016104857  
   1940000   0.388               1850   5.0871582e-10  3.7872818e+10  3.9676221e-06  0.016980796  
   1950000   0.39                1850   5.6564449e-10  4.2319806e+10  3.9676221e-06  0.017894626  
   1960000   0.392               1850   6.282229e-10   4.7260692e+10  3.9676221e-06  0.018845711  
   1970000   0.394               1850   6.9692328e-10  5.2741911e+10  3.9676221e-06  0.019834862  
   1980000   0.396               1850   7.7216599e-10  5.8811797e+10  3.9676221e-06  0.020861647  
   1990000   0.398               1850   8.5431621e-10  6.551968e+10   3.9676221e-06  0.021924507  
   2000000   0.4                 1850   9.4378364e-10  7.2914759e+10  3.9676221e-06  0.023022463  
   2010000   0.402               1850   1.0409752e-09  8.1044533e+10  3.9676221e-06  0.024154358  
   2020000   0.404               1850   1.1462397e-09  8.9952621e+10  3.9676221e-06  0.025318192  
   2030000   0.406               1850   1.259911e-09   9.9675907e+10  3.9676221e-06  0.026511845  
   2040000   0.408               1850   1.3823269e-09  1.1024099e+11  3.9676221e-06  0.027733281  
   2050000   0.41                1850   1.5137913e-09  1.2165974e+11  3.9676221e-06  0.02898008   
   2060000   0.412               1850   3.0099927e-10  6.1555754e+10  3.9676221e-06  0.0070148413 
   2070000   0.414               1850   1.0858783e-10  3.189355e+10   3.9676221e-06  0.0075936752 
   2080000   0.416               1850   1.1565288e-10  1.4149141e+10  3.9676221e-06  0.0081886234 
   2090000   0.418               1850   1.332436e-10   4.6515938e+09  3.9676221e-06  0.0088017372 
   2100000   0.42                1850   1.5439943e-10  3.6239272e+09  3.9676221e-06  0.0094812074 
   2110000   0.422               1850   1.7874004e-10  4.1875616e+09  3.9676221e-06  0.010204829  
   2120000   0.424               1850   2.0718037e-10  4.8438276e+09  3.9676221e-06  0.010988143  
   2130000   0.426               1850   2.4025064e-10  5.6038881e+09  3.9676221e-06  0.011833177  
   2140000   0.428               1850   2.784686e-10   6.4829705e+09  3.9676221e-06  0.012739776  
   2150000   0.43                1850   3.2260397e-10  7.4983418e+09  3.9676221e-06  0.013712286  
   2160000   0.432               1850   3.7357558e-10  8.669784e+09   3.9676221e-06  0.014755869  
   2170000   0.434               1850   4.3230559e-10  1.0019589e+10  3.9676221e-06  0.01587344   
   2180000   0.436               1850   4.998444e-10   1.1572568e+10  3.9676221e-06  0.017068411  
   2190000   0.438               1850   5.7740836e-10  1.3356197e+10  3.9676221e-06  0.01834498   
   2200000   0.44                1850   6.6633096e-10  1.5400625e+10  3.9676221e-06  0.019707009  
   2210000   0.442               1850   7.6802711e-10  1.7738536e+10  3.9676221e-06  0.021157483  
   2220000   0.444               1850   8.8399888e-10  2.0404811e+10  3.9676221e-06  0.022698731  
   2230000   0.446               1850   1.0158366e-09  2.3435981e+10  3.9676221e-06  0.024332551  
   2240000   0.448               1850   1.1651749e-09  2.6869376e+10  3.9676221e-06  0.026059812  
   2250000   0.45                1850   1.3336126e-09  3.0741827e+10  3.9676221e-06  0.027879858  
   2260000   0.452               1850   6.905751e-10   1.273613e+10   3.9676221e-06  0.020034837  
   2270000   0.454               1850   4.5899075e-10  8.4698804e+09  3.9676221e-06  0.016348474  
   2280000   0.456               1850   3.7674472e-10  6.9663911e+09  3.9676221e-06  0.014815806  
   2290000   0.458               1850   3.7982533e-10  7.0241203e+09  3.9676221e-06  0.014878308  
   2300000   0.46                1850   4.3254513e-10  7.985687e+09   3.9676221e-06  0.015877694  
   2310000   0.462               1850   2.8818029e-10  6.9922101e+09  3.9676221e-06  0.012872952  
   2320000   0.464               1850   1.2587059e-10  3.9988476e+09  3.9676221e-06  0.0084651805 
   2330000   0.466               1850   7.0027738e-11  2.5009494e+09  3.9676221e-06  0.0062969033 
   2340000   0.468               1850   3.882084e-11   1.5802005e+09  3.9676221e-06  0.0046375269 
   2350000   0.47                1850   2.1151519e-11  1.0095884e+09  3.9676221e-06  0.003342795  
   2360000   0.472               1850   1.1621592e-11  6.5747025e+08  3.9676221e-06  0.0023513328 
   2370000   0.474               1850   7.0733343e-12  4.4365689e+08  3.9676221e-06  0.0016537598 
   2380000   0.476               1850   5.571843e-12   3.2065874e+08  3.9676221e-06  0.0012910537 
   2390000   0.478               1850   5.9804097e-12  2.6066836e+08  3.9676221e-06  0.0013521064 
   2400000   0.48                1850   7.2377438e-12  2.4465846e+08  3.9676221e-06  0.0014872579 
   2410000   0.482               1850   1.0032543e-12  1.1280878e+08  3.9676221e-06  0.00057219305
   2420000   0.484               1850   2.3840732e-12  1.5266888e+08  3.9676221e-06  0.0011650104 
   2430000   0.486               1850   4.8096456e-12  2.2584761e+08  3.9676221e-06  0.0016712154 
   2440000   0.488               1850   7.8766152e-12  3.1916422e+08  3.9676221e-06  0.0021422503 
   2450000   0.49                1850   1.1567513e-11  4.3096959e+08  3.9676221e-06  0.0025963571 
   2460000   0.492               1850   1.5880531e-11  5.6156823e+08  3.9676221e-06  0.0030422877 
   2470000   0.494               1850   6.6986286e-12  2.1238215e+08  3.9676221e-06  0.0016487901 
   2480000   0.496               1850   9.9116886e-14  82950972       3.9676221e-06  8.8459945e-05
   2490000   0.498               1850   1.8972892e-14  81125882       3.9676221e-06  3.9861869e-05
   2500000   0.5                 1850   3.9707057e-15  80800339       3.9676221e-06  2.7356231e-05
   2510000   0.502               1850   1.8188326e-15  80747732       3.9676221e-06  1.4636791e-05
   2520000   0.504               1850   8.6960426e-16  80719695       3.9676221e-06  9.0370696e-06
   2530000   0.506               1850   3.8256851e-16  80709415       3.9676221e-06  6.2027019e-06
   2540000   0.508               1850   1.6961285e-16  80704234       3.9676221e-06  3.7173894e-06
   2550000   0.51                1850   4.6174822e-17  80701012       3.9676221e-06  2.0068483e-06
   2560000   0.512               1850   4.4606134e-17  80701047       3.9676221e-06  1.3208074e-06
   2570000   0.514               1850   1.0906404e-17  80699974       3.9676221e-06  8.7976931e-07
   2580000   0.516               1850   1.4509063e-17  80700114       3.9676221e-06  8.3468871e-07
   2590000   0.518               1850   2.5273281e-18  80699771       3.9676221e-06  5.6150442e-07
   2600000   0.52                1850   3.1446553e-18  80699797       3.9676221e-06  4.2610865e-07
   2610000   0.522               1850   1.1507259e-18  80699728       3.9676221e-06  3.741351e-07 
   2620000   0.524               1850   8.3340377e-19  80699719       3.9676221e-06  2.6357886e-07
   2630000   0.526               1850   4.749443e-19   80699706       3.9676221e-06  2.2283058e-07
   2640000   0.528               1850   2.3659258e-19  80699699       3.9676221e-06  1.6748753e-07
   2650000   0.53                1850   1.3003059e-19  80699695       3.9676221e-06  1.1550156e-07
   2660000   0.532               1850   9.8903263e-20  80699694       3.9676221e-06  9.7543118e-08
   2670000   0.534               1850   2.7345593e-20  80699692       3.9676221e-06  4.9473328e-08
   2680000   0.536               1850   4.3617206e-20  80699692       3.9676221e-06  5.409284e-08 
   2690000   0.538               1850   5.5392954e-21  80699691       3.9676221e-06  2.0955525e-08
   2700000   0.54                1850   1.571118e-20   80699691       3.9676221e-06  3.1587442e-08
   2710000   0.542               1850   2.7019147e-21  80699691       3.9676221e-06  1.4126452e-08
   2720000   0.544               1850   4.4395417e-21  80699691       3.9676221e-06  1.7540732e-08
   2730000   0.546               1850   1.8312945e-21  80699691       3.9676221e-06  1.2941553e-08
   2740000   0.548               1850   1.0231538e-21  80699691       3.9676221e-06  8.9402474e-09
   2750000   0.55                1850   9.1285096e-22  80699691       3.9676221e-06  9.0597217e-09
   2760000   0.552               1850   2.2787456e-22  80699691       3.9676221e-06  4.4267069e-09
   2770000   0.554               1850   3.3486578e-22  80699691       3.9676221e-06  5.1245983e-09
   2780000   0.556               1850   8.6301558e-23  80699691       3.9676221e-06  2.9213174e-09
   2790000   0.558               1850   9.4759463e-23  80699691       3.9676221e-06  2.3323814e-09
   2800000   0.56                1850   4.0874944e-23  80699691       3.9676221e-06  2.4029261e-09
   2810000   0.562               1850   2.2075887e-23  80699691       3.9676221e-06  1.2954379e-09
   2820000   0.564               1850   1.6928169e-23  80699691       3.9676221e-06  1.5952129e-09
   2830000   0.566               1850   6.0821864e-24  80699691       3.9676221e-06  7.9386779e-10
   2840000   0.568               1850   4.6790479e-24  80699691       3.9676221e-06  8.6076854e-10
   2850000   0.57                1850   2.5059479e-24  80699691       3.9676221e-06  4.6604636e-10
   2860000   0.572               1850   7.7973473e-25  80699691       3.9676221e-06  3.4180795e-10
   2870000   0.574               1850   1.1113715e-24  80699691       3.9676221e-06  2.7041884e-10
   2880000   0.576               1850   8.3179789e-26  80699691       3.9676221e-06  5.0549373e-11
   2890000   0.578               1850   3.369434e-25   80699691       3.9676221e-06  1.5144344e-10
   2900000   0.58                1850   8.8989512e-26  80699691       3.9676221e-06  4.1778758e-11
   2910000   0.582               1850   5.4747219e-26  80699691       3.9676221e-06  4.3760448e-11
   2920000   0.584               1850   4.4003364e-26  80699691       3.9676221e-06  3.2451672e-11
   2930000   0.586               1850   3.4092773e-26  80699691       3.9676221e-06  2.4569701e-11
   2940000   0.588               1850   3.0241472e-26  80699691       3.9676221e-06  2.3146532e-11
   2950000   0.59                1850   2.3606915e-26  80699691       3.9676221e-06  2.1984807e-11
   2960000   0.592               1850   2.1095239e-26  80699691       3.9676221e-06  2.1010374e-11
   2970000   0.594               1850   2.3098901e-26  80699691       3.9676221e-06  2.0115318e-11
   2980000   0.596               1850   2.260879e-26   80699691       3.9676221e-06  1.9049263e-11
   2990000   0.598               1850   2.4094906e-26  80699691       3.9676221e-06  1.8163278e-11
   3000000   0.6                 1850   2.6512734e-26  80699691       3.9676221e-06  1.750938e-11 
   3010000   0.602               1850   2.886012e-26   80699691       3.9676221e-06  1.776019e-11 
   3020000   0.604               1850   3.0904216e-26  80699691       3.9676221e-06  1.7972379e-11
   3030000   0.606               1850   3.2108179e-26  80699691       3.9676221e-06  1.7895959e-11
   3040000   0.608               1850   3.3953732e-26  80699691       3.9676221e-06  1.8104125e-11
   3050000   0.61                1850   3.1062393e-26  80699691       3.9676221e-06  1.7668141e-11
   3060000   0.612               1850   3.1921225e-26  80699691       3.9676221e-06  1.7865681e-11
   3070000   0.614               1850   3.1471187e-26  80699691       3.9676221e-06  1.7544235e-11
   3080000   0.616               1850   3.3429146e-26  80699691       3.9676221e-06  1.7790711e-11
   3090000   0.618               1850   3.3993505e-26  80699691       3.9676221e-06  1.8164352e-11
   3100000   0.62                1850   3.4663121e-26  80699691       3.9676221e-06  1.7816134e-11
   3110000   0.622               1850   3.5867913e-26  80699691       3.9676221e-06  1.8065735e-11
   3120000   0.624               1850   3.372887e-26   80699691       3.9676221e-06  1.8485482e-11
   3130000   0.626               1850   3.0800467e-26  80699691       3.9676221e-06  1.7547767e-11
   3140000   0.628               1850   3.2389897e-26  80699691       3.9676221e-06  1.7848384e-11
   3150000   0.63                1850   3.1825292e-26  80699691       3.9676221e-06  1.7835034e-11
   3160000   0.632               1850   3.598776e-26   80699691       3.9676221e-06  1.7949837e-11
   3170000   0.634               1850   3.5774674e-26  80699691       3.9676221e-06  1.7598693e-11
   3180000   0.636               1850   3.6447885e-26  80699691       3.9676221e-06  1.8185568e-11
   3190000   0.638               1850   3.5480965e-26  80699691       3.9676221e-06  1.7869303e-11
   3200000   0.64                1850   3.5660881e-26  80699691       3.9676221e-06  1.7885787e-11
   3210000   0.642               1850   3.6577195e-26  80699691       3.9676221e-06  1.7713669e-11
   3220000   0.644               1850   3.3839238e-26  80699691       3.9676221e-06  1.8156599e-11
   3230000   0.646               1850   3.503975e-26   80699691       3.9676221e-06  1.7724571e-11
   3240000   0.648               1850   3.1946015e-26  80699691       3.9676221e-06  1.7579402e-11
   3250000   0.65                1850   3.2169133e-26  80699691       3.9676221e-06  1.8008738e-11
   3260000   0.652               1850   3.518374e-26   80699691       3.9676221e-06  1.7810782e-11
   3270000   0.654               1850   3.3415226e-26  80699691       3.9676221e-06  1.7873698e-11
   3280000   0.656               1850   3.3005912e-26  80699691       3.9676221e-06  1.7741319e-11
   3290000   0.658               1850   3.3027484e-26  80699691       3.9676221e-06  1.7805529e-11
   3300000   0.66                1850   3.4222752e-26  80699691       3.9676221e-06  1.7805532e-11
   3310000   0.662               1850   3.2011933e-26  80699691       3.9676221e-06  1.810264e-11 
   3320000   0.664               1850   3.0698521e-26  80699691       3.9676221e-06  1.7790981e-11
   3330000   0.666               1850   2.7817272e-26  80699691       3.9676221e-06  1.7433929e-11
   3340000   0.668               1850   2.9172463e-26  80699691       3.9676221e-06  1.8367707e-11
   3350000   0.67                1850   3.0929944e-26  80699691       3.9676221e-06  1.8047228e-11
   3360000   0.672               1850   3.3377491e-26  80699691       3.9676221e-06  1.8195835e-11
   3370000   0.674               1850   3.0982284e-26  80699691       3.9676221e-06  1.7666353e-11
   3380000   0.676               1850   3.2372086e-26  80699691       3.9676221e-06  1.7874618e-11
   3390000   0.678               1850   3.2097311e-26  80699691       3.9676221e-06  1.7738386e-11
   3400000   0.68                1850   3.4585331e-26  80699691       3.9676221e-06  1.7761494e-11
   3410000   0.682               1850   3.5415273e-26  80699691       3.9676221e-06  1.7603451e-11
   3420000   0.684               1850   3.3448464e-26  80699691       3.9676221e-06  1.7707132e-11
   3430000   0.686               1850   3.0688309e-26  80699691       3.9676221e-06  1.7786098e-11
   3440000   0.688               1850   3.02636e-26    80699691       3.9676221e-06  1.754438e-11 
   3450000   0.69                1850   3.5682271e-26  80699691       3.9676221e-06  1.7696487e-11
   3460000   0.692               1850   3.5908042e-26  80699691       3.9676221e-06  1.8042166e-11
   3470000   0.694               1850   3.2406424e-26  80699691       3.9676221e-06  1.7412396e-11
   3480000   0.696               1850   3.4026812e-26  80699691       3.9676221e-06  1.8425939e-11
   3490000   0.698               1850   3.0839095e-26  80699691       3.9676221e-06  1.630777e-11 
   3500000   0.7                 1850   3.2758244e-26  80699691       3.9676221e-06  1.77927e-11  
   3510000   0.702               1850   3.2245356e-26  80699691       3.9676221e-06  1.864441e-11 
   3520000   0.704               1850   3.1518424e-26  80699691       3.9676221e-06  1.7647759e-11
   3530000   0.706               1850   3.4838231e-26  80699691       3.9676221e-06  1.7703916e-11
   3540000   0.708               1850   3.6577646e-26  80699691       3.9676221e-06  1.7753459e-11
   3550000   0.71                1850   3.7400138e-26  80699691       3.9676221e-06  1.7549653e-11
   3560000   0.712               1850   3.8822661e-26  80699691       3.9676221e-06  1.7769169e-11
   3570000   0.714               1850   3.447451e-26   80699691       3.9676221e-06  1.7883929e-11
   3580000   0.716               1850   3.2966945e-26  80699691       3.9676221e-06  1.778629e-11 
   3590000   0.718               1850   3.0257942e-26  80699691       3.9676221e-06  1.7735814e-11
   3600000   0.72                1850   3.0852036e-26  80699691       3.9676221e-06  1.7531412e-11
   3610000   0.722               1850   3.1951392e-26  80699691       3.9676221e-06  1.7518361e-11
   3620000   0.724               1850   3.3719495e-26  80699691       3.9676221e-06  1.7629044e-11
   3630000   0.726               1850   3.1943806e-26  80699691       3.9676221e-06  1.7995116e-11
   3640000   0.728               1850   3.3285965e-26  80699691       3.9676221e-06  1.7975474e-11
   3650000   0.73                1850   3.1787716e-26  80699691       3.9676221e-06  1.7878958e-11
   3660000   0.732               1850   3.1719755e-26  80699691       3.9676221e-06  1.7790477e-11
   3670000   0.734               1850   3.3202967e-26  80699691       3.9676221e-06  1.7739785e-11
   3680000   0.736               1850   3.4237799e-26  80699691       3.9676221e-06  1.8031473e-11
   3690000   0.738               1850   3.5966806e-26  80699691       3.9676221e-06  1.7729152e-11
   3700000   0.74                1850   3.3859647e-26  80699691       3.9676221e-06  1.7517278e-11
   3710000   0.742               1850   3.4366932e-26  80699691       3.9676221e-06  1.8167521e-11
   3720000   0.744               1850   3.6105448e-26  80699691       3.9676221e-06  1.7967221e-11
   3730000   0.746               1850   3.5194836e-26  80699691       3.9676221e-06  1.8083172e-11
   3740000   0.748               1850   3.8386349e-26  80699691       3.9676221e-06  1.7796035e-11
   3750000   0.75                1850   3.5459861e-26  80699691       3.9676221e-06  1.7669092e-11
   3760000   0.752               1850   3.6209812e-26  80699691       3.9676221e-06  1.7556797e-11
   3770000   0.754               1850   3.2456533e-26  80699691       3.9676221e-06  1.7606534e-11
   3780000   0.756               1850   3.2143728e-26  80699691       3.9676221e-06  1.7600992e-11
   3790000   0.758               1850   3.7337378e-26  80699691       3.9676221e-06  1.7668411e-11
   3800000   0.76                1850   3.6451809e-26  80699691       3.9676221e-06  1.7973834e-11
   3810000   0.762               1850   3.8419378e-26  80699691       3.9676221e-06  1.7619782e-11
   3820000   0.764               1850   3.5027937e-26  80699691       3.9676221e-06  1.775214e-11 
   3830000   0.766               1850   3.1988043e-26  80699691       3.9676221e-06  1.7781604e-11
   3840000   0.768               1850   3.6850343e-26  80699691       3.9676221e-06  1.7783679e-11
   3850000   0.77                1850   3.4489843e-26  80699691       3.9676221e-06  1.8000531e-11
   3860000   0.772               1850   3.3628958e-26  80699691       3.9676221e-06  1.7654463e-11
   3870000   0.774               1850   3.4416325e-26  80699691       3.9676221e-06  1.7411358e-11
   3880000   0.776               1850   3.3821781e-26  80699691       3.9676221e-06  1.8685994e-11
   3890000   0.778               1850   3.5441428e-26  80699691       3.9676221e-06  1.8453468e-11
   3900000   0.78                1850   3.7299425e-26  80699691       3.9676221e-06  1.8282859e-11
   3910000   0.782               1850   3.2975468e-26  80699691       3.9676221e-06  1.7799211e-11
   3920000   0.784               1850   3.4136742e-26  80699691       3.9676221e-06  1.7916039e-11
   3930000   0.786               1850   3.2632268e-26  80699691       3.9676221e-06  1.7782714e-11
   3940000   0.788               1850   3.1505848e-26  80699691       3.9676221e-06  1.7817261e-11
   3950000   0.79                1850   3.1298794e-26  80699691       3.9676221e-06  1.8070203e-11
   3960000   0.792               1850   3.4176498e-26  80699691       3.9676221e-06  1.8283767e-11
   3970000   0.794               1850   3.2187904e-26  80699691       3.9676221e-06  1.8300154e-11
   3980000   0.796               1850   2.973596e-26   80699691       3.9676221e-06  1.7471348e-11
   3990000   0.798               1850   2.8911815e-26  80699691       3.9676221e-06  1.7678142e-11
   4000000   0.8                 1850   3.0596646e-26  80699691       3.9676221e-06  1.7524081e-11
Loop time of 1042.24 on 1 procs for 4000000 steps with 1850 atoms

100.0% CPU use with 1 MPI tasks x 1 OpenMP threads

MPI task timing breakdown:
Section |  min time  |  avg time  |  max time  |%varavg| %total
---------------------------------------------------------------
Pair    | 801.66     | 801.66     | 801.66     |   0.0 | 76.92
Neigh   | 0.11626    | 0.11626    | 0.11626    |   0.0 |  0.01
Comm    | 0.090125   | 0.090125   | 0.090125   |   0.0 |  0.01
Output  | 0.33092    | 0.33092    | 0.33092    |   0.0 |  0.03
Modify  | 230.51     | 230.51     | 230.51     |   0.0 | 22.12
Other   |            | 9.538      |            |       |  0.92

Nlocal:           1850 ave        1850 max        1850 min
Histogram: 1 0 0 0 0 0 0 0 0 0
Nghost:              0 ave           0 max           0 min
Histogram: 1 0 0 0 0 0 0 0 0 0
Neighs:           7037 ave        7037 max        7037 min
Histogram: 1 0 0 0 0 0 0 0 0 0

Total # of neighbors = 7037
Ave neighs/atom = 3.8037838
Neighbor list builds = 193
Dangerous builds = 0
Generated 0 of 0 mixed pair_coeff terms from geometric mixing rule
Setting up Verlet run ...
  Unit style    : si
  Current step  : 4000000
  Time step     : 2e-07
Per MPI rank memory allocation (min/avg/max) = 13 | 13 | 13 Mbytes
   Step          Time         Atoms        KinEng     c_granularTemp c_solidVolume    c_maxSpeed  
   4000000   0.8                 1850   3.0596646e-26  80699691       3.9676221e-06  1.7524081e-11
Loop time of 2.67e-07 on 1 procs for 0 steps with 1850 atoms

374.5% CPU use with 1 MPI tasks x 1 OpenMP threads

MPI task timing breakdown:
Section |  min time  |  avg time  |  max time  |%varavg| %total
---------------------------------------------------------------
Pair    | 0          | 0          | 0          |   0.0 |  0.00
Neigh   | 0          | 0          | 0          |   0.0 |  0.00
Comm    | 0          | 0          | 0          |   0.0 |  0.00
Output  | 0          | 0          | 0          |   0.0 |  0.00
Modify  | 0          | 0          | 0          |   0.0 |  0.00
Other   |            | 2.67e-07   |            |       |100.00

Nlocal:           1850 ave        1850 max        1850 min
Histogram: 1 0 0 0 0 0 0 0 0 0
Nghost:              0 ave           0 max           0 min
Histogram: 1 0 0 0 0 0 0 0 0 0
Neighs:           7037 ave        7037 max        7037 min
Histogram: 1 0 0 0 0 0 0 0 0 0

Total # of neighbors = 7037
Ave neighs/atom = 3.8037838
Neighbor list builds = 0
Dangerous builds = 0
Generated 0 of 0 mixed pair_coeff terms from geometric mixing rule
Neighbor list info ...
  update: every = 1 steps, delay = 0 steps, check = yes
  max neighbors/atom: 2000, page size: 100000
  master list distance cutoff = 0.00185
  ghost atom cutoff = 0.00185
  binsize = 0.000925, bins = 18 18 76
  3 neighbor lists, perpetual/occasional/extra = 1 2 0
  (1) pair granular, perpetual
      attributes: half, newton off, size, history
      pair build: half/size/bin/atomonly/newtoff
      stencil: full/bin/3d
      bin: standard
  (2) compute property/local, occasional
      attributes: half, newton off, size
      pair build: half/size/bin/atomonly/newtoff
      stencil: full/bin/3d
      bin: standard
  (3) compute pair/local, occasional
      attributes: half, newton off, size
      pair build: half/size/bin/atomonly/newtoff
      stencil: full/bin/3d
      bin: standard
Setting up Verlet run ...
  Unit style    : si
  Current step  : 4000000
  Time step     : 2e-07
Per MPI rank memory allocation (min/avg/max) = 14.26 | 14.26 | 14.26 Mbytes
   Step          Time         Atoms        KinEng     c_granularTemp c_solidVolume    c_maxSpeed  
   4000000   0.8                 1850   3.0596646e-26  80699691       3.9676221e-06  1.7524081e-11
   4000001   0.8000002           1850   3.0596651e-26  80699691       3.9676221e-06  1.7523963e-11
Loop time of 0.00651837 on 1 procs for 1 steps with 1850 atoms

100.0% CPU use with 1 MPI tasks x 1 OpenMP threads

MPI task timing breakdown:
Section |  min time  |  avg time  |  max time  |%varavg| %total
---------------------------------------------------------------
Pair    | 0.00019949 | 0.00019949 | 0.00019949 |   0.0 |  3.06
Neigh   | 0          | 0          | 0          |   0.0 |  0.00
Comm    | 1.34e-07   | 1.34e-07   | 1.34e-07   |   0.0 |  0.00
Output  | 0.0062555  | 0.0062555  | 0.0062555  |   0.0 | 95.97
Modify  | 5.9568e-05 | 5.9568e-05 | 5.9568e-05 |   0.0 |  0.91
Other   |            | 3.685e-06  |            |       |  0.06

Nlocal:           1850 ave        1850 max        1850 min
Histogram: 1 0 0 0 0 0 0 0 0 0
Nghost:              0 ave           0 max           0 min
Histogram: 1 0 0 0 0 0 0 0 0 0
Neighs:           7037 ave        7037 max        7037 min
Histogram: 1 0 0 0 0 0 0 0 0 0

Total # of neighbors = 7037
Ave neighs/atom = 3.8037838
Neighbor list builds = 0
Dangerous builds = 0
System init for write_data ...
Generated 0 of 0 mixed pair_coeff terms from geometric mixing rule
System init for write_restart ...
Generated 0 of 0 mixed pair_coeff terms from geometric mixing rule
seed Ntarget Nfinal dp_m density_kgm3 Dtube_m D_over_dp solidVolume_m3 bedHeight_m bedVolume_m3 packingFraction porosity minParticleBottom_m kineticEnergy_J maxSpeed_ms
18427 1850 1850 0.0016 1600 0.016 10 3.96762208197362e-06 0.036463076304298 7.33133648927146e-06 0.54118673829523 0.45881326170477 -1.05872731042593e-06 3.05966510927628e-26 1.75239630846891e-11
Packing generation completed: co2_13x_seed_18427
ACCEPT only if Nfinal=Ntarget, the bed is settled, and overlap/geometry checks pass.
For the 20-packing pilot, change only seed_realization.
CO2 diffusion and particle LDF adsorption are added later in the pore-network solver, not here.
Total wall time: 0:22:46
