Authorization required, but no authorization protocol specified

Authorization required, but no authorization protocol specified

Authorization required, but no authorization protocol specified

Authorization required, but no authorization protocol specified

LAMMPS (22 Jul 2025 - Update 5)
OMP_NUM_THREADS environment is not set. Defaulting to 1 thread.
  using 1 OpenMP thread(s) per MPI task
OMP_NUM_THREADS environment is not set. Defaulting to 1 thread.
  using 1 OpenMP thread(s) per MPI task
CO2 sorbent = commercial zeolite 13X (mechanical packing only)
Realization seed = 69371
Target particle count = 1850
Bead diameter [m] = 0.0016
Tube diameter [m] = 0.016
Tube-to-particle diameter ratio = 10
Target solid volume [m^3] = 3.96762208197367e-06
Created orthogonal box = (-0.008 -0.008 0) to (0.008 0.008 0.07)
  1 by 1 by 1 MPI processor grid
Generated 0 of 0 mixed pair_coeff terms from geometric mixing rule
Particle insertion: 303 every 319275 steps, 1850 by step 1915651
Neighbor list info ...
  update: every = 1 steps, delay = 0 steps, check = yes
  max neighbors/atom: 2000, page size: 100000
  master list distance cutoff = 0.00185
  ghost atom cutoff = 0.00185
  binsize = 0.000925, bins = 18 18 76
  1 neighbor lists, perpetual/occasional/extra = 1 0 0
  (1) pair granular, perpetual
      attributes: half, newton off, size, history
      pair build: half/size/bin/atomonly/newtoff
      stencil: full/bin/3d
      bin: standard
Setting up Verlet run ...
  Unit style    : si
  Current step  : 0
  Time step     : 2e-07
Per MPI rank memory allocation (min/avg/max) = 7.438 | 7.438 | 7.438 Mbytes
   Step          Time         Atoms        KinEng     c_granularTemp c_solidVolume    c_maxSpeed  
         0   0                      0  -0              0              0             -1e+20        
WARNING: Fewer insertions than requested (src/GRANULAR/fix_pour.cpp:691)
     10000   0.002                187  -0              4.7780667e+15  4.0105153e-07  0.60196472   
     20000   0.004                187  -0              4.7114943e+15  4.0105153e-07  0.58694165   
     30000   0.006                187  -0              4.6555705e+15  4.0105153e-07  0.57276916   
     40000   0.008                187  -0              4.6089355e+15  4.0105153e-07  0.5593991    
     50000   0.01                 187  -0              4.5703898e+15  4.0105153e-07  0.54678603   
     60000   0.012                187  -0              4.5388757e+15  4.0105153e-07  0.5348871    
     70000   0.014                187  -0              4.5134616e+15  4.0105153e-07  0.52366186   
     80000   0.016                187  -0              4.4933272e+15  4.0105153e-07  0.51307218   
     90000   0.018                187  -0              4.4777511e+15  4.0105153e-07  0.50308207   
    100000   0.02                 187  -0              4.4660989e+15  4.0105153e-07  0.49365758   
    110000   0.022                187  -0              4.4578139e+15  4.0105153e-07  0.48476669   
    120000   0.024                187  -0              4.4524074e+15  4.0105153e-07  0.4763792    
    130000   0.026                187  -0              4.4494515e+15  4.0105153e-07  0.46846658   
    140000   0.028                187  -0              4.4485713e+15  4.0105153e-07  0.46100197   
    150000   0.03                 187  -0              4.4494394e+15  4.0105153e-07  0.45395999   
    160000   0.032                187  -0              4.4517699e+15  4.0105153e-07  0.44731672   
    170000   0.034                187  -0              4.4553137e+15  4.0105153e-07  0.44104958   
    180000   0.036                187  -0              4.459854e+15   4.0105153e-07  0.43513728   
    190000   0.038                187  -0              4.4652028e+15  4.0105153e-07  0.42955972   
    200000   0.04                 187  -0              4.471197e+15   4.0105153e-07  0.42429795   
    210000   0.042                187  -0              4.4776957e+15  4.0105153e-07  0.4193341    
    220000   0.044                187  -0              4.4845775e+15  4.0105153e-07  0.41465129   
    230000   0.046                187  -0              4.4917382e+15  4.0105153e-07  0.41023362   
    240000   0.048                187  -0              4.4990882e+15  4.0105153e-07  0.40606607   
    250000   0.05                 187  -0              4.5065515e+15  4.0105153e-07  0.40213447   
    260000   0.052                187  -0              4.5140635e+15  4.0105153e-07  0.39842548   
    270000   0.054                187  -0              4.5215694e+15  4.0105153e-07  0.39492649   
    280000   0.056                187  -0              4.5290236e+15  4.0105153e-07  0.3916256    
    290000   0.058                187  -0              4.5363878e+15  4.0105153e-07  0.38851161   
    300000   0.06                 187  -0              4.5436306e+15  4.0105153e-07  0.38557392   
    310000   0.062                187  -0              4.5507265e+15  4.0105153e-07  0.38280256   
WARNING: Fewer insertions than requested (src/GRANULAR/fix_pour.cpp:691)
    320000   0.064                393  -0              5.0407831e+15  8.4285161e-07  0.62276045   
    330000   0.066                393  -0              4.9655304e+15  8.4285161e-07  0.60655996   
    340000   0.068                393  -0              4.8934829e+15  8.4285161e-07  0.59127672   
    350000   0.07                 393  -0              4.8393479e+15  8.4285161e-07  0.57685879   
    360000   0.072                393  -0              4.7974891e+15  8.4285161e-07  0.56325718   
    370000   0.074                393  -0              4.7614369e+15  8.4285161e-07  0.55042567   
    380000   0.076                393  -0              4.7391299e+15  8.4285161e-07  0.53832066   
    390000   0.078                393  -0              4.7182982e+15  8.4285161e-07  0.52690102   
    400000   0.08                 393  -0              4.7016313e+15  8.4285161e-07  0.51612794   
    410000   0.082                393  -0              4.6879418e+15  8.4285161e-07  0.50596482   
    420000   0.084                393  -0              4.6767773e+15  8.4285161e-07  0.49637712   
    430000   0.086                393  -0              4.6535834e+15  8.4285161e-07  0.48733225   
    440000   0.088                393  -0              4.6209172e+15  8.4285161e-07  0.4787995    
    450000   0.09                 393  -0              4.601307e+15   8.4285161e-07  0.47074985   
    460000   0.092                393  -0              4.5693384e+15  8.4285161e-07  0.46315597   
    470000   0.094                393  -0              4.5426618e+15  8.4285161e-07  0.45599203   
    480000   0.096                393  -0              4.513948e+15   8.4285161e-07  0.44923371   
    490000   0.098                393  -0              4.5102624e+15  8.4285161e-07  0.44285803   
    500000   0.1                  393  -0              4.4877811e+15  8.4285161e-07  0.43684334   
    510000   0.102                393  -0              4.4749349e+15  8.4285161e-07  0.43116918   
    520000   0.104                393  -0              4.4618374e+15  8.4285161e-07  0.42581629   
    530000   0.106                393  -0              4.4173085e+15  8.4285161e-07  0.42076647   
    540000   0.108                393  -0              4.3765446e+15  8.4285161e-07  0.41600257   
    550000   0.11                 393  -0              4.3341897e+15  8.4285161e-07  0.41150839   
    560000   0.112                393  -0              4.3230275e+15  8.4285161e-07  0.40726866   
    570000   0.114                393  -0              4.2983681e+15  8.4285161e-07  0.40326898   
    580000   0.116                393  -0              4.2635583e+15  8.4285161e-07  0.39949575   
    590000   0.118                393  -0              4.2536406e+15  8.4285161e-07  0.39593616   
    600000   0.12                 393  -0              4.194407e+15   8.4285161e-07  0.39257811   
    610000   0.122                393  -0              4.1471023e+15  8.4285161e-07  0.38941018   
    620000   0.124                393  -0              4.1286536e+15  8.4285161e-07  0.38642162   
    630000   0.126                393  -0              4.1072416e+15  8.4285161e-07  0.38360227   
WARNING: Fewer insertions than requested (src/GRANULAR/fix_pour.cpp:691)
    640000   0.128                601  -0              4.5837392e+15  1.288941e-06   0.62102418   
    650000   0.13                 601  -0              4.4950105e+15  1.288941e-06   0.604922     
    660000   0.132                601  -0              4.4128417e+15  1.288941e-06   0.58842721   
    670000   0.134                601  -0              4.3426934e+15  1.288941e-06   0.57417062   
    680000   0.136                601  -0              4.3037378e+15  1.288941e-06   0.55796984   
    690000   0.138                601  -0              4.2697113e+15  1.288941e-06   0.5454377    
    700000   0.14                 601  -0              4.238998e+15   1.288941e-06   0.5336151    
    710000   0.142                601  -0              4.2038875e+15  1.288941e-06   0.52246188   
    720000   0.144                601  -0              4.1557138e+15  1.288941e-06   0.51194014   
    730000   0.146                601  -0              4.1217869e+15  1.288941e-06   0.50201412   
    740000   0.148                601  -0              4.0587297e+15  1.288941e-06   0.4926501    
    750000   0.15                 601  -0              4.0301999e+15  1.288941e-06   0.48381626   
    760000   0.152                601  -0              3.9753357e+15  1.288941e-06   0.47548257   
    770000   0.154                601  -0              3.9254372e+15  1.288941e-06   0.46762073   
    780000   0.156                601  -0              3.865074e+15   1.288941e-06   0.42305174   
    790000   0.158                601  -0              3.7961983e+15  1.288941e-06   0.41530454   
    800000   0.16                 601  -0              3.7238385e+15  1.288941e-06   0.41083662   
    810000   0.162                601  -0              3.6178438e+15  1.288941e-06   0.40662289   
    820000   0.164                601  -0              3.5213674e+15  1.288941e-06   0.40264883   
    830000   0.166                601  -0              3.4583646e+15  1.288941e-06   0.3989008    
    840000   0.168                601  -0              3.385582e+15   1.288941e-06   0.3953659    
    850000   0.17                 601  -0              3.3255051e+15  1.288941e-06   0.39203199   
    860000   0.172                601  -0              3.2842349e+15  1.288941e-06   0.38888762   
    870000   0.174                601  -0              3.2088498e+15  1.288941e-06   0.38592198   
    880000   0.176                601  -0              3.130158e+15   1.288941e-06   0.3831249    
    890000   0.178                601  -0              3.0259038e+15  1.288941e-06   0.38048677   
    900000   0.18                 601  -0              2.9716307e+15  1.288941e-06   0.37799854   
    910000   0.182                601  -0              2.8637904e+15  1.288941e-06   0.37534258   
    920000   0.184                601  -0              2.8068683e+15  1.288941e-06   0.37314722   
    930000   0.186                601  -0              2.7327554e+15  1.288941e-06   0.37067261   
    940000   0.188                601  -0              2.6860904e+15  1.288941e-06   0.36874405   
    950000   0.19                 601  -0              2.6495504e+15  1.288941e-06   0.36692477   
WARNING: Fewer insertions than requested (src/GRANULAR/fix_pour.cpp:691)
    960000   0.192                789  -0              3.1737145e+15  1.6921372e-06  0.62128742   
    970000   0.194                789  -0              3.132822e+15   1.6921372e-06  0.60486906   
    980000   0.196                789  -0              3.085441e+15   1.6921372e-06  0.58968156   
    990000   0.198                789  -0              3.0432422e+15  1.6921372e-06  0.57535394   
   1000000   0.2                  789  -0              2.999381e+15   1.6921372e-06  0.55888051   
   1010000   0.202                789  -0              2.9551017e+15  1.6921372e-06  0.54629681   
   1020000   0.204                789  -0              2.9094594e+15  1.6921372e-06  0.53442557   
   1030000   0.206                789  -0              2.8560452e+15  1.6921372e-06  0.48405722   
   1040000   0.208                789  -0              2.8107236e+15  1.6921372e-06  0.47570989   
   1050000   0.21                 789  -0              2.7630512e+15  1.6921372e-06  0.46102853   
   1060000   0.212                789  -0              2.7138864e+15  1.6921372e-06  0.45397582   
   1070000   0.214                789  -0              2.6478747e+15  1.6921372e-06  0.44732318   
   1080000   0.216                789  -0              2.5773748e+15  1.6921372e-06  0.44104792   
   1090000   0.218                789  -0              2.5120294e+15  1.6921372e-06  0.43512861   
   1100000   0.22                 789  -0              2.4579923e+15  1.6921372e-06  0.42954505   
   1110000   0.222                789  -0              2.3595662e+15  1.6921372e-06  0.4242782    
   1120000   0.224                789  -0              2.2842455e+15  1.6921372e-06  0.41931007   
   1130000   0.226                789  -0              2.2216798e+15  1.6921372e-06  0.4146237    
   1140000   0.228                789  -0              2.1837677e+15  1.6921372e-06  0.41020312   
   1150000   0.23                 789  -0              2.126758e+15   1.6921372e-06  0.40603323   
   1160000   0.232                789  -0              2.0602019e+15  1.6921372e-06  0.40209981   
   1170000   0.234                789  -0              2.0027285e+15  1.6921372e-06  0.39838943   
   1180000   0.236                789  -0              1.9537489e+15  1.6921372e-06  0.39488945   
   1190000   0.238                789  -0              1.9246815e+15  1.6921372e-06  0.39105592   
   1200000   0.24                 789  -0              1.8825036e+15  1.6921372e-06  0.38405889   
   1210000   0.242                789  -0              1.8497744e+15  1.6921372e-06  0.3813691    
   1220000   0.244                789  -0              1.833618e+15   1.6921372e-06  0.37883201   
   1230000   0.246                789  -0              1.8032684e+15  1.6921372e-06  0.37643895   
   1240000   0.248                789  -0              1.7851083e+15  1.6921372e-06  0.37418171   
   1250000   0.25                 789  -0              1.7718146e+15  1.6921372e-06  0.37205258   
   1260000   0.252                789  -0              1.7595731e+15  1.6921372e-06  0.36566005   
   1270000   0.254                789  -0              1.7321819e+15  1.6921372e-06  0.36400902   
WARNING: Fewer insertions than requested (src/GRANULAR/fix_pour.cpp:691)
   1280000   0.256                972  -0              2.3953151e+15  2.0846101e-06  0.62029113   
   1290000   0.258                972  -0              2.3218291e+15  2.0846101e-06  0.60423045   
   1300000   0.26                 972  -0              2.2705086e+15  2.0846101e-06  0.5890791    
   1310000   0.262                972  -0              2.2288706e+15  2.0846101e-06  0.57107482   
   1320000   0.264                972  -0              2.173864e+15   2.0846101e-06  0.55780069   
   1330000   0.266                972  -0              2.132925e+15   2.0846101e-06  0.54527812   
   1340000   0.268                972  -0              2.0794344e+15  2.0846101e-06  0.53346456   
   1350000   0.27                 972  -0              2.029012e+15   2.0846101e-06  0.52008885   
   1360000   0.272                972  -0              1.9988068e+15  2.0846101e-06  0.50970147   
   1370000   0.274                972  -0              1.9684194e+15  2.0846101e-06  0.4999022    
   1380000   0.276                972  -0              1.9141188e+15  2.0846101e-06  0.49065776   
   1390000   0.278                972  -0              1.8600143e+15  2.0846101e-06  0.48193671   
   1400000   0.28                 972  -0              1.794699e+15   2.0846101e-06  0.47370944   
   1410000   0.282                972  -0              1.7393405e+15  2.0846101e-06  0.46594799   
   1420000   0.284                972  -0              1.6916606e+15  2.0846101e-06  0.45862598   
   1430000   0.286                972  -0              1.6430314e+15  2.0846101e-06  0.45171852   
   1440000   0.288                972  -0              1.5878132e+15  2.0846101e-06  0.44520216   
   1450000   0.29                 972  -0              1.5494443e+15  2.0846101e-06  0.43905474   
   1460000   0.292                972  -0              1.5066462e+15  2.0846101e-06  0.43325539   
   1470000   0.294                972  -0              1.4651971e+15  2.0846101e-06  0.42778438   
   1480000   0.296                972  -0              1.4250095e+15  2.0846101e-06  0.42262313   
   1490000   0.298                972  -0              1.4069213e+15  2.0846101e-06  0.4177541    
   1500000   0.3                  972  -0              1.3987382e+15  2.0846101e-06  0.41316075   
   1510000   0.302                972  -0              1.3827113e+15  2.0846101e-06  0.40882747   
   1520000   0.304                972  -0              1.3702748e+15  2.0846101e-06  0.40473953   
   1530000   0.306                972  -0              1.3492076e+15  2.0846101e-06  0.40088304   
   1540000   0.308                972  -0              1.3265261e+15  2.0846101e-06  0.38906694   
   1550000   0.31                 972  -0              1.3139662e+15  2.0846101e-06  0.38609781   
   1560000   0.312                972  -0              1.2705492e+15  2.0846101e-06  0.37428761   
   1570000   0.314                972  -0              1.2354571e+15  2.0846101e-06  0.37215236   
   1580000   0.316                972  -0              1.2043124e+15  2.0846101e-06  0.36746188   
   1590000   0.318                972  -0              1.1569024e+15  2.0846101e-06  0.36483664   
WARNING: Fewer insertions than requested (src/GRANULAR/fix_pour.cpp:691)
   1600000   0.32                1180  -0              1.8421407e+15  2.5306995e-06  0.61820065   
   1610000   0.322               1180  -0              1.7899858e+15  2.5306995e-06  0.60225833   
   1620000   0.324               1180  -0              1.742086e+15   2.5306995e-06  0.58721864   
   1630000   0.326               1180  -0              1.7004706e+15  2.5306995e-06  0.57303047   
   1640000   0.328               1180  -0              1.6639623e+15  2.5306995e-06  0.55964561   
   1650000   0.33                1180  -0              1.6245652e+15  2.5306995e-06  0.54701859   
   1660000   0.332               1180  -0              1.5837225e+15  2.5306995e-06  0.52382957   
   1670000   0.334               1180  -0              1.5389844e+15  2.5306995e-06  0.51177096   
   1680000   0.336               1180  -0              1.5079183e+15  2.5306995e-06  0.48772484   
   1690000   0.338               1180  -0              1.4730979e+15  2.5306995e-06  0.47916985   
   1700000   0.34                1180  -0              1.4324425e+15  2.5306995e-06  0.47109924   
   1710000   0.342               1180  -0              1.3862774e+15  2.5306995e-06  0.46348557   
   1720000   0.344               1180  -0              1.3457173e+15  2.5306995e-06  0.45630298   
   1730000   0.346               1180  -0              1.2985741e+15  2.5306995e-06  0.44952705   
   1740000   0.348               1180  -0              1.2740262e+15  2.5306995e-06  0.44313476   
   1750000   0.35                1180  -0              1.248851e+15   2.5306995e-06  0.4371044    
   1760000   0.352               1180  -0              1.2358725e+15  2.5306995e-06  0.43141546   
   1770000   0.354               1180  -0              1.2265219e+15  2.5306995e-06  0.42604863   
   1780000   0.356               1180  -0              1.2135385e+15  2.5306995e-06  0.42098566   
   1790000   0.358               1180  -0              1.2090775e+15  2.5306995e-06  0.41620934   
   1800000   0.36                1180  -0              1.197297e+15   2.5306995e-06  0.40736488   
   1810000   0.362               1180  -0              1.1785876e+15  2.5306995e-06  0.40335975   
   1820000   0.364               1180  -0              1.1505112e+15  2.5306995e-06  0.39958139   
   1830000   0.366               1180  -0              1.1246613e+15  2.5306995e-06  0.39601695   
   1840000   0.368               1180  -0              1.0834235e+15  2.5306995e-06  0.39265432   
   1850000   0.37                1180  -0              1.0555394e+15  2.5306995e-06  0.38948208   
   1860000   0.372               1180  -0              1.0316803e+15  2.5306995e-06  0.37962769   
   1870000   0.374               1180  -0              1.0060523e+15  2.5306995e-06  0.37492295   
   1880000   0.376               1180  -0              9.7756325e+14  2.5306995e-06  0.3667887    
   1890000   0.378               1180  -0              9.5825045e+14  2.5306995e-06  0.36508016   
   1900000   0.38                1180  -0              9.2063255e+14  2.5306995e-06  0.36079437   
   1910000   0.382               1180  -0              8.8994787e+14  2.5306995e-06  0.3511312    
WARNING: Fewer insertions than requested (src/GRANULAR/fix_pour.cpp:691)
   1920000   0.384               1403  -0              1.5851629e+15  3.0089588e-06  0.60800125   
   1930000   0.386               1403  -0              1.5256104e+15  3.0089588e-06  0.5926364    
   1940000   0.388               1403  -0              1.4830388e+15  3.0089588e-06  0.57654283   
   1950000   0.39                1403  -0              1.4405383e+15  3.0089588e-06  0.56295911   
   1960000   0.392               1403  -0              1.3952096e+15  3.0089588e-06  0.55014448   
   1970000   0.394               1403  -0              1.3546382e+15  3.0089588e-06  0.52667637   
   1980000   0.396               1403  -0              1.3190562e+15  3.0089588e-06  0.51590828   
   1990000   0.398               1403  -0              1.2734248e+15  3.0089588e-06  0.50575043   
   2000000   0.4                 1403  -0              1.2482345e+15  3.0089588e-06  0.49616824   
   2010000   0.402               1403  -0              1.2197322e+15  3.0089588e-06  0.48712908   
   2020000   0.404               1403  -0              1.1879972e+15  3.0089588e-06  0.47860218   
   2030000   0.406               1403  -0              1.1700923e+15  3.0089588e-06  0.4705585    
   2040000   0.408               1403  -0              1.1529592e+15  3.0089588e-06  0.46297066   
   2050000   0.41                1403  -0              1.1442215e+15  3.0089588e-06  0.45581282   
   2060000   0.412               1403  -0              1.1276237e+15  3.0089588e-06  0.4490606    
   2070000   0.414               1403  -0              1.1058661e+15  3.0089588e-06  0.44269103   
   2080000   0.416               1403  -0              1.0905426e+15  3.0089588e-06  0.4366824    
   2090000   0.418               1403  -0              1.0568831e+15  3.0089588e-06  0.42387959   
   2100000   0.42                1403  -0              1.029725e+15   3.0089588e-06  0.4128141    
   2110000   0.422               1403  -0              9.980829e+14   3.0089588e-06  0.40849819   
   2120000   0.424               1403  -0              9.576307e+14   3.0089588e-06  0.40442684   
   2130000   0.426               1403  -0              9.2037454e+14  3.0089588e-06  0.38596859   
   2140000   0.428               1403  -0              8.8007163e+14  3.0089588e-06  0.38317488   
   2150000   0.43                1403  -0              8.5207106e+14  3.0089588e-06  0.37344471   
   2160000   0.432               1403  -0              7.9991954e+14  3.0089588e-06  0.36791225   
   2170000   0.434               1403  -0              7.5573729e+14  3.0089588e-06  0.36546215   
   2180000   0.436               1403  -0              7.1509733e+14  3.0089588e-06  0.36382902   
   2190000   0.438               1403  -0              6.8519795e+14  3.0089588e-06  0.36228841   
   2200000   0.44                1403  -0              6.550082e+14   3.0089588e-06  0.35748574   
   2210000   0.442               1403  -0              6.209881e+14   3.0089588e-06  0.35428892   
   2220000   0.444               1403  -0              5.8185609e+14  3.0089588e-06  0.35328887   
   2230000   0.446               1403  -0              5.416777e+14   3.0089588e-06  0.34991192   
WARNING: Fewer insertions than requested (src/GRANULAR/fix_pour.cpp:691)
   2240000   0.448               1572  -0              9.6527997e+14  3.3714064e-06  0.6135569    
   2250000   0.45                1572  -0              9.2273923e+14  3.3714064e-06  0.58981542   
   2260000   0.452               1572  -0              8.9583729e+14  3.3714064e-06  0.57548022   
   2270000   0.454               1572  -0              8.7279048e+14  3.3714064e-06  0.56064306   
   2280000   0.456               1572  -0              8.5601289e+14  3.3714064e-06  0.54795956   
   2290000   0.458               1572  -0              8.3779313e+14  3.3714064e-06  0.53599418   
   2300000   0.46                1572  -0              8.218747e+14   3.3714064e-06  0.52470626   
   2310000   0.462               1572  -0              8.0676448e+14  3.3714064e-06  0.51405744   
   2320000   0.464               1572  -0              7.9245189e+14  3.3714064e-06  0.50401155   
   2330000   0.466               1572  -0              7.7944494e+14  3.3714064e-06  0.49453444   
   2340000   0.468               1572  -0              7.7242839e+14  3.3714064e-06  0.4855939    
   2350000   0.47                1572  -0              7.5897451e+14  3.3714064e-06  0.43254637   
   2360000   0.472               1572  -0              7.2578206e+14  3.3714064e-06  0.42705375   
   2370000   0.474               1572  -0              6.9490704e+14  3.3714064e-06  0.41703817   
   2380000   0.476               1572  -0              6.6672858e+14  3.3714064e-06  0.41247447   
   2390000   0.478               1572  -0              6.4345876e+14  3.3714064e-06  0.40817014   
   2400000   0.48                1572  -0              6.1877582e+14  3.3714064e-06  0.40411043   
   2410000   0.482               1572  -0              5.915338e+14   3.3714064e-06  0.4002814    
   2420000   0.484               1572  -0              5.6501686e+14  3.3714064e-06  0.39666993   
   2430000   0.486               1572  -0              5.4398138e+14  3.3714064e-06  0.37177186   
   2440000   0.488               1572  -0              5.3240866e+14  3.3714064e-06  0.36977369   
   2450000   0.49                1572  -0              5.1301842e+14  3.3714064e-06  0.36711387   
   2460000   0.492               1572  -0              4.8020707e+14  3.3714064e-06  0.36538767   
   2470000   0.494               1572  -0              4.5282602e+14  3.3714064e-06  0.35781889   
   2480000   0.496               1572  -0              4.1666976e+14  3.3714064e-06  0.35661701   
   2490000   0.498               1572  -0              3.9367768e+14  3.3714064e-06  0.35924453   
   2500000   0.5                 1572  -0              3.7288122e+14  3.3714064e-06  0.35386919   
   2510000   0.502               1572  -0              3.5663544e+14  3.3714064e-06  0.35065057   
   2520000   0.504               1572  -0              3.36503e+14    3.3714064e-06  0.34985652   
   2530000   0.506               1572  -0              3.1798264e+14  3.3714064e-06  0.34471305   
   2540000   0.508               1572  -0              3.1339728e+14  3.3714064e-06  0.34282347   
   2550000   0.51                1572  -0              3.0485649e+14  3.3714064e-06  0.34075953   
WARNING: Fewer insertions than requested (src/GRANULAR/fix_pour.cpp:691)
   2560000   0.512               1754  -0              8.1178791e+14  3.7617347e-06  0.61537649   
   2570000   0.514               1754  -0              7.8993825e+14  3.7617347e-06  0.59959407   
   2580000   0.516               1754  -0              7.6612715e+14  3.7617347e-06  0.58470522   
   2590000   0.518               1754  -0              7.5483321e+14  3.7617347e-06  0.57065936   
   2600000   0.52                1754  -0              7.3926162e+14  3.7617347e-06  0.5569458    
   2610000   0.522               1754  -0              7.2426865e+14  3.7617347e-06  0.54447163   
   2620000   0.524               1754  -0              7.1036549e+14  3.7617347e-06  0.53270373   
   2630000   0.526               1754  -0              6.9350855e+14  3.7617347e-06  0.50574258   
   2640000   0.528               1754  -0              6.669343e+14   3.7617347e-06  0.49616746   
   2650000   0.53                1754  -0              6.4565813e+14  3.7617347e-06  0.48344185   
   2660000   0.532               1754  -0              6.1421819e+14  3.7617347e-06  0.45930264   
   2670000   0.534               1754  -0              5.9630775e+14  3.7617347e-06  0.45235613   
   2680000   0.536               1754  -0              5.6904446e+14  3.7617347e-06  0.44111452   
   2690000   0.538               1754  -0              5.4751155e+14  3.7617347e-06  0.3935862    
   2700000   0.54                1754  -0              5.2811089e+14  3.7617347e-06  0.39032095   
   2710000   0.542               1754  -0              5.0912569e+14  3.7617347e-06  0.38035974   
   2720000   0.544               1754  -0              5.0347675e+14  3.7617347e-06  0.3778836    
   2730000   0.546               1754  -0              4.8839885e+14  3.7617347e-06  0.37554765   
   2740000   0.548               1754  -0              4.6406385e+14  3.7617347e-06  0.37334397   
   2750000   0.55                1754  -0              4.2658285e+14  3.7617347e-06  0.37126505   
   2760000   0.552               1754  -0              3.9036358e+14  3.7617347e-06  0.36930384   
   2770000   0.554               1754  -0              3.3701028e+14  3.7617347e-06  0.36163383   
   2780000   0.556               1754  -0              3.0431658e+14  3.7617347e-06  0.35677134   
   2790000   0.558               1754  -0              2.6604185e+14  3.7617347e-06  0.35563073   
   2800000   0.56                1754  -0              2.5559505e+14  3.7617347e-06  0.35455471   
   2810000   0.562               1754  -0              2.4311426e+14  3.7617347e-06  0.34682365   
   2820000   0.564               1754  -0              2.3750286e+14  3.7617347e-06  0.34014165   
   2830000   0.566               1754  -0              2.3498544e+14  3.7617347e-06  0.33994259   
   2840000   0.568               1754  -0              2.3168395e+14  3.7617347e-06  0.33941167   
   2850000   0.57                1754  -0              2.3055975e+14  3.7617347e-06  0.33925395   
   2860000   0.572               1754  -0              2.2540413e+14  3.7617347e-06  0.33444241   
   2870000   0.574               1754  -0              2.2091556e+14  3.7617347e-06  0.33346144   
   2880000   0.576               1850  -0              5.0273525e+14  3.9676221e-06  0.61225275   
   2890000   0.578               1850  -0              4.9099695e+14  3.9676221e-06  0.59664719   
   2900000   0.58                1850  -0              4.7980864e+14  3.9676221e-06  0.57867171   
   2910000   0.582               1850  -0              4.6339434e+14  3.9676221e-06  0.56496745   
   2920000   0.584               1850  -0              4.3483935e+14  3.9676221e-06  0.55203911   
   2930000   0.586               1850  -0              4.1174409e+14  3.9676221e-06  0.52538324   
   2940000   0.588               1850  -0              3.8876914e+14  3.9676221e-06  0.47137694   
   2950000   0.59                1850  -0              3.74303e+14    3.9676221e-06  0.46374754   
   2960000   0.592               1850  -0              3.5435586e+14  3.9676221e-06  0.42321826   
   2970000   0.594               1850  -0              3.3804907e+14  3.9676221e-06  0.41831554   
   2980000   0.596               1850  -0              3.2455317e+14  3.9676221e-06  0.4136904    
   2990000   0.598               1850  -0              3.1053507e+14  3.9676221e-06  0.40932713   
   3000000   0.6                 1850  -0              2.8958934e+14  3.9676221e-06  0.39079835   
Loop time of 309.519 on 1 procs for 3000000 steps with 1850 atoms

100.0% CPU use with 1 MPI tasks x 1 OpenMP threads

MPI task timing breakdown:
Section |  min time  |  avg time  |  max time  |%varavg| %total
---------------------------------------------------------------
Pair    | 220.33     | 220.33     | 220.33     |   0.0 | 71.18
Neigh   | 0.54935    | 0.54935    | 0.54935    |   0.0 |  0.18
Comm    | 0.062366   | 0.062366   | 0.062366   |   0.0 |  0.02
Output  | 0.11738    | 0.11738    | 0.11738    |   0.0 |  0.04
Modify  | 84.643     | 84.643     | 84.643     |   0.0 | 27.35
Other   |            | 3.819      |            |       |  1.23

Nlocal:           1850 ave        1850 max        1850 min
Histogram: 1 0 0 0 0 0 0 0 0 0
Nghost:              0 ave           0 max           0 min
Histogram: 1 0 0 0 0 0 0 0 0 0
Neighs:           6622 ave        6622 max        6622 min
Histogram: 1 0 0 0 0 0 0 0 0 0

Total # of neighbors = 6622
Ave neighs/atom = 3.5794595
Neighbor list builds = 2174
Dangerous builds = 0
Generated 0 of 0 mixed pair_coeff terms from geometric mixing rule
Setting up Verlet run ...
  Unit style    : si
  Current step  : 0
  Time step     : 2e-07
Per MPI rank memory allocation (min/avg/max) = 14.72 | 14.72 | 14.72 Mbytes
   Step          Time         Atoms        KinEng     c_granularTemp c_solidVolume    c_maxSpeed  
         0   0                   1850   2.0309664e-05  2.6967711e+14  3.9676221e-06  0.36891748   
     10000   0.002               1850   1.1627172e-05  1.5617617e+14  3.9676221e-06  0.29265848   
     20000   0.004               1850   7.4878972e-06  1.0169163e+14  3.9676221e-06  0.22921317   
     30000   0.006               1850   4.8285972e-06  6.6201706e+13  3.9676221e-06  0.18828748   
     40000   0.008               1850   3.3476323e-06  4.6141175e+13  3.9676221e-06  0.15770791   
     50000   0.01                1850   2.5211022e-06  3.4821421e+13  3.9676221e-06  0.13485893   
     60000   0.012               1850   1.9755496e-06  2.7528211e+13  3.9676221e-06  0.11778623   
     70000   0.014               1850   1.5998961e-06  2.230354e+13   3.9676221e-06  0.10502955   
     80000   0.016               1850   1.3602176e-06  1.9007058e+13  3.9676221e-06  0.09549779   
     90000   0.018               1850   1.1959396e-06  1.6723691e+13  3.9676221e-06  0.088375685  
    100000   0.02                1850   1.0399923e-06  1.4479608e+13  3.9676221e-06  0.083054066  
    110000   0.022               1850   9.5029693e-07  1.3237063e+13  3.9676221e-06  0.078839558  
    120000   0.024               1850   8.6425836e-07  1.2080788e+13  3.9676221e-06  0.075928696  
    130000   0.026               1850   8.1723122e-07  1.1428693e+13  3.9676221e-06  0.073753707  
    140000   0.028               1850   7.5328186e-07  1.0449515e+13  3.9676221e-06  0.073140953  
    150000   0.03                1850   7.0178134e-07  9.660806e+12   3.9676221e-06  0.071357306  
    160000   0.032               1850   6.8071028e-07  9.3858111e+12  3.9676221e-06  0.072003366  
    170000   0.034               1850   6.3449065e-07  8.7634435e+12  3.9676221e-06  0.069298376  
    180000   0.036               1850   6.2200071e-07  8.5753888e+12  3.9676221e-06  0.068799549  
    190000   0.038               1850   5.9254543e-07  8.1810164e+12  3.9676221e-06  0.068426826  
    200000   0.04                1850   5.6786064e-07  7.8430518e+12  3.9676221e-06  0.068148328  
    210000   0.042               1850   5.4947773e-07  7.6069637e+12  3.9676221e-06  0.067940236  
    220000   0.044               1850   5.404438e-07   7.4537955e+12  3.9676221e-06  0.068421352  
    230000   0.046               1850   5.0088108e-07  6.9765548e+12  3.9676221e-06  0.06766857   
    240000   0.048               1850   4.9068662e-07  6.7726333e+12  3.9676221e-06  0.067581762  
    250000   0.05                1850   4.8502629e-07  6.6564642e+12  3.9676221e-06  0.067516899  
    260000   0.052               1850   4.8413478e-07  6.6265351e+12  3.9676221e-06  0.067468433  
    270000   0.054               1850   4.7009469e-07  6.4445163e+12  3.9676221e-06  0.06743222   
    280000   0.056               1850   4.6017631e-07  6.3402361e+12  3.9676221e-06  0.067404131  
    290000   0.058               1850   4.5822173e-07  6.3101115e+12  3.9676221e-06  0.067384173  
    300000   0.06                1850   4.5977109e-07  6.3220239e+12  3.9676221e-06  0.067369261  
    310000   0.062               1850   4.5648764e-07  6.2579626e+12  3.9676221e-06  0.067357068  
    320000   0.064               1850   4.4965171e-07  6.1795891e+12  3.9676221e-06  0.067349008  
    330000   0.066               1850   4.4594398e-07  6.1152657e+12  3.9676221e-06  0.067342985  
    340000   0.068               1850   4.4544242e-07  6.1156793e+12  3.9676221e-06  0.067338485  
    350000   0.07                1850   4.4383724e-07  6.0958797e+12  3.9676221e-06  0.067335123  
    360000   0.072               1850   4.4611428e-07  6.1307395e+12  3.9676221e-06  0.067332611  
    370000   0.074               1850   4.4274089e-07  6.0921573e+12  3.9676221e-06  0.067330725  
    380000   0.076               1850   4.3837462e-07  6.0456399e+12  3.9676221e-06  0.067329324  
    390000   0.078               1850   4.2938809e-07  5.9055182e+12  3.9676221e-06  0.067328278  
    400000   0.08                1850   4.2346898e-07  5.800943e+12   3.9676221e-06  0.067327407  
    410000   0.082               1850   4.2245434e-07  5.7558951e+12  3.9676221e-06  0.067326845  
    420000   0.084               1850   4.1639289e-07  5.650954e+12   3.9676221e-06  0.067326425  
    430000   0.086               1850   4.1416919e-07  5.6061305e+12  3.9676221e-06  0.067326112  
    440000   0.088               1850   4.0082961e-07  5.4148425e+12  3.9676221e-06  0.067325857  
    450000   0.09                1850   3.9635204e-07  5.3471902e+12  3.9676221e-06  0.067325687  
    460000   0.092               1850   3.9629713e-07  5.3449268e+12  3.9676221e-06  0.06732556   
    470000   0.094               1850   3.9341186e-07  5.2801271e+12  3.9676221e-06  0.067325465  
    480000   0.096               1850   3.953511e-07   5.3121773e+12  3.9676221e-06  0.067325394  
    490000   0.098               1850   3.9471299e-07  5.300939e+12   3.9676221e-06  0.067325341  
    500000   0.1                 1850   3.9369238e-07  5.2809208e+12  3.9676221e-06  0.067325302  
    510000   0.102               1850   3.9096396e-07  5.2231555e+12  3.9676221e-06  0.067325272  
    520000   0.104               1850   3.7858355e-07  5.0523072e+12  3.9676221e-06  0.06732525   
    530000   0.106               1850   3.7511673e-07  4.9736143e+12  3.9676221e-06  0.067325234  
    540000   0.108               1850   3.7407712e-07  4.9501588e+12  3.9676221e-06  0.067325222  
    550000   0.11                1850   3.709195e-07   4.9145016e+12  3.9676221e-06  0.067325212  
    560000   0.112               1850   3.6785048e-07  4.8897339e+12  3.9676221e-06  0.067325205  
    570000   0.114               1850   3.6123785e-07  4.8147346e+12  3.9676221e-06  0.0673252    
    580000   0.116               1850   3.6222995e-07  4.8342593e+12  3.9676221e-06  0.067325196  
    590000   0.118               1850   3.5522713e-07  4.7509108e+12  3.9676221e-06  0.067325193  
    600000   0.12                1850   3.5666221e-07  4.7804727e+12  3.9676221e-06  0.067325191  
    610000   0.122               1850   3.5398854e-07  4.7341751e+12  3.9676221e-06  0.06732519   
    620000   0.124               1850   3.5526396e-07  4.7589361e+12  3.9676221e-06  0.067325188  
    630000   0.126               1850   3.5035626e-07  4.7070553e+12  3.9676221e-06  0.067325188  
    640000   0.128               1850   3.5008957e-07  4.7043152e+12  3.9676221e-06  0.067325187  
    650000   0.13                1850   3.5065827e-07  4.7125948e+12  3.9676221e-06  0.067325186  
    660000   0.132               1850   3.4595218e-07  4.6551951e+12  3.9676221e-06  0.067325186  
    670000   0.134               1850   3.3531467e-07  4.513865e+12   3.9676221e-06  0.067325186  
    680000   0.136               1850   3.2738602e-07  4.4272746e+12  3.9676221e-06  0.067325186  
    690000   0.138               1850   3.2592634e-07  4.4189432e+12  3.9676221e-06  0.067325185  
    700000   0.14                1850   3.2358952e-07  4.3912381e+12  3.9676221e-06  0.067325185  
    710000   0.142               1850   3.2488092e-07  4.419779e+12   3.9676221e-06  0.067325185  
    720000   0.144               1850   3.1794591e-07  4.346343e+12   3.9676221e-06  0.067325185  
    730000   0.146               1850   3.0807001e-07  4.2352304e+12  3.9676221e-06  0.067325185  
    740000   0.148               1850   3.0795209e-07  4.2264412e+12  3.9676221e-06  0.067325185  
    750000   0.15                1850   3.0247443e-07  4.1654208e+12  3.9676221e-06  0.067325185  
    760000   0.152               1850   2.9764669e-07  4.1090776e+12  3.9676221e-06  0.067325185  
    770000   0.154               1850   2.989818e-07   4.1418115e+12  3.9676221e-06  0.067325185  
    780000   0.156               1850   2.9873131e-07  4.1342137e+12  3.9676221e-06  0.067325185  
    790000   0.158               1850   2.8634013e-07  3.9299899e+12  3.9676221e-06  0.067325185  
    800000   0.16                1850   2.8280517e-07  3.8574904e+12  3.9676221e-06  0.067325185  
    810000   0.162               1850   2.8436327e-07  3.8576718e+12  3.9676221e-06  0.067325185  
    820000   0.164               1850   2.8393378e-07  3.8521942e+12  3.9676221e-06  0.067325185  
    830000   0.166               1850   2.7094211e-07  3.6896574e+12  3.9676221e-06  0.067325185  
    840000   0.168               1850   2.728125e-07   3.7189237e+12  3.9676221e-06  0.067325185  
    850000   0.17                1850   2.7302791e-07  3.7318467e+12  3.9676221e-06  0.067325185  
    860000   0.172               1850   2.7436281e-07  3.7540752e+12  3.9676221e-06  0.067325185  
    870000   0.174               1850   2.7498784e-07  3.7702378e+12  3.9676221e-06  0.067325185  
    880000   0.176               1850   2.6800308e-07  3.6694905e+12  3.9676221e-06  0.067325185  
    890000   0.178               1850   2.5811288e-07  3.526752e+12   3.9676221e-06  0.067325185  
    900000   0.18                1850   2.4905915e-07  3.401391e+12   3.9676221e-06  0.067325185  
    910000   0.182               1850   2.3894883e-07  3.2718318e+12  3.9676221e-06  0.067325185  
    920000   0.184               1850   2.3732391e-07  3.2322959e+12  3.9676221e-06  0.067325185  
    930000   0.186               1850   2.342491e-07   3.1873799e+12  3.9676221e-06  0.067325185  
    940000   0.188               1850   2.290055e-07   3.1201228e+12  3.9676221e-06  0.067325185  
    950000   0.19                1850   2.2873417e-07  3.1169367e+12  3.9676221e-06  0.067325185  
    960000   0.192               1850   2.2468449e-07  3.0485348e+12  3.9676221e-06  0.067325185  
    970000   0.194               1850   2.188385e-07   2.9716217e+12  3.9676221e-06  0.067325185  
    980000   0.196               1850   2.1420301e-07  2.923341e+12   3.9676221e-06  0.067325185  
    990000   0.198               1850   2.1144802e-07  2.8623543e+12  3.9676221e-06  0.067325185  
   1000000   0.2                 1850   2.0390816e-07  2.7516386e+12  3.9676221e-06  0.067325185  
   1010000   0.202               1850   2.034277e-07   2.742081e+12   3.9676221e-06  0.067325185  
   1020000   0.204               1850   1.9240801e-07  2.6190404e+12  3.9676221e-06  0.067325185  
   1030000   0.206               1850   1.9347914e-07  2.6458645e+12  3.9676221e-06  0.067325185  
   1040000   0.208               1850   1.897074e-07   2.6069345e+12  3.9676221e-06  0.067325185  
   1050000   0.21                1850   1.8345664e-07  2.5327097e+12  3.9676221e-06  0.067325185  
   1060000   0.212               1850   1.8582578e-07  2.5710207e+12  3.9676221e-06  0.067325185  
   1070000   0.214               1850   1.8321116e-07  2.5479568e+12  3.9676221e-06  0.067325185  
   1080000   0.216               1850   1.8522441e-07  2.5926011e+12  3.9676221e-06  0.067325185  
   1090000   0.218               1850   1.8164715e-07  2.5328626e+12  3.9676221e-06  0.067325185  
   1100000   0.22                1850   1.7897589e-07  2.4756927e+12  3.9676221e-06  0.067325185  
   1110000   0.222               1850   1.6996251e-07  2.376528e+12   3.9676221e-06  0.067325185  
   1120000   0.224               1850   1.6086918e-07  2.2405953e+12  3.9676221e-06  0.067325185  
   1130000   0.226               1850   1.6001662e-07  2.2054865e+12  3.9676221e-06  0.067325185  
   1140000   0.228               1850   1.5645589e-07  2.1636678e+12  3.9676221e-06  0.067325185  
   1150000   0.23                1850   1.5354278e-07  2.1124674e+12  3.9676221e-06  0.067325185  
   1160000   0.232               1850   1.5435763e-07  2.1220319e+12  3.9676221e-06  0.067325185  
   1170000   0.234               1850   1.5543027e-07  2.1436061e+12  3.9676221e-06  0.067325185  
   1180000   0.236               1850   1.5093769e-07  2.0863207e+12  3.9676221e-06  0.067325185  
   1190000   0.238               1850   1.498295e-07   2.0726432e+12  3.9676221e-06  0.067325185  
   1200000   0.24                1850   1.3435131e-07  1.8703031e+12  3.9676221e-06  0.067325185  
   1210000   0.242               1850   1.2401791e-07  1.7448447e+12  3.9676221e-06  0.067325185  
   1220000   0.244               1850   1.1759411e-07  1.6746546e+12  3.9676221e-06  0.067325185  
   1230000   0.246               1850   1.1243393e-07  1.6120656e+12  3.9676221e-06  0.067325185  
   1240000   0.248               1850   1.1064999e-07  1.5877058e+12  3.9676221e-06  0.067325185  
   1250000   0.25                1850   9.6107197e-08  1.38907e+12    3.9676221e-06  0.067325185  
   1260000   0.252               1850   9.6608414e-08  1.4064696e+12  3.9676221e-06  0.067325185  
   1270000   0.254               1850   9.3321265e-08  1.3880946e+12  3.9676221e-06  0.067325185  
   1280000   0.256               1850   9.3597553e-08  1.3658801e+12  3.9676221e-06  0.067325185  
   1290000   0.258               1850   9.5392121e-08  1.3827102e+12  3.9676221e-06  0.067325185  
   1300000   0.26                1850   9.0025368e-08  1.3146565e+12  3.9676221e-06  0.067325185  
   1310000   0.262               1850   9.1436199e-08  1.3429768e+12  3.9676221e-06  0.069144383  
   1320000   0.264               1850   8.4735664e-08  1.2678955e+12  3.9676221e-06  0.067325185  
   1330000   0.266               1850   8.2204169e-08  1.2225529e+12  3.9676221e-06  0.067325185  
   1340000   0.268               1850   7.7659353e-08  1.1467852e+12  3.9676221e-06  0.067325185  
   1350000   0.27                1850   7.7288889e-08  1.1496581e+12  3.9676221e-06  0.067325185  
   1360000   0.272               1850   7.7155853e-08  1.1565565e+12  3.9676221e-06  0.067325185  
   1370000   0.274               1850   7.0859374e-08  1.0813479e+12  3.9676221e-06  0.067325185  
   1380000   0.276               1850   6.7954407e-08  1.0403546e+12  3.9676221e-06  0.067325185  
   1390000   0.278               1850   5.0142584e-08  8.0027631e+11  3.9676221e-06  0.067325185  
   1400000   0.28                1850   4.0948337e-08  6.6016135e+11  3.9676221e-06  0.067325185  
   1410000   0.282               1850   4.1153983e-08  6.659256e+11   3.9676221e-06  0.067325185  
   1420000   0.284               1850   4.1905274e-08  6.7895156e+11  3.9676221e-06  0.067325185  
   1430000   0.286               1850   4.1144531e-08  6.7327248e+11  3.9676221e-06  0.067325185  
   1440000   0.288               1850   4.1440372e-08  6.8406351e+11  3.9676221e-06  0.067325185  
   1450000   0.29                1850   3.8085133e-08  6.5848157e+11  3.9676221e-06  0.067325185  
   1460000   0.292               1850   3.019725e-08   5.6172913e+11  3.9676221e-06  0.067325185  
   1470000   0.294               1850   2.630969e-08   4.8821066e+11  3.9676221e-06  0.067325185  
   1480000   0.296               1850   1.9496159e-08  4.0158683e+11  3.9676221e-06  0.060760292  
   1490000   0.298               1850   1.6692098e-08  3.6253703e+11  3.9676221e-06  0.043376065  
   1500000   0.3                 1850   1.7941497e-08  3.8916371e+11  3.9676221e-06  0.04344321   
   1510000   0.302               1850   2.0091632e-08  4.2953399e+11  3.9676221e-06  0.047789288  
   1520000   0.304               1850   1.785917e-08   4.0338026e+11  3.9676221e-06  0.044014157  
   1530000   0.306               1850   1.8225356e-08  4.0381519e+11  3.9676221e-06  0.046331282  
   1540000   0.308               1850   1.8899014e-08  4.1578926e+11  3.9676221e-06  0.050914093  
   1550000   0.31                1850   1.6999936e-08  3.565274e+11   3.9676221e-06  0.048440345  
   1560000   0.312               1850   1.5483397e-08  3.1304573e+11  3.9676221e-06  0.049838318  
   1570000   0.314               1850   1.0376709e-08  2.0260944e+11  3.9676221e-06  0.050208173  
   1580000   0.316               1850   9.6934246e-09  1.905647e+11   3.9676221e-06  0.051612592  
   1590000   0.318               1850   9.7734043e-09  1.8739099e+11  3.9676221e-06  0.053910734  
   1600000   0.32                1850   1.0891703e-08  2.078163e+11   3.9676221e-06  0.055929018  
   1610000   0.322               1850   9.21195e-09    1.80126e+11    3.9676221e-06  0.05067566   
   1620000   0.324               1850   8.3119546e-09  1.6948905e+11  3.9676221e-06  0.043690876  
   1630000   0.326               1850   8.9912591e-09  1.8334391e+11  3.9676221e-06  0.044834337  
   1640000   0.328               1850   4.1466519e-09  8.9647414e+10  3.9676221e-06  0.027326311  
   1650000   0.33                1850   3.9657527e-09  8.43288e+10    3.9676221e-06  0.02888504   
   1660000   0.332               1850   4.1312383e-09  8.8312626e+10  3.9676221e-06  0.030631621  
   1670000   0.334               1850   4.4722297e-09  9.6633642e+10  3.9676221e-06  0.032412623  
   1680000   0.336               1850   4.9646992e-09  1.0810809e+11  3.9676221e-06  0.034296508  
   1690000   0.338               1850   5.594586e-09   1.2245173e+11  3.9676221e-06  0.036234775  
   1700000   0.34                1850   5.9478894e-09  1.2840131e+11  3.9676221e-06  0.038209281  
   1710000   0.342               1850   3.9466177e-09  8.1443212e+10  3.9676221e-06  0.040266434  
   1720000   0.344               1850   4.0070812e-09  7.9080329e+10  3.9676221e-06  0.042325745  
   1730000   0.346               1850   4.1801043e-09  8.3314134e+10  3.9676221e-06  0.04439117   
   1740000   0.348               1850   4.6604389e-09  9.3368191e+10  3.9676221e-06  0.04655088   
   1750000   0.35                1850   5.2207339e-09  1.0577161e+11  3.9676221e-06  0.048659335  
   1760000   0.352               1850   1.6161336e-09  4.4109848e+10  3.9676221e-06  0.021749954  
   1770000   0.354               1850   1.2060653e-09  3.3869564e+10  3.9676221e-06  0.023755685  
   1780000   0.356               1850   1.4740288e-09  4.0414539e+10  3.9676221e-06  0.025579964  
   1790000   0.358               1850   1.7022204e-09  4.6788927e+10  3.9676221e-06  0.027665294  
   1800000   0.36                1850   1.8130603e-09  5.0608128e+10  3.9676221e-06  0.029944885  
   1810000   0.362               1850   2.0889492e-09  5.8580494e+10  3.9676221e-06  0.032155335  
   1820000   0.364               1850   2.3884078e-10  1.0450031e+10  3.9676221e-06  0.006994467  
   1830000   0.366               1850   1.4960317e-10  4.8744458e+09  3.9676221e-06  0.007576158  
   1840000   0.368               1850   1.3217635e-10  3.8298334e+09  3.9676221e-06  0.0082270378 
   1850000   0.37                1850   1.8572883e-10  5.754444e+09   3.9676221e-06  0.0088899987 
   1860000   0.372               1850   1.5955947e-10  4.2328004e+09  3.9676221e-06  0.0095707315 
   1870000   0.374               1850   1.9621117e-10  5.3088753e+09  3.9676221e-06  0.010349097  
   1880000   0.376               1850   2.2992248e-10  6.5012918e+09  3.9676221e-06  0.011157787  
   1890000   0.378               1850   2.7707142e-10  8.1620171e+09  3.9676221e-06  0.012030607  
   1900000   0.38                1850   3.0136995e-10  7.4749804e+09  3.9676221e-06  0.012989563  
   1910000   0.382               1850   3.3526144e-10  8.2711926e+09  3.9676221e-06  0.013976777  
   1920000   0.384               1850   3.9731928e-10  9.726406e+09   3.9676221e-06  0.015060261  
   1930000   0.386               1850   4.7920994e-10  1.1657372e+10  3.9676221e-06  0.016223395  
   1940000   0.388               1850   6.5344649e-11  2.9854847e+09  3.9676221e-06  0.005885335  
   1950000   0.39                1850   5.6076554e-12  6.2075777e+08  3.9676221e-06  0.0012774114 
   1960000   0.392               1850   2.6170532e-11  1.0867193e+09  3.9676221e-06  0.0038258952 
   1970000   0.394               1850   6.0524223e-11  2.0159668e+09  3.9676221e-06  0.0046199322 
   1980000   0.396               1850   1.2635262e-12  4.5887552e+08  3.9676221e-06  0.00054150343
   1990000   0.398               1850   1.7567063e-11  8.4103525e+08  3.9676221e-06  0.0031842894 
   2000000   0.4                 1850   2.4034994e-12  4.8894646e+08  3.9676221e-06  0.0010284299 
   2010000   0.402               1850   6.9855794e-13  4.4603729e+08  3.9676221e-06  0.00031729087
   2020000   0.404               1850   1.1052992e-13  4.3011592e+08  3.9676221e-06  5.6775828e-05
   2030000   0.406               1850   2.6379364e-14  4.2859257e+08  3.9676221e-06  4.0667349e-05
   2040000   0.408               1850   1.053025e-14   4.2815777e+08  3.9676221e-06  1.7504774e-05
   2050000   0.41                1850   3.8437124e-15  4.2799509e+08  3.9676221e-06  8.3371765e-06
   2060000   0.412               1850   1.3406912e-15  4.2794215e+08  3.9676221e-06  5.5971999e-06
   2070000   0.414               1850   4.8672847e-16  4.2792848e+08  3.9676221e-06  4.3310759e-06
   2080000   0.416               1850   2.0840739e-16  4.2792244e+08  3.9676221e-06  2.7475643e-06
   2090000   0.418               1850   8.2403019e-17  4.2791875e+08  3.9676221e-06  1.8037077e-06
   2100000   0.42                1850   2.5387204e-17  4.279172e+08   3.9676221e-06  1.7424137e-06
   2110000   0.422               1850   1.2540909e-17  4.2791691e+08  3.9676221e-06  7.9146684e-07
   2120000   0.424               1850   8.421423e-18   4.279168e+08   3.9676221e-06  6.0182438e-07
   2130000   0.426               1850   4.1301395e-18  4.2791668e+08  3.9676221e-06  6.3623585e-07
   2140000   0.428               1850   1.2934625e-18  4.279166e+08   3.9676221e-06  3.3780005e-07
   2150000   0.43                1850   4.1189591e-19  4.2791658e+08  3.9676221e-06  1.8134565e-07
   2160000   0.432               1850   5.8196851e-19  4.2791658e+08  3.9676221e-06  2.7637604e-07
   2170000   0.434               1850   1.8380486e-19  4.2791657e+08  3.9676221e-06  1.5499023e-07
   2180000   0.436               1850   5.1790169e-20  4.2791656e+08  3.9676221e-06  7.2239606e-08
   2190000   0.438               1850   7.0490923e-20  4.2791657e+08  3.9676221e-06  8.7258804e-08
   2200000   0.44                1850   3.2864128e-20  4.2791656e+08  3.9676221e-06  7.2885512e-08
   2210000   0.442               1850   1.841195e-20   4.2791656e+08  3.9676221e-06  4.2568783e-08
   2220000   0.444               1850   4.8836324e-21  4.2791656e+08  3.9676221e-06  2.7102791e-08
   2230000   0.446               1850   8.1505142e-21  4.2791656e+08  3.9676221e-06  3.3775026e-08
   2240000   0.448               1850   4.2213947e-21  4.2791656e+08  3.9676221e-06  2.6386703e-08
   2250000   0.45                1850   2.8817908e-21  4.2791656e+08  3.9676221e-06  2.6338792e-08
   2260000   0.452               1850   1.9907267e-21  4.2791656e+08  3.9676221e-06  1.7575986e-08
   2270000   0.454               1850   7.0162227e-22  4.2791656e+08  3.9676221e-06  1.3444865e-08
   2280000   0.456               1850   9.3520968e-22  4.2791656e+08  3.9676221e-06  1.1138477e-08
   2290000   0.458               1850   8.0305401e-22  4.2791656e+08  3.9676221e-06  1.8177697e-08
   2300000   0.46                1850   1.3348115e-21  4.2791656e+08  3.9676221e-06  2.0002672e-08
   2310000   0.462               1850   6.1022021e-22  4.2791656e+08  3.9676221e-06  1.5014321e-08
   2320000   0.464               1850   2.0834889e-22  4.2791656e+08  3.9676221e-06  6.9723543e-09
   2330000   0.466               1850   3.7428364e-22  4.2791656e+08  3.9676221e-06  1.0544001e-08
   2340000   0.468               1850   3.0176287e-22  4.2791656e+08  3.9676221e-06  1.2127459e-08
   2350000   0.47                1850   6.3034254e-22  4.2791656e+08  3.9676221e-06  1.4852281e-08
   2360000   0.472               1850   4.6235378e-22  4.2791656e+08  3.9676221e-06  1.2358556e-08
   2370000   0.474               1850   8.1758664e-23  4.2791656e+08  3.9676221e-06  6.07053e-09  
   2380000   0.476               1850   1.8221615e-22  4.2791656e+08  3.9676221e-06  8.090964e-09 
   2390000   0.478               1850   1.7501895e-22  4.2791656e+08  3.9676221e-06  7.7745581e-09
   2400000   0.48                1850   2.6955482e-22  4.2791656e+08  3.9676221e-06  1.0764259e-08
   2410000   0.482               1850   3.2247581e-22  4.2791656e+08  3.9676221e-06  9.8593185e-09
   2420000   0.484               1850   7.5132422e-23  4.2791656e+08  3.9676221e-06  5.8100641e-09
   2430000   0.486               1850   6.4020514e-23  4.2791656e+08  3.9676221e-06  4.8642407e-09
   2440000   0.488               1850   1.1744678e-22  4.2791656e+08  3.9676221e-06  5.2140778e-09
   2450000   0.49                1850   1.1606672e-22  4.2791656e+08  3.9676221e-06  7.6122936e-09
   2460000   0.492               1850   1.8364977e-22  4.2791656e+08  3.9676221e-06  7.6520085e-09
   2470000   0.494               1850   8.2950338e-23  4.2791656e+08  3.9676221e-06  5.1785299e-09
   2480000   0.496               1850   1.4670164e-23  4.2791656e+08  3.9676221e-06  2.0567955e-09
   2490000   0.498               1850   6.6785086e-23  4.2791656e+08  3.9676221e-06  4.4413858e-09
   2500000   0.5                 1850   6.0621153e-23  4.2791656e+08  3.9676221e-06  5.2275192e-09
   2510000   0.502               1850   8.9242892e-23  4.2791656e+08  3.9676221e-06  5.80374e-09  
   2520000   0.504               1850   7.0790317e-23  4.2791656e+08  3.9676221e-06  4.406033e-09 
   2530000   0.506               1850   5.9023815e-24  4.2791656e+08  3.9676221e-06  1.7111487e-09
   2540000   0.508               1850   2.8879115e-23  4.2791656e+08  3.9676221e-06  3.0925876e-09
   2550000   0.51                1850   3.8330876e-23  4.2791656e+08  3.9676221e-06  3.4756689e-09
   2560000   0.512               1850   3.9331321e-23  4.2791656e+08  3.9676221e-06  4.2865812e-09
   2570000   0.514               1850   4.7619398e-23  4.2791656e+08  3.9676221e-06  3.60665e-09  
   2580000   0.516               1850   1.0280147e-23  4.2791656e+08  3.9676221e-06  1.8092678e-09
   2590000   0.518               1850   7.5141518e-24  4.2791656e+08  3.9676221e-06  1.6325573e-09
   2600000   0.52                1850   2.3841181e-23  4.2791656e+08  3.9676221e-06  2.2936388e-09
   2610000   0.522               1850   1.9258406e-23  4.2791656e+08  3.9676221e-06  3.0977868e-09
   2620000   0.524               1850   2.5570685e-23  4.2791656e+08  3.9676221e-06  2.8648004e-09
   2630000   0.526               1850   1.2738475e-23  4.2791656e+08  3.9676221e-06  1.7107935e-09
   2640000   0.528               1850   7.1003731e-25  4.2791656e+08  3.9676221e-06  4.8930712e-10
   2650000   0.53                1850   1.1930601e-23  4.2791656e+08  3.9676221e-06  1.7636641e-09
   2660000   0.532               1850   1.1690195e-23  4.2791656e+08  3.9676221e-06  2.183917e-09 
   2670000   0.534               1850   1.2082645e-23  4.2791656e+08  3.9676221e-06  2.2149682e-09
   2680000   0.536               1850   1.0341455e-23  4.2791656e+08  3.9676221e-06  1.5062321e-09
   2690000   0.538               1850   5.4070868e-25  4.2791656e+08  3.9676221e-06  3.8251171e-10
   2700000   0.54                1850   4.4276286e-24  4.2791656e+08  3.9676221e-06  1.1063856e-09
   2710000   0.542               1850   7.5251996e-24  4.2791656e+08  3.9676221e-06  1.4961054e-09
   2720000   0.544               1850   5.6612252e-24  4.2791656e+08  3.9676221e-06  1.6688861e-09
   2730000   0.546               1850   6.3834942e-24  4.2791656e+08  3.9676221e-06  1.2614075e-09
   2740000   0.548               1850   1.5818063e-24  4.2791656e+08  3.9676221e-06  6.3320545e-10
   2750000   0.55                1850   9.2255337e-25  4.2791656e+08  3.9676221e-06  4.8608257e-10
   2760000   0.552               1850   4.3310292e-24  4.2791656e+08  3.9676221e-06  9.9151162e-10
   2770000   0.554               1850   3.1700774e-24  4.2791656e+08  3.9676221e-06  1.2241298e-09
   2780000   0.556               1850   3.2279443e-24  4.2791656e+08  3.9676221e-06  1.0241767e-09
   2790000   0.558               1850   1.8155361e-24  4.2791656e+08  3.9676221e-06  6.92015e-10  
   2800000   0.56                1850   7.6007317e-26  4.2791656e+08  3.9676221e-06  1.2438781e-10
   2810000   0.562               1850   1.972954e-24   4.2791656e+08  3.9676221e-06  6.5480596e-10
   2820000   0.564               1850   2.0533172e-24  4.2791656e+08  3.9676221e-06  8.7992785e-10
   2830000   0.566               1850   1.5284114e-24  4.2791656e+08  3.9676221e-06  8.056871e-10 
   2840000   0.568               1850   1.3291324e-24  4.2791656e+08  3.9676221e-06  5.687751e-10 
   2850000   0.57                1850   1.0275457e-25  4.2791656e+08  3.9676221e-06  1.6768572e-10
   2860000   0.572               1850   7.2697811e-25  4.2791656e+08  3.9676221e-06  3.9011833e-10
   2870000   0.574               1850   1.2560922e-24  4.2791656e+08  3.9676221e-06  6.1474348e-10
   2880000   0.576               1850   7.8741817e-25  4.2791656e+08  3.9676221e-06  6.1769004e-10
   2890000   0.578               1850   7.8162952e-25  4.2791656e+08  3.9676221e-06  4.10163e-10  
   2900000   0.58                1850   2.0779587e-25  4.2791656e+08  3.9676221e-06  2.5083924e-10
   2910000   0.582               1850   2.0223461e-25  4.2791656e+08  3.9676221e-06  2.2462232e-10
   2920000   0.584               1850   6.9805861e-25  4.2791656e+08  3.9676221e-06  4.2304027e-10
   2930000   0.586               1850   4.6468942e-25  4.2791656e+08  3.9676221e-06  4.580903e-10 
   2940000   0.588               1850   3.8853982e-25  4.2791656e+08  3.9676221e-06  3.3482512e-10
   2950000   0.59                1850   1.9989285e-25  4.2791656e+08  3.9676221e-06  2.3893575e-10
   2960000   0.592               1850   5.6594568e-26  4.2791656e+08  3.9676221e-06  1.1930383e-10
   2970000   0.594               1850   3.3407574e-25  4.2791656e+08  3.9676221e-06  2.8691078e-10
   2980000   0.596               1850   2.8618009e-25  4.2791656e+08  3.9676221e-06  3.3407743e-10
   2990000   0.598               1850   1.9668473e-25  4.2791656e+08  3.9676221e-06  2.6170104e-10
   3000000   0.6                 1850   1.3351711e-25  4.2791656e+08  3.9676221e-06  1.8260763e-10
   3010000   0.602               1850   3.1228157e-26  4.2791656e+08  3.9676221e-06  6.1049666e-11
   3020000   0.604               1850   1.5645615e-25  4.2791656e+08  3.9676221e-06  1.9004771e-10
   3030000   0.606               1850   1.6311749e-25  4.2791656e+08  3.9676221e-06  2.380289e-10 
   3040000   0.608               1850   1.0534578e-25  4.2791656e+08  3.9676221e-06  1.9776863e-10
   3050000   0.61                1850   7.7061864e-26  4.2791656e+08  3.9676221e-06  1.2186897e-10
   3060000   0.612               1850   2.3373388e-26  4.2791656e+08  3.9676221e-06  2.5474978e-11
   3070000   0.614               1850   7.4271146e-26  4.2791656e+08  3.9676221e-06  1.2280989e-10
   3080000   0.616               1850   9.020664e-26   4.2791656e+08  3.9676221e-06  1.6387222e-10
   3090000   0.618               1850   6.36383e-26    4.2791656e+08  3.9676221e-06  1.4412776e-10
   3100000   0.62                1850   4.713258e-26   4.2791656e+08  3.9676221e-06  8.0301823e-11
   3110000   0.622               1850   2.0274715e-26  4.2791656e+08  3.9676221e-06  1.4615022e-11
   3120000   0.624               1850   4.3348893e-26  4.2791656e+08  3.9676221e-06  7.8682156e-11
   3130000   0.626               1850   4.8928729e-26  4.2791656e+08  3.9676221e-06  1.1172269e-10
   3140000   0.628               1850   4.3006487e-26  4.2791656e+08  3.9676221e-06  1.0150686e-10
   3150000   0.63                1850   2.9480891e-26  4.2791656e+08  3.9676221e-06  5.1381509e-11
   3160000   0.632               1850   2.2420751e-26  4.2791656e+08  3.9676221e-06  1.7015301e-11
   3170000   0.634               1850   3.1807074e-26  4.2791656e+08  3.9676221e-06  5.2658242e-11
   3180000   0.636               1850   3.3659714e-26  4.2791656e+08  3.9676221e-06  7.686222e-11 
   3190000   0.638               1850   3.3957625e-26  4.2791656e+08  3.9676221e-06  6.6663009e-11
   3200000   0.64                1850   2.5447566e-26  4.2791656e+08  3.9676221e-06  3.0992653e-11
   3210000   0.642               1850   2.537033e-26   4.2791656e+08  3.9676221e-06  1.7404951e-11
   3220000   0.644               1850   3.1130087e-26  4.2791656e+08  3.9676221e-06  4.3629378e-11
   3230000   0.646               1850   2.9840787e-26  4.2791656e+08  3.9676221e-06  5.0446133e-11
   3240000   0.648               1850   2.7229339e-26  4.2791656e+08  3.9676221e-06  3.5575145e-11
   3250000   0.65                1850   2.5453623e-26  4.2791656e+08  3.9676221e-06  1.2139099e-11
   3260000   0.652               1850   2.399017e-26   4.2791656e+08  3.9676221e-06  1.7460374e-11
   3270000   0.654               1850   2.3807394e-26  4.2791656e+08  3.9676221e-06  2.9528461e-11
   3280000   0.656               1850   2.1495437e-26  4.2791656e+08  3.9676221e-06  2.4062363e-11
   3290000   0.658               1850   2.0715105e-26  4.2791656e+08  3.9676221e-06  1.3556342e-11
   3300000   0.66                1850   2.1277347e-26  4.2791656e+08  3.9676221e-06  1.0399239e-11
   3310000   0.662               1850   2.205201e-26   4.2791656e+08  3.9676221e-06  1.4068774e-11
   3320000   0.664               1850   2.2036075e-26  4.2791656e+08  3.9676221e-06  1.567263e-11 
   3330000   0.666               1850   2.2951724e-26  4.2791656e+08  3.9676221e-06  1.5218504e-11
   3340000   0.668               1850   2.4458145e-26  4.2791656e+08  3.9676221e-06  1.7441313e-11
   3350000   0.67                1850   2.9471229e-26  4.2791656e+08  3.9676221e-06  1.7164539e-11
   3360000   0.672               1850   2.7682461e-26  4.2791656e+08  3.9676221e-06  1.6415507e-11
   3370000   0.674               1850   2.6875583e-26  4.2791656e+08  3.9676221e-06  1.5845923e-11
   3380000   0.676               1850   2.6227763e-26  4.2791656e+08  3.9676221e-06  1.6505325e-11
   3390000   0.678               1850   2.3270463e-26  4.2791656e+08  3.9676221e-06  1.3476775e-11
   3400000   0.68                1850   2.3797741e-26  4.2791656e+08  3.9676221e-06  1.5160704e-11
   3410000   0.682               1850   2.3888645e-26  4.2791656e+08  3.9676221e-06  1.3896679e-11
   3420000   0.684               1850   2.2284893e-26  4.2791656e+08  3.9676221e-06  1.1228314e-11
   3430000   0.686               1850   2.2272626e-26  4.2791656e+08  3.9676221e-06  1.5453455e-11
   3440000   0.688               1850   2.1100526e-26  4.2791656e+08  3.9676221e-06  1.6737473e-11
   3450000   0.69                1850   2.1077773e-26  4.2791656e+08  3.9676221e-06  1.1584891e-11
   3460000   0.692               1850   2.2100199e-26  4.2791656e+08  3.9676221e-06  1.2398025e-11
   3470000   0.694               1850   2.1756501e-26  4.2791656e+08  3.9676221e-06  1.3115696e-11
   3480000   0.696               1850   2.1848716e-26  4.2791656e+08  3.9676221e-06  1.3870828e-11
   3490000   0.698               1850   2.5038992e-26  4.2791656e+08  3.9676221e-06  1.6062667e-11
   3500000   0.7                 1850   2.5913252e-26  4.2791656e+08  3.9676221e-06  1.3233879e-11
   3510000   0.702               1850   2.5337451e-26  4.2791656e+08  3.9676221e-06  1.4422012e-11
   3520000   0.704               1850   2.3566809e-26  4.2791656e+08  3.9676221e-06  1.6204841e-11
   3530000   0.706               1850   2.0595415e-26  4.2791656e+08  3.9676221e-06  1.4943967e-11
   3540000   0.708               1850   2.3203262e-26  4.2791656e+08  3.9676221e-06  1.36889e-11  
   3550000   0.71                1850   2.5881402e-26  4.2791656e+08  3.9676221e-06  1.7301375e-11
   3560000   0.712               1850   2.6063623e-26  4.2791656e+08  3.9676221e-06  1.3822283e-11
   3570000   0.714               1850   2.6506835e-26  4.2791656e+08  3.9676221e-06  1.2726886e-11
   3580000   0.716               1850   2.802265e-26   4.2791656e+08  3.9676221e-06  1.4207961e-11
   3590000   0.718               1850   3.0810921e-26  4.2791656e+08  3.9676221e-06  1.7476243e-11
   3600000   0.72                1850   2.8782859e-26  4.2791656e+08  3.9676221e-06  1.6207419e-11
   3610000   0.722               1850   2.8433343e-26  4.2791656e+08  3.9676221e-06  1.7402629e-11
   3620000   0.724               1850   2.74022e-26    4.2791656e+08  3.9676221e-06  1.467437e-11 
   3630000   0.726               1850   2.7741163e-26  4.2791656e+08  3.9676221e-06  1.6341942e-11
   3640000   0.728               1850   2.7095386e-26  4.2791656e+08  3.9676221e-06  1.7179527e-11
   3650000   0.73                1850   2.503933e-26   4.2791656e+08  3.9676221e-06  1.7247713e-11
   3660000   0.732               1850   2.3968761e-26  4.2791656e+08  3.9676221e-06  1.3769865e-11
   3670000   0.734               1850   2.433273e-26   4.2791656e+08  3.9676221e-06  1.630381e-11 
   3680000   0.736               1850   2.4499902e-26  4.2791656e+08  3.9676221e-06  1.2039664e-11
   3690000   0.738               1850   2.4368601e-26  4.2791656e+08  3.9676221e-06  1.2823196e-11
   3700000   0.74                1850   2.4031189e-26  4.2791656e+08  3.9676221e-06  1.7438456e-11
   3710000   0.742               1850   2.5993097e-26  4.2791656e+08  3.9676221e-06  1.5190596e-11
   3720000   0.744               1850   2.7120765e-26  4.2791656e+08  3.9676221e-06  1.6600422e-11
   3730000   0.746               1850   2.6483311e-26  4.2791656e+08  3.9676221e-06  1.4501599e-11
   3740000   0.748               1850   2.3866623e-26  4.2791656e+08  3.9676221e-06  1.1054178e-11
   3750000   0.75                1850   2.1561031e-26  4.2791656e+08  3.9676221e-06  1.2711708e-11
   3760000   0.752               1850   2.1026223e-26  4.2791656e+08  3.9676221e-06  9.9175538e-12
   3770000   0.754               1850   2.3439148e-26  4.2791656e+08  3.9676221e-06  1.1235915e-11
   3780000   0.756               1850   2.4153199e-26  4.2791656e+08  3.9676221e-06  1.4107756e-11
   3790000   0.758               1850   2.6582758e-26  4.2791656e+08  3.9676221e-06  1.406084e-11 
   3800000   0.76                1850   2.5741852e-26  4.2791656e+08  3.9676221e-06  1.7485845e-11
   3810000   0.762               1850   2.5562615e-26  4.2791656e+08  3.9676221e-06  1.5032406e-11
   3820000   0.764               1850   2.7943018e-26  4.2791656e+08  3.9676221e-06  1.5668555e-11
   3830000   0.766               1850   2.5553553e-26  4.2791656e+08  3.9676221e-06  1.4699132e-11
   3840000   0.768               1850   2.5231151e-26  4.2791656e+08  3.9676221e-06  1.4125338e-11
   3850000   0.77                1850   2.732912e-26   4.2791656e+08  3.9676221e-06  1.3200521e-11
   3860000   0.772               1850   2.4210127e-26  4.2791656e+08  3.9676221e-06  1.7303859e-11
   3870000   0.774               1850   2.3423463e-26  4.2791656e+08  3.9676221e-06  1.6227241e-11
   3880000   0.776               1850   2.3614371e-26  4.2791656e+08  3.9676221e-06  1.5825301e-11
   3890000   0.778               1850   2.5284492e-26  4.2791656e+08  3.9676221e-06  1.7491317e-11
   3900000   0.78                1850   2.4496921e-26  4.2791656e+08  3.9676221e-06  1.7209748e-11
   3910000   0.782               1850   2.369171e-26   4.2791656e+08  3.9676221e-06  1.7438801e-11
   3920000   0.784               1850   2.4672045e-26  4.2791656e+08  3.9676221e-06  1.7547384e-11
   3930000   0.786               1850   2.6115517e-26  4.2791656e+08  3.9676221e-06  1.4158708e-11
   3940000   0.788               1850   2.5892925e-26  4.2791656e+08  3.9676221e-06  1.6650851e-11
   3950000   0.79                1850   2.4585686e-26  4.2791656e+08  3.9676221e-06  1.3748408e-11
   3960000   0.792               1850   2.4717972e-26  4.2791656e+08  3.9676221e-06  1.6691964e-11
   3970000   0.794               1850   2.6671343e-26  4.2791656e+08  3.9676221e-06  1.4032419e-11
   3980000   0.796               1850   2.7157852e-26  4.2791656e+08  3.9676221e-06  1.2551856e-11
   3990000   0.798               1850   2.8629321e-26  4.2791656e+08  3.9676221e-06  1.7506841e-11
   4000000   0.8                 1850   2.9576257e-26  4.2791656e+08  3.9676221e-06  1.7502357e-11
Loop time of 1031.27 on 1 procs for 4000000 steps with 1850 atoms

100.0% CPU use with 1 MPI tasks x 1 OpenMP threads

MPI task timing breakdown:
Section |  min time  |  avg time  |  max time  |%varavg| %total
---------------------------------------------------------------
Pair    | 790.25     | 790.25     | 790.25     |   0.0 | 76.63
Neigh   | 0.11728    | 0.11728    | 0.11728    |   0.0 |  0.01
Comm    | 0.086139   | 0.086139   | 0.086139   |   0.0 |  0.01
Output  | 0.30366    | 0.30366    | 0.30366    |   0.0 |  0.03
Modify  | 230.76     | 230.76     | 230.76     |   0.0 | 22.38
Other   |            | 9.753      |            |       |  0.95

Nlocal:           1850 ave        1850 max        1850 min
Histogram: 1 0 0 0 0 0 0 0 0 0
Nghost:              0 ave           0 max           0 min
Histogram: 1 0 0 0 0 0 0 0 0 0
Neighs:           7110 ave        7110 max        7110 min
Histogram: 1 0 0 0 0 0 0 0 0 0

Total # of neighbors = 7110
Ave neighs/atom = 3.8432432
Neighbor list builds = 198
Dangerous builds = 0
Generated 0 of 0 mixed pair_coeff terms from geometric mixing rule
Setting up Verlet run ...
  Unit style    : si
  Current step  : 4000000
  Time step     : 2e-07
Per MPI rank memory allocation (min/avg/max) = 13 | 13 | 13 Mbytes
   Step          Time         Atoms        KinEng     c_granularTemp c_solidVolume    c_maxSpeed  
   4000000   0.8                 1850   2.9576257e-26  4.2791656e+08  3.9676221e-06  1.7502357e-11
Loop time of 2.06e-07 on 1 procs for 0 steps with 1850 atoms

485.4% CPU use with 1 MPI tasks x 1 OpenMP threads

MPI task timing breakdown:
Section |  min time  |  avg time  |  max time  |%varavg| %total
---------------------------------------------------------------
Pair    | 0          | 0          | 0          |   0.0 |  0.00
Neigh   | 0          | 0          | 0          |   0.0 |  0.00
Comm    | 0          | 0          | 0          |   0.0 |  0.00
Output  | 0          | 0          | 0          |   0.0 |  0.00
Modify  | 0          | 0          | 0          |   0.0 |  0.00
Other   |            | 2.06e-07   |            |       |100.00

Nlocal:           1850 ave        1850 max        1850 min
Histogram: 1 0 0 0 0 0 0 0 0 0
Nghost:              0 ave           0 max           0 min
Histogram: 1 0 0 0 0 0 0 0 0 0
Neighs:           7110 ave        7110 max        7110 min
Histogram: 1 0 0 0 0 0 0 0 0 0

Total # of neighbors = 7110
Ave neighs/atom = 3.8432432
Neighbor list builds = 0
Dangerous builds = 0
Generated 0 of 0 mixed pair_coeff terms from geometric mixing rule
Neighbor list info ...
  update: every = 1 steps, delay = 0 steps, check = yes
  max neighbors/atom: 2000, page size: 100000
  master list distance cutoff = 0.00185
  ghost atom cutoff = 0.00185
  binsize = 0.000925, bins = 18 18 76
  3 neighbor lists, perpetual/occasional/extra = 1 2 0
  (1) pair granular, perpetual
      attributes: half, newton off, size, history
      pair build: half/size/bin/atomonly/newtoff
      stencil: full/bin/3d
      bin: standard
  (2) compute property/local, occasional
      attributes: half, newton off, size
      pair build: half/size/bin/atomonly/newtoff
      stencil: full/bin/3d
      bin: standard
  (3) compute pair/local, occasional
      attributes: half, newton off, size
      pair build: half/size/bin/atomonly/newtoff
      stencil: full/bin/3d
      bin: standard
Setting up Verlet run ...
  Unit style    : si
  Current step  : 4000000
  Time step     : 2e-07
Per MPI rank memory allocation (min/avg/max) = 14.26 | 14.26 | 14.26 Mbytes
   Step          Time         Atoms        KinEng     c_granularTemp c_solidVolume    c_maxSpeed  
   4000000   0.8                 1850   2.9576257e-26  4.2791656e+08  3.9676221e-06  1.7502357e-11
   4000001   0.8000002           1850   2.9576302e-26  4.2791656e+08  3.9676221e-06  1.7502503e-11
Loop time of 0.00618555 on 1 procs for 1 steps with 1850 atoms

100.0% CPU use with 1 MPI tasks x 1 OpenMP threads

MPI task timing breakdown:
Section |  min time  |  avg time  |  max time  |%varavg| %total
---------------------------------------------------------------
Pair    | 0.00020296 | 0.00020296 | 0.00020296 |   0.0 |  3.28
Neigh   | 0          | 0          | 0          |   0.0 |  0.00
Comm    | 8.1e-08    | 8.1e-08    | 8.1e-08    |   0.0 |  0.00
Output  | 0.0059197  | 0.0059197  | 0.0059197  |   0.0 | 95.70
Modify  | 5.9468e-05 | 5.9468e-05 | 5.9468e-05 |   0.0 |  0.96
Other   |            | 3.318e-06  |            |       |  0.05

Nlocal:           1850 ave        1850 max        1850 min
Histogram: 1 0 0 0 0 0 0 0 0 0
Nghost:              0 ave           0 max           0 min
Histogram: 1 0 0 0 0 0 0 0 0 0
Neighs:           7110 ave        7110 max        7110 min
Histogram: 1 0 0 0 0 0 0 0 0 0

Total # of neighbors = 7110
Ave neighs/atom = 3.8432432
Neighbor list builds = 0
Dangerous builds = 0
System init for write_data ...
Generated 0 of 0 mixed pair_coeff terms from geometric mixing rule
System init for write_restart ...
Generated 0 of 0 mixed pair_coeff terms from geometric mixing rule
seed Ntarget Nfinal dp_m density_kgm3 Dtube_m D_over_dp solidVolume_m3 bedHeight_m bedVolume_m3 packingFraction porosity minParticleBottom_m kineticEnergy_J maxSpeed_ms
69371 1850 1850 0.0016 1600 0.016 10 3.96762208197362e-06 0.0365324704232668 7.34528900475016e-06 0.540158743843541 0.459841256156459 -1.33383321434481e-06 2.95763018162486e-26 1.75025027704199e-11
Packing generation completed: co2_13x_seed_69371
ACCEPT only if Nfinal=Ntarget, the bed is settled, and overlap/geometry checks pass.
For the 20-packing pilot, change only seed_realization.
CO2 diffusion and particle LDF adsorption are added later in the pore-network solver, not here.
Total wall time: 0:22:20
