Authorization required, but no authorization protocol specified

Authorization required, but no authorization protocol specified

Authorization required, but no authorization protocol specified

Authorization required, but no authorization protocol specified

LAMMPS (22 Jul 2025 - Update 5)
OMP_NUM_THREADS environment is not set. Defaulting to 1 thread.
  using 1 OpenMP thread(s) per MPI task
OMP_NUM_THREADS environment is not set. Defaulting to 1 thread.
  using 1 OpenMP thread(s) per MPI task
CO2 sorbent = commercial zeolite 13X (mechanical packing only)
Realization seed = 137077
Target particle count = 1850
Bead diameter [m] = 0.0016
Tube diameter [m] = 0.016
Tube-to-particle diameter ratio = 10
Target solid volume [m^3] = 3.96762208197367e-06
Created orthogonal box = (-0.008 -0.008 0) to (0.008 0.008 0.07)
  1 by 1 by 1 MPI processor grid
Generated 0 of 0 mixed pair_coeff terms from geometric mixing rule
Particle insertion: 303 every 319275 steps, 1850 by step 1915651
Neighbor list info ...
  update: every = 1 steps, delay = 0 steps, check = yes
  max neighbors/atom: 2000, page size: 100000
  master list distance cutoff = 0.00185
  ghost atom cutoff = 0.00185
  binsize = 0.000925, bins = 18 18 76
  1 neighbor lists, perpetual/occasional/extra = 1 0 0
  (1) pair granular, perpetual
      attributes: half, newton off, size, history
      pair build: half/size/bin/atomonly/newtoff
      stencil: full/bin/3d
      bin: standard
Setting up Verlet run ...
  Unit style    : si
  Current step  : 0
  Time step     : 2e-07
Per MPI rank memory allocation (min/avg/max) = 7.438 | 7.438 | 7.438 Mbytes
   Step          Time         Atoms        KinEng     c_granularTemp c_solidVolume    c_maxSpeed  
         0   0                      0  -0              0              0             -1e+20        
WARNING: Fewer insertions than requested (src/GRANULAR/fix_pour.cpp:691)
     10000   0.002                234  -0              5.7086112e+15  5.0185058e-07  0.60783      
     20000   0.004                234  -0              5.5908913e+15  5.0185058e-07  0.59247485   
     30000   0.006                234  -0              5.4865309e+15  5.0185058e-07  0.57798908   
     40000   0.008                234  -0              5.3940369e+15  5.0185058e-07  0.56432348   
     50000   0.01                 234  -0              5.3120821e+15  5.0185058e-07  0.5514316    
     60000   0.012                234  -0              5.2394862e+15  5.0185058e-07  0.53926964   
     70000   0.014                234  -0              5.1752002e+15  5.0185058e-07  0.52779627   
     80000   0.016                234  -0              5.1182915e+15  5.0185058e-07  0.5169725    
     90000   0.018                234  -0              5.0679312e+15  5.0185058e-07  0.50676156   
    100000   0.02                 234  -0              5.0233825e+15  5.0185058e-07  0.49712875   
    110000   0.022                234  -0              4.9839906e+15  5.0185058e-07  0.48804133   
    120000   0.024                234  -0              4.9491736e+15  5.0185058e-07  0.47946842   
    130000   0.026                234  -0              4.9184147e+15  5.0185058e-07  0.47138091   
    140000   0.028                234  -0              4.8912544e+15  5.0185058e-07  0.46375129   
    150000   0.03                 234  -0              4.8672846e+15  5.0185058e-07  0.45655365   
    160000   0.032                234  -0              4.8461428e+15  5.0185058e-07  0.44976353   
    170000   0.034                234  -0              4.8275071e+15  5.0185058e-07  0.44335786   
    180000   0.036                234  -0              4.8110915e+15  5.0185058e-07  0.43731486   
    190000   0.038                234  -0              4.7966422e+15  5.0185058e-07  0.43161401   
    200000   0.04                 234  -0              4.7839337e+15  5.0185058e-07  0.42623593   
    210000   0.042                234  -0              4.7727659e+15  5.0185058e-07  0.42116235   
    220000   0.044                234  -0              4.7629614e+15  5.0185058e-07  0.41637603   
    230000   0.046                234  -0              4.7543623e+15  5.0185058e-07  0.41186071   
    240000   0.048                234  -0              4.746829e+15   5.0185058e-07  0.40760103   
    250000   0.05                 234  -0              4.7402374e+15  5.0185058e-07  0.40358253   
    260000   0.052                234  -0              4.7344775e+15  5.0185058e-07  0.39979155   
    270000   0.054                234  -0              4.7294518e+15  5.0185058e-07  0.39621522   
    280000   0.056                234  -0              4.7250737e+15  5.0185058e-07  0.39284136   
    290000   0.058                234  -0              4.7212668e+15  5.0185058e-07  0.38965853   
    300000   0.06                 234  -0              4.717963e+15   5.0185058e-07  0.38665591   
    310000   0.062                234  -0              4.7151022e+15  5.0185058e-07  0.38382329   
WARNING: Fewer insertions than requested (src/GRANULAR/fix_pour.cpp:691)
    320000   0.064                416  -0              5.0478641e+15  8.921788e-07   0.62496711   
    330000   0.066                416  -0              4.9675726e+15  8.921788e-07   0.60864168   
    340000   0.068                416  -0              4.9040702e+15  8.921788e-07   0.59324057   
    350000   0.07                 416  -0              4.8607859e+15  8.921788e-07   0.57871145   
    360000   0.072                416  -0              4.8196021e+15  8.921788e-07   0.56500495   
    370000   0.074                416  -0              4.78886e+15    8.921788e-07   0.55207449   
    380000   0.076                416  -0              4.7579559e+15  8.921788e-07   0.53987613   
    390000   0.078                416  -0              4.7371894e+15  8.921788e-07   0.52836842   
    400000   0.08                 416  -0              4.7185351e+15  8.921788e-07   0.51751226   
    410000   0.082                416  -0              4.7024979e+15  8.921788e-07   0.50727076   
    420000   0.084                416  -0              4.6891409e+15  8.921788e-07   0.49760911   
    430000   0.086                416  -0              4.6301856e+15  8.921788e-07   0.4884945    
    440000   0.088                416  -0              4.5420347e+15  8.921788e-07   0.47989594   
    450000   0.09                 416  -0              4.4861664e+15  8.921788e-07   0.47178421   
    460000   0.092                416  -0              4.4397374e+15  8.921788e-07   0.46413176   
    470000   0.094                416  -0              4.4133009e+15  8.921788e-07   0.42757342   
    480000   0.096                416  -0              4.390904e+15   8.921788e-07   0.42238204   
    490000   0.098                416  -0              4.3565097e+15  8.921788e-07   0.41748832   
    500000   0.1                  416  -0              4.3281922e+15  8.921788e-07   0.41287512   
    510000   0.102                416  -0              4.3095346e+15  8.921788e-07   0.40852626   
    520000   0.104                416  -0              4.3056364e+15  8.921788e-07   0.40442654   
    530000   0.106                416  -0              4.2757514e+15  8.921788e-07   0.4005616    
    540000   0.108                416  -0              4.2594502e+15  8.921788e-07   0.39093782   
    550000   0.11                 416  -0              4.2348463e+15  8.921788e-07   0.38784316   
    560000   0.112                416  -0              4.1726428e+15  8.921788e-07   0.3849256    
    570000   0.114                416  -0              4.0898607e+15  8.921788e-07   0.38217494   
    580000   0.116                416  -0              4.0330268e+15  8.921788e-07   0.37958158   
    590000   0.118                416  -0              3.9833379e+15  8.921788e-07   0.37713647   
    600000   0.12                 416  -0              3.90587e+15    8.921788e-07   0.37483109   
    610000   0.122                416  -0              3.8593425e+15  8.921788e-07   0.3726574    
    620000   0.124                416  -0              3.7991238e+15  8.921788e-07   0.37060783   
    630000   0.126                416  -0              3.7599255e+15  8.921788e-07   0.36867527   
WARNING: Fewer insertions than requested (src/GRANULAR/fix_pour.cpp:691)
    640000   0.128                600  -0              4.2481188e+15  1.2867964e-06  0.62396159   
    650000   0.13                 600  -0              4.1800421e+15  1.2867964e-06  0.60057139   
    660000   0.132                600  -0              4.1107303e+15  1.2867964e-06  0.58562721   
    670000   0.134                600  -0              4.0429837e+15  1.2867964e-06  0.57152915   
    680000   0.136                600  -0              3.9949821e+15  1.2867964e-06  0.5582293    
    690000   0.138                600  -0              3.9580183e+15  1.2867964e-06  0.54568246   
    700000   0.14                 600  -0              3.8968225e+15  1.2867964e-06  0.53384601   
    710000   0.142                600  -0              3.864585e+15   1.2867964e-06  0.52267971   
    720000   0.144                600  -0              3.8196008e+15  1.2867964e-06  0.51214564   
    730000   0.146                600  -0              3.7711905e+15  1.2867964e-06  0.50220799   
    740000   0.148                600  -0              3.7171253e+15  1.2867964e-06  0.49283299   
    750000   0.15                 600  -0              3.6401705e+15  1.2867964e-06  0.48398879   
    760000   0.152                600  -0              3.5618725e+15  1.2867964e-06  0.47564534   
    770000   0.154                600  -0              3.4654537e+15  1.2867964e-06  0.46777427   
    780000   0.156                600  -0              3.3972709e+15  1.2867964e-06  0.46034886   
    790000   0.158                600  -0              3.322956e+15   1.2867964e-06  0.45334386   
    800000   0.16                 600  -0              3.2289081e+15  1.2867964e-06  0.44673547   
    810000   0.162                600  -0              3.1411009e+15  1.2867964e-06  0.44050124   
    820000   0.164                600  -0              3.0824484e+15  1.2867964e-06  0.43461998   
    830000   0.166                600  -0              3.0454762e+15  1.2867964e-06  0.42907171   
    840000   0.168                600  -0              2.97332e+15    1.2867964e-06  0.42383758   
    850000   0.17                 600  -0              2.9135735e+15  1.2867964e-06  0.41889979   
    860000   0.172                600  -0              2.8143725e+15  1.2867964e-06  0.41424157   
    870000   0.174                600  -0              2.714557e+15   1.2867964e-06  0.4098471    
    880000   0.176                600  -0              2.6356779e+15  1.2867964e-06  0.40570143   
    890000   0.178                600  -0              2.5943972e+15  1.2867964e-06  0.39748579   
    900000   0.18                 600  -0              2.527379e+15   1.2867964e-06  0.39404      
    910000   0.182                600  -0              2.4595759e+15  1.2867964e-06  0.39078931   
    920000   0.184                600  -0              2.4094092e+15  1.2867964e-06  0.38772266   
    930000   0.186                600  -0              2.3700089e+15  1.2867964e-06  0.38482964   
    940000   0.188                600  -0              2.3430124e+15  1.2867964e-06  0.38210042   
    950000   0.19                 600  -0              2.3088953e+15  1.2867964e-06  0.37952573   
WARNING: Fewer insertions than requested (src/GRANULAR/fix_pour.cpp:691)
    960000   0.192                792  -0              3.0342048e+15  1.6985712e-06  0.621604     
    970000   0.194                792  -0              2.9802992e+15  1.6985712e-06  0.60546898   
    980000   0.196                792  -0              2.934202e+15   1.6985712e-06  0.57975421   
    990000   0.198                792  -0              2.8861193e+15  1.6985712e-06  0.56598866   
   1000000   0.2                  792  -0              2.8485254e+15  1.6985712e-06  0.5530025    
   1010000   0.202                792  -0              2.7669153e+15  1.6985712e-06  0.5407516    
   1020000   0.204                792  -0              2.7155309e+15  1.6985712e-06  0.52919432   
   1030000   0.206                792  -0              2.6366156e+15  1.6985712e-06  0.5182914    
   1040000   0.208                792  -0              2.6111777e+15  1.6985712e-06  0.50800579   
   1050000   0.21                 792  -0              2.5864208e+15  1.6985712e-06  0.49830253   
   1060000   0.212                792  -0              2.5477142e+15  1.6985712e-06  0.48914865   
   1070000   0.214                792  -0              2.4808818e+15  1.6985712e-06  0.48051305   
   1080000   0.216                792  -0              2.4328401e+15  1.6985712e-06  0.47236639   
   1090000   0.218                792  -0              2.3550366e+15  1.6985712e-06  0.46468098   
   1100000   0.22                 792  -0              2.3150364e+15  1.6985712e-06  0.4574307    
   1110000   0.222                792  -0              2.2782523e+15  1.6985712e-06  0.45059092   
   1120000   0.224                792  -0              2.239532e+15   1.6985712e-06  0.4441384    
   1130000   0.226                792  -0              2.196104e+15   1.6985712e-06  0.43805121   
   1140000   0.228                792  -0              2.1434029e+15  1.6985712e-06  0.43230867   
   1150000   0.23                 792  -0              2.1007621e+15  1.6985712e-06  0.42689126   
   1160000   0.232                792  -0              2.0627176e+15  1.6985712e-06  0.42178058   
   1170000   0.234                792  -0              1.9937166e+15  1.6985712e-06  0.41695926   
   1180000   0.236                792  -0              1.9415732e+15  1.6985712e-06  0.41241091   
   1190000   0.238                792  -0              1.8821567e+15  1.6985712e-06  0.40812008   
   1200000   0.24                 792  -0              1.8364713e+15  1.6985712e-06  0.4040722    
   1210000   0.242                792  -0              1.7932199e+15  1.6985712e-06  0.40025349   
   1220000   0.244                792  -0              1.7616873e+15  1.6985712e-06  0.396651     
   1230000   0.246                792  -0              1.748826e+15   1.6985712e-06  0.39325247   
   1240000   0.248                792  -0              1.724151e+15   1.6985712e-06  0.39004637   
   1250000   0.25                 792  -0              1.700468e+15   1.6985712e-06  0.38702179   
   1260000   0.252                792  -0              1.6743852e+15  1.6985712e-06  0.37592058   
   1270000   0.254                792  -0              1.6553656e+15  1.6985712e-06  0.37369578   
WARNING: Fewer insertions than requested (src/GRANULAR/fix_pour.cpp:691)
   1280000   0.256               1024  -0              2.5119246e+15  2.1961324e-06  0.62053841   
   1290000   0.258               1024  -0              2.4495819e+15  2.1961324e-06  0.60446372   
   1300000   0.26                1024  -0              2.3928302e+15  2.1961324e-06  0.58898762   
   1310000   0.262               1024  -0              2.3501287e+15  2.1961324e-06  0.5746993    
   1320000   0.264               1024  -0              2.2621376e+15  2.1961324e-06  0.56121995   
   1330000   0.266               1024  -0              2.2051136e+15  2.1961324e-06  0.54429202   
   1340000   0.268               1024  -0              2.1464267e+15  2.1961324e-06  0.5325343    
   1350000   0.27                1024  -0              2.1037081e+15  2.1961324e-06  0.52144227   
   1360000   0.272               1024  -0              2.0661699e+15  2.1961324e-06  0.50818115   
   1370000   0.274               1024  -0              2.0258955e+15  2.1961324e-06  0.49846796   
   1380000   0.276               1024  -0              1.9949084e+15  2.1961324e-06  0.48930472   
   1390000   0.278               1024  -0              1.9674968e+15  2.1961324e-06  0.48066029   
   1400000   0.28                1024  -0              1.9397298e+15  2.1961324e-06  0.47250529   
   1410000   0.282               1024  -0              1.912016e+15   2.1961324e-06  0.46481201   
   1420000   0.284               1024  -0              1.869153e+15   2.1961324e-06  0.45755431   
   1430000   0.286               1024  -0              1.8264971e+15  2.1961324e-06  0.45070754   
   1440000   0.288               1024  -0              1.784591e+15   2.1961324e-06  0.44424841   
   1450000   0.29                1024  -0              1.7401292e+15  2.1961324e-06  0.438155     
   1460000   0.292               1024  -0              1.6899633e+15  2.1961324e-06  0.43240658   
   1470000   0.294               1024  -0              1.6438809e+15  2.1961324e-06  0.42698363   
   1480000   0.296               1024  -0              1.609981e+15   2.1961324e-06  0.42186772   
   1490000   0.298               1024  -0              1.597695e+15   2.1961324e-06  0.41704146   
   1500000   0.3                 1024  -0              1.5725854e+15  2.1961324e-06  0.41248846   
   1510000   0.302               1024  -0              1.5556289e+15  2.1961324e-06  0.40819324   
   1520000   0.304               1024  -0              1.5249271e+15  2.1961324e-06  0.40414121   
   1530000   0.306               1024  -0              1.5139952e+15  2.1961324e-06  0.4003186    
   1540000   0.308               1024  -0              1.4803902e+15  2.1961324e-06  0.37936088   
   1550000   0.31                1024  -0              1.4543067e+15  2.1961324e-06  0.37694129   
   1560000   0.312               1024  -0              1.4173219e+15  2.1961324e-06  0.3746587    
   1570000   0.314               1024  -0              1.3606804e+15  2.1961324e-06  0.37250534   
   1580000   0.316               1024  -0              1.3346978e+15  2.1961324e-06  0.37047391   
   1590000   0.318               1024  -0              1.3085219e+15  2.1961324e-06  0.36855749   
WARNING: Fewer insertions than requested (src/GRANULAR/fix_pour.cpp:691)
   1600000   0.32                1261  -0              2.0487551e+15  2.704417e-06   0.61781283   
   1610000   0.322               1261  -0              1.9980405e+15  2.704417e-06   0.60189247   
   1620000   0.324               1261  -0              1.9396543e+15  2.704417e-06   0.58687349   
   1630000   0.326               1261  -0              1.8891587e+15  2.704417e-06   0.57270487   
   1640000   0.328               1261  -0              1.8333526e+15  2.704417e-06   0.55933845   
   1650000   0.33                1261  -0              1.7974534e+15  2.704417e-06   0.54672881   
   1660000   0.332               1261  -0              1.7578194e+15  2.704417e-06   0.53483312   
   1670000   0.334               1261  -0              1.7252449e+15  2.704417e-06   0.52361093   
   1680000   0.336               1261  -0              1.6843463e+15  2.704417e-06   0.51302414   
   1690000   0.338               1261  -0              1.6492637e+15  2.704417e-06   0.50303674   
   1700000   0.34                1261  -0              1.5805552e+15  2.704417e-06   0.49158559   
   1710000   0.342               1261  -0              1.5320244e+15  2.704417e-06   0.48281202   
   1720000   0.344               1261  -0              1.4903869e+15  2.704417e-06   0.47453519   
   1730000   0.346               1261  -0              1.4486735e+15  2.704417e-06   0.46672698   
   1740000   0.348               1261  -0              1.4278582e+15  2.704417e-06   0.45936087   
   1750000   0.35                1261  -0              1.398516e+15   2.704417e-06   0.45241181   
   1760000   0.352               1261  -0              1.3712625e+15  2.704417e-06   0.44585619   
   1770000   0.354               1261  -0              1.3490774e+15  2.704417e-06   0.43967174   
   1780000   0.356               1261  -0              1.3256905e+15  2.704417e-06   0.43383745   
   1790000   0.358               1261  -0              1.3142168e+15  2.704417e-06   0.41435574   
   1800000   0.36                1261  -0              1.2732039e+15  2.704417e-06   0.4099548    
   1810000   0.362               1261  -0              1.2424896e+15  2.704417e-06   0.40580304   
   1820000   0.364               1261  -0              1.1929804e+15  2.704417e-06   0.40188634   
   1830000   0.366               1261  -0              1.1537046e+15  2.704417e-06   0.39819139   
   1840000   0.368               1261  -0              1.1110401e+15  2.704417e-06   0.38780182   
   1850000   0.37                1261  -0              1.0794256e+15  2.704417e-06   0.38490432   
   1860000   0.372               1261  -0              1.050625e+15   2.704417e-06   0.37141394   
   1870000   0.374               1261  -0              1.0014582e+15  2.704417e-06   0.36944216   
   1880000   0.376               1261  -0              9.7696008e+14  2.704417e-06   0.36758224   
   1890000   0.378               1261  -0              9.4089427e+14  2.704417e-06   0.35801836   
   1900000   0.38                1261  -0              9.073027e+14   2.704417e-06   0.35364702   
   1910000   0.382               1261  -0              8.6401732e+14  2.704417e-06   0.36014771   
WARNING: Fewer insertions than requested (src/GRANULAR/fix_pour.cpp:691)
   1920000   0.384               1460  -0              1.4580658e+15  3.1312045e-06  0.61895645   
   1930000   0.386               1460  -0              1.4013384e+15  3.1312045e-06  0.60297133   
   1940000   0.388               1460  -0              1.3397603e+15  3.1312045e-06  0.58789127   
   1950000   0.39                1460  -0              1.2802609e+15  3.1312045e-06  0.57366502   
   1960000   0.392               1460  -0              1.222087e+15   3.1312045e-06  0.56024424   
   1970000   0.394               1460  -0              1.1855371e+15  3.1312045e-06  0.54758332   
   1980000   0.396               1460  -0              1.1560035e+15  3.1312045e-06  0.52158355   
   1990000   0.398               1460  -0              1.1258139e+15  3.1312045e-06  0.51111154   
   2000000   0.4                 1460  -0              1.1094126e+15  3.1312045e-06  0.50123243   
   2010000   0.402               1460  -0              1.0919254e+15  3.1312045e-06  0.48599938   
   2020000   0.404               1460  -0              1.0595544e+15  3.1312045e-06  0.47754209   
   2030000   0.406               1460  -0              1.042112e+15   3.1312045e-06  0.46956364   
   2040000   0.408               1460  -0              1.0271061e+15  3.1312045e-06  0.46203691   
   2050000   0.41                1460  -0              1.0143486e+15  3.1312045e-06  0.45493634   
   2060000   0.412               1460  -0              9.9566805e+14  3.1312045e-06  0.44510441   
   2070000   0.414               1460  -0              9.7060435e+14  3.1312045e-06  0.42885896   
   2080000   0.416               1460  -0              9.4514104e+14  3.1312045e-06  0.42363687   
   2090000   0.418               1460  -0              9.1813297e+14  3.1312045e-06  0.41871045   
   2100000   0.42                1460  -0              8.6748212e+14  3.1312045e-06  0.40534735   
   2110000   0.422               1460  -0              8.3539254e+14  3.1312045e-06  0.38035132   
   2120000   0.424               1460  -0              7.9801524e+14  3.1312045e-06  0.37787496   
   2130000   0.426               1460  -0              7.5760656e+14  3.1312045e-06  0.37553888   
   2140000   0.428               1460  -0              7.2797121e+14  3.1312045e-06  0.3699684    
   2150000   0.43                1460  -0              6.987757e+14   3.1312045e-06  0.36687378   
   2160000   0.432               1460  -0              6.6094604e+14  3.1312045e-06  0.36516069   
   2170000   0.434               1460  -0              6.3454732e+14  3.1312045e-06  0.36124154   
   2180000   0.436               1460  -0              6.1350278e+14  3.1312045e-06  0.35984784   
   2190000   0.438               1460  -0              5.9421828e+14  3.1312045e-06  0.35853305   
   2200000   0.44                1460  -0              5.6866603e+14  3.1312045e-06  0.35729271   
   2210000   0.442               1460  -0              5.29025e+14    3.1312045e-06  0.35612259   
   2220000   0.444               1460  -0              4.7284276e+14  3.1312045e-06  0.3499544    
   2230000   0.446               1460  -0              4.3311321e+14  3.1312045e-06  0.34829402   
WARNING: Fewer insertions than requested (src/GRANULAR/fix_pour.cpp:691)
   2240000   0.448               1690  -0              1.1224486e+15  3.6244764e-06  0.61583785   
   2250000   0.45                1690  -0              1.0785042e+15  3.6244764e-06  0.6000293    
   2260000   0.452               1690  -0              1.0458008e+15  3.6244764e-06  0.58490671   
   2270000   0.454               1690  -0              1.0187452e+15  3.6244764e-06  0.57084944   
   2280000   0.456               1690  -0              9.9409612e+14  3.6244764e-06  0.55758807   
   2290000   0.458               1690  -0              9.7154115e+14  3.6244764e-06  0.54507754   
   2300000   0.46                1690  -0              9.478034e+14   3.6244764e-06  0.53327534   
   2310000   0.462               1690  -0              9.3396843e+14  3.6244764e-06  0.52214135   
   2320000   0.464               1690  -0              9.1402787e+14  3.6244764e-06  0.49945535   
   2330000   0.466               1690  -0              8.995877e+14   3.6244764e-06  0.4902362    
   2340000   0.468               1690  -0              8.691051e+14   3.6244764e-06  0.48153903   
   2350000   0.47                1690  -0              8.3733132e+14  3.6244764e-06  0.46866875   
   2360000   0.472               1690  -0              8.0989786e+14  3.6244764e-06  0.46119269   
   2370000   0.474               1690  -0              7.6744714e+14  3.6244764e-06  0.45413991   
   2380000   0.476               1690  -0              7.3137187e+14  3.6244764e-06  0.43141231   
   2390000   0.478               1690  -0              6.8884268e+14  3.6244764e-06  0.41560342   
   2400000   0.48                1690  -0              6.4831418e+14  3.6244764e-06  0.39695359   
   2410000   0.482               1690  -0              6.2508383e+14  3.6244764e-06  0.37936725   
   2420000   0.484               1690  -0              6.0039189e+14  3.6244764e-06  0.37693263   
   2430000   0.486               1690  -0              5.8412819e+14  3.6244764e-06  0.3746373    
   2440000   0.488               1690  -0              5.5927256e+14  3.6244764e-06  0.36628211   
   2450000   0.49                1690  -0              5.3167489e+14  3.6244764e-06  0.36460179   
   2460000   0.492               1690  -0              4.9189762e+14  3.6244764e-06  0.36065151   
   2470000   0.494               1690  -0              4.6313055e+14  3.6244764e-06  0.35899073   
   2480000   0.496               1690  -0              4.3943692e+14  3.6244764e-06  0.35772447   
   2490000   0.498               1690  -0              3.9658647e+14  3.6244764e-06  0.35307546   
   2500000   0.5                 1690  -0              3.6814718e+14  3.6244764e-06  0.34786987   
   2510000   0.502               1690  -0              3.4895978e+14  3.6244764e-06  0.34649973   
   2520000   0.504               1690  -0              3.281115e+14   3.6244764e-06  0.34355415   
   2530000   0.506               1690  -0              3.1665343e+14  3.6244764e-06  0.34185792   
   2540000   0.508               1690  -0              3.0393886e+14  3.6244764e-06  0.34068905   
   2550000   0.51                1690  -0              2.9609255e+14  3.6244764e-06  0.340459     
   2560000   0.512               1850  -0              6.7084733e+14  3.9676221e-06  0.60474666   
   2570000   0.514               1850  -0              6.5196933e+14  3.9676221e-06  0.58956608   
   2580000   0.516               1850  -0              6.3627977e+14  3.9676221e-06  0.57524501   
   2590000   0.518               1850  -0              6.1730161e+14  3.9676221e-06  0.56173477   
   2600000   0.52                1850  -0              6.0215771e+14  3.9676221e-06  0.54898946   
   2610000   0.522               1850  -0              5.9051161e+14  3.9676221e-06  0.53696577   
   2620000   0.524               1850  -0              5.7667555e+14  3.9676221e-06  0.51632658   
   2630000   0.526               1850  -0              5.6159816e+14  3.9676221e-06  0.48129402   
   2640000   0.528               1850  -0              5.3458796e+14  3.9676221e-06  0.45377497   
   2650000   0.53                1850  -0              5.1568757e+14  3.9676221e-06  0.44714217   
   2660000   0.532               1850  -0              4.9812162e+14  3.9676221e-06  0.44088491   
   2670000   0.534               1850  -0              4.8210474e+14  3.9676221e-06  0.43498193   
   2680000   0.536               1850  -0              4.7156644e+14  3.9676221e-06  0.42941317   
   2690000   0.538               1850  -0              4.3753343e+14  3.9676221e-06  0.40083784   
   2700000   0.54                1850  -0              4.1664713e+14  3.9676221e-06  0.38207418   
   2710000   0.542               1850  -0              3.7868374e+14  3.9676221e-06  0.37950097   
   2720000   0.544               1850  -0              3.499038e+14   3.9676221e-06  0.37707345   
   2730000   0.546               1850  -0              3.2897815e+14  3.9676221e-06  0.37478337   
   2740000   0.548               1850  -0              3.0349234e+14  3.9676221e-06  0.37080623   
   2750000   0.55                1850  -0              2.7539115e+14  3.9676221e-06  0.36221408   
   2760000   0.552               1850  -0              2.5734088e+14  3.9676221e-06  0.36076532   
   2770000   0.554               1850  -0              2.3777619e+14  3.9676221e-06  0.35194777   
   2780000   0.556               1850  -0              2.2352004e+14  3.9676221e-06  0.34835336   
   2790000   0.558               1850  -0              2.1662337e+14  3.9676221e-06  0.34768937   
   2800000   0.56                1850  -0              2.0390472e+14  3.9676221e-06  0.34026878   
   2810000   0.562               1850  -0              1.9897195e+14  3.9676221e-06  0.34006252   
   2820000   0.564               1850  -0              1.9640864e+14  3.9676221e-06  0.33645066   
   2830000   0.566               1850  -0              1.8999039e+14  3.9676221e-06  0.33284433   
   2840000   0.568               1850  -0              1.8773102e+14  3.9676221e-06  0.33305843   
   2850000   0.57                1850  -0              1.8554281e+14  3.9676221e-06  0.33134825   
   2860000   0.572               1850  -0              1.7795008e+14  3.9676221e-06  0.33002      
   2870000   0.574               1850  -0              1.7360759e+14  3.9676221e-06  0.33039402   
   2880000   0.576               1850  -0              1.6727926e+14  3.9676221e-06  0.32689105   
   2890000   0.578               1850  -0              1.5657918e+14  3.9676221e-06  0.32534565   
   2900000   0.58                1850  -0              1.5081039e+14  3.9676221e-06  0.32592642   
   2910000   0.582               1850  -0              1.4248547e+14  3.9676221e-06  0.33199152   
   2920000   0.584               1850  -0              1.3524174e+14  3.9676221e-06  0.3223075    
   2930000   0.586               1850  -0              1.2638209e+14  3.9676221e-06  0.32279127   
   2940000   0.588               1850  -0              1.1655485e+14  3.9676221e-06  0.32017432   
   2950000   0.59                1850  -0              1.1200359e+14  3.9676221e-06  0.32089463   
   2960000   0.592               1850  -0              1.0362131e+14  3.9676221e-06  0.32003436   
   2970000   0.594               1850  -0              9.4009537e+13  3.9676221e-06  0.32097375   
   2980000   0.596               1850  -0              8.3106454e+13  3.9676221e-06  0.31892901   
   2990000   0.598               1850  -0              7.5572294e+13  3.9676221e-06  0.31876612   
   3000000   0.6                 1850  -0              6.6998086e+13  3.9676221e-06  0.31919564   
Loop time of 335.216 on 1 procs for 3000000 steps with 1850 atoms

100.0% CPU use with 1 MPI tasks x 1 OpenMP threads

MPI task timing breakdown:
Section |  min time  |  avg time  |  max time  |%varavg| %total
---------------------------------------------------------------
Pair    | 240.28     | 240.28     | 240.28     |   0.0 | 71.68
Neigh   | 0.56782    | 0.56782    | 0.56782    |   0.0 |  0.17
Comm    | 0.064479   | 0.064479   | 0.064479   |   0.0 |  0.02
Output  | 0.12233    | 0.12233    | 0.12233    |   0.0 |  0.04
Modify  | 90.19      | 90.19      | 90.19      |   0.0 | 26.90
Other   |            | 3.988      |            |       |  1.19

Nlocal:           1850 ave        1850 max        1850 min
Histogram: 1 0 0 0 0 0 0 0 0 0
Nghost:              0 ave           0 max           0 min
Histogram: 1 0 0 0 0 0 0 0 0 0
Neighs:           7005 ave        7005 max        7005 min
Histogram: 1 0 0 0 0 0 0 0 0 0

Total # of neighbors = 7005
Ave neighs/atom = 3.7864865
Neighbor list builds = 2146
Dangerous builds = 0
Generated 0 of 0 mixed pair_coeff terms from geometric mixing rule
Setting up Verlet run ...
  Unit style    : si
  Current step  : 0
  Time step     : 2e-07
Per MPI rank memory allocation (min/avg/max) = 14.72 | 14.72 | 14.72 Mbytes
   Step          Time         Atoms        KinEng     c_granularTemp c_solidVolume    c_maxSpeed  
         0   0                   1850   4.8799804e-06  6.5790058e+13  3.9676221e-06  0.31380033   
     10000   0.002               1850   2.6273631e-06  3.6333876e+13  3.9676221e-06  0.25096075   
     20000   0.004               1850   1.3219361e-06  1.9344525e+13  3.9676221e-06  0.20352938   
     30000   0.006               1850   8.2991006e-07  1.2658424e+13  3.9676221e-06  0.1688131    
     40000   0.008               1850   5.1999897e-07  8.0689453e+12  3.9676221e-06  0.14315671   
     50000   0.01                1850   3.4930087e-07  5.5208302e+12  3.9676221e-06  0.12390306   
     60000   0.012               1850   2.4766413e-07  3.9533458e+12  3.9676221e-06  0.10960004   
     70000   0.014               1850   1.7010799e-07  2.8739625e+12  3.9676221e-06  0.098712567  
     80000   0.016               1850   1.3347307e-07  2.3000474e+12  3.9676221e-06  0.09077776   
     90000   0.018               1850   9.8275564e-08  1.711313e+12   3.9676221e-06  0.084848892  
    100000   0.02                1850   8.679123e-08   1.5211025e+12  3.9676221e-06  0.080418856  
    110000   0.022               1850   6.7679156e-08  1.2660291e+12  3.9676221e-06  0.077020389  
    120000   0.024               1850   5.4287513e-08  1.1145223e+12  3.9676221e-06  0.074569418  
    130000   0.026               1850   4.2665103e-08  9.1079249e+11  3.9676221e-06  0.072734859  
    140000   0.028               1850   3.8135947e-08  8.2124032e+11  3.9676221e-06  0.07136728   
    150000   0.03                1850   3.9088597e-08  8.1764752e+11  3.9676221e-06  0.070345429  
    160000   0.032               1850   3.071918e-08   6.7642662e+11  3.9676221e-06  0.069581904  
    170000   0.034               1850   2.6650267e-08  6.2025291e+11  3.9676221e-06  0.0690114    
    180000   0.036               1850   2.8394014e-08  6.5298394e+11  3.9676221e-06  0.068585121  
    190000   0.038               1850   2.3513332e-08  5.7624157e+11  3.9676221e-06  0.068266606  
    200000   0.04                1850   2.0335268e-08  5.1639509e+11  3.9676221e-06  0.068028612  
    210000   0.042               1850   2.0450986e-08  4.9856515e+11  3.9676221e-06  0.067850784  
    220000   0.044               1850   1.1810198e-08  3.9344404e+11  3.9676221e-06  0.029694426  
    230000   0.046               1850   8.484487e-09   2.7793312e+11  3.9676221e-06  0.028486209  
    240000   0.048               1850   6.8228742e-09  2.3661437e+11  3.9676221e-06  0.024051374  
    250000   0.05                1850   6.3364788e-09  2.1582691e+11  3.9676221e-06  0.026250423  
    260000   0.052               1850   6.3939222e-09  2.1467911e+11  3.9676221e-06  0.024222647  
    270000   0.054               1850   5.472965e-09   1.7807701e+11  3.9676221e-06  0.025990869  
    280000   0.056               1850   5.7329646e-09  1.7263731e+11  3.9676221e-06  0.027255558  
    290000   0.058               1850   5.5659666e-09  1.6717875e+11  3.9676221e-06  0.028983958  
    300000   0.06                1850   4.7401913e-09  1.5203812e+11  3.9676221e-06  0.032942465  
    310000   0.062               1850   5.7435021e-09  1.7192886e+11  3.9676221e-06  0.038213196  
    320000   0.064               1850   6.6325962e-09  1.9012808e+11  3.9676221e-06  0.043167116  
    330000   0.066               1850   5.7144125e-09  1.5118591e+11  3.9676221e-06  0.031623813  
    340000   0.068               1850   4.8164683e-09  1.2973604e+11  3.9676221e-06  0.029124207  
    350000   0.07                1850   4.0941355e-09  1.0910251e+11  3.9676221e-06  0.031043124  
    360000   0.072               1850   4.7176569e-09  1.1820419e+11  3.9676221e-06  0.033104074  
    370000   0.074               1850   5.6133591e-09  1.3468574e+11  3.9676221e-06  0.035197226  
    380000   0.076               1850   6.1161654e-09  1.4715428e+11  3.9676221e-06  0.037243795  
    390000   0.078               1850   6.4239064e-09  1.5456617e+11  3.9676221e-06  0.039359514  
    400000   0.08                1850   7.4961089e-09  1.7778001e+11  3.9676221e-06  0.041607783  
    410000   0.082               1850   6.7228605e-09  1.5398446e+11  3.9676221e-06  0.04396173   
    420000   0.084               1850   5.7794299e-09  1.348673e+11   3.9676221e-06  0.046079568  
    430000   0.086               1850   5.9110655e-09  1.3500496e+11  3.9676221e-06  0.04826577   
    440000   0.088               1850   6.1785201e-09  1.3489738e+11  3.9676221e-06  0.050438921  
    450000   0.09                1850   3.3481868e-09  1.0176311e+11  3.9676221e-06  0.024918077  
    460000   0.092               1850   2.047332e-09   8.1714414e+10  3.9676221e-06  0.023235271  
    470000   0.094               1850   1.0059262e-09  5.1417094e+10  3.9676221e-06  0.014591045  
    480000   0.096               1850   9.9596557e-10  4.4632035e+10  3.9676221e-06  0.015748323  
    490000   0.098               1850   9.893214e-10   3.6776005e+10  3.9676221e-06  0.016940452  
    500000   0.1                 1850   9.2450617e-10  3.3296944e+10  3.9676221e-06  0.018105509  
    510000   0.102               1850   6.471364e-10   2.6562063e+10  3.9676221e-06  0.011828559  
    520000   0.104               1850   6.279469e-10   2.5638766e+10  3.9676221e-06  0.011376572  
    530000   0.106               1850   6.7207024e-10  2.6007373e+10  3.9676221e-06  0.011376018  
    540000   0.108               1850   7.8957763e-10  2.8523783e+10  3.9676221e-06  0.011625554  
    550000   0.11                1850   9.5570356e-10  3.2110918e+10  3.9676221e-06  0.011925523  
    560000   0.112               1850   7.5324025e-10  2.9372571e+10  3.9676221e-06  0.012381764  
    570000   0.114               1850   7.2167518e-10  2.9051927e+10  3.9676221e-06  0.012973019  
    580000   0.116               1850   4.6750095e-10  2.2419554e+10  3.9676221e-06  0.012172126  
    590000   0.118               1850   6.4467775e-10  2.627182e+10   3.9676221e-06  0.014726304  
    600000   0.12                1850   8.170238e-10   3.1937243e+10  3.9676221e-06  0.017875326  
    610000   0.122               1850   1.2293699e-09  4.2199209e+10  3.9676221e-06  0.023090059  
    620000   0.124               1850   1.8442833e-09  5.6575649e+10  3.9676221e-06  0.028758408  
    630000   0.126               1850   1.1013233e-09  3.6681226e+10  3.9676221e-06  0.01730691   
    640000   0.128               1850   1.080855e-09   3.9778499e+10  3.9676221e-06  0.018405295  
    650000   0.13                1850   9.6068308e-10  4.133607e+10   3.9676221e-06  0.020854903  
    660000   0.132               1850   7.0988071e-10  2.5782614e+10  3.9676221e-06  0.013824399  
    670000   0.134               1850   5.7611662e-10  1.5060487e+10  3.9676221e-06  0.014429416  
    680000   0.136               1850   3.6900835e-10  1.0178481e+10  3.9676221e-06  0.0080012856 
    690000   0.138               1850   3.4336792e-10  1.0306872e+10  3.9676221e-06  0.0077863341 
    700000   0.14                1850   3.5095052e-10  9.9443797e+09  3.9676221e-06  0.0083219812 
    710000   0.142               1850   2.9555401e-10  8.8193219e+09  3.9676221e-06  0.0067569846 
    720000   0.144               1850   3.0779689e-10  9.1086319e+09  3.9676221e-06  0.0074732993 
    730000   0.146               1850   3.59571e-10    1.0206555e+10  3.9676221e-06  0.0082224307 
    740000   0.148               1850   4.1673474e-10  1.156658e+10   3.9676221e-06  0.0091157886 
    750000   0.15                1850   4.9880993e-10  1.3456414e+10  3.9676221e-06  0.010098111  
    760000   0.152               1850   1.8926259e-10  6.7772248e+09  3.9676221e-06  0.0071213679 
    770000   0.154               1850   1.2002276e-10  3.7415636e+09  3.9676221e-06  0.0077756387 
    780000   0.156               1850   1.2568047e-10  3.6579425e+09  3.9676221e-06  0.0083368098 
    790000   0.158               1850   1.4483585e-10  4.1828052e+09  3.9676221e-06  0.0090510641 
    800000   0.16                1850   1.6961416e-10  4.894166e+09   3.9676221e-06  0.0097980755 
    810000   0.162               1850   2.0009212e-10  5.7501023e+09  3.9676221e-06  0.010637494  
    820000   0.164               1850   2.3603441e-10  6.757439e+09   3.9676221e-06  0.011558381  
    830000   0.166               1850   2.783775e-10   7.9431672e+09  3.9676221e-06  0.012554725  
    840000   0.168               1850   3.2835307e-10  9.3415983e+09  3.9676221e-06  0.013627425  
    850000   0.17                1850   3.867063e-10   1.0988062e+10  3.9676221e-06  0.014782008  
    860000   0.172               1850   4.5563944e-10  1.2921729e+10  3.9676221e-06  0.016038471  
    870000   0.174               1850   4.8763093e-10  1.5058623e+10  3.9676221e-06  0.016521682  
    880000   0.176               1850   3.9244902e-10  7.3922887e+09  3.9676221e-06  0.014790994  
    890000   0.178               1850   2.8788747e-10  5.5273968e+09  3.9676221e-06  0.012567103  
    900000   0.18                1850   1.8686723e-10  4.0137482e+09  3.9676221e-06  0.010249973  
    910000   0.182               1850   1.509623e-10   2.9583551e+09  3.9676221e-06  0.0093561447 
    920000   0.184               1850   1.2031739e-10  2.5413753e+09  3.9676221e-06  0.0083620861 
    930000   0.186               1850   1.1075014e-10  2.3402853e+09  3.9676221e-06  0.0080309809 
    940000   0.188               1850   1.068232e-10   2.2557782e+09  3.9676221e-06  0.0078884014 
    950000   0.19                1850   1.0676426e-10  2.2560846e+09  3.9676221e-06  0.0078881844 
    960000   0.192               1850   1.1032713e-10  2.3277669e+09  3.9676221e-06  0.0080185086 
    970000   0.194               1850   1.1710613e-10  2.4613846e+09  3.9676221e-06  0.0082615532 
    980000   0.196               1850   2.1743532e-12  3.5021552e+08  3.9676221e-06  0.00055511253
    990000   0.198               1850   1.1526251e-12  1.3915655e+08  3.9676221e-06  0.00060433955
   1000000   0.2                 1850   3.4271123e-13  1.2326071e+08  3.9676221e-06  9.8717994e-05
   1010000   0.202               1850   8.5008186e-14  1.1803302e+08  3.9676221e-06  4.8863658e-05
   1020000   0.204               1850   2.9079816e-14  1.1677473e+08  3.9676221e-06  3.5271881e-05
   1030000   0.206               1850   1.0602685e-14  1.1629641e+08  3.9676221e-06  2.4881915e-05
   1040000   0.208               1850   3.1077049e-15  1.1609384e+08  3.9676221e-06  1.2352044e-05
   1050000   0.21                1850   2.5892411e-15  1.1607951e+08  3.9676221e-06  1.1857287e-05
   1060000   0.212               1850   9.2259706e-16  1.1604273e+08  3.9676221e-06  4.7302651e-06
   1070000   0.214               1850   8.2356394e-16  1.1603749e+08  3.9676221e-06  6.7861579e-06
   1080000   0.216               1850   1.6378967e-16  1.1602594e+08  3.9676221e-06  4.0086105e-06
   1090000   0.218               1850   1.3630404e-16  1.1602367e+08  3.9676221e-06  2.9710245e-06
   1100000   0.22                1850   4.6467183e-17  1.1602226e+08  3.9676221e-06  2.1672076e-06
   1110000   0.222               1850   2.9909355e-17  1.1602144e+08  3.9676221e-06  1.5852209e-06
   1120000   0.224               1850   2.2028126e-17  1.1602133e+08  3.9676221e-06  1.1613277e-06
   1130000   0.226               1850   6.7119077e-18  1.1602093e+08  3.9676221e-06  5.5425179e-07
   1140000   0.228               1850   6.2990029e-18  1.1602094e+08  3.9676221e-06  6.7386592e-07
   1150000   0.23                1850   1.1261102e-18  1.160208e+08   3.9676221e-06  3.5904313e-07
   1160000   0.232               1850   2.468922e-18   1.1602084e+08  3.9676221e-06  3.6956623e-07
   1170000   0.234               1850   4.5901968e-19  1.1602076e+08  3.9676221e-06  2.2124226e-07
   1180000   0.236               1850   1.3801673e-18  1.1602081e+08  3.9676221e-06  3.8312699e-07
   1190000   0.238               1850   9.4773804e-20  1.1602074e+08  3.9676221e-06  8.320734e-08 
   1200000   0.24                1850   9.7800396e-19  1.160208e+08   3.9676221e-06  3.790087e-07 
   1210000   0.242               1850   4.5212973e-20  1.1602074e+08  3.9676221e-06  5.6719974e-08
   1220000   0.244               1850   6.902319e-19   1.1602078e+08  3.9676221e-06  3.3379657e-07
   1230000   0.246               1850   1.4292537e-19  1.1602074e+08  3.9676221e-06  1.4636812e-07
   1240000   0.248               1850   4.1182605e-19  1.1602076e+08  3.9676221e-06  2.6100209e-07
   1250000   0.25                1850   2.9020874e-19  1.1602075e+08  3.9676221e-06  2.1838517e-07
   1260000   0.252               1850   1.7308031e-19  1.1602075e+08  3.9676221e-06  1.699802e-07 
   1270000   0.254               1850   3.8702696e-19  1.1602076e+08  3.9676221e-06  2.5429498e-07
   1280000   0.256               1850   3.5152581e-20  1.1602074e+08  3.9676221e-06  7.6561568e-08
   1290000   0.258               1850   3.9908682e-19  1.1602076e+08  3.9676221e-06  2.5842011e-07
   1300000   0.26                1850   9.9363768e-22  1.1602073e+08  3.9676221e-06  1.2737473e-08
   1310000   0.262               1850   3.2466804e-19  1.1602076e+08  3.9676221e-06  2.3343307e-07
   1320000   0.264               1850   4.285482e-20   1.1602074e+08  3.9676221e-06  8.4854388e-08
   1330000   0.266               1850   2.1094296e-19  1.1602075e+08  3.9676221e-06  1.8800616e-07
   1340000   0.268               1850   1.1424172e-19  1.1602074e+08  3.9676221e-06  1.3839109e-07
   1350000   0.27                1850   9.8380603e-20  1.1602074e+08  3.9676221e-06  1.2851332e-07
   1360000   0.272               1850   1.6738564e-19  1.1602075e+08  3.9676221e-06  1.6767558e-07
   1370000   0.274               1850   2.5670614e-20  1.1602074e+08  3.9676221e-06  6.5571439e-08
   1380000   0.276               1850   1.8316509e-19  1.1602075e+08  3.9676221e-06  1.7522336e-07
   1390000   0.278               1850   9.4048738e-23  1.1602073e+08  3.9676221e-06  3.9317503e-09
   1400000   0.28                1850   1.5679094e-19  1.1602075e+08  3.9676221e-06  1.6227561e-07
   1410000   0.282               1850   1.3260207e-20  1.1602073e+08  3.9676221e-06  4.7208357e-08
   1420000   0.284               1850   1.0778067e-19  1.1602074e+08  3.9676221e-06  1.3440842e-07
   1430000   0.286               1850   4.4712339e-20  1.1602074e+08  3.9676221e-06  8.6580153e-08
   1440000   0.288               1850   5.4709293e-20  1.1602074e+08  3.9676221e-06  9.5844533e-08
   1450000   0.29                1850   7.1706173e-20  1.1602074e+08  3.9676221e-06  1.0974795e-07
   1460000   0.292               1850   1.7205137e-20  1.1602073e+08  3.9676221e-06  5.3688411e-08
   1470000   0.294               1850   8.3253671e-20  1.1602074e+08  3.9676221e-06  1.1813448e-07
   1480000   0.296               1850   7.7293091e-22  1.1602073e+08  3.9676221e-06  1.1374003e-08
   1490000   0.298               1850   7.4914694e-20  1.1602074e+08  3.9676221e-06  1.121703e-07 
   1500000   0.3                 1850   3.6177841e-21  1.1602073e+08  3.9676221e-06  2.4660502e-08
   1510000   0.302               1850   5.4326361e-20  1.1602074e+08  3.9676221e-06  9.5424971e-08
   1520000   0.304               1850   1.696901e-20   1.1602073e+08  3.9676221e-06  5.3338546e-08
   1530000   0.306               1850   2.973107e-20   1.1602074e+08  3.9676221e-06  7.0656022e-08
   1540000   0.308               1850   3.0223322e-20  1.1602074e+08  3.9676221e-06  7.1250444e-08
   1550000   0.31                1850   1.0831413e-20  1.1602073e+08  3.9676221e-06  4.2601262e-08
   1560000   0.312               1850   3.7397099e-20  1.1602074e+08  3.9676221e-06  7.917739e-08 
   1570000   0.314               1850   1.1222389e-21  1.1602073e+08  3.9676221e-06  1.3715328e-08
   1580000   0.316               1850   3.5399059e-20  1.1602074e+08  3.9676221e-06  7.7107111e-08
   1590000   0.318               1850   7.9025849e-22  1.1602073e+08  3.9676221e-06  1.152738e-08 
   1600000   0.32                1850   2.7029884e-20  1.1602074e+08  3.9676221e-06  6.7310659e-08
   1610000   0.322               1850   6.198204e-21   1.1602073e+08  3.9676221e-06  3.2236921e-08
   1620000   0.324               1850   1.5835208e-20  1.1602073e+08  3.9676221e-06  5.1564728e-08
   1630000   0.326               1850   1.2510178e-20  1.1602073e+08  3.9676221e-06  4.5841503e-08
   1640000   0.328               1850   6.5071958e-21  1.1602073e+08  3.9676221e-06  3.3021296e-08
   1650000   0.33                1850   1.6591541e-20  1.1602073e+08  3.9676221e-06  5.2739634e-08
   1660000   0.332               1850   1.0727769e-21  1.1602073e+08  3.9676221e-06  1.3416476e-08
   1670000   0.334               1850   1.6541315e-20  1.1602073e+08  3.9676221e-06  5.2709129e-08
   1680000   0.336               1850   1.0321454e-22  1.1602073e+08  3.9676221e-06  4.1682518e-09
   1690000   0.338               1850   1.3283976e-20  1.1602073e+08  3.9676221e-06  4.718661e-08 
   1700000   0.34                1850   2.1543529e-21  1.1602073e+08  3.9676221e-06  1.9005483e-08
   1710000   0.342               1850   8.2851473e-21  1.1602073e+08  3.9676221e-06  3.7299722e-08
   1720000   0.344               1850   5.0714057e-21  1.1602073e+08  3.9676221e-06  2.9187023e-08
   1730000   0.346               1850   3.7682275e-21  1.1602073e+08  3.9676221e-06  2.5129294e-08
   1740000   0.348               1850   7.2633628e-21  1.1602073e+08  3.9676221e-06  3.4894274e-08
   1750000   0.35                1850   8.434806e-22   1.1602073e+08  3.9676221e-06  1.1899758e-08
   1760000   0.352               1850   7.6419214e-21  1.1602073e+08  3.9676221e-06  3.5825753e-08
   1770000   0.354               1850   4.8704627e-25  1.1602073e+08  3.9676221e-06  2.802505e-10 
   1780000   0.356               1850   6.4500885e-21  1.1602073e+08  3.9676221e-06  3.2880069e-08
   1790000   0.358               1850   7.0010032e-22  1.1602073e+08  3.9676221e-06  1.083504e-08 
   1800000   0.36                1850   4.2642659e-21  1.1602073e+08  3.9676221e-06  2.6760046e-08
   1810000   0.362               1850   2.0072744e-21  1.1602073e+08  3.9676221e-06  1.836278e-08 
   1820000   0.364               1850   2.1168304e-21  1.1602073e+08  3.9676221e-06  1.8835374e-08
   1830000   0.366               1850   3.1343072e-21  1.1602073e+08  3.9676221e-06  2.2921579e-08
   1840000   0.368               1850   5.9079133e-22  1.1602073e+08  3.9676221e-06  9.9599073e-09
   1850000   0.37                1850   3.4890292e-21  1.1602073e+08  3.9676221e-06  2.4208649e-08
   1860000   0.372               1850   1.4802485e-23  1.1602073e+08  3.9676221e-06  1.5729435e-09
   1870000   0.374               1850   3.0947353e-21  1.1602073e+08  3.9676221e-06  2.2776202e-08
   1880000   0.376               1850   2.0643574e-22  1.1602073e+08  3.9676221e-06  5.8835085e-09
   1890000   0.378               1850   2.1611365e-21  1.1602073e+08  3.9676221e-06  1.9050874e-08
   1900000   0.38                1850   7.7157399e-22  1.1602073e+08  3.9676221e-06  1.1385954e-08
   1910000   0.382               1850   1.1588075e-21  1.1602073e+08  3.9676221e-06  1.3935514e-08
   1920000   0.384               1850   1.3307875e-21  1.1602073e+08  3.9676221e-06  1.4935059e-08
   1930000   0.386               1850   3.8302502e-22  1.1602073e+08  3.9676221e-06  8.0191678e-09
   1940000   0.388               1850   1.5729564e-21  1.1602073e+08  3.9676221e-06  1.625616e-08 
   1950000   0.39                1850   3.1037906e-23  1.1602073e+08  3.9676221e-06  2.279904e-09 
   1960000   0.392               1850   1.4662253e-21  1.1602073e+08  3.9676221e-06  1.5674631e-08
   1970000   0.394               1850   5.1883868e-23  1.1602073e+08  3.9676221e-06  2.9483398e-09
   1980000   0.396               1850   1.079223e-21   1.1602073e+08  3.9676221e-06  1.346088e-08 
   1990000   0.398               1850   2.8618521e-22  1.1602073e+08  3.9676221e-06  6.9340034e-09
   2000000   0.4                 1850   6.2000943e-22  1.1602073e+08  3.9676221e-06  1.0192025e-08
   2010000   0.402               1850   5.5485653e-22  1.1602073e+08  3.9676221e-06  9.6439933e-09
   2020000   0.404               1850   2.3443787e-22  1.1602073e+08  3.9676221e-06  6.273571e-09 
   2030000   0.406               1850   6.9926805e-22  1.1602073e+08  3.9676221e-06  1.0839143e-08
   2040000   0.408               1850   3.3534985e-23  1.1602073e+08  3.9676221e-06  2.3694642e-09
   2050000   0.41                1850   6.8569068e-22  1.1602073e+08  3.9676221e-06  1.0722144e-08
   2060000   0.412               1850   9.6967589e-24  1.1602073e+08  3.9676221e-06  1.2733665e-09
   2070000   0.414               1850   5.3072559e-22  1.1602073e+08  3.9676221e-06  9.4398787e-09
   2080000   0.416               1850   1.0151518e-22  1.1602073e+08  3.9676221e-06  4.1312504e-09
   2090000   0.418               1850   3.2473088e-22  1.1602073e+08  3.9676221e-06  7.3773208e-09
   2100000   0.42                1850   2.2666615e-22  1.1602073e+08  3.9676221e-06  6.1650418e-09
   2110000   0.422               1850   1.3720171e-22  1.1602073e+08  3.9676221e-06  4.7994728e-09
   2120000   0.424               1850   3.0615939e-22  1.1602073e+08  3.9676221e-06  7.171015e-09 
   2130000   0.426               1850   2.7870225e-23  1.1602073e+08  3.9676221e-06  2.1595904e-09
   2140000   0.428               1850   3.1640229e-22  1.1602073e+08  3.9676221e-06  7.2851194e-09
   2150000   0.43                1850   8.0037229e-25  1.1602073e+08  3.9676221e-06  3.6209383e-10
   2160000   0.432               1850   2.570441e-22   1.1602073e+08  3.9676221e-06  6.5678644e-09
   2170000   0.434               1850   3.4085844e-23  1.1602073e+08  3.9676221e-06  2.3927777e-09
   2180000   0.436               1850   1.6648048e-22  1.1602073e+08  3.9676221e-06  5.282814e-09 
   2190000   0.438               1850   9.0418469e-23  1.1602073e+08  3.9676221e-06  3.8917311e-09
   2200000   0.44                1850   7.7386507e-23  1.1602073e+08  3.9676221e-06  3.6036504e-09
   2210000   0.442               1850   1.3202395e-22  1.1602073e+08  3.9676221e-06  4.7083882e-09
   2220000   0.444               1850   2.0002246e-23  1.1602073e+08  3.9676221e-06  1.829344e-09 
   2230000   0.446               1850   1.43801e-22    1.1602073e+08  3.9676221e-06  4.9101385e-09
   2240000   0.448               1850   8.8163678e-26  1.1602073e+08  3.9676221e-06  9.9950318e-11
   2250000   0.45                1850   1.2263026e-22  1.1602073e+08  3.9676221e-06  4.5392267e-09
   2260000   0.452               1850   1.0588065e-23  1.1602073e+08  3.9676221e-06  1.3320627e-09
   2270000   0.454               1850   8.3775065e-23  1.1602073e+08  3.9676221e-06  3.7464999e-09
   2280000   0.456               1850   3.5150789e-23  1.1602073e+08  3.9676221e-06  2.4267431e-09
   2290000   0.458               1850   4.2204179e-23  1.1602073e+08  3.9676221e-06  2.6609414e-09
   2300000   0.46                1850   5.5850051e-23  1.1602073e+08  3.9676221e-06  3.0626832e-09
   2310000   0.462               1850   1.3102598e-23  1.1602073e+08  3.9676221e-06  1.4812274e-09
   2320000   0.464               1850   6.4453171e-23  1.1602073e+08  3.9676221e-06  3.2851389e-09
   2330000   0.466               1850   5.7382318e-25  1.1602073e+08  3.9676221e-06  3.0211831e-10
   2340000   0.468               1850   5.7588507e-23  1.1602073e+08  3.9676221e-06  3.1091478e-09
   2350000   0.47                1850   2.8896797e-24  1.1602073e+08  3.9676221e-06  6.9486135e-10
   2360000   0.472               1850   4.1445645e-23  1.1602073e+08  3.9676221e-06  2.635484e-09 
   2370000   0.474               1850   1.3143961e-23  1.1602073e+08  3.9676221e-06  1.4831738e-09
   2380000   0.476               1850   2.2426132e-23  1.1602073e+08  3.9676221e-06  1.9383591e-09
   2390000   0.478               1850   2.3127686e-23  1.1602073e+08  3.9676221e-06  1.9680499e-09
   2400000   0.48                1850   8.0469281e-24  1.1602073e+08  3.9676221e-06  1.160271e-09 
   2410000   0.482               1850   2.8326067e-23  1.1602073e+08  3.9676221e-06  2.1775884e-09
   2420000   0.484               1850   7.9487541e-25  1.1602073e+08  3.9676221e-06  3.5880975e-10
   2430000   0.486               1850   2.651159e-23   1.1602073e+08  3.9676221e-06  2.1097747e-09
   2440000   0.488               1850   6.7518272e-25  1.1602073e+08  3.9676221e-06  3.3030839e-10
   2450000   0.49                1850   1.990783e-23   1.1602073e+08  3.9676221e-06  1.8245439e-09
   2460000   0.492               1850   4.7411972e-24  1.1602073e+08  3.9676221e-06  8.8960548e-10
   2470000   0.494               1850   1.1474174e-23  1.1602073e+08  3.9676221e-06  1.3856271e-09
   2480000   0.496               1850   9.3802327e-24  1.1602073e+08  3.9676221e-06  1.2529938e-09
   2490000   0.498               1850   4.5582723e-24  1.1602073e+08  3.9676221e-06  8.7242323e-10
   2500000   0.5                 1850   1.2183078e-23  1.1602073e+08  3.9676221e-06  1.4267359e-09
   2510000   0.502               1850   6.8995012e-25  1.1602073e+08  3.9676221e-06  3.3410499e-10
   2520000   0.504               1850   1.1881895e-23  1.1602073e+08  3.9676221e-06  1.4099554e-09
   2530000   0.506               1850   1.3694107e-25  1.1602073e+08  3.9676221e-06  1.3857981e-10
   2540000   0.508               1850   9.3437272e-24  1.1602073e+08  3.9676221e-06  1.2495993e-09
   2550000   0.51                1850   1.6906064e-24  1.1602073e+08  3.9676221e-06  5.2897757e-10
   2560000   0.512               1850   5.6347333e-24  1.1602073e+08  3.9676221e-06  9.7119109e-10
   2570000   0.514               1850   3.7522086e-24  1.1602073e+08  3.9676221e-06  7.9211428e-10
   2580000   0.516               1850   2.4411676e-24  1.1602073e+08  3.9676221e-06  6.3624471e-10
   2590000   0.518               1850   5.1992287e-24  1.1602073e+08  3.9676221e-06  9.3147091e-10
   2600000   0.52                1850   4.8302226e-25  1.1602073e+08  3.9676221e-06  2.775649e-10 
   2610000   0.522               1850   5.2937031e-24  1.1602073e+08  3.9676221e-06  9.4148501e-10
   2620000   0.524               1850   4.0177135e-26  1.1602073e+08  3.9676221e-06  4.9579197e-11
   2630000   0.526               1850   4.2590247e-24  1.1602073e+08  3.9676221e-06  8.4129619e-10
   2640000   0.528               1850   6.6138101e-25  1.1602073e+08  3.9676221e-06  3.2735918e-10
   2650000   0.53                1850   2.6049146e-24  1.1602073e+08  3.9676221e-06  6.5913374e-10
   2660000   0.532               1850   1.5898433e-24  1.1602073e+08  3.9676221e-06  5.1295532e-10
   2670000   0.534               1850   1.152452e-24   1.1602073e+08  3.9676221e-06  4.3502933e-10
   2680000   0.536               1850   2.2637827e-24  1.1602073e+08  3.9676221e-06  6.119496e-10 
   2690000   0.538               1850   2.4247614e-25  1.1602073e+08  3.9676221e-06  1.9101766e-10
   2700000   0.54                1850   2.3163223e-24  1.1602073e+08  3.9676221e-06  6.2018521e-10
   2710000   0.542               1850   3.0855556e-26  1.1602073e+08  3.9676221e-06  2.9866016e-11
   2720000   0.544               1850   1.86188e-24    1.1602073e+08  3.9676221e-06  5.5564929e-10
   2730000   0.546               1850   2.9761779e-25  1.1602073e+08  3.9676221e-06  2.1278785e-10
   2740000   0.548               1850   1.1262316e-24  1.1602073e+08  3.9676221e-06  4.3088564e-10
   2750000   0.55                1850   6.9608055e-25  1.1602073e+08  3.9676221e-06  3.3704683e-10
   2760000   0.552               1850   4.9206864e-25  1.1602073e+08  3.9676221e-06  2.8154252e-10
   2770000   0.554               1850   9.7536242e-25  1.1602073e+08  3.9676221e-06  4.0109148e-10
   2780000   0.556               1850   1.0724631e-25  1.1602073e+08  3.9676221e-06  1.1842585e-10
   2790000   0.558               1850   9.7806808e-25  1.1602073e+08  3.9676221e-06  4.0105042e-10
   2800000   0.56                1850   2.9711128e-26  1.1602073e+08  3.9676221e-06  2.5778328e-11
   2810000   0.562               1850   7.6383676e-25  1.1602073e+08  3.9676221e-06  3.5300569e-10
   2820000   0.564               1850   1.4391604e-25  1.1602073e+08  3.9676221e-06  1.4023442e-10
   2830000   0.566               1850   4.5693711e-25  1.1602073e+08  3.9676221e-06  2.6885295e-10
   2840000   0.568               1850   2.9973248e-25  1.1602073e+08  3.9676221e-06  2.1426635e-10
   2850000   0.57                1850   1.9744262e-25  1.1602073e+08  3.9676221e-06  1.7000533e-10
   2860000   0.572               1850   4.117784e-25   1.1602073e+08  3.9676221e-06  2.5495573e-10
   2870000   0.574               1850   5.0082888e-26  1.1602073e+08  3.9676221e-06  6.1127722e-11
   2880000   0.576               1850   3.9680381e-25  1.1602073e+08  3.9676221e-06  2.4921966e-10
   2890000   0.578               1850   3.3889319e-26  1.1602073e+08  3.9676221e-06  3.1487684e-11
   2900000   0.58                1850   2.9132157e-25  1.1602073e+08  3.9676221e-06  2.1046666e-10
   2910000   0.582               1850   9.4824861e-26  1.1602073e+08  3.9676221e-06  1.0755081e-10
   2920000   0.584               1850   1.5009135e-25  1.1602073e+08  3.9676221e-06  1.4681091e-10
   2930000   0.586               1850   1.6131078e-25  1.1602073e+08  3.9676221e-06  1.5407995e-10
   2940000   0.588               1850   4.7407232e-26  1.1602073e+08  3.9676221e-06  6.4763415e-11
   2950000   0.59                1850   1.8157571e-25  1.1602073e+08  3.9676221e-06  1.6422986e-10
   2960000   0.592               1850   2.4283814e-26  1.1602073e+08  3.9676221e-06  1.7612728e-11
   2970000   0.594               1850   1.3731259e-25  1.1602073e+08  3.9676221e-06  1.3871465e-10
   2980000   0.596               1850   5.0280421e-26  1.1602073e+08  3.9676221e-06  6.7027468e-11
   2990000   0.598               1850   7.6548673e-26  1.1602073e+08  3.9676221e-06  9.335874e-11 
   3000000   0.6                 1850   8.3246463e-26  1.1602073e+08  3.9676221e-06  9.8902355e-11
   3010000   0.602               1850   3.5169173e-26  1.1602073e+08  3.9676221e-06  3.7698145e-11
   3020000   0.604               1850   8.9793215e-26  1.1602073e+08  3.9676221e-06  1.0271884e-10
   3030000   0.606               1850   2.7413138e-26  1.1602073e+08  3.9676221e-06  1.7615178e-11
   3040000   0.608               1850   6.8716819e-26  1.1602073e+08  3.9676221e-06  8.4003071e-11
   3050000   0.61                1850   3.935905e-26   1.1602073e+08  3.9676221e-06  4.8276476e-11
   3060000   0.612               1850   3.9190516e-26  1.1602073e+08  3.9676221e-06  4.8078459e-11
   3070000   0.614               1850   5.2031864e-26  1.1602073e+08  3.9676221e-06  6.6005814e-11
   3080000   0.616               1850   2.7329355e-26  1.1602073e+08  3.9676221e-06  1.7614765e-11
   3090000   0.618               1850   5.0507021e-26  1.1602073e+08  3.9676221e-06  6.1677548e-11
   3100000   0.62                1850   3.2770918e-26  1.1602073e+08  3.9676221e-06  2.3943171e-11
   3110000   0.622               1850   3.7911829e-26  1.1602073e+08  3.9676221e-06  3.7818014e-11
   3120000   0.624               1850   3.9856936e-26  1.1602073e+08  3.9676221e-06  4.3637079e-11
   3130000   0.626               1850   2.7679604e-26  1.1602073e+08  3.9676221e-06  1.7614983e-11
   3140000   0.628               1850   3.69711e-26    1.1602073e+08  3.9676221e-06  3.979967e-11 
   3150000   0.63                1850   2.9936665e-26  1.1602073e+08  3.9676221e-06  2.0314e-11   
   3160000   0.632               1850   2.7818314e-26  1.1602073e+08  3.9676221e-06  1.8530922e-11
   3170000   0.634               1850   3.2649393e-26  1.1602073e+08  3.9676221e-06  3.1205658e-11
   3180000   0.636               1850   2.8251931e-26  1.1602073e+08  3.9676221e-06  1.7615787e-11
   3190000   0.638               1850   2.9405585e-26  1.1602073e+08  3.9676221e-06  1.7611889e-11
   3200000   0.64                1850   3.0911375e-26  1.1602073e+08  3.9676221e-06  1.9697437e-11
   3210000   0.642               1850   2.8709399e-26  1.1602073e+08  3.9676221e-06  1.7615037e-11
   3220000   0.644               1850   2.9751008e-26  1.1602073e+08  3.9676221e-06  2.0166379e-11
   3230000   0.646               1850   2.8655413e-26  1.1602073e+08  3.9676221e-06  1.7615954e-11
   3240000   0.648               1850   2.9267455e-26  1.1602073e+08  3.9676221e-06  1.7612108e-11
   3250000   0.65                1850   3.1723744e-26  1.1602073e+08  3.9676221e-06  1.7614675e-11
   3260000   0.652               1850   3.1109744e-26  1.1602073e+08  3.9676221e-06  1.7566486e-11
   3270000   0.654               1850   3.0894162e-26  1.1602073e+08  3.9676221e-06  1.7613463e-11
   3280000   0.656               1850   3.1348475e-26  1.1602073e+08  3.9676221e-06  1.7003297e-11
   3290000   0.658               1850   3.093089e-26   1.1602073e+08  3.9676221e-06  1.7615714e-11
   3300000   0.66                1850   3.052452e-26   1.1602073e+08  3.9676221e-06  1.7614062e-11
   3310000   0.662               1850   3.1078275e-26  1.1602073e+08  3.9676221e-06  1.761589e-11 
   3320000   0.664               1850   3.2325241e-26  1.1602073e+08  3.9676221e-06  1.7612902e-11
   3330000   0.666               1850   3.1581339e-26  1.1602073e+08  3.9676221e-06  1.7601838e-11
   3340000   0.668               1850   3.0963606e-26  1.1602073e+08  3.9676221e-06  1.7615265e-11
   3350000   0.67                1850   2.8754787e-26  1.1602073e+08  3.9676221e-06  1.7612898e-11
   3360000   0.672               1850   2.8660603e-26  1.1602073e+08  3.9676221e-06  1.7596025e-11
   3370000   0.674               1850   2.8634252e-26  1.1602073e+08  3.9676221e-06  1.7587103e-11
   3380000   0.676               1850   2.6329584e-26  1.1602073e+08  3.9676221e-06  1.5809369e-11
   3390000   0.678               1850   3.0666917e-26  1.1602073e+08  3.9676221e-06  1.7709237e-11
   3400000   0.68                1850   2.8025157e-26  1.1602073e+08  3.9676221e-06  1.7610012e-11
   3410000   0.682               1850   2.8250512e-26  1.1602073e+08  3.9676221e-06  1.7610413e-11
   3420000   0.684               1850   2.8137498e-26  1.1602073e+08  3.9676221e-06  1.7612052e-11
   3430000   0.686               1850   2.7973149e-26  1.1602073e+08  3.9676221e-06  1.7018683e-11
   3440000   0.688               1850   2.8400574e-26  1.1602073e+08  3.9676221e-06  1.7609657e-11
   3450000   0.69                1850   2.8456324e-26  1.1602073e+08  3.9676221e-06  1.7617937e-11
   3460000   0.692               1850   2.7787402e-26  1.1602073e+08  3.9676221e-06  1.761542e-11 
   3470000   0.694               1850   2.8233728e-26  1.1602073e+08  3.9676221e-06  1.7444976e-11
   3480000   0.696               1850   2.7151102e-26  1.1602073e+08  3.9676221e-06  1.7843256e-11
   3490000   0.698               1850   2.9576621e-26  1.1602073e+08  3.9676221e-06  1.7613203e-11
   3500000   0.7                 1850   3.1826595e-26  1.1602073e+08  3.9676221e-06  1.7592941e-11
   3510000   0.702               1850   3.0665995e-26  1.1602073e+08  3.9676221e-06  1.7614681e-11
   3520000   0.704               1850   2.8608677e-26  1.1602073e+08  3.9676221e-06  1.7614674e-11
   3530000   0.706               1850   2.7247046e-26  1.1602073e+08  3.9676221e-06  1.761569e-11 
   3540000   0.708               1850   2.6166785e-26  1.1602073e+08  3.9676221e-06  1.7612828e-11
   3550000   0.71                1850   2.6916891e-26  1.1602073e+08  3.9676221e-06  1.7613399e-11
   3560000   0.712               1850   2.4826656e-26  1.1602073e+08  3.9676221e-06  1.7612184e-11
   3570000   0.714               1850   2.3041162e-26  1.1602073e+08  3.9676221e-06  1.7615425e-11
   3580000   0.716               1850   2.3449834e-26  1.1602073e+08  3.9676221e-06  1.7615372e-11
   3590000   0.718               1850   2.3620982e-26  1.1602073e+08  3.9676221e-06  1.7614718e-11
   3600000   0.72                1850   2.2159495e-26  1.1602073e+08  3.9676221e-06  1.7577612e-11
   3610000   0.722               1850   2.1978176e-26  1.1602073e+08  3.9676221e-06  1.7613065e-11
   3620000   0.724               1850   2.3188534e-26  1.1602073e+08  3.9676221e-06  1.7611201e-11
   3630000   0.726               1850   2.431281e-26   1.1602073e+08  3.9676221e-06  1.761559e-11 
   3640000   0.728               1850   2.5526089e-26  1.1602073e+08  3.9676221e-06  1.7615801e-11
   3650000   0.73                1850   2.4552233e-26  1.1602073e+08  3.9676221e-06  1.7611626e-11
   3660000   0.732               1850   2.6496011e-26  1.1602073e+08  3.9676221e-06  1.7612826e-11
   3670000   0.734               1850   2.5801008e-26  1.1602073e+08  3.9676221e-06  1.761712e-11 
   3680000   0.736               1850   2.6599857e-26  1.1602073e+08  3.9676221e-06  1.7599029e-11
   3690000   0.738               1850   2.5248114e-26  1.1602073e+08  3.9676221e-06  1.7454205e-11
   3700000   0.74                1850   2.4901652e-26  1.1602073e+08  3.9676221e-06  1.7549133e-11
   3710000   0.742               1850   2.3249569e-26  1.1602073e+08  3.9676221e-06  1.7615395e-11
   3720000   0.744               1850   2.5864209e-26  1.1602073e+08  3.9676221e-06  1.7615048e-11
   3730000   0.746               1850   2.5281376e-26  1.1602073e+08  3.9676221e-06  1.761532e-11 
   3740000   0.748               1850   2.4930801e-26  1.1602073e+08  3.9676221e-06  1.7613356e-11
   3750000   0.75                1850   2.6053025e-26  1.1602073e+08  3.9676221e-06  1.7611808e-11
   3760000   0.752               1850   2.6025714e-26  1.1602073e+08  3.9676221e-06  1.7615149e-11
   3770000   0.754               1850   2.5564531e-26  1.1602073e+08  3.9676221e-06  1.7612915e-11
   3780000   0.756               1850   2.3474324e-26  1.1602073e+08  3.9676221e-06  1.761306e-11 
   3790000   0.758               1850   2.3632994e-26  1.1602073e+08  3.9676221e-06  1.7611462e-11
   3800000   0.76                1850   2.4677449e-26  1.1602073e+08  3.9676221e-06  1.7614562e-11
   3810000   0.762               1850   2.6401424e-26  1.1602073e+08  3.9676221e-06  1.764829e-11 
   3820000   0.764               1850   2.624222e-26   1.1602073e+08  3.9676221e-06  1.7613692e-11
   3830000   0.766               1850   2.566045e-26   1.1602073e+08  3.9676221e-06  1.7615349e-11
   3840000   0.768               1850   2.4689332e-26  1.1602073e+08  3.9676221e-06  1.7606636e-11
   3850000   0.77                1850   2.3721604e-26  1.1602073e+08  3.9676221e-06  1.7611308e-11
   3860000   0.772               1850   2.2264429e-26  1.1602073e+08  3.9676221e-06  1.761623e-11 
   3870000   0.774               1850   2.3755376e-26  1.1602073e+08  3.9676221e-06  1.7613621e-11
   3880000   0.776               1850   2.389552e-26   1.1602073e+08  3.9676221e-06  1.7614537e-11
   3890000   0.778               1850   2.3652358e-26  1.1602073e+08  3.9676221e-06  1.7612187e-11
   3900000   0.78                1850   2.4304584e-26  1.1602073e+08  3.9676221e-06  1.7611718e-11
   3910000   0.782               1850   2.5566934e-26  1.1602073e+08  3.9676221e-06  1.7615095e-11
   3920000   0.784               1850   2.5878287e-26  1.1602073e+08  3.9676221e-06  1.7613841e-11
   3930000   0.786               1850   2.5510375e-26  1.1602073e+08  3.9676221e-06  1.7614259e-11
   3940000   0.788               1850   2.4806149e-26  1.1602073e+08  3.9676221e-06  1.7615157e-11
   3950000   0.79                1850   2.3919364e-26  1.1602073e+08  3.9676221e-06  1.7616547e-11
   3960000   0.792               1850   2.4314444e-26  1.1602073e+08  3.9676221e-06  1.7647177e-11
   3970000   0.794               1850   2.6978214e-26  1.1602073e+08  3.9676221e-06  1.7700979e-11
   3980000   0.796               1850   2.8057431e-26  1.1602073e+08  3.9676221e-06  1.7924914e-11
   3990000   0.798               1850   2.6674574e-26  1.1602073e+08  3.9676221e-06  1.7774973e-11
   4000000   0.8                 1850   2.591598e-26   1.1602073e+08  3.9676221e-06  1.7897229e-11
Loop time of 1018.24 on 1 procs for 4000000 steps with 1850 atoms

100.0% CPU use with 1 MPI tasks x 1 OpenMP threads

MPI task timing breakdown:
Section |  min time  |  avg time  |  max time  |%varavg| %total
---------------------------------------------------------------
Pair    | 778.13     | 778.13     | 778.13     |   0.0 | 76.42
Neigh   | 0.034636   | 0.034636   | 0.034636   |   0.0 |  0.00
Comm    | 0.088093   | 0.088093   | 0.088093   |   0.0 |  0.01
Output  | 0.3156     | 0.3156     | 0.3156     |   0.0 |  0.03
Modify  | 230.1      | 230.1      | 230.1      |   0.0 | 22.60
Other   |            | 9.569      |            |       |  0.94

Nlocal:           1850 ave        1850 max        1850 min
Histogram: 1 0 0 0 0 0 0 0 0 0
Nghost:              0 ave           0 max           0 min
Histogram: 1 0 0 0 0 0 0 0 0 0
Neighs:           7147 ave        7147 max        7147 min
Histogram: 1 0 0 0 0 0 0 0 0 0

Total # of neighbors = 7147
Ave neighs/atom = 3.8632432
Neighbor list builds = 57
Dangerous builds = 0
Generated 0 of 0 mixed pair_coeff terms from geometric mixing rule
Setting up Verlet run ...
  Unit style    : si
  Current step  : 4000000
  Time step     : 2e-07
Per MPI rank memory allocation (min/avg/max) = 13 | 13 | 13 Mbytes
   Step          Time         Atoms        KinEng     c_granularTemp c_solidVolume    c_maxSpeed  
   4000000   0.8                 1850   2.591598e-26   1.1602073e+08  3.9676221e-06  1.7897229e-11
Loop time of 2.22e-07 on 1 procs for 0 steps with 1850 atoms

450.5% CPU use with 1 MPI tasks x 1 OpenMP threads

MPI task timing breakdown:
Section |  min time  |  avg time  |  max time  |%varavg| %total
---------------------------------------------------------------
Pair    | 0          | 0          | 0          |   0.0 |  0.00
Neigh   | 0          | 0          | 0          |   0.0 |  0.00
Comm    | 0          | 0          | 0          |   0.0 |  0.00
Output  | 0          | 0          | 0          |   0.0 |  0.00
Modify  | 0          | 0          | 0          |   0.0 |  0.00
Other   |            | 2.22e-07   |            |       |100.00

Nlocal:           1850 ave        1850 max        1850 min
Histogram: 1 0 0 0 0 0 0 0 0 0
Nghost:              0 ave           0 max           0 min
Histogram: 1 0 0 0 0 0 0 0 0 0
Neighs:           7147 ave        7147 max        7147 min
Histogram: 1 0 0 0 0 0 0 0 0 0

Total # of neighbors = 7147
Ave neighs/atom = 3.8632432
Neighbor list builds = 0
Dangerous builds = 0
Generated 0 of 0 mixed pair_coeff terms from geometric mixing rule
Neighbor list info ...
  update: every = 1 steps, delay = 0 steps, check = yes
  max neighbors/atom: 2000, page size: 100000
  master list distance cutoff = 0.00185
  ghost atom cutoff = 0.00185
  binsize = 0.000925, bins = 18 18 76
  3 neighbor lists, perpetual/occasional/extra = 1 2 0
  (1) pair granular, perpetual
      attributes: half, newton off, size, history
      pair build: half/size/bin/atomonly/newtoff
      stencil: full/bin/3d
      bin: standard
  (2) compute property/local, occasional
      attributes: half, newton off, size
      pair build: half/size/bin/atomonly/newtoff
      stencil: full/bin/3d
      bin: standard
  (3) compute pair/local, occasional
      attributes: half, newton off, size
      pair build: half/size/bin/atomonly/newtoff
      stencil: full/bin/3d
      bin: standard
Setting up Verlet run ...
  Unit style    : si
  Current step  : 4000000
  Time step     : 2e-07
Per MPI rank memory allocation (min/avg/max) = 14.26 | 14.26 | 14.26 Mbytes
   Step          Time         Atoms        KinEng     c_granularTemp c_solidVolume    c_maxSpeed  
   4000000   0.8                 1850   2.591598e-26   1.1602073e+08  3.9676221e-06  1.7897229e-11
   4000001   0.8000002           1850   2.5915553e-26  1.1602073e+08  3.9676221e-06  1.7897449e-11
Loop time of 0.00635819 on 1 procs for 1 steps with 1850 atoms

100.0% CPU use with 1 MPI tasks x 1 OpenMP threads

MPI task timing breakdown:
Section |  min time  |  avg time  |  max time  |%varavg| %total
---------------------------------------------------------------
Pair    | 0.00020646 | 0.00020646 | 0.00020646 |   0.0 |  3.25
Neigh   | 0          | 0          | 0          |   0.0 |  0.00
Comm    | 8.6e-08    | 8.6e-08    | 8.6e-08    |   0.0 |  0.00
Output  | 0.0060878  | 0.0060878  | 0.0060878  |   0.0 | 95.75
Modify  | 5.9759e-05 | 5.9759e-05 | 5.9759e-05 |   0.0 |  0.94
Other   |            | 4.082e-06  |            |       |  0.06

Nlocal:           1850 ave        1850 max        1850 min
Histogram: 1 0 0 0 0 0 0 0 0 0
Nghost:              0 ave           0 max           0 min
Histogram: 1 0 0 0 0 0 0 0 0 0
Neighs:           7147 ave        7147 max        7147 min
Histogram: 1 0 0 0 0 0 0 0 0 0

Total # of neighbors = 7147
Ave neighs/atom = 3.8632432
Neighbor list builds = 0
Dangerous builds = 0
System init for write_data ...
Generated 0 of 0 mixed pair_coeff terms from geometric mixing rule
System init for write_restart ...
Generated 0 of 0 mixed pair_coeff terms from geometric mixing rule
seed Ntarget Nfinal dp_m density_kgm3 Dtube_m D_over_dp solidVolume_m3 bedHeight_m bedVolume_m3 packingFraction porosity minParticleBottom_m kineticEnergy_J maxSpeed_ms
137077 1850 1850 0.0016 1600 0.016 10 3.96762208197362e-06 0.0360679522379754 7.25189208197446e-06 0.547115433754961 0.452884566245039 -1.01734729784084e-06 2.59155531927264e-26 1.78974491135523e-11
Packing generation completed: co2_13x_seed_137077
ACCEPT only if Nfinal=Ntarget, the bed is settled, and overlap/geometry checks pass.
For the 20-packing pilot, change only seed_realization.
CO2 diffusion and particle LDF adsorption are added later in the pore-network solver, not here.
Total wall time: 0:22:33
