Authorization required, but no authorization protocol specified

Authorization required, but no authorization protocol specified

Authorization required, but no authorization protocol specified

Authorization required, but no authorization protocol specified

LAMMPS (22 Jul 2025 - Update 5)
OMP_NUM_THREADS environment is not set. Defaulting to 1 thread.
  using 1 OpenMP thread(s) per MPI task
OMP_NUM_THREADS environment is not set. Defaulting to 1 thread.
  using 1 OpenMP thread(s) per MPI task
CO2 sorbent = commercial zeolite 13X (mechanical packing only)
Realization seed = 105019
Target particle count = 1850
Bead diameter [m] = 0.0016
Tube diameter [m] = 0.016
Tube-to-particle diameter ratio = 10
Target solid volume [m^3] = 3.96762208197367e-06
Created orthogonal box = (-0.008 -0.008 0) to (0.008 0.008 0.07)
  1 by 1 by 1 MPI processor grid
Generated 0 of 0 mixed pair_coeff terms from geometric mixing rule
Particle insertion: 303 every 319275 steps, 1850 by step 1915651
Neighbor list info ...
  update: every = 1 steps, delay = 0 steps, check = yes
  max neighbors/atom: 2000, page size: 100000
  master list distance cutoff = 0.00185
  ghost atom cutoff = 0.00185
  binsize = 0.000925, bins = 18 18 76
  1 neighbor lists, perpetual/occasional/extra = 1 0 0
  (1) pair granular, perpetual
      attributes: half, newton off, size, history
      pair build: half/size/bin/atomonly/newtoff
      stencil: full/bin/3d
      bin: standard
Setting up Verlet run ...
  Unit style    : si
  Current step  : 0
  Time step     : 2e-07
Per MPI rank memory allocation (min/avg/max) = 7.438 | 7.438 | 7.438 Mbytes
   Step          Time         Atoms        KinEng     c_granularTemp c_solidVolume    c_maxSpeed  
         0   0                      0  -0              0              0             -1e+20        
WARNING: Fewer insertions than requested (src/GRANULAR/fix_pour.cpp:691)
     10000   0.002                174  -0              4.8989229e+15  3.7317094e-07  0.6094376    
     20000   0.004                174  -0              4.8203752e+15  3.7317094e-07  0.59399143   
     30000   0.006                174  -0              4.7537249e+15  3.7317094e-07  0.5794198    
     40000   0.008                174  -0              4.6974784e+15  3.7317094e-07  0.56567319   
     50000   0.01                 174  -0              4.6503174e+15  3.7317094e-07  0.55270489   
     60000   0.012                174  -0              4.611078e+15   3.7317094e-07  0.54047084   
     70000   0.014                174  -0              4.5787339e+15  3.7317094e-07  0.52892946   
     80000   0.016                174  -0              4.5523806e+15  3.7317094e-07  0.51804153   
     90000   0.018                174  -0              4.531221e+15   3.7317094e-07  0.50777006   
    100000   0.02                 174  -0              4.514554e+15   3.7317094e-07  0.49808015   
    110000   0.022                174  -0              4.5017625e+15  3.7317094e-07  0.48893886   
    120000   0.024                174  -0              4.4923047e+15  3.7317094e-07  0.48031514   
    130000   0.026                174  -0              4.4857045e+15  3.7317094e-07  0.47217968   
    140000   0.028                174  -0              4.4815448e+15  3.7317094e-07  0.46450484   
    150000   0.03                 174  -0              4.4794599e+15  3.7317094e-07  0.45726454   
    160000   0.032                174  -0              4.47913e+15    3.7317094e-07  0.45043417   
    170000   0.034                174  -0              4.4802756e+15  3.7317094e-07  0.44399052   
    180000   0.036                174  -0              4.4826528e+15  3.7317094e-07  0.43791171   
    190000   0.038                174  -0              4.4860493e+15  3.7317094e-07  0.43217707   
    200000   0.04                 174  -0              4.4902804e+15  3.7317094e-07  0.42676711   
    210000   0.042                174  -0              4.4951859e+15  3.7317094e-07  0.42166346   
    220000   0.044                174  -0              4.500627e+15   3.7317094e-07  0.41684876   
    230000   0.046                174  -0              4.5064839e+15  3.7317094e-07  0.41230667   
    240000   0.048                174  -0              4.5126533e+15  3.7317094e-07  0.40802175   
    250000   0.05                 174  -0              4.5190468e+15  3.7317094e-07  0.40397943   
    260000   0.052                174  -0              4.5255886e+15  3.7317094e-07  0.40016598   
    270000   0.054                174  -0              4.5322141e+15  3.7317094e-07  0.39656844   
    280000   0.056                174  -0              4.5388685e+15  3.7317094e-07  0.39317459   
    290000   0.058                174  -0              4.5455059e+15  3.7317094e-07  0.38997289   
    300000   0.06                 174  -0              4.5520876e+15  3.7317094e-07  0.38695247   
    310000   0.062                174  -0              4.5585815e+15  3.7317094e-07  0.38410306   
WARNING: Fewer insertions than requested (src/GRANULAR/fix_pour.cpp:691)
    320000   0.064                373  -0              4.8491146e+15  7.999584e-07   0.61872239   
    330000   0.066                373  -0              4.7656816e+15  7.999584e-07   0.60275053   
    340000   0.068                373  -0              4.704815e+15   7.999584e-07   0.58768297   
    350000   0.07                 373  -0              4.6614206e+15  7.999584e-07   0.57346851   
    360000   0.072                373  -0              4.6301704e+15  7.999584e-07   0.56005886   
    370000   0.074                373  -0              4.6081142e+15  7.999584e-07   0.54740843   
    380000   0.076                373  -0              4.5872316e+15  7.999584e-07   0.53547426   
    390000   0.078                373  -0              4.574487e+15   7.999584e-07   0.52421578   
    400000   0.08                 373  -0              4.5639668e+15  7.999584e-07   0.51359473   
    410000   0.082                373  -0              4.5563084e+15  7.999584e-07   0.50357504   
    420000   0.084                373  -0              4.5370571e+15  7.999584e-07   0.4760479    
    430000   0.086                373  -0              4.4935924e+15  7.999584e-07   0.46812327   
    440000   0.088                373  -0              4.4634785e+15  7.999584e-07   0.46064979   
    450000   0.09                 373  -0              4.4478805e+15  7.999584e-07   0.45360175   
    460000   0.092                373  -0              4.4161318e+15  7.999584e-07   0.44695492   
    470000   0.094                373  -0              4.3965337e+15  7.999584e-07   0.44068643   
    480000   0.096                373  -0              4.346967e+15   7.999584e-07   0.4347747    
    490000   0.098                373  -0              4.3385154e+15  7.999584e-07   0.42919941   
    500000   0.1                  373  -0              4.3090874e+15  7.999584e-07   0.42394138   
    510000   0.102                373  -0              4.3068734e+15  7.999584e-07   0.41898253   
    520000   0.104                373  -0              4.2864195e+15  7.999584e-07   0.41430579   
    530000   0.106                373  -0              4.2534943e+15  7.999584e-07   0.4098951    
    540000   0.108                373  -0              4.2161725e+15  7.999584e-07   0.40573528   
    550000   0.11                 373  -0              4.1924562e+15  7.999584e-07   0.40181203   
    560000   0.112                373  -0              4.1590858e+15  7.999584e-07   0.39811188   
    570000   0.114                373  -0              4.1547342e+15  7.999584e-07   0.39462211   
    580000   0.116                373  -0              4.1478969e+15  7.999584e-07   0.39133073   
    590000   0.118                373  -0              4.1517069e+15  7.999584e-07   0.38822644   
    600000   0.12                 373  -0              4.1180115e+15  7.999584e-07   0.38529859   
    610000   0.122                373  -0              4.0699168e+15  7.999584e-07   0.38253711   
    620000   0.124                373  -0              4.0443147e+15  7.999584e-07   0.37993254   
    630000   0.126                373  -0              4.018365e+15   7.999584e-07   0.37747595   
WARNING: Fewer insertions than requested (src/GRANULAR/fix_pour.cpp:691)
    640000   0.128                592  -0              4.4293911e+15  1.2696391e-06  0.6229211    
    650000   0.13                 592  -0              4.3749579e+15  1.2696391e-06  0.60671151   
    660000   0.132                592  -0              4.3150647e+15  1.2696391e-06  0.59141969   
    670000   0.134                592  -0              4.2803997e+15  1.2696391e-06  0.57699366   
    680000   0.136                592  -0              4.2491928e+15  1.2696391e-06  0.56338442   
    690000   0.138                592  -0              4.2180338e+15  1.2696391e-06  0.55054571   
    700000   0.14                 592  -0              4.1819177e+15  1.2696391e-06  0.5384339    
    710000   0.142                592  -0              4.1550615e+15  1.2696391e-06  0.52700785   
    720000   0.144                592  -0              4.1402314e+15  1.2696391e-06  0.51622872   
    730000   0.146                592  -0              4.1183824e+15  1.2696391e-06  0.50605989   
    740000   0.148                592  -0              4.0829031e+15  1.2696391e-06  0.49646681   
    750000   0.15                 592  -0              4.0674406e+15  1.2696391e-06  0.48741687   
    760000   0.152                592  -0              4.0322195e+15  1.2696391e-06  0.47887932   
    770000   0.154                592  -0              3.975895e+15   1.2696391e-06  0.47082515   
    780000   0.156                592  -0              3.9163382e+15  1.2696391e-06  0.463227     
    790000   0.158                592  -0              3.8478282e+15  1.2696391e-06  0.45605905   
    800000   0.16                 592  -0              3.7957173e+15  1.2696391e-06  0.44929693   
    810000   0.162                592  -0              3.7286963e+15  1.2696391e-06  0.44291768   
    820000   0.164                592  -0              3.6489779e+15  1.2696391e-06  0.4368996    
    830000   0.166                592  -0              3.6032688e+15  1.2696391e-06  0.43122226   
    840000   0.168                592  -0              3.547751e+15   1.2696391e-06  0.42586637   
    850000   0.17                 592  -0              3.487762e+15   1.2696391e-06  0.42081371   
    860000   0.172                592  -0              3.4133946e+15  1.2696391e-06  0.41604713   
    870000   0.174                592  -0              3.3569592e+15  1.2696391e-06  0.41155043   
    880000   0.176                592  -0              3.2799812e+15  1.2696391e-06  0.40730832   
    890000   0.178                592  -0              3.1712443e+15  1.2696391e-06  0.40330639   
    900000   0.18                 592  -0              3.1112078e+15  1.2696391e-06  0.39953105   
    910000   0.182                592  -0              3.0423772e+15  1.2696391e-06  0.39596946   
    920000   0.184                592  -0              2.9660025e+15  1.2696391e-06  0.39260952   
    930000   0.186                592  -0              2.9362589e+15  1.2696391e-06  0.38943982   
    940000   0.188                592  -0              2.8525752e+15  1.2696391e-06  0.38644958   
    950000   0.19                 592  -0              2.8080566e+15  1.2696391e-06  0.38362864   
WARNING: Fewer insertions than requested (src/GRANULAR/fix_pour.cpp:691)
    960000   0.192                807  -0              3.4300129e+15  1.7307411e-06  0.61121127   
    970000   0.194                807  -0              3.3589643e+15  1.7307411e-06  0.59566468   
    980000   0.196                807  -0              3.3098865e+15  1.7307411e-06  0.58099831   
    990000   0.198                807  -0              3.2601964e+15  1.7307411e-06  0.56716232   
   1000000   0.2                  807  -0              3.1983702e+15  1.7307411e-06  0.55410971   
   1010000   0.202                807  -0              3.1590955e+15  1.7307411e-06  0.54179612   
   1020000   0.204                807  -0              3.1126137e+15  1.7307411e-06  0.53017971   
   1030000   0.206                807  -0              3.0579267e+15  1.7307411e-06  0.51922099   
   1040000   0.208                807  -0              3.0305678e+15  1.7307411e-06  0.50888275   
   1050000   0.21                 807  -0              2.9887796e+15  1.7307411e-06  0.49912984   
   1060000   0.212                807  -0              2.9375352e+15  1.7307411e-06  0.48441875   
   1070000   0.214                807  -0              2.8542134e+15  1.7307411e-06  0.47605096   
   1080000   0.216                807  -0              2.8098847e+15  1.7307411e-06  0.44706389   
   1090000   0.218                807  -0              2.7668732e+15  1.7307411e-06  0.43909817   
   1100000   0.22                 807  -0              2.7089232e+15  1.7307411e-06  0.43327665   
   1110000   0.222                807  -0              2.6540817e+15  1.7307411e-06  0.4263359    
   1120000   0.224                807  -0              2.6178716e+15  1.7307411e-06  0.42122087   
   1130000   0.226                807  -0              2.5752206e+15  1.7307411e-06  0.41639862   
   1140000   0.228                807  -0              2.5283467e+15  1.7307411e-06  0.40615276   
   1150000   0.23                 807  -0              2.4850981e+15  1.7307411e-06  0.40221523   
   1160000   0.232                807  -0              2.4341527e+15  1.7307411e-06  0.39850073   
   1170000   0.234                807  -0              2.3812464e+15  1.7307411e-06  0.39499663   
   1180000   0.236                807  -0              2.3280727e+15  1.7307411e-06  0.391691     
   1190000   0.238                807  -0              2.2595823e+15  1.7307411e-06  0.38857261   
   1200000   0.24                 807  -0              2.1673113e+15  1.7307411e-06  0.38563084   
   1210000   0.242                807  -0              2.1101219e+15  1.7307411e-06  0.38285569   
   1220000   0.244                807  -0              2.0620474e+15  1.7307411e-06  0.38023772   
   1230000   0.246                807  -0              2.0317483e+15  1.7307411e-06  0.37776803   
   1240000   0.248                807  -0              2.0084523e+15  1.7307411e-06  0.37543821   
   1250000   0.25                 807  -0              1.9805388e+15  1.7307411e-06  0.37324035   
   1260000   0.252                807  -0              1.9493877e+15  1.7307411e-06  0.37116696   
   1270000   0.254                807  -0              1.9113381e+15  1.7307411e-06  0.36921099   
WARNING: Fewer insertions than requested (src/GRANULAR/fix_pour.cpp:691)
   1280000   0.256               1042  -0              2.7364393e+15  2.2347363e-06  0.61794227   
   1290000   0.258               1042  -0              2.6703393e+15  2.2347363e-06  0.60201457   
   1300000   0.26                1042  -0              2.6157161e+15  2.2347363e-06  0.58317954   
   1310000   0.262               1042  -0              2.5521346e+15  2.2347363e-06  0.56922006   
   1320000   0.264               1042  -0              2.4856736e+15  2.2347363e-06  0.55605094   
   1330000   0.266               1042  -0              2.4384912e+15  2.2347363e-06  0.51968927   
   1340000   0.268               1042  -0              2.3603192e+15  2.2347363e-06  0.50932451   
   1350000   0.27                1042  -0              2.3049483e+15  2.2347363e-06  0.49954658   
   1360000   0.272               1042  -0              2.256939e+15   2.2347363e-06  0.49032227   
   1370000   0.274               1042  -0              2.2076889e+15  2.2347363e-06  0.48162023   
   1380000   0.276               1042  -0              2.1718991e+15  2.2347363e-06  0.47341087   
   1390000   0.278               1042  -0              2.113877e+15   2.2347363e-06  0.46566632   
   1400000   0.28                1042  -0              2.0630579e+15  2.2347363e-06  0.45836026   
   1410000   0.282               1042  -0              1.9960238e+15  2.2347363e-06  0.45146785   
   1420000   0.284               1042  -0              1.9339547e+15  2.2347363e-06  0.44496568   
   1430000   0.286               1042  -0              1.8667343e+15  2.2347363e-06  0.43883165   
   1440000   0.288               1042  -0              1.7953303e+15  2.2347363e-06  0.43188112   
   1450000   0.29                1042  -0              1.746614e+15   2.2347363e-06  0.42648792   
   1460000   0.292               1042  -0              1.7191309e+15  2.2347363e-06  0.42140007   
   1470000   0.294               1042  -0              1.6884987e+15  2.2347363e-06  0.41660029   
   1480000   0.296               1042  -0              1.6596475e+15  2.2347363e-06  0.41207227   
   1490000   0.298               1042  -0              1.6280711e+15  2.2347363e-06  0.40780061   
   1500000   0.3                 1042  -0              1.6055796e+15  2.2347363e-06  0.40377081   
   1510000   0.302               1042  -0              1.5903326e+15  2.2347363e-06  0.39996918   
   1520000   0.304               1042  -0              1.573472e+15   2.2347363e-06  0.39638278   
   1530000   0.306               1042  -0              1.5405094e+15  2.2347363e-06  0.39299944   
   1540000   0.308               1042  -0              1.5162459e+15  2.2347363e-06  0.38980766   
   1550000   0.31                1042  -0              1.4879039e+15  2.2347363e-06  0.38679659   
   1560000   0.312               1042  -0              1.4473365e+15  2.2347363e-06  0.37873565   
   1570000   0.314               1042  -0              1.385524e+15   2.2347363e-06  0.37635146   
   1580000   0.316               1042  -0              1.3322271e+15  2.2347363e-06  0.36515274   
   1590000   0.318               1042  -0              1.3036496e+15  2.2347363e-06  0.36353718   
WARNING: Fewer insertions than requested (src/GRANULAR/fix_pour.cpp:691)
   1600000   0.32                1242  -0              1.9405001e+15  2.6636684e-06  0.61877459   
   1610000   0.322               1242  -0              1.8816749e+15  2.6636684e-06  0.60279978   
   1620000   0.324               1242  -0              1.8093463e+15  2.6636684e-06  0.58772943   
   1630000   0.326               1242  -0              1.758081e+15   2.6636684e-06  0.57351234   
   1640000   0.328               1242  -0              1.7044625e+15  2.6636684e-06  0.5601002    
   1650000   0.33                1242  -0              1.6383986e+15  2.6636684e-06  0.54744744   
   1660000   0.332               1242  -0              1.5689549e+15  2.6636684e-06  0.53551105   
   1670000   0.334               1242  -0              1.520418e+15   2.6636684e-06  0.52425049   
   1680000   0.336               1242  -0              1.4715922e+15  2.6636684e-06  0.51362748   
   1690000   0.338               1242  -0              1.4116025e+15  2.6636684e-06  0.50360593   
   1700000   0.34                1242  -0              1.3715342e+15  2.6636684e-06  0.49415178   
   1710000   0.342               1242  -0              1.328668e+15   2.6636684e-06  0.48073053   
   1720000   0.344               1242  -0              1.2856193e+15  2.6636684e-06  0.47257155   
   1730000   0.346               1242  -0              1.2432629e+15  2.6636684e-06  0.46487452   
   1740000   0.348               1242  -0              1.221613e+15   2.6636684e-06  0.45761329   
   1750000   0.35                1242  -0              1.2008708e+15  2.6636684e-06  0.45076317   
   1760000   0.352               1242  -0              1.1868568e+15  2.6636684e-06  0.4443009    
   1770000   0.354               1242  -0              1.1788521e+15  2.6636684e-06  0.43820451   
   1780000   0.356               1242  -0              1.162582e+15   2.6636684e-06  0.41824172   
   1790000   0.358               1242  -0              1.1483499e+15  2.6636684e-06  0.41361873   
   1800000   0.36                1242  -0              1.1282693e+15  2.6636684e-06  0.39911133   
   1810000   0.362               1242  -0              1.1065613e+15  2.6636684e-06  0.3955735    
   1820000   0.364               1242  -0              1.0681509e+15  2.6636684e-06  0.39223598   
   1830000   0.366               1242  -0              1.0376105e+15  2.6636684e-06  0.38908743   
   1840000   0.368               1242  -0              9.9212558e+14  2.6636684e-06  0.38535548   
   1850000   0.37                1242  -0              9.5590536e+14  2.6636684e-06  0.38259649   
   1860000   0.372               1242  -0              9.3593986e+14  2.6636684e-06  0.36899923   
   1870000   0.374               1242  -0              9.1007172e+14  2.6636684e-06  0.36338549   
   1880000   0.376               1242  -0              8.5109694e+14  2.6636684e-06  0.36186838   
   1890000   0.378               1242  -0              7.950713e+14   2.6636684e-06  0.35909456   
   1900000   0.38                1242  -0              7.4174041e+14  2.6636684e-06  0.35782242   
   1910000   0.382               1242  -0              7.1353137e+14  2.6636684e-06  0.35662231   
WARNING: Fewer insertions than requested (src/GRANULAR/fix_pour.cpp:691)
   1920000   0.384               1454  -0              1.3416655e+15  3.1183365e-06  0.61869689   
   1930000   0.386               1454  -0              1.3040706e+15  3.1183365e-06  0.60272647   
   1940000   0.388               1454  -0              1.2594018e+15  3.1183365e-06  0.58766028   
   1950000   0.39                1454  -0              1.2104162e+15  3.1183365e-06  0.5734471    
   1960000   0.392               1454  -0              1.1641979e+15  3.1183365e-06  0.56003866   
   1970000   0.394               1454  -0              1.1136203e+15  3.1183365e-06  0.54219286   
   1980000   0.396               1454  -0              1.0874087e+15  3.1183365e-06  0.53055398   
   1990000   0.398               1454  -0              1.0689059e+15  3.1183365e-06  0.51957407   
   2000000   0.4                 1454  -0              1.0580021e+15  3.1183365e-06  0.50921584   
   2010000   0.402               1454  -0              1.0451936e+15  3.1183365e-06  0.49944407   
   2020000   0.404               1454  -0              1.0330228e+15  3.1183365e-06  0.49022556   
   2030000   0.406               1454  -0              1.0214536e+15  3.1183365e-06  0.48152899   
   2040000   0.408               1454  -0              1.0038777e+15  3.1183365e-06  0.4733248    
   2050000   0.41                1454  -0              9.9122422e+14  3.1183365e-06  0.46558512   
   2060000   0.412               1454  -0              9.6626817e+14  3.1183365e-06  0.45828366   
   2070000   0.414               1454  -0              9.3884807e+14  3.1183365e-06  0.43231509   
   2080000   0.416               1454  -0              9.1566625e+14  3.1183365e-06  0.42689732   
   2090000   0.418               1454  -0              8.8330164e+14  3.1183365e-06  0.4217863    
   2100000   0.42                1454  -0              8.5556258e+14  3.1183365e-06  0.41696465   
   2110000   0.422               1454  -0              8.2940434e+14  3.1183365e-06  0.39553029   
   2120000   0.424               1454  -0              8.0553376e+14  3.1183365e-06  0.39219462   
   2130000   0.426               1454  -0              7.7760735e+14  3.1183365e-06  0.38904787   
   2140000   0.428               1454  -0              7.4974548e+14  3.1183365e-06  0.3668356    
   2150000   0.43                1454  -0              7.1975156e+14  3.1183365e-06  0.36512518   
   2160000   0.432               1454  -0              6.8985695e+14  3.1183365e-06  0.3635116    
   2170000   0.434               1454  -0              6.6055864e+14  3.1183365e-06  0.36198937   
   2180000   0.436               1454  -0              6.1514466e+14  3.1183365e-06  0.36055333   
   2190000   0.438               1454  -0              5.7966049e+14  3.1183365e-06  0.3591986    
   2200000   0.44                1454  -0              5.3945547e+14  3.1183365e-06  0.35792057   
   2210000   0.442               1454  -0              5.0624855e+14  3.1183365e-06  0.35223209   
   2220000   0.444               1454  -0              4.9087453e+14  3.1183365e-06  0.35134842   
   2230000   0.446               1454  -0              4.6783124e+14  3.1183365e-06  0.3481098    
WARNING: Fewer insertions than requested (src/GRANULAR/fix_pour.cpp:691)
   2240000   0.448               1712  -0              1.2609232e+15  3.6716589e-06  0.61615952   
   2250000   0.45                1712  -0              1.2085491e+15  3.6716589e-06  0.60033276   
   2260000   0.452               1712  -0              1.1717903e+15  3.6716589e-06  0.5854021    
   2270000   0.454               1712  -0              1.1441686e+15  3.6716589e-06  0.57131678   
   2280000   0.456               1712  -0              1.1205571e+15  3.6716589e-06  0.55802895   
   2290000   0.458               1712  -0              1.0970997e+15  3.6716589e-06  0.54055416   
   2300000   0.46                1712  -0              1.0735361e+15  3.6716589e-06  0.52900807   
   2310000   0.462               1712  -0              1.0547065e+15  3.6716589e-06  0.51811569   
   2320000   0.464               1712  -0              1.0376494e+15  3.6716589e-06  0.50784002   
   2330000   0.466               1712  -0              1.0163807e+15  3.6716589e-06  0.49814615   
   2340000   0.468               1712  -0              9.8299299e+14  3.6716589e-06  0.48181919   
   2350000   0.47                1712  -0              9.4925996e+14  3.6716589e-06  0.43758862   
   2360000   0.472               1712  -0              9.1683745e+14  3.6716589e-06  0.43187227   
   2370000   0.474               1712  -0              8.7799312e+14  3.6716589e-06  0.42647957   
   2380000   0.476               1712  -0              8.2433122e+14  3.6716589e-06  0.41677591   
   2390000   0.478               1712  -0              7.9189632e+14  3.6716589e-06  0.41223794   
   2400000   0.48                1712  -0              7.5949411e+14  3.6716589e-06  0.40795691   
   2410000   0.482               1712  -0              7.1265418e+14  3.6716589e-06  0.38966753   
   2420000   0.484               1712  -0              6.7328811e+14  3.6716589e-06  0.3866644    
   2430000   0.486               1712  -0              6.2436653e+14  3.6716589e-06  0.36833048   
   2440000   0.488               1712  -0              5.7901168e+14  3.6716589e-06  0.366533     
   2450000   0.49                1712  -0              5.5351559e+14  3.6716589e-06  0.36466611   
   2460000   0.492               1712  -0              5.0311213e+14  3.6716589e-06  0.36307852   
   2470000   0.494               1712  -0              4.5905004e+14  3.6716589e-06  0.35889139   
   2480000   0.496               1712  -0              4.2959822e+14  3.6716589e-06  0.35223656   
   2490000   0.498               1712  -0              4.0363874e+14  3.6716589e-06  0.35135271   
   2500000   0.5                 1712  -0              3.6940697e+14  3.6716589e-06  0.34901379   
   2510000   0.502               1712  -0              3.5091175e+14  3.6716589e-06  0.34610536   
   2520000   0.504               1712  -0              3.3655051e+14  3.6716589e-06  0.34176433   
   2530000   0.506               1712  -0              3.2554188e+14  3.6716589e-06  0.34104423   
   2540000   0.508               1712  -0              3.0276458e+14  3.6716589e-06  0.33786789   
   2550000   0.51                1712  -0              2.9038402e+14  3.6716589e-06  0.33583928   
   2560000   0.512               1850  -0              6.5128093e+14  3.9676221e-06  0.61504018   
   2570000   0.514               1850  -0              6.2859913e+14  3.9676221e-06  0.5992768    
   2580000   0.516               1850  -0              6.1067949e+14  3.9676221e-06  0.57888215   
   2590000   0.518               1850  -0              5.9859818e+14  3.9676221e-06  0.5618588    
   2600000   0.52                1850  -0              5.8523735e+14  3.9676221e-06  0.53675533   
   2610000   0.522               1850  -0              5.6634803e+14  3.9676221e-06  0.52542431   
   2620000   0.524               1850  -0              5.3742677e+14  3.9676221e-06  0.51473484   
   2630000   0.526               1850  -0              5.046578e+14   3.9676221e-06  0.47196145   
   2640000   0.528               1850  -0              4.7134038e+14  3.9676221e-06  0.45146113   
   2650000   0.53                1850  -0              4.4341227e+14  3.9676221e-06  0.43598322   
   2660000   0.532               1850  -0              4.2089568e+14  3.9676221e-06  0.4303524    
   2670000   0.534               1850  -0              3.886005e+14   3.9676221e-06  0.40867096   
   2680000   0.536               1850  -0              3.5719011e+14  3.9676221e-06  0.38940028   
   2690000   0.538               1850  -0              3.3912607e+14  3.9676221e-06  0.38641228   
   2700000   0.54                1850  -0              3.2442603e+14  3.9676221e-06  0.38359345   
   2710000   0.542               1850  -0              2.9832891e+14  3.9676221e-06  0.38093423   
   2720000   0.544               1850  -0              2.7939943e+14  3.9676221e-06  0.37289193   
   2730000   0.546               1850  -0              2.6031474e+14  3.9676221e-06  0.37083861   
   2740000   0.548               1850  -0              2.3607388e+14  3.9676221e-06  0.36890154   
   2750000   0.55                1850  -0              2.1323827e+14  3.9676221e-06  0.3567713    
   2760000   0.552               1850  -0              2.0240814e+14  3.9676221e-06  0.35471698   
   2770000   0.554               1850  -0              1.8707376e+14  3.9676221e-06  0.34807511   
   2780000   0.556               1850  -0              1.7742473e+14  3.9676221e-06  0.34717216   
   2790000   0.558               1850  -0              1.7648997e+14  3.9676221e-06  0.34657505   
   2800000   0.56                1850  -0              1.7369e+14     3.9676221e-06  0.34601174   
   2810000   0.562               1850  -0              1.6963722e+14  3.9676221e-06  0.33706149   
   2820000   0.564               1850  -0              1.6016499e+14  3.9676221e-06  0.33573307   
   2830000   0.566               1850  -0              1.5872335e+14  3.9676221e-06  0.33578363   
   2840000   0.568               1850  -0              1.5396143e+14  3.9676221e-06  0.33261219   
   2850000   0.57                1850  -0              1.4801372e+14  3.9676221e-06  0.32777222   
   2860000   0.572               1850  -0              1.420728e+14   3.9676221e-06  0.32797215   
   2870000   0.574               1850  -0              1.32132e+14    3.9676221e-06  0.32846211   
   2880000   0.576               1850  -0              1.2428201e+14  3.9676221e-06  0.32185124   
   2890000   0.578               1850  -0              1.1272774e+14  3.9676221e-06  0.32268776   
   2900000   0.58                1850  -0              1.0716868e+14  3.9676221e-06  0.32347692   
   2910000   0.582               1850  -0              9.6365422e+13  3.9676221e-06  0.3242214    
   2920000   0.584               1850  -0              9.0864158e+13  3.9676221e-06  0.3206644    
   2930000   0.586               1850  -0              8.8588809e+13  3.9676221e-06  0.32156812   
   2940000   0.588               1850  -0              7.8970469e+13  3.9676221e-06  0.31954846   
   2950000   0.59                1850  -0              7.4119407e+13  3.9676221e-06  0.31697452   
   2960000   0.592               1850  -0              6.9746166e+13  3.9676221e-06  0.31694493   
   2970000   0.594               1850  -0              6.4956605e+13  3.9676221e-06  0.31694202   
   2980000   0.596               1850  -0              6.005345e+13   3.9676221e-06  0.31805649   
   2990000   0.598               1850  -0              5.4794081e+13  3.9676221e-06  0.31820825   
   3000000   0.6                 1850  -0              4.8187593e+13  3.9676221e-06  0.31647881   
Loop time of 328.16 on 1 procs for 3000000 steps with 1850 atoms

100.0% CPU use with 1 MPI tasks x 1 OpenMP threads

MPI task timing breakdown:
Section |  min time  |  avg time  |  max time  |%varavg| %total
---------------------------------------------------------------
Pair    | 234.04     | 234.04     | 234.04     |   0.0 | 71.32
Neigh   | 0.55593    | 0.55593    | 0.55593    |   0.0 |  0.17
Comm    | 0.063146   | 0.063146   | 0.063146   |   0.0 |  0.02
Output  | 0.13169    | 0.13169    | 0.13169    |   0.0 |  0.04
Modify  | 89.263     | 89.263     | 89.263     |   0.0 | 27.20
Other   |            | 4.108      |            |       |  1.25

Nlocal:           1850 ave        1850 max        1850 min
Histogram: 1 0 0 0 0 0 0 0 0 0
Nghost:              0 ave           0 max           0 min
Histogram: 1 0 0 0 0 0 0 0 0 0
Neighs:           6883 ave        6883 max        6883 min
Histogram: 1 0 0 0 0 0 0 0 0 0

Total # of neighbors = 6883
Ave neighs/atom = 3.7205405
Neighbor list builds = 2134
Dangerous builds = 0
Generated 0 of 0 mixed pair_coeff terms from geometric mixing rule
Setting up Verlet run ...
  Unit style    : si
  Current step  : 0
  Time step     : 2e-07
Per MPI rank memory allocation (min/avg/max) = 14.72 | 14.72 | 14.72 Mbytes
   Step          Time         Atoms        KinEng     c_granularTemp c_solidVolume    c_maxSpeed  
         0   0                   1850   3.4489345e-06  4.7460434e+13  3.9676221e-06  0.31229046   
     10000   0.002               1850   1.7403314e-06  2.4831125e+13  3.9676221e-06  0.25036264   
     20000   0.004               1850   1.0442626e-06  1.5341232e+13  3.9676221e-06  0.20385019   
     30000   0.006               1850   5.2071745e-07  8.4520064e+12  3.9676221e-06  0.16906845   
     40000   0.008               1850   3.1983684e-07  5.6142259e+12  3.9676221e-06  0.14256567   
     50000   0.01                1850   2.1933535e-07  4.0352993e+12  3.9676221e-06  0.1235447    
     60000   0.012               1850   1.5915917e-07  3.0363424e+12  3.9676221e-06  0.10924901   
     70000   0.014               1850   1.1646741e-07  2.4269178e+12  3.9676221e-06  0.07972869   
     80000   0.016               1850   9.0996008e-08  1.8983971e+12  3.9676221e-06  0.074452933  
     90000   0.018               1850   7.9516577e-08  1.6926925e+12  3.9676221e-06  0.072420868  
    100000   0.02                1850   7.1255232e-08  1.5401823e+12  3.9676221e-06  0.070998325  
    110000   0.022               1850   6.8199242e-08  1.4441314e+12  3.9676221e-06  0.069992279  
    120000   0.024               1850   5.9036754e-08  1.2572248e+12  3.9676221e-06  0.074422368  
    130000   0.026               1850   5.4451295e-08  1.1393582e+12  3.9676221e-06  0.072422449  
    140000   0.028               1850   4.7931517e-08  1.0105202e+12  3.9676221e-06  0.072409216  
    150000   0.03                1850   3.0667497e-08  7.2149812e+11  3.9676221e-06  0.071027626  
    160000   0.032               1850   2.0436933e-08  5.4472925e+11  3.9676221e-06  0.042599552  
    170000   0.034               1850   1.9503355e-08  5.1671805e+11  3.9676221e-06  0.045487339  
    180000   0.036               1850   1.9079071e-08  4.9460158e+11  3.9676221e-06  0.040983747  
    190000   0.038               1850   1.866587e-08   4.7799533e+11  3.9676221e-06  0.041735047  
    200000   0.04                1850   1.8479441e-08  4.7765547e+11  3.9676221e-06  0.043900107  
    210000   0.042               1850   1.6965092e-08  4.6437505e+11  3.9676221e-06  0.046130503  
    220000   0.044               1850   1.6997112e-08  4.7474572e+11  3.9676221e-06  0.048373537  
    230000   0.046               1850   1.343803e-08   3.9131862e+11  3.9676221e-06  0.036206219  
    240000   0.048               1850   1.3018347e-08  3.6896863e+11  3.9676221e-06  0.03852997   
    250000   0.05                1850   1.0148423e-08  2.9567937e+11  3.9676221e-06  0.034345482  
    260000   0.052               1850   9.7954321e-09  2.8334219e+11  3.9676221e-06  0.035943686  
    270000   0.054               1850   9.2161799e-09  2.7733747e+11  3.9676221e-06  0.038116211  
    280000   0.056               1850   1.0334108e-08  3.0326088e+11  3.9676221e-06  0.040242201  
    290000   0.058               1850   1.1672907e-08  3.34716e+11    3.9676221e-06  0.042598181  
    300000   0.06                1850   1.152808e-08   3.3849061e+11  3.9676221e-06  0.044980078  
    310000   0.062               1850   9.8317689e-09  3.1188458e+11  3.9676221e-06  0.042478585  
    320000   0.064               1850   1.0680754e-08  3.3009361e+11  3.9676221e-06  0.044541455  
    330000   0.066               1850   1.1158676e-08  3.4835804e+11  3.9676221e-06  0.046619276  
    340000   0.068               1850   9.7577473e-09  3.4233207e+11  3.9676221e-06  0.036141594  
    350000   0.07                1850   1.0470422e-08  3.6915999e+11  3.9676221e-06  0.038481287  
    360000   0.072               1850   7.4841045e-09  3.246842e+11   3.9676221e-06  0.030811047  
    370000   0.074               1850   7.0166776e-09  2.7781761e+11  3.9676221e-06  0.03234421   
    380000   0.076               1850   5.8806805e-09  1.9404229e+11  3.9676221e-06  0.030778247  
    390000   0.078               1850   6.6239981e-09  1.766818e+11   3.9676221e-06  0.033806913  
    400000   0.08                1850   7.1155194e-09  1.7928819e+11  3.9676221e-06  0.034764017  
    410000   0.082               1850   7.4133645e-09  1.6752265e+11  3.9676221e-06  0.037367035  
    420000   0.084               1850   4.4150832e-09  1.0954527e+11  3.9676221e-06  0.036608991  
    430000   0.086               1850   4.4990594e-09  1.1172709e+11  3.9676221e-06  0.035587077  
    440000   0.088               1850   4.7858297e-09  1.187642e+11   3.9676221e-06  0.035295711  
    450000   0.09                1850   5.1425562e-09  1.2881096e+11  3.9676221e-06  0.03557172   
    460000   0.092               1850   3.7672577e-09  1.1051138e+11  3.9676221e-06  0.028343432  
    470000   0.094               1850   3.9147102e-09  1.1722273e+11  3.9676221e-06  0.030581888  
    480000   0.096               1850   4.4327081e-09  1.3151129e+11  3.9676221e-06  0.03297928   
    490000   0.098               1850   5.1724227e-09  1.523065e+11   3.9676221e-06  0.035518801  
    500000   0.1                 1850   6.2123193e-09  1.6282851e+11  3.9676221e-06  0.038373165  
    510000   0.102               1850   4.5993933e-09  1.3215773e+11  3.9676221e-06  0.037525428  
    520000   0.104               1850   3.0060557e-09  9.4778868e+10  3.9676221e-06  0.027167142  
    530000   0.106               1850   2.8496407e-09  8.567368e+10   3.9676221e-06  0.029160223  
    540000   0.108               1850   1.3896644e-09  4.0527765e+10  3.9676221e-06  0.022784333  
    550000   0.11                1850   1.4731098e-09  4.10774e+10    3.9676221e-06  0.022509265  
    560000   0.112               1850   1.6562677e-09  4.4788788e+10  3.9676221e-06  0.022391026  
    570000   0.114               1850   1.8671884e-09  4.9512572e+10  3.9676221e-06  0.022588991  
    580000   0.116               1850   1.8792821e-09  5.1786052e+10  3.9676221e-06  0.023122083  
    590000   0.118               1850   6.4804357e-10  2.1127835e+10  3.9676221e-06  0.010232942  
    600000   0.12                1850   4.4171925e-10  1.5060639e+10  3.9676221e-06  0.010857432  
    610000   0.122               1850   4.9767638e-10  1.582771e+10   3.9676221e-06  0.011582527  
    620000   0.124               1850   4.3442037e-10  1.4909601e+10  3.9676221e-06  0.012291885  
    630000   0.126               1850   4.6988334e-10  1.6311343e+10  3.9676221e-06  0.013058327  
    640000   0.128               1850   5.5823488e-10  1.8940879e+10  3.9676221e-06  0.013925242  
    650000   0.13                1850   6.7449935e-10  2.2357582e+10  3.9676221e-06  0.014830969  
    660000   0.132               1850   5.5897928e-10  2.2009581e+10  3.9676221e-06  0.011220942  
    670000   0.134               1850   7.5352834e-10  2.4911821e+10  3.9676221e-06  0.013812063  
    680000   0.136               1850   8.9721412e-10  2.9446773e+10  3.9676221e-06  0.014719878  
    690000   0.138               1850   1.0639817e-09  3.4756973e+10  3.9676221e-06  0.015588232  
    700000   0.14                1850   8.7833673e-10  2.6680583e+10  3.9676221e-06  0.016570169  
    710000   0.142               1850   1.0067415e-09  2.8285202e+10  3.9676221e-06  0.017750895  
    720000   0.144               1850   1.1727116e-09  3.2163657e+10  3.9676221e-06  0.018935544  
    730000   0.146               1850   9.958541e-10   2.4602116e+10  3.9676221e-06  0.020102102  
    740000   0.148               1850   1.0928212e-09  2.2439949e+10  3.9676221e-06  0.021469209  
    750000   0.15                1850   1.1802766e-09  2.3874307e+10  3.9676221e-06  0.022894475  
    760000   0.152               1850   1.2421768e-09  2.4692956e+10  3.9676221e-06  0.024439039  
    770000   0.154               1850   1.3619126e-09  2.6925523e+10  3.9676221e-06  0.026106983  
    780000   0.156               1850   1.5526302e-09  3.0707066e+10  3.9676221e-06  0.027848733  
    790000   0.158               1850   7.2981903e-10  1.6153254e+10  3.9676221e-06  0.012252106  
    800000   0.16                1850   9.6878322e-11  3.2178607e+09  3.9676221e-06  0.0049446585 
    810000   0.162               1850   1.9596477e-11  6.2305528e+08  3.9676221e-06  0.0018199792 
    820000   0.164               1850   3.96099e-11    1.0909044e+09  3.9676221e-06  0.0045661497 
    830000   0.166               1850   6.9561334e-11  1.6449045e+09  3.9676221e-06  0.0045781596 
    840000   0.168               1850   2.9741672e-11  5.9859258e+08  3.9676221e-06  0.0037757274 
    850000   0.17                1850   3.9234522e-12  1.030356e+08   3.9676221e-06  0.0014838654 
    860000   0.172               1850   3.8188439e-11  8.5665733e+08  3.9676221e-06  0.0037828393 
    870000   0.174               1850   2.8861336e-12  87829431       3.9676221e-06  0.0012167047 
    880000   0.176               1850   1.0963091e-12  43678054       3.9676221e-06  0.000581747  
    890000   0.178               1850   3.4096641e-13  20767156       3.9676221e-06  0.0002028123 
    900000   0.18                1850   3.3466075e-14  14527654       3.9676221e-06  3.059872e-05 
    910000   0.182               1850   8.2867141e-15  13845756       3.9676221e-06  1.4673989e-05
    920000   0.184               1850   4.0182142e-15  13691834       3.9676221e-06  1.7022467e-05
    930000   0.186               1850   1.4281212e-15  13635106       3.9676221e-06  8.0362163e-06
    940000   0.188               1850   6.7855965e-16  13613623       3.9676221e-06  3.853864e-06 
    950000   0.19                1850   2.8760116e-16  13605144       3.9676221e-06  2.614076e-06 
    960000   0.192               1850   1.1633117e-16  13601648       3.9676221e-06  1.8102103e-06
    970000   0.194               1850   4.1498629e-17  13599939       3.9676221e-06  1.1758186e-06
    980000   0.196               1850   1.1796563e-17  13599227       3.9676221e-06  7.1732744e-07
    990000   0.198               1850   4.182027e-18   13599028       3.9676221e-06  7.0745312e-07
   1000000   0.2                 1850   3.2329098e-18  13598985       3.9676221e-06  6.9703565e-07
   1010000   0.202               1850   2.8564231e-18  13598962       3.9676221e-06  6.8654885e-07
   1020000   0.204               1850   1.9531604e-18  13598931       3.9676221e-06  6.7635924e-07
   1030000   0.206               1850   1.2653592e-18  13598908       3.9676221e-06  6.6624915e-07
   1040000   0.208               1850   9.0706915e-19  13598893       3.9676221e-06  6.5628017e-07
   1050000   0.21                1850   7.6591971e-19  13598884       3.9676221e-06  6.4646268e-07
   1060000   0.212               1850   7.5506443e-19  13598879       3.9676221e-06  6.3678657e-07
   1070000   0.214               1850   7.567902e-19   13598875       3.9676221e-06  6.2727174e-07
   1080000   0.216               1850   7.263056e-19   13598869       3.9676221e-06  6.1789312e-07
   1090000   0.218               1850   6.7451541e-19  13598863       3.9676221e-06  6.0865897e-07
   1100000   0.22                1850   6.2841968e-19  13598858       3.9676221e-06  5.9956566e-07
   1110000   0.222               1850   5.9974242e-19  13598853       3.9676221e-06  5.9060568e-07
   1120000   0.224               1850   5.833056e-19   13598849       3.9676221e-06  5.8177624e-07
   1130000   0.226               1850   5.6945986e-19  13598844       3.9676221e-06  5.730827e-07 
   1140000   0.228               1850   5.5299617e-19  13598840       3.9676221e-06  5.6451411e-07
   1150000   0.23                1850   5.3450196e-19  13598836       3.9676221e-06  5.5607644e-07
   1160000   0.232               1850   5.1633733e-19  13598832       3.9676221e-06  5.4776535e-07
   1170000   0.234               1850   4.9992905e-19  13598828       3.9676221e-06  5.3957716e-07
   1180000   0.236               1850   4.8506355e-19  13598824       3.9676221e-06  5.3151419e-07
   1190000   0.238               1850   4.7095491e-19  13598821       3.9676221e-06  5.2357008e-07
   1200000   0.24                1850   4.5707526e-19  13598817       3.9676221e-06  5.1574424e-07
   1210000   0.242               1850   4.4335841e-19  13598814       3.9676221e-06  5.080375e-07 
   1220000   0.244               1850   4.2999296e-19  13598810       3.9676221e-06  5.0044437e-07
   1230000   0.246               1850   4.171084e-19   13598807       3.9676221e-06  4.9296455e-07
   1240000   0.248               1850   4.0470696e-19  13598804       3.9676221e-06  4.8559688e-07
   1250000   0.25                1850   3.9271472e-19  13598801       3.9676221e-06  4.7833996e-07
   1260000   0.252               1850   3.8106693e-19  13598798       3.9676221e-06  4.7119047e-07
   1270000   0.254               1850   3.6974542e-19  13598795       3.9676221e-06  4.6414803e-07
   1280000   0.256               1850   3.5875232e-19  13598792       3.9676221e-06  4.5721124e-07
   1290000   0.258               1850   3.4808966e-19  13598790       3.9676221e-06  4.5037686e-07
   1300000   0.26                1850   3.3775362e-19  13598787       3.9676221e-06  4.4364549e-07
   1310000   0.262               1850   3.2772948e-19  13598785       3.9676221e-06  4.3701489e-07
   1320000   0.264               1850   3.1800303e-19  13598782       3.9676221e-06  4.3048323e-07
   1330000   0.266               1850   3.0856366e-19  13598780       3.9676221e-06  4.2404906e-07
   1340000   0.268               1850   2.9940424e-19  13598777       3.9676221e-06  4.1771121e-07
   1350000   0.27                1850   2.9051705e-19  13598775       3.9676221e-06  4.1146802e-07
   1360000   0.272               1850   2.8189426e-19  13598773       3.9676221e-06  4.0531798e-07
   1370000   0.274               1850   2.7352818e-19  13598771       3.9676221e-06  3.9925999e-07
   1380000   0.276               1850   2.6541201e-19  13598769       3.9676221e-06  3.9329352e-07
   1390000   0.278               1850   2.5753578e-19  13598767       3.9676221e-06  3.8741544e-07
   1400000   0.28                1850   2.4989304e-19  13598765       3.9676221e-06  3.8162496e-07
   1410000   0.282               1850   2.4247828e-19  13598763       3.9676221e-06  3.7592183e-07
   1420000   0.284               1850   2.3528436e-19  13598761       3.9676221e-06  3.7030448e-07
   1430000   0.286               1850   2.2830244e-19  13598759       3.9676221e-06  3.647698e-07 
   1440000   0.288               1850   2.2152792e-19  13598758       3.9676221e-06  3.5931793e-07
   1450000   0.29                1850   2.1495406e-19  13598756       3.9676221e-06  3.5394718e-07
   1460000   0.292               1850   2.0857555e-19  13598754       3.9676221e-06  3.4865685e-07
   1470000   0.294               1850   2.0238656e-19  13598753       3.9676221e-06  3.4344575e-07
   1480000   0.296               1850   1.9638116e-19  13598751       3.9676221e-06  3.3831243e-07
   1490000   0.298               1850   1.9055397e-19  13598750       3.9676221e-06  3.3325579e-07
   1500000   0.3                 1850   1.8489948e-19  13598748       3.9676221e-06  3.2827451e-07
   1510000   0.302               1850   1.794135e-19   13598747       3.9676221e-06  3.2336829e-07
   1520000   0.304               1850   1.7408933e-19  13598746       3.9676221e-06  3.1853448e-07
   1530000   0.306               1850   1.6892393e-19  13598744       3.9676221e-06  3.1377361e-07
   1540000   0.308               1850   1.6391202e-19  13598743       3.9676221e-06  3.090841e-07 
   1550000   0.31                1850   1.5904874e-19  13598742       3.9676221e-06  3.0446457e-07
   1560000   0.312               1850   1.5432949e-19  13598741       3.9676221e-06  2.9991381e-07
   1570000   0.314               1850   1.4975039e-19  13598740       3.9676221e-06  2.9543116e-07
   1580000   0.316               1850   1.4530728e-19  13598738       3.9676221e-06  2.9101562e-07
   1590000   0.318               1850   1.4099562e-19  13598737       3.9676221e-06  2.8666567e-07
   1600000   0.32                1850   1.3681213e-19  13598736       3.9676221e-06  2.8238097e-07
   1610000   0.322               1850   1.3275339e-19  13598735       3.9676221e-06  2.7816095e-07
   1620000   0.324               1850   1.2881477e-19  13598734       3.9676221e-06  2.7400367e-07
   1630000   0.326               1850   1.249932e-19   13598733       3.9676221e-06  2.6990872e-07
   1640000   0.328               1850   1.2128549e-19  13598732       3.9676221e-06  2.658755e-07 
   1650000   0.33                1850   1.1768712e-19  13598731       3.9676221e-06  2.6190182e-07
   1660000   0.332               1850   1.1419554e-19  13598731       3.9676221e-06  2.5798756e-07
   1670000   0.334               1850   1.1080751e-19  13598730       3.9676221e-06  2.5413175e-07
   1680000   0.336               1850   1.0752002e-19  13598729       3.9676221e-06  2.5033358e-07
   1690000   0.338               1850   1.0433036e-19  13598728       3.9676221e-06  2.4659252e-07
   1700000   0.34                1850   1.0123499e-19  13598727       3.9676221e-06  2.4290697e-07
   1710000   0.342               1850   9.8231257e-20  13598727       3.9676221e-06  2.3927624e-07
   1720000   0.344               1850   9.5316892e-20  13598726       3.9676221e-06  2.3570009e-07
   1730000   0.346               1850   9.2488904e-20  13598725       3.9676221e-06  2.3217727e-07
   1740000   0.348               1850   8.9745024e-20  13598724       3.9676221e-06  2.2870736e-07
   1750000   0.35                1850   8.7082391e-20  13598724       3.9676221e-06  2.252891e-07 
   1760000   0.352               1850   8.4498788e-20  13598723       3.9676221e-06  2.2192198e-07
   1770000   0.354               1850   8.1991842e-20  13598722       3.9676221e-06  2.1860518e-07
   1780000   0.356               1850   7.9559174e-20  13598722       3.9676221e-06  2.1533781e-07
   1790000   0.358               1850   7.7198766e-20  13598721       3.9676221e-06  2.121194e-07 
   1800000   0.36                1850   7.4908394e-20  13598721       3.9676221e-06  2.0894909e-07
   1810000   0.362               1850   7.2685936e-20  13598720       3.9676221e-06  2.0582611e-07
   1820000   0.364               1850   7.0529403e-20  13598720       3.9676221e-06  2.0274978e-07
   1830000   0.366               1850   6.843679e-20   13598719       3.9676221e-06  1.9971935e-07
   1840000   0.368               1850   6.640644e-20   13598719       3.9676221e-06  1.9673446e-07
   1850000   0.37                1850   6.4436197e-20  13598718       3.9676221e-06  1.93794e-07  
   1860000   0.372               1850   6.2524394e-20  13598718       3.9676221e-06  1.9089746e-07
   1870000   0.374               1850   6.0669193e-20  13598717       3.9676221e-06  1.8804402e-07
   1880000   0.376               1850   5.8869366e-20  13598717       3.9676221e-06  1.8523375e-07
   1890000   0.378               1850   5.7122688e-20  13598716       3.9676221e-06  1.8246508e-07
   1900000   0.38                1850   5.5427897e-20  13598716       3.9676221e-06  1.797379e-07 
   1910000   0.382               1850   5.3783356e-20  13598715       3.9676221e-06  1.7705142e-07
   1920000   0.384               1850   5.218764e-20   13598715       3.9676221e-06  1.7440515e-07
   1930000   0.386               1850   5.0639283e-20  13598715       3.9676221e-06  1.7179846e-07
   1940000   0.388               1850   4.9136897e-20  13598714       3.9676221e-06  1.6923078e-07
   1950000   0.39                1850   4.7679034e-20  13598714       3.9676221e-06  1.667014e-07 
   1960000   0.392               1850   4.6264363e-20  13598713       3.9676221e-06  1.642097e-07 
   1970000   0.394               1850   4.4891793e-20  13598713       3.9676221e-06  1.6175548e-07
   1980000   0.396               1850   4.3559888e-20  13598713       3.9676221e-06  1.5933783e-07
   1990000   0.398               1850   4.2267483e-20  13598712       3.9676221e-06  1.5695629e-07
   2000000   0.4                 1850   4.101343e-20   13598712       3.9676221e-06  1.5461036e-07
   2010000   0.402               1850   3.9796647e-20  13598712       3.9676221e-06  1.5229961e-07
   2020000   0.404               1850   3.861587e-20   13598712       3.9676221e-06  1.5002321e-07
   2030000   0.406               1850   3.7470267e-20  13598711       3.9676221e-06  1.4778111e-07
   2040000   0.408               1850   3.6358631e-20  13598711       3.9676221e-06  1.4557249e-07
   2050000   0.41                1850   3.5279952e-20  13598711       3.9676221e-06  1.4339682e-07
   2060000   0.412               1850   3.4233402e-20  13598710       3.9676221e-06  1.4125394e-07
   2070000   0.414               1850   3.3217768e-20  13598710       3.9676221e-06  1.3914281e-07
   2080000   0.416               1850   3.2232206e-20  13598710       3.9676221e-06  1.370631e-07 
   2090000   0.418               1850   3.1276006e-20  13598710       3.9676221e-06  1.3501474e-07
   2100000   0.42                1850   3.0348189e-20  13598709       3.9676221e-06  1.3299702e-07
   2110000   0.422               1850   2.9447707e-20  13598709       3.9676221e-06  1.3100904e-07
   2120000   0.424               1850   2.8574043e-20  13598709       3.9676221e-06  1.29051e-07  
   2130000   0.426               1850   2.7726247e-20  13598709       3.9676221e-06  1.271221e-07 
   2140000   0.428               1850   2.6903631e-20  13598709       3.9676221e-06  1.2522209e-07
   2150000   0.43                1850   2.6105384e-20  13598708       3.9676221e-06  1.233504e-07 
   2160000   0.432               1850   2.5331036e-20  13598708       3.9676221e-06  1.215072e-07 
   2170000   0.434               1850   2.457931e-20   13598708       3.9676221e-06  1.1969069e-07
   2180000   0.436               1850   2.3850261e-20  13598708       3.9676221e-06  1.1790224e-07
   2190000   0.438               1850   2.3142669e-20  13598708       3.9676221e-06  1.1614011e-07
   2200000   0.44                1850   2.2456077e-20  13598707       3.9676221e-06  1.1440432e-07
   2210000   0.442               1850   2.1789889e-20  13598707       3.9676221e-06  1.1269458e-07
   2220000   0.444               1850   2.1143405e-20  13598707       3.9676221e-06  1.1101022e-07
   2230000   0.446               1850   2.0516158e-20  13598707       3.9676221e-06  1.0935119e-07
   2240000   0.448               1850   1.9907514e-20  13598707       3.9676221e-06  1.0771694e-07
   2250000   0.45                1850   1.9316891e-20  13598707       3.9676221e-06  1.0610702e-07
   2260000   0.452               1850   1.8743778e-20  13598707       3.9676221e-06  1.0452112e-07
   2270000   0.454               1850   1.8187693e-20  13598706       3.9676221e-06  1.0295899e-07
   2280000   0.456               1850   1.7648126e-20  13598706       3.9676221e-06  1.0142026e-07
   2290000   0.458               1850   1.7124551e-20  13598706       3.9676221e-06  9.9904491e-08
   2300000   0.46                1850   1.6616521e-20  13598706       3.9676221e-06  9.8411408e-08
   2310000   0.462               1850   1.6123505e-20  13598706       3.9676221e-06  9.6940472e-08
   2320000   0.464               1850   1.5645194e-20  13598706       3.9676221e-06  9.5491756e-08
   2330000   0.466               1850   1.518105e-20   13598706       3.9676221e-06  9.4064619e-08
   2340000   0.468               1850   1.4730691e-20  13598705       3.9676221e-06  9.2658862e-08
   2350000   0.47                1850   1.4293666e-20  13598705       3.9676221e-06  9.127402e-08 
   2360000   0.472               1850   1.3869593e-20  13598705       3.9676221e-06  8.9909838e-08
   2370000   0.474               1850   1.3458095e-20  13598705       3.9676221e-06  8.8566022e-08
   2380000   0.476               1850   1.3058839e-20  13598705       3.9676221e-06  8.7242405e-08
   2390000   0.478               1850   1.2671395e-20  13598705       3.9676221e-06  8.5938455e-08
   2400000   0.48                1850   1.2295462e-20  13598705       3.9676221e-06  8.4654053e-08
   2410000   0.482               1850   1.1930651e-20  13598705       3.9676221e-06  8.3388737e-08
   2420000   0.484               1850   1.1576692e-20  13598705       3.9676221e-06  8.214243e-08 
   2430000   0.486               1850   1.1233243e-20  13598705       3.9676221e-06  8.0914785e-08
   2440000   0.488               1850   1.0899972e-20  13598705       3.9676221e-06  7.9705447e-08
   2450000   0.49                1850   1.0576579e-20  13598704       3.9676221e-06  7.8514138e-08
   2460000   0.492               1850   1.0262772e-20  13598704       3.9676221e-06  7.7340606e-08
   2470000   0.494               1850   9.958293e-21   13598704       3.9676221e-06  7.6184684e-08
   2480000   0.496               1850   9.6628374e-21  13598704       3.9676221e-06  7.5045999e-08
   2490000   0.498               1850   9.3761342e-21  13598704       3.9676221e-06  7.3924279e-08
   2500000   0.5                 1850   9.0979281e-21  13598704       3.9676221e-06  7.2819285e-08
   2510000   0.502               1850   8.8280077e-21  13598704       3.9676221e-06  7.173094e-08 
   2520000   0.504               1850   8.5661351e-21  13598704       3.9676221e-06  7.0659018e-08
   2530000   0.506               1850   8.3119951e-21  13598704       3.9676221e-06  6.9602971e-08
   2540000   0.508               1850   8.0653995e-21  13598704       3.9676221e-06  6.856273e-08 
   2550000   0.51                1850   7.8261201e-21  13598704       3.9676221e-06  6.7538033e-08
   2560000   0.512               1850   7.593917e-21   13598704       3.9676221e-06  6.652855e-08 
   2570000   0.514               1850   7.3686152e-21  13598704       3.9676221e-06  6.5534203e-08
   2580000   0.516               1850   7.14997e-21    13598704       3.9676221e-06  6.4554595e-08
   2590000   0.518               1850   6.9378507e-21  13598704       3.9676221e-06  6.3589808e-08
   2600000   0.52                1850   6.7320185e-21  13598703       3.9676221e-06  6.2639414e-08
   2610000   0.522               1850   6.5322775e-21  13598703       3.9676221e-06  6.1703152e-08
   2620000   0.524               1850   6.3384775e-21  13598703       3.9676221e-06  6.078095e-08 
   2630000   0.526               1850   6.1504476e-21  13598703       3.9676221e-06  5.9872635e-08
   2640000   0.528               1850   5.967945e-21   13598703       3.9676221e-06  5.8977639e-08
   2650000   0.53                1850   5.7908727e-21  13598703       3.9676221e-06  5.8096098e-08
   2660000   0.532               1850   5.6190705e-21  13598703       3.9676221e-06  5.7227814e-08
   2670000   0.534               1850   5.4523433e-21  13598703       3.9676221e-06  5.6372383e-08
   2680000   0.536               1850   5.2905777e-21  13598703       3.9676221e-06  5.5529822e-08
   2690000   0.538               1850   5.1336277e-21  13598703       3.9676221e-06  5.4699942e-08
   2700000   0.54                1850   4.9813187e-21  13598703       3.9676221e-06  5.3882399e-08
   2710000   0.542               1850   4.8335194e-21  13598703       3.9676221e-06  5.3077014e-08
   2720000   0.544               1850   4.6901163e-21  13598703       3.9676221e-06  5.2283723e-08
   2730000   0.546               1850   4.5509803e-21  13598703       3.9676221e-06  5.1502359e-08
   2740000   0.548               1850   4.4159649e-21  13598703       3.9676221e-06  5.0732631e-08
   2750000   0.55                1850   4.284959e-21   13598703       3.9676221e-06  4.9974437e-08
   2760000   0.552               1850   4.1578359e-21  13598703       3.9676221e-06  4.9227546e-08
   2770000   0.554               1850   4.0344768e-21  13598703       3.9676221e-06  4.8491768e-08
   2780000   0.556               1850   3.9147739e-21  13598703       3.9676221e-06  4.7766963e-08
   2790000   0.558               1850   3.7986354e-21  13598703       3.9676221e-06  4.7053072e-08
   2800000   0.56                1850   3.6859402e-21  13598703       3.9676221e-06  4.6349846e-08
   2810000   0.562               1850   3.5765838e-21  13598703       3.9676221e-06  4.5657102e-08
   2820000   0.564               1850   3.4704957e-21  13598703       3.9676221e-06  4.4974851e-08
   2830000   0.566               1850   3.3675499e-21  13598703       3.9676221e-06  4.4302787e-08
   2840000   0.568               1850   3.2676156e-21  13598703       3.9676221e-06  4.3640489e-08
   2850000   0.57                1850   3.1706797e-21  13598703       3.9676221e-06  4.2988301e-08
   2860000   0.572               1850   3.0766197e-21  13598703       3.9676221e-06  4.2345859e-08
   2870000   0.574               1850   2.9853445e-21  13598703       3.9676221e-06  4.171299e-08 
   2880000   0.576               1850   2.896768e-21   13598703       3.9676221e-06  4.1089506e-08
   2890000   0.578               1850   2.8108158e-21  13598702       3.9676221e-06  4.0475311e-08
   2900000   0.58                1850   2.7274521e-21  13598702       3.9676221e-06  3.9870583e-08
   2910000   0.582               1850   2.6465317e-21  13598702       3.9676221e-06  3.9274669e-08
   2920000   0.584               1850   2.5680111e-21  13598702       3.9676221e-06  3.8687653e-08
   2930000   0.586               1850   2.4918121e-21  13598702       3.9676221e-06  3.8109361e-08
   2940000   0.588               1850   2.4178804e-21  13598702       3.9676221e-06  3.7539742e-08
   2950000   0.59                1850   2.3461274e-21  13598702       3.9676221e-06  3.6978522e-08
   2960000   0.592               1850   2.2765413e-21  13598702       3.9676221e-06  3.6426004e-08
   2970000   0.594               1850   2.2089979e-21  13598702       3.9676221e-06  3.5881554e-08
   2980000   0.596               1850   2.1434743e-21  13598702       3.9676221e-06  3.5345378e-08
   2990000   0.598               1850   2.0798805e-21  13598702       3.9676221e-06  3.481709e-08 
   3000000   0.6                 1850   2.0181647e-21  13598702       3.9676221e-06  3.4296636e-08
   3010000   0.602               1850   1.9582723e-21  13598702       3.9676221e-06  3.3783894e-08
   3020000   0.604               1850   1.9001889e-21  13598702       3.9676221e-06  3.3279085e-08
   3030000   0.606               1850   1.8438175e-21  13598702       3.9676221e-06  3.2781736e-08
   3040000   0.608               1850   1.7891074e-21  13598702       3.9676221e-06  3.2291721e-08
   3050000   0.61                1850   1.7360267e-21  13598702       3.9676221e-06  3.1809086e-08
   3060000   0.612               1850   1.6845136e-21  13598702       3.9676221e-06  3.133358e-08 
   3070000   0.614               1850   1.6345378e-21  13598702       3.9676221e-06  3.0865262e-08
   3080000   0.616               1850   1.5860548e-21  13598702       3.9676221e-06  3.0404061e-08
   3090000   0.618               1850   1.5389949e-21  13598702       3.9676221e-06  2.9949601e-08
   3100000   0.62                1850   1.4933349e-21  13598702       3.9676221e-06  2.9501966e-08
   3110000   0.622               1850   1.4490275e-21  13598702       3.9676221e-06  2.9060993e-08
   3120000   0.624               1850   1.4060458e-21  13598702       3.9676221e-06  2.8626726e-08
   3130000   0.626               1850   1.3643254e-21  13598702       3.9676221e-06  2.8198835e-08
   3140000   0.628               1850   1.3238463e-21  13598702       3.9676221e-06  2.7777339e-08
   3150000   0.63                1850   1.2845742e-21  13598702       3.9676221e-06  2.7362238e-08
   3160000   0.632               1850   1.2464578e-21  13598702       3.9676221e-06  2.6953229e-08
   3170000   0.634               1850   1.2094592e-21  13598702       3.9676221e-06  2.655018e-08 
   3180000   0.636               1850   1.1735915e-21  13598702       3.9676221e-06  2.6153531e-08
   3190000   0.638               1850   1.1387679e-21  13598702       3.9676221e-06  2.5762585e-08
   3200000   0.64                1850   1.1049837e-21  13598702       3.9676221e-06  2.5377557e-08
   3210000   0.642               1850   1.072193e-21   13598702       3.9676221e-06  2.4998172e-08
   3220000   0.644               1850   1.0403898e-21  13598702       3.9676221e-06  2.4624622e-08
   3230000   0.646               1850   1.009516e-21   13598702       3.9676221e-06  2.4256482e-08
   3240000   0.648               1850   9.7957269e-22  13598702       3.9676221e-06  2.3894029e-08
   3250000   0.65                1850   9.5052173e-22  13598702       3.9676221e-06  2.3537051e-08
   3260000   0.652               1850   9.2231681e-22  13598702       3.9676221e-06  2.3185182e-08
   3270000   0.654               1850   8.9496267e-22  13598702       3.9676221e-06  2.2838767e-08
   3280000   0.656               1850   8.6840255e-22  13598702       3.9676221e-06  2.2497325e-08
   3290000   0.658               1850   8.4260964e-22  13598702       3.9676221e-06  2.2160702e-08
   3300000   0.66                1850   8.1761979e-22  13598702       3.9676221e-06  2.1829602e-08
   3310000   0.662               1850   7.9335942e-22  13598702       3.9676221e-06  2.1503305e-08
   3320000   0.664               1850   7.6983168e-22  13598702       3.9676221e-06  2.1182049e-08
   3330000   0.666               1850   7.4698435e-22  13598702       3.9676221e-06  2.0865347e-08
   3340000   0.668               1850   7.2481129e-22  13598702       3.9676221e-06  2.0553338e-08
   3350000   0.67                1850   7.0329917e-22  13598702       3.9676221e-06  2.0246025e-08
   3360000   0.672               1850   6.8242855e-22  13598702       3.9676221e-06  1.9943347e-08
   3370000   0.674               1850   6.6218507e-22  13598702       3.9676221e-06  1.9645296e-08
   3380000   0.676               1850   6.4254042e-22  13598702       3.9676221e-06  1.9351694e-08
   3390000   0.678               1850   6.2347631e-22  13598702       3.9676221e-06  1.9062436e-08
   3400000   0.68                1850   6.0498781e-22  13598702       3.9676221e-06  1.877765e-08 
   3410000   0.682               1850   5.8704566e-22  13598702       3.9676221e-06  1.8497086e-08
   3420000   0.684               1850   5.6963106e-22  13598702       3.9676221e-06  1.8220671e-08
   3430000   0.686               1850   5.5272727e-22  13598702       3.9676221e-06  1.7948282e-08
   3440000   0.688               1850   5.3633311e-22  13598702       3.9676221e-06  1.7680073e-08
   3450000   0.69                1850   5.2042026e-22  13598702       3.9676221e-06  1.7415805e-08
   3460000   0.692               1850   5.0497617e-22  13598702       3.9676221e-06  1.7155424e-08
   3470000   0.694               1850   4.8999768e-22  13598702       3.9676221e-06  1.6899029e-08
   3480000   0.696               1850   4.7545886e-22  13598702       3.9676221e-06  1.6646427e-08
   3490000   0.698               1850   4.6135347e-22  13598702       3.9676221e-06  1.6397646e-08
   3500000   0.7                 1850   4.4768266e-22  13598702       3.9676221e-06  1.6152874e-08
   3510000   0.702               1850   4.3440365e-22  13598702       3.9676221e-06  1.5911457e-08
   3520000   0.704               1850   4.2151721e-22  13598702       3.9676221e-06  1.567365e-08 
   3530000   0.706               1850   4.0901446e-22  13598702       3.9676221e-06  1.5439408e-08
   3540000   0.708               1850   3.9687631e-22  13598702       3.9676221e-06  1.5208597e-08
   3550000   0.71                1850   3.8509636e-22  13598702       3.9676221e-06  1.4981173e-08
   3560000   0.712               1850   3.7366419e-22  13598702       3.9676221e-06  1.47572e-08  
   3570000   0.714               1850   3.6258242e-22  13598702       3.9676221e-06  1.4536708e-08
   3580000   0.716               1850   3.5183111e-22  13598702       3.9676221e-06  1.4319529e-08
   3590000   0.718               1850   3.4139156e-22  13598702       3.9676221e-06  1.4105458e-08
   3600000   0.72                1850   3.312737e-22   13598702       3.9676221e-06  1.3894874e-08
   3610000   0.722               1850   3.2143354e-22  13598702       3.9676221e-06  1.3686934e-08
   3620000   0.724               1850   3.1190161e-22  13598702       3.9676221e-06  1.3482488e-08
   3630000   0.726               1850   3.0265297e-22  13598702       3.9676221e-06  1.3281057e-08
   3640000   0.728               1850   2.9367466e-22  13598702       3.9676221e-06  1.3082548e-08
   3650000   0.73                1850   2.8496335e-22  13598702       3.9676221e-06  1.2886984e-08
   3660000   0.732               1850   2.7649656e-22  13598702       3.9676221e-06  1.2694097e-08
   3670000   0.734               1850   2.6830374e-22  13598702       3.9676221e-06  1.2504616e-08
   3680000   0.736               1850   2.6034512e-22  13598702       3.9676221e-06  1.2317742e-08
   3690000   0.738               1850   2.5262535e-22  13598702       3.9676221e-06  1.2133704e-08
   3700000   0.74                1850   2.45127e-22    13598702       3.9676221e-06  1.195226e-08 
   3710000   0.742               1850   2.3785387e-22  13598702       3.9676221e-06  1.1773598e-08
   3720000   0.744               1850   2.307955e-22   13598702       3.9676221e-06  1.1597594e-08
   3730000   0.746               1850   2.2395036e-22  13598702       3.9676221e-06  1.1424286e-08
   3740000   0.748               1850   2.1730561e-22  13598702       3.9676221e-06  1.1253507e-08
   3750000   0.75                1850   2.1086015e-22  13598702       3.9676221e-06  1.1085352e-08
   3760000   0.752               1850   2.0460601e-22  13598702       3.9676221e-06  1.091971e-08 
   3770000   0.754               1850   1.9853566e-22  13598702       3.9676221e-06  1.0756495e-08
   3780000   0.756               1850   1.9264555e-22  13598702       3.9676221e-06  1.059573e-08 
   3790000   0.758               1850   1.8692896e-22  13598702       3.9676221e-06  1.0437345e-08
   3800000   0.76                1850   1.8138478e-22  13598702       3.9676221e-06  1.0281389e-08
   3810000   0.762               1850   1.7600518e-22  13598702       3.9676221e-06  1.0127707e-08
   3820000   0.764               1850   1.7078584e-22  13598702       3.9676221e-06  9.9763284e-09
   3830000   0.766               1850   1.6571999e-22  13598702       3.9676221e-06  9.8272326e-09
   3840000   0.768               1850   1.6080464e-22  13598702       3.9676221e-06  9.6803951e-09
   3850000   0.77                1850   1.5603257e-22  13598702       3.9676221e-06  9.5356941e-09
   3860000   0.772               1850   1.5140283e-22  13598702       3.9676221e-06  9.393138e-09 
   3870000   0.774               1850   1.4691002e-22  13598702       3.9676221e-06  9.2527109e-09
   3880000   0.776               1850   1.4255215e-22  13598702       3.9676221e-06  9.1144729e-09
   3890000   0.778               1850   1.3832308e-22  13598702       3.9676221e-06  8.9782622e-09
   3900000   0.78                1850   1.3422032e-22  13598702       3.9676221e-06  8.8440582e-09
   3910000   0.782               1850   1.3024318e-22  13598702       3.9676221e-06  8.7118754e-09
   3920000   0.784               1850   1.2637792e-22  13598702       3.9676221e-06  8.5816662e-09
   3930000   0.786               1850   1.2262625e-22  13598702       3.9676221e-06  8.4533811e-09
   3940000   0.788               1850   1.1899089e-22  13598702       3.9676221e-06  8.3270694e-09
   3950000   0.79                1850   1.1546417e-22  13598702       3.9676221e-06  8.2026135e-09
   3960000   0.792               1850   1.120391e-22   13598702       3.9676221e-06  8.0799972e-09
   3970000   0.794               1850   1.0871356e-22  13598702       3.9676221e-06  7.9591873e-09
   3980000   0.796               1850   1.0549015e-22  13598702       3.9676221e-06  7.8402904e-09
   3990000   0.798               1850   1.023599e-22   13598702       3.9676221e-06  7.7230734e-09
   4000000   0.8                 1850   9.9321083e-23  13598702       3.9676221e-06  7.6075587e-09
Loop time of 998.85 on 1 procs for 4000000 steps with 1850 atoms

100.0% CPU use with 1 MPI tasks x 1 OpenMP threads

MPI task timing breakdown:
Section |  min time  |  avg time  |  max time  |%varavg| %total
---------------------------------------------------------------
Pair    | 757.54     | 757.54     | 757.54     |   0.0 | 75.84
Neigh   | 0.034246   | 0.034246   | 0.034246   |   0.0 |  0.00
Comm    | 0.087467   | 0.087467   | 0.087467   |   0.0 |  0.01
Output  | 0.30627    | 0.30627    | 0.30627    |   0.0 |  0.03
Modify  | 230.68     | 230.68     | 230.68     |   0.0 | 23.09
Other   |            | 10.21      |            |       |  1.02

Nlocal:           1850 ave        1850 max        1850 min
Histogram: 1 0 0 0 0 0 0 0 0 0
Nghost:              0 ave           0 max           0 min
Histogram: 1 0 0 0 0 0 0 0 0 0
Neighs:           7003 ave        7003 max        7003 min
Histogram: 1 0 0 0 0 0 0 0 0 0

Total # of neighbors = 7003
Ave neighs/atom = 3.7854054
Neighbor list builds = 57
Dangerous builds = 0
Generated 0 of 0 mixed pair_coeff terms from geometric mixing rule
Setting up Verlet run ...
  Unit style    : si
  Current step  : 4000000
  Time step     : 2e-07
Per MPI rank memory allocation (min/avg/max) = 13 | 13 | 13 Mbytes
   Step          Time         Atoms        KinEng     c_granularTemp c_solidVolume    c_maxSpeed  
   4000000   0.8                 1850   9.9321083e-23  13598702       3.9676221e-06  7.6075587e-09
Loop time of 2.94e-07 on 1 procs for 0 steps with 1850 atoms

0.0% CPU use with 1 MPI tasks x 1 OpenMP threads

MPI task timing breakdown:
Section |  min time  |  avg time  |  max time  |%varavg| %total
---------------------------------------------------------------
Pair    | 0          | 0          | 0          |   0.0 |  0.00
Neigh   | 0          | 0          | 0          |   0.0 |  0.00
Comm    | 0          | 0          | 0          |   0.0 |  0.00
Output  | 0          | 0          | 0          |   0.0 |  0.00
Modify  | 0          | 0          | 0          |   0.0 |  0.00
Other   |            | 2.94e-07   |            |       |100.00

Nlocal:           1850 ave        1850 max        1850 min
Histogram: 1 0 0 0 0 0 0 0 0 0
Nghost:              0 ave           0 max           0 min
Histogram: 1 0 0 0 0 0 0 0 0 0
Neighs:           7003 ave        7003 max        7003 min
Histogram: 1 0 0 0 0 0 0 0 0 0

Total # of neighbors = 7003
Ave neighs/atom = 3.7854054
Neighbor list builds = 0
Dangerous builds = 0
Generated 0 of 0 mixed pair_coeff terms from geometric mixing rule
Neighbor list info ...
  update: every = 1 steps, delay = 0 steps, check = yes
  max neighbors/atom: 2000, page size: 100000
  master list distance cutoff = 0.00185
  ghost atom cutoff = 0.00185
  binsize = 0.000925, bins = 18 18 76
  3 neighbor lists, perpetual/occasional/extra = 1 2 0
  (1) pair granular, perpetual
      attributes: half, newton off, size, history
      pair build: half/size/bin/atomonly/newtoff
      stencil: full/bin/3d
      bin: standard
  (2) compute property/local, occasional
      attributes: half, newton off, size
      pair build: half/size/bin/atomonly/newtoff
      stencil: full/bin/3d
      bin: standard
  (3) compute pair/local, occasional
      attributes: half, newton off, size
      pair build: half/size/bin/atomonly/newtoff
      stencil: full/bin/3d
      bin: standard
Setting up Verlet run ...
  Unit style    : si
  Current step  : 4000000
  Time step     : 2e-07
Per MPI rank memory allocation (min/avg/max) = 14.26 | 14.26 | 14.26 Mbytes
   Step          Time         Atoms        KinEng     c_granularTemp c_solidVolume    c_maxSpeed  
   4000000   0.8                 1850   9.9321083e-23  13598702       3.9676221e-06  7.6075587e-09
   4000001   0.8000002           1850   9.9320784e-23  13598702       3.9676221e-06  7.6075473e-09
Loop time of 0.00634822 on 1 procs for 1 steps with 1850 atoms

100.0% CPU use with 1 MPI tasks x 1 OpenMP threads

MPI task timing breakdown:
Section |  min time  |  avg time  |  max time  |%varavg| %total
---------------------------------------------------------------
Pair    | 0.0002045  | 0.0002045  | 0.0002045  |   0.0 |  3.22
Neigh   | 0          | 0          | 0          |   0.0 |  0.00
Comm    | 7.3e-08    | 7.3e-08    | 7.3e-08    |   0.0 |  0.00
Output  | 0.0060791  | 0.0060791  | 0.0060791  |   0.0 | 95.76
Modify  | 6.035e-05  | 6.035e-05  | 6.035e-05  |   0.0 |  0.95
Other   |            | 4.202e-06  |            |       |  0.07

Nlocal:           1850 ave        1850 max        1850 min
Histogram: 1 0 0 0 0 0 0 0 0 0
Nghost:              0 ave           0 max           0 min
Histogram: 1 0 0 0 0 0 0 0 0 0
Neighs:           7003 ave        7003 max        7003 min
Histogram: 1 0 0 0 0 0 0 0 0 0

Total # of neighbors = 7003
Ave neighs/atom = 3.7854054
Neighbor list builds = 0
Dangerous builds = 0
System init for write_data ...
Generated 0 of 0 mixed pair_coeff terms from geometric mixing rule
System init for write_restart ...
Generated 0 of 0 mixed pair_coeff terms from geometric mixing rule
seed Ntarget Nfinal dp_m density_kgm3 Dtube_m D_over_dp solidVolume_m3 bedHeight_m bedVolume_m3 packingFraction porosity minParticleBottom_m kineticEnergy_J maxSpeed_ms
105019 1850 1850 0.0016 1600 0.016 10 3.96762208197362e-06 0.0366122110928898 7.36132181767048e-06 0.538982288812526 0.461017711187474 -1.22712876602228e-06 9.93207837149195e-23 7.60754728498386e-09
Packing generation completed: co2_13x_seed_105019
ACCEPT only if Nfinal=Ntarget, the bed is settled, and overlap/geometry checks pass.
For the 20-packing pilot, change only seed_realization.
CO2 diffusion and particle LDF adsorption are added later in the pore-network solver, not here.
Total wall time: 0:22:07
