Authorization required, but no authorization protocol specified

Authorization required, but no authorization protocol specified

Authorization required, but no authorization protocol specified

Authorization required, but no authorization protocol specified

LAMMPS (22 Jul 2025 - Update 5)
OMP_NUM_THREADS environment is not set. Defaulting to 1 thread.
  using 1 OpenMP thread(s) per MPI task
OMP_NUM_THREADS environment is not set. Defaulting to 1 thread.
  using 1 OpenMP thread(s) per MPI task
CO2 sorbent = commercial zeolite 13X (mechanical packing only)
Realization seed = 52691
Target particle count = 1850
Bead diameter [m] = 0.0016
Tube diameter [m] = 0.016
Tube-to-particle diameter ratio = 10
Target solid volume [m^3] = 3.96762208197367e-06
Created orthogonal box = (-0.008 -0.008 0) to (0.008 0.008 0.07)
  1 by 1 by 1 MPI processor grid
Generated 0 of 0 mixed pair_coeff terms from geometric mixing rule
Particle insertion: 303 every 319275 steps, 1850 by step 1915651
Neighbor list info ...
  update: every = 1 steps, delay = 0 steps, check = yes
  max neighbors/atom: 2000, page size: 100000
  master list distance cutoff = 0.00185
  ghost atom cutoff = 0.00185
  binsize = 0.000925, bins = 18 18 76
  1 neighbor lists, perpetual/occasional/extra = 1 0 0
  (1) pair granular, perpetual
      attributes: half, newton off, size, history
      pair build: half/size/bin/atomonly/newtoff
      stencil: full/bin/3d
      bin: standard
Setting up Verlet run ...
  Unit style    : si
  Current step  : 0
  Time step     : 2e-07
Per MPI rank memory allocation (min/avg/max) = 7.438 | 7.438 | 7.438 Mbytes
   Step          Time         Atoms        KinEng     c_granularTemp c_solidVolume    c_maxSpeed  
         0   0                      0  -0              0              0             -1e+20        
WARNING: Fewer insertions than requested (src/GRANULAR/fix_pour.cpp:691)
     10000   0.002                242  -0              5.348252e+15   5.1900786e-07  0.60979821   
     20000   0.004                242  -0              5.2544802e+15  5.1900786e-07  0.59433163   
     30000   0.006                242  -0              5.1723199e+15  5.1900786e-07  0.57974073   
     40000   0.008                242  -0              5.1004201e+15  5.1900786e-07  0.56597595   
     50000   0.01                 242  -0              5.0375828e+15  5.1900786e-07  0.55299051   
     60000   0.012                242  -0              4.9827457e+15  5.1900786e-07  0.54074029   
     70000   0.014                242  -0              4.9349669e+15  5.1900786e-07  0.52918365   
     80000   0.016                242  -0              4.8934119e+15  5.1900786e-07  0.51828133   
     90000   0.018                242  -0              4.857341e+15   5.1900786e-07  0.50799629   
    100000   0.02                 242  -0              4.8260994e+15  5.1900786e-07  0.49829357   
    110000   0.022                242  -0              4.7991068e+15  5.1900786e-07  0.4891402    
    120000   0.024                242  -0              4.7758498e+15  5.1900786e-07  0.48050508   
    130000   0.026                242  -0              4.755874e+15   5.1900786e-07  0.47235887   
    140000   0.028                242  -0              4.7387775e+15  5.1900786e-07  0.46467388   
    150000   0.03                 242  -0              4.724205e+15   5.1900786e-07  0.457424     
    160000   0.032                242  -0              4.7118422e+15  5.1900786e-07  0.45058461   
    170000   0.034                242  -0              4.7014118e+15  5.1900786e-07  0.44413244   
    180000   0.036                242  -0              4.6926687e+15  5.1900786e-07  0.43804559   
    190000   0.038                242  -0              4.6853967e+15  5.1900786e-07  0.43230337   
    200000   0.04                 242  -0              4.6794051e+15  5.1900786e-07  0.42688626   
    210000   0.042                242  -0              4.6745258e+15  5.1900786e-07  0.42177586   
    220000   0.044                242  -0              4.6706109e+15  5.1900786e-07  0.41695481   
    230000   0.046                242  -0              4.6675299e+15  5.1900786e-07  0.41240671   
    240000   0.048                242  -0              4.6651684e+15  5.1900786e-07  0.40811612   
    250000   0.05                 242  -0              4.6634255e+15  5.1900786e-07  0.40406846   
    260000   0.052                242  -0              4.662213e+15   5.1900786e-07  0.40024997   
    270000   0.054                242  -0              4.6614532e+15  5.1900786e-07  0.39664767   
    280000   0.056                242  -0              4.6610784e+15  5.1900786e-07  0.39324934   
    290000   0.058                242  -0              4.661029e+15   5.1900786e-07  0.39004341   
    300000   0.06                 242  -0              4.6612532e+15  5.1900786e-07  0.38701899   
    310000   0.062                242  -0              4.6617056e+15  5.1900786e-07  0.38416582   
WARNING: Fewer insertions than requested (src/GRANULAR/fix_pour.cpp:691)
    320000   0.064                461  -0              5.0077136e+15  9.8868853e-07  0.62496455   
    330000   0.066                461  -0              4.924917e+15   9.8868853e-07  0.59124696   
    340000   0.068                461  -0              4.86514e+15    9.8868853e-07  0.57683072   
    350000   0.07                 461  -0              4.8180812e+15  9.8868853e-07  0.5632307    
    360000   0.072                461  -0              4.7762262e+15  9.8868853e-07  0.53950348   
    370000   0.074                461  -0              4.7467835e+15  9.8868853e-07  0.52799318   
    380000   0.076                461  -0              4.7209146e+15  9.8868853e-07  0.49431863   
    390000   0.078                461  -0              4.7030345e+15  9.8868853e-07  0.48539032   
    400000   0.08                 461  -0              4.6863319e+15  9.8868853e-07  0.47696751   
    410000   0.082                461  -0              4.6735146e+15  9.8868853e-07  0.44848079   
    420000   0.084                461  -0              4.641133e+15   9.8868853e-07  0.44214623   
    430000   0.086                461  -0              4.6204052e+15  9.8868853e-07  0.43617046   
    440000   0.088                461  -0              4.552959e+15   9.8868853e-07  0.43053314   
    450000   0.09                 461  -0              4.5233478e+15  9.8868853e-07  0.4252151    
    460000   0.092                461  -0              4.5082633e+15  9.8868853e-07  0.42019827   
    470000   0.094                461  -0              4.4502056e+15  9.8868853e-07  0.41546558   
    480000   0.096                461  -0              4.4119844e+15  9.8868853e-07  0.41100093   
    490000   0.098                461  -0              4.3858085e+15  9.8868853e-07  0.40678914   
    500000   0.1                  461  -0              4.3560064e+15  9.8868853e-07  0.40281589   
    510000   0.102                461  -0              4.2984853e+15  9.8868853e-07  0.39906766   
    520000   0.104                461  -0              4.2768515e+15  9.8868853e-07  0.39553172   
    530000   0.106                461  -0              4.245722e+15   9.8868853e-07  0.39219603   
    540000   0.108                461  -0              4.2152263e+15  9.8868853e-07  0.38904925   
    550000   0.11                 461  -0              4.1840947e+15  9.8868853e-07  0.38608068   
    560000   0.112                461  -0              4.1529968e+15  9.8868853e-07  0.38328024   
    570000   0.114                461  -0              4.1107111e+15  9.8868853e-07  0.38063839   
    580000   0.116                461  -0              4.0734083e+15  9.8868853e-07  0.37814615   
    590000   0.118                461  -0              4.0429346e+15  9.8868853e-07  0.37579505   
    600000   0.12                 461  -0              4.0147506e+15  9.8868853e-07  0.37357709   
    610000   0.122                461  -0              3.9828442e+15  9.8868853e-07  0.37148474   
    620000   0.124                461  -0              3.9253008e+15  9.8868853e-07  0.36951087   
    630000   0.126                461  -0              3.9066005e+15  9.8868853e-07  0.36764879   
WARNING: Fewer insertions than requested (src/GRANULAR/fix_pour.cpp:691)
    640000   0.128                673  -0              4.3082703e+15  1.4433566e-06  0.62049477   
    650000   0.13                 673  -0              4.2590021e+15  1.4433566e-06  0.59923599   
    660000   0.132                673  -0              4.2045786e+15  1.4433566e-06  0.58436742   
    670000   0.134                673  -0              4.1560873e+15  1.4433566e-06  0.57034069   
    680000   0.136                673  -0              4.1160621e+15  1.4433566e-06  0.55710812   
    690000   0.138                673  -0              4.091789e+15   1.4433566e-06  0.54462477   
    700000   0.14                 673  -0              4.0544464e+15  1.4433566e-06  0.52943545   
    710000   0.142                673  -0              4.0214564e+15  1.4433566e-06  0.51851888   
    720000   0.144                673  -0              3.9809745e+15  1.4433566e-06  0.48855325   
    730000   0.146                673  -0              3.9493171e+15  1.4433566e-06  0.47995136   
    740000   0.148                673  -0              3.9079773e+15  1.4433566e-06  0.4718365    
    750000   0.15                 673  -0              3.8416203e+15  1.4433566e-06  0.46418109   
    760000   0.152                673  -0              3.7848445e+15  1.4433566e-06  0.45695911   
    770000   0.154                673  -0              3.7037545e+15  1.4433566e-06  0.44941833   
    780000   0.156                673  -0              3.6032611e+15  1.4433566e-06  0.4430322    
    790000   0.158                673  -0              3.5219916e+15  1.4433566e-06  0.42749584   
    800000   0.16                 673  -0              3.4081411e+15  1.4433566e-06  0.42234829   
    810000   0.162                673  -0              3.3056012e+15  1.4433566e-06  0.41749242   
    820000   0.164                673  -0              3.2061616e+15  1.4433566e-06  0.4129117    
    830000   0.166                673  -0              3.1220929e+15  1.4433566e-06  0.40859054   
    840000   0.168                673  -0              3.0495566e+15  1.4433566e-06  0.40451421   
    850000   0.17                 673  -0              2.9553822e+15  1.4433566e-06  0.39690088   
    860000   0.172                673  -0              2.8511082e+15  1.4433566e-06  0.39348133   
    870000   0.174                673  -0              2.7641281e+15  1.4433566e-06  0.39025605   
    880000   0.176                673  -0              2.7056586e+15  1.4433566e-06  0.38721397   
    890000   0.178                673  -0              2.62743e+15    1.4433566e-06  0.38434468   
    900000   0.18                 673  -0              2.5665313e+15  1.4433566e-06  0.38163833   
    910000   0.182                673  -0              2.497618e+15   1.4433566e-06  0.37908565   
    920000   0.184                673  -0              2.4581525e+15  1.4433566e-06  0.37667792   
    930000   0.186                673  -0              2.4259476e+15  1.4433566e-06  0.37440687   
    940000   0.188                673  -0              2.3991147e+15  1.4433566e-06  0.37226475   
    950000   0.19                 673  -0              2.3731976e+15  1.4433566e-06  0.37024421   
WARNING: Fewer insertions than requested (src/GRANULAR/fix_pour.cpp:691)
    960000   0.192                885  -0              3.1754082e+15  1.8980246e-06  0.61982979   
    970000   0.194                885  -0              3.1119768e+15  1.8980246e-06  0.60379523   
    980000   0.196                885  -0              3.0573808e+15  1.8980246e-06  0.58866852   
    990000   0.198                885  -0              3.0028376e+15  1.8980246e-06  0.57325965   
   1000000   0.2                  885  -0              2.9444687e+15  1.8980246e-06  0.55986182   
   1010000   0.202                885  -0              2.8681214e+15  1.8980246e-06  0.54722255   
   1020000   0.204                885  -0              2.8070001e+15  1.8980246e-06  0.5352989    
   1030000   0.206                885  -0              2.7459851e+15  1.8980246e-06  0.52405035   
   1040000   0.208                885  -0              2.6911077e+15  1.8980246e-06  0.51343867   
   1050000   0.21                 885  -0              2.6566634e+15  1.8980246e-06  0.50342781   
   1060000   0.212                885  -0              2.5972704e+15  1.8980246e-06  0.49398375   
   1070000   0.214                885  -0              2.5471798e+15  1.8980246e-06  0.48507439   
   1080000   0.216                885  -0              2.4797392e+15  1.8980246e-06  0.47666947   
   1090000   0.218                885  -0              2.4250907e+15  1.8980246e-06  0.46874043   
   1100000   0.22                 885  -0              2.3870147e+15  1.8980246e-06  0.46126031   
   1110000   0.222                885  -0              2.3262577e+15  1.8980246e-06  0.45420371   
   1120000   0.224                885  -0              2.2680643e+15  1.8980246e-06  0.44754664   
   1130000   0.226                885  -0              2.1916466e+15  1.8980246e-06  0.44126648   
   1140000   0.228                885  -0              2.1482607e+15  1.8980246e-06  0.43534189   
   1150000   0.23                 885  -0              2.0951882e+15  1.8980246e-06  0.42975275   
   1160000   0.232                885  -0              2.0417242e+15  1.8980246e-06  0.42448006   
   1170000   0.234                885  -0              1.992269e+15   1.8980246e-06  0.41950589   
   1180000   0.236                885  -0              1.9433646e+15  1.8980246e-06  0.41481336   
   1190000   0.238                885  -0              1.9029004e+15  1.8980246e-06  0.41038651   
   1200000   0.24                 885  -0              1.8682839e+15  1.8980246e-06  0.4062103    
   1210000   0.242                885  -0              1.839821e+15   1.8980246e-06  0.40227054   
   1220000   0.244                885  -0              1.7945068e+15  1.8980246e-06  0.39749123   
   1230000   0.246                885  -0              1.7564378e+15  1.8980246e-06  0.38876278   
   1240000   0.248                885  -0              1.7276029e+15  1.8980246e-06  0.38580423   
   1250000   0.25                 885  -0              1.6979708e+15  1.8980246e-06  0.38301383   
   1260000   0.252                885  -0              1.6703092e+15  1.8980246e-06  0.38038201   
   1270000   0.254                885  -0              1.6314242e+15  1.8980246e-06  0.36881339   
WARNING: Fewer insertions than requested (src/GRANULAR/fix_pour.cpp:691)
   1280000   0.256               1090  -0              2.3072848e+15  2.33768e-06    0.61303719   
   1290000   0.258               1090  -0              2.2604304e+15  2.33768e-06    0.59738722   
   1300000   0.26                1090  -0              2.1860244e+15  2.33768e-06    0.58262332   
   1310000   0.262               1090  -0              2.1183085e+15  2.33768e-06    0.56869534   
   1320000   0.264               1090  -0              2.0541202e+15  2.33768e-06    0.55555593   
   1330000   0.266               1090  -0              1.9931486e+15  2.33768e-06    0.54316045   
   1340000   0.268               1090  -0              1.9355736e+15  2.33768e-06    0.53146679   
   1350000   0.27                1090  -0              1.8840326e+15  2.33768e-06    0.52043521   
   1360000   0.272               1090  -0              1.8430254e+15  2.33768e-06    0.51002821   
   1370000   0.274               1090  -0              1.7955785e+15  2.33768e-06    0.50021045   
   1380000   0.276               1090  -0              1.7482064e+15  2.33768e-06    0.49094855   
   1390000   0.278               1090  -0              1.6937388e+15  2.33768e-06    0.48221104   
   1400000   0.28                1090  -0              1.6312042e+15  2.33768e-06    0.47396824   
   1410000   0.282               1090  -0              1.5799097e+15  2.33768e-06    0.46619213   
   1420000   0.284               1090  -0              1.5375188e+15  2.33768e-06    0.4588563    
   1430000   0.286               1090  -0              1.4919711e+15  2.33768e-06    0.4519358    
   1440000   0.288               1090  -0              1.4313489e+15  2.33768e-06    0.44540714   
   1450000   0.29                1090  -0              1.4042253e+15  2.33768e-06    0.43924812   
   1460000   0.292               1090  -0              1.3801309e+15  2.33768e-06    0.43343781   
   1470000   0.294               1090  -0              1.3611452e+15  2.33768e-06    0.42795647   
   1480000   0.296               1090  -0              1.3358015e+15  2.33768e-06    0.42278548   
   1490000   0.298               1090  -0              1.3153802e+15  2.33768e-06    0.41790726   
   1500000   0.3                 1090  -0              1.287002e+15   2.33768e-06    0.41330524   
   1510000   0.302               1090  -0              1.26828e+15    2.33768e-06    0.40481532   
   1520000   0.304               1090  -0              1.2421218e+15  2.33768e-06    0.3985354    
   1530000   0.306               1090  -0              1.2106781e+15  2.33768e-06    0.38849142   
   1540000   0.308               1090  -0              1.1823608e+15  2.33768e-06    0.38555488   
   1550000   0.31                1090  -0              1.1475717e+15  2.33768e-06    0.38278459   
   1560000   0.312               1090  -0              1.1275139e+15  2.33768e-06    0.3720205    
   1570000   0.314               1090  -0              1.0897326e+15  2.33768e-06    0.36589704   
   1580000   0.316               1090  -0              1.0656694e+15  2.33768e-06    0.36423855   
   1590000   0.318               1090  -0              1.0407636e+15  2.33768e-06    0.36267408   
WARNING: Fewer insertions than requested (src/GRANULAR/fix_pour.cpp:691)
   1600000   0.32                1325  -0              1.7720707e+15  2.8416753e-06  0.61815681   
   1610000   0.322               1325  -0              1.7214108e+15  2.8416753e-06  0.60221697   
   1620000   0.324               1325  -0              1.6729501e+15  2.8416753e-06  0.58717962   
   1630000   0.326               1325  -0              1.6338015e+15  2.8416753e-06  0.57170186   
   1640000   0.328               1325  -0              1.5804558e+15  2.8416753e-06  0.55839223   
   1650000   0.33                1325  -0              1.528841e+15   2.8416753e-06  0.54583617   
   1660000   0.332               1325  -0              1.4552744e+15  2.8416753e-06  0.53205414   
   1670000   0.334               1325  -0              1.4060494e+15  2.8416753e-06  0.5209893    
   1680000   0.336               1325  -0              1.3524805e+15  2.8416753e-06  0.51055094   
   1690000   0.338               1325  -0              1.317587e+15   2.8416753e-06  0.50070358   
   1700000   0.34                1325  -0              1.2867178e+15  2.8416753e-06  0.49141376   
   1710000   0.342               1325  -0              1.2493402e+15  2.8416753e-06  0.48264991   
   1720000   0.344               1325  -0              1.2308533e+15  2.8416753e-06  0.47438226   
   1730000   0.346               1325  -0              1.2188066e+15  2.8416753e-06  0.46658271   
   1740000   0.348               1325  -0              1.2021475e+15  2.8416753e-06  0.45922476   
   1750000   0.35                1325  -0              1.1815008e+15  2.8416753e-06  0.45198412   
   1760000   0.352               1325  -0              1.1638591e+15  2.8416753e-06  0.43076803   
   1770000   0.354               1325  -0              1.1403112e+15  2.8416753e-06  0.42543336   
   1780000   0.356               1325  -0              1.1351692e+15  2.8416753e-06  0.42040112   
   1790000   0.358               1325  -0              1.1114093e+15  2.8416753e-06  0.41565417   
   1800000   0.36                1325  -0              1.0918815e+15  2.8416753e-06  0.41117632   
   1810000   0.362               1325  -0              1.0608566e+15  2.8416753e-06  0.40695231   
   1820000   0.364               1325  -0              1.0361661e+15  2.8416753e-06  0.40211427   
   1830000   0.366               1325  -0              1.0037102e+15  2.8416753e-06  0.37774721   
   1840000   0.368               1325  -0              9.7841697e+14  2.8416753e-06  0.37392555   
   1850000   0.37                1325  -0              9.5027208e+14  2.8416753e-06  0.36393012   
   1860000   0.372               1325  -0              9.0756838e+14  2.8416753e-06  0.36140858   
   1870000   0.374               1325  -0              8.7052541e+14  2.8416753e-06  0.35882167   
   1880000   0.376               1325  -0              8.2748088e+14  2.8416753e-06  0.35756498   
   1890000   0.378               1325  -0              7.9687206e+14  2.8416753e-06  0.35637944   
   1900000   0.38                1325  -0              7.6172954e+14  2.8416753e-06  0.35357169   
   1910000   0.382               1325  -0              7.2427776e+14  2.8416753e-06  0.35261225   
WARNING: Fewer insertions than requested (src/GRANULAR/fix_pour.cpp:691)
   1920000   0.384               1500  -0              1.2241288e+15  3.2169909e-06  0.61892383   
   1930000   0.386               1500  -0              1.1753034e+15  3.2169909e-06  0.60294056   
   1940000   0.388               1500  -0              1.1183593e+15  3.2169909e-06  0.58786224   
   1950000   0.39                1500  -0              1.0770731e+15  3.2169909e-06  0.57363764   
   1960000   0.392               1500  -0              1.0401584e+15  3.2169909e-06  0.5602184    
   1970000   0.394               1500  -0              1.0167675e+15  3.2169909e-06  0.54472958   
   1980000   0.396               1500  -0              9.9629276e+14  3.2169909e-06  0.52699515   
   1990000   0.398               1500  -0              9.6544413e+14  3.2169909e-06  0.51005415   
   2000000   0.4                 1500  -0              9.4125819e+14  3.2169909e-06  0.50023491   
   2010000   0.402               1500  -0              9.1078656e+14  3.2169909e-06  0.49097163   
   2020000   0.404               1500  -0              8.9241252e+14  3.2169909e-06  0.48223281   
   2030000   0.406               1500  -0              8.8104646e+14  3.2169909e-06  0.47398878   
   2040000   0.408               1500  -0              8.6926928e+14  3.2169909e-06  0.46621151   
   2050000   0.41                1500  -0              8.4923548e+14  3.2169909e-06  0.45887458   
   2060000   0.412               1500  -0              8.1428998e+14  3.2169909e-06  0.45195305   
   2070000   0.414               1500  -0              7.792706e+14   3.2169909e-06  0.43139342   
   2080000   0.416               1500  -0              7.5607653e+14  3.2169909e-06  0.41969273   
   2090000   0.418               1500  -0              7.180003e+14   3.2169909e-06  0.41498961   
   2100000   0.42                1500  -0              6.8029165e+14  3.2169909e-06  0.41055278   
   2110000   0.422               1500  -0              6.3810802e+14  3.2169909e-06  0.39782114   
   2120000   0.424               1500  -0              6.0542484e+14  3.2169909e-06  0.37436121   
   2130000   0.426               1500  -0              5.7941651e+14  3.2169909e-06  0.36663373   
   2140000   0.428               1500  -0              5.6076968e+14  3.2169909e-06  0.36422612   
   2150000   0.43                1500  -0              5.403784e+14   3.2169909e-06  0.35880996   
   2160000   0.432               1500  -0              5.2584989e+14  3.2169909e-06  0.35754548   
   2170000   0.434               1500  -0              4.9879583e+14  3.2169909e-06  0.35635347   
   2180000   0.436               1500  -0              4.7582343e+14  3.2169909e-06  0.35104929   
   2190000   0.438               1500  -0              4.4791459e+14  3.2169909e-06  0.34924391   
   2200000   0.44                1500  -0              4.102937e+14   3.2169909e-06  0.3485295    
   2210000   0.442               1500  -0              3.8927694e+14  3.2169909e-06  0.34785554   
   2220000   0.444               1500  -0              3.5446553e+14  3.2169909e-06  0.3470514    
   2230000   0.446               1500  -0              3.2873912e+14  3.2169909e-06  0.34341481   
WARNING: Fewer insertions than requested (src/GRANULAR/fix_pour.cpp:691)
   2240000   0.448               1728  -0              1.0385651e+15  3.7059735e-06  0.61725715   
   2250000   0.45                1728  -0              1.0028311e+15  3.7059735e-06  0.60136825   
   2260000   0.452               1728  -0              9.7300752e+14  3.7059735e-06  0.58561306   
   2270000   0.454               1728  -0              9.4796831e+14  3.7059735e-06  0.5715158    
   2280000   0.456               1728  -0              9.2896613e+14  3.7059735e-06  0.5582167    
   2290000   0.458               1728  -0              9.1059501e+14  3.7059735e-06  0.53889192   
   2300000   0.46                1728  -0              8.9936711e+14  3.7059735e-06  0.52743994   
   2310000   0.462               1728  -0              8.9148128e+14  3.7059735e-06  0.51663635   
   2320000   0.464               1728  -0              8.7371317e+14  3.7059735e-06  0.50644444   
   2330000   0.466               1728  -0              8.4740806e+14  3.7059735e-06  0.49682958   
   2340000   0.468               1728  -0              7.9742326e+14  3.7059735e-06  0.47249684   
   2350000   0.47                1728  -0              7.478377e+14   3.7059735e-06  0.44752579   
   2360000   0.472               1728  -0              7.1279536e+14  3.7059735e-06  0.42402814   
   2370000   0.474               1728  -0              6.7332043e+14  3.7059735e-06  0.41905639   
   2380000   0.476               1728  -0              6.5495783e+14  3.7059735e-06  0.4143682    
   2390000   0.478               1728  -0              6.3796054e+14  3.7059735e-06  0.38615627   
   2400000   0.48                1728  -0              6.1046608e+14  3.7059735e-06  0.38318139   
   2410000   0.482               1728  -0              5.8985592e+14  3.7059735e-06  0.37928359   
   2420000   0.484               1728  -0              5.6153461e+14  3.7059735e-06  0.37685369   
   2430000   0.486               1728  -0              5.2574362e+14  3.7059735e-06  0.3687915    
   2440000   0.488               1728  -0              4.9278191e+14  3.7059735e-06  0.36697034   
   2450000   0.49                1728  -0              4.6615399e+14  3.7059735e-06  0.36525229   
   2460000   0.492               1728  -0              4.1861372e+14  3.7059735e-06  0.358143     
   2470000   0.494               1728  -0              3.9175956e+14  3.7059735e-06  0.35510536   
   2480000   0.496               1728  -0              3.7307855e+14  3.7059735e-06  0.35405909   
   2490000   0.498               1728  -0              3.5060188e+14  3.7059735e-06  0.3503233    
   2500000   0.5                 1728  -0              3.2475426e+14  3.7059735e-06  0.34954778   
   2510000   0.502               1728  -0              3.0499577e+14  3.7059735e-06  0.34881616   
   2520000   0.504               1728  -0              2.8728388e+14  3.7059735e-06  0.34076152   
   2530000   0.506               1728  -0              2.7997768e+14  3.7059735e-06  0.3376217    
   2540000   0.508               1728  -0              2.7430128e+14  3.7059735e-06  0.33572369   
   2550000   0.51                1728  -0              2.7144476e+14  3.7059735e-06  0.33577478   
   2560000   0.512               1850  -0              5.7386127e+14  3.9676221e-06  0.61434353   
   2570000   0.514               1850  -0              5.5644784e+14  3.9676221e-06  0.59861959   
   2580000   0.516               1850  -0              5.4190066e+14  3.9676221e-06  0.58378592   
   2590000   0.518               1850  -0              5.2287709e+14  3.9676221e-06  0.52681437   
   2600000   0.52                1850  -0              5.1063632e+14  3.9676221e-06  0.5160462    
   2610000   0.522               1850  -0              4.8454065e+14  3.9676221e-06  0.50588771   
   2620000   0.524               1850  -0              4.5813191e+14  3.9676221e-06  0.49630437   
   2630000   0.526               1850  -0              4.3961437e+14  3.9676221e-06  0.46559814   
   2640000   0.528               1850  -0              4.2723172e+14  3.9676221e-06  0.45829594   
   2650000   0.53                1850  -0              4.1057798e+14  3.9676221e-06  0.45140717   
   2660000   0.532               1850  -0              3.8577687e+14  3.9676221e-06  0.42412782   
   2670000   0.534               1850  -0              3.5460903e+14  3.9676221e-06  0.40362922   
   2680000   0.536               1850  -0              3.2187721e+14  3.9676221e-06  0.39982417   
   2690000   0.538               1850  -0              2.9965273e+14  3.9676221e-06  0.39623563   
   2700000   0.54                1850  -0              2.8272795e+14  3.9676221e-06  0.37820313   
   2710000   0.542               1850  -0              2.603812e+14   3.9676221e-06  0.37584909   
   2720000   0.544               1850  -0              2.3074154e+14  3.9676221e-06  0.37362834   
   2730000   0.546               1850  -0              2.0409943e+14  3.9676221e-06  0.36531724   
   2740000   0.548               1850  -0              1.8764401e+14  3.9676221e-06  0.36248865   
   2750000   0.55                1850  -0              1.7283144e+14  3.9676221e-06  0.3504269    
   2760000   0.552               1850  -0              1.6246461e+14  3.9676221e-06  0.34964551   
   2770000   0.554               1850  -0              1.5964904e+14  3.9676221e-06  0.34640933   
   2780000   0.556               1850  -0              1.5739651e+14  3.9676221e-06  0.34585541   
   2790000   0.558               1850  -0              1.544208e+14   3.9676221e-06  0.34311377   
   2800000   0.56                1850  -0              1.4986022e+14  3.9676221e-06  0.33887613   
   2810000   0.562               1850  -0              1.4725295e+14  3.9676221e-06  0.33874873   
   2820000   0.564               1850  -0              1.4082534e+14  3.9676221e-06  0.33460781   
   2830000   0.566               1850  -0              1.3412279e+14  3.9676221e-06  0.33404218   
   2840000   0.568               1850  -0              1.3157975e+14  3.9676221e-06  0.32986788   
   2850000   0.57                1850  -0              1.2719186e+14  3.9676221e-06  0.32740422   
   2860000   0.572               1850  -0              1.282089e+14   3.9676221e-06  0.32792634   
   2870000   0.574               1850  -0              1.2146411e+14  3.9676221e-06  0.32535885   
   2880000   0.576               1850  -0              1.1507997e+14  3.9676221e-06  0.32443674   
   2890000   0.578               1850  -0              1.0782111e+14  3.9676221e-06  0.32115843   
   2900000   0.58                1850  -0              1.0475892e+14  3.9676221e-06  0.3190647    
   2910000   0.582               1850  -0              1.0079066e+14  3.9676221e-06  0.32005899   
   2920000   0.584               1850  -0              9.9834949e+13  3.9676221e-06  0.32099698   
   2930000   0.586               1850  -0              9.5522316e+13  3.9676221e-06  0.32102402   
   2940000   0.588               1850  -0              8.7945395e+13  3.9676221e-06  0.31899434   
   2950000   0.59                1850  -0              8.2875818e+13  3.9676221e-06  0.31999261   
   2960000   0.592               1850  -0              7.7560881e+13  3.9676221e-06  0.31957796   
   2970000   0.594               1850  -0              6.6682981e+13  3.9676221e-06  0.31943426   
   2980000   0.596               1850  -0              6.1009453e+13  3.9676221e-06  0.31912012   
   2990000   0.598               1850  -0              5.2419107e+13  3.9676221e-06  0.3177376    
   3000000   0.6                 1850  -0              4.4898627e+13  3.9676221e-06  0.31880703   
Loop time of 353.793 on 1 procs for 3000000 steps with 1850 atoms

100.0% CPU use with 1 MPI tasks x 1 OpenMP threads

MPI task timing breakdown:
Section |  min time  |  avg time  |  max time  |%varavg| %total
---------------------------------------------------------------
Pair    | 254.26     | 254.26     | 254.26     |   0.0 | 71.87
Neigh   | 0.59059    | 0.59059    | 0.59059    |   0.0 |  0.17
Comm    | 0.065154   | 0.065154   | 0.065154   |   0.0 |  0.02
Output  | 0.13573    | 0.13573    | 0.13573    |   0.0 |  0.04
Modify  | 94.446     | 94.446     | 94.446     |   0.0 | 26.70
Other   |            | 4.299      |            |       |  1.22

Nlocal:           1850 ave        1850 max        1850 min
Histogram: 1 0 0 0 0 0 0 0 0 0
Nghost:              0 ave           0 max           0 min
Histogram: 1 0 0 0 0 0 0 0 0 0
Neighs:           6959 ave        6959 max        6959 min
Histogram: 1 0 0 0 0 0 0 0 0 0

Total # of neighbors = 6959
Ave neighs/atom = 3.7616216
Neighbor list builds = 2120
Dangerous builds = 0
Generated 0 of 0 mixed pair_coeff terms from geometric mixing rule
Setting up Verlet run ...
  Unit style    : si
  Current step  : 0
  Time step     : 2e-07
Per MPI rank memory allocation (min/avg/max) = 14.72 | 14.72 | 14.72 Mbytes
   Step          Time         Atoms        KinEng     c_granularTemp c_solidVolume    c_maxSpeed  
         0   0                   1850   3.2624641e-06  4.4406993e+13  3.9676221e-06  0.31537147   
     10000   0.002               1850   1.7848285e-06  2.5138773e+13  3.9676221e-06  0.25087912   
     20000   0.004               1850   1.0283511e-06  1.4936148e+13  3.9676221e-06  0.20434644   
     30000   0.006               1850   5.3586639e-07  8.2958479e+12  3.9676221e-06  0.16960071   
     40000   0.008               1850   3.4631184e-07  5.589709e+12   3.9676221e-06  0.14320042   
     50000   0.01                1850   2.1968171e-07  3.8288457e+12  3.9676221e-06  0.12401898   
     60000   0.012               1850   1.3658888e-07  2.6244507e+12  3.9676221e-06  0.1093198    
     70000   0.014               1850   9.7635543e-08  1.9664683e+12  3.9676221e-06  0.098703461  
     80000   0.016               1850   9.0645678e-08  1.8200296e+12  3.9676221e-06  0.090770955  
     90000   0.018               1850   8.8109794e-08  1.7576136e+12  3.9676221e-06  0.084843807  
    100000   0.02                1850   6.0050925e-08  1.3610491e+12  3.9676221e-06  0.071454409  
    110000   0.022               1850   5.5446772e-08  1.2736835e+12  3.9676221e-06  0.071179362  
    120000   0.024               1850   3.9126378e-08  9.3276063e+11  3.9676221e-06  0.058226528  
    130000   0.026               1850   3.5238111e-08  8.2070241e+11  3.9676221e-06  0.052659754  
    140000   0.028               1850   2.9882609e-08  6.377673e+11   3.9676221e-06  0.050809716  
    150000   0.03                1850   2.9776253e-08  6.2843379e+11  3.9676221e-06  0.054971064  
    160000   0.032               1850   2.8703314e-08  6.0837906e+11  3.9676221e-06  0.058087477  
    170000   0.034               1850   3.1523367e-08  6.5051205e+11  3.9676221e-06  0.060419369  
    180000   0.036               1850   2.9695202e-08  6.4259627e+11  3.9676221e-06  0.047793351  
    190000   0.038               1850   2.3185931e-08  5.5423242e+11  3.9676221e-06  0.045608662  
    200000   0.04                1850   2.0682464e-08  5.0170399e+11  3.9676221e-06  0.045822858  
    210000   0.042               1850   1.4387526e-08  3.807506e+11   3.9676221e-06  0.047482601  
    220000   0.044               1850   1.1128918e-08  3.1288942e+11  3.9676221e-06  0.039730891  
    230000   0.046               1850   8.860015e-09   2.4931009e+11  3.9676221e-06  0.041990903  
    240000   0.048               1850   9.3339694e-09  2.5093531e+11  3.9676221e-06  0.044845758  
    250000   0.05                1850   9.2255073e-09  2.427725e+11   3.9676221e-06  0.047895784  
    260000   0.052               1850   8.1812931e-09  2.0257023e+11  3.9676221e-06  0.051603069  
    270000   0.054               1850   7.7755497e-09  1.8337699e+11  3.9676221e-06  0.054212964  
    280000   0.056               1850   8.2301508e-09  1.8805586e+11  3.9676221e-06  0.056530364  
    290000   0.058               1850   4.1954951e-09  1.1550534e+11  3.9676221e-06  0.029527845  
    300000   0.06                1850   3.0267539e-09  8.5526925e+10  3.9676221e-06  0.031995541  
    310000   0.062               1850   3.039468e-09   8.6723913e+10  3.9676221e-06  0.034164957  
    320000   0.064               1850   3.4083303e-09  9.7311607e+10  3.9676221e-06  0.036654938  
    330000   0.066               1850   3.8601166e-09  1.1059017e+11  3.9676221e-06  0.039080226  
    340000   0.068               1850   3.8630511e-09  1.0813005e+11  3.9676221e-06  0.042265464  
    350000   0.07                1850   9.9595967e-10  3.3068143e+10  3.9676221e-06  0.012945974  
    360000   0.072               1850   9.6108507e-10  2.7473082e+10  3.9676221e-06  0.013611391  
    370000   0.074               1850   9.7463315e-10  2.6625884e+10  3.9676221e-06  0.014426487  
    380000   0.076               1850   9.1211945e-10  2.6273264e+10  3.9676221e-06  0.015335926  
    390000   0.078               1850   1.0258119e-09  2.959066e+10   3.9676221e-06  0.016231901  
    400000   0.08                1850   1.120584e-09   3.2697281e+10  3.9676221e-06  0.017184185  
    410000   0.082               1850   1.2758472e-09  3.7231949e+10  3.9676221e-06  0.018165365  
    420000   0.084               1850   1.4664825e-09  4.2615811e+10  3.9676221e-06  0.01921112   
    430000   0.086               1850   1.6843402e-09  4.8798345e+10  3.9676221e-06  0.020291134  
    440000   0.088               1850   1.8352261e-09  5.3871857e+10  3.9676221e-06  0.021467633  
    450000   0.09                1850   9.894568e-10   2.4377635e+10  3.9676221e-06  0.016650976  
    460000   0.092               1850   7.327735e-10   1.6533563e+10  3.9676221e-06  0.01534134   
    470000   0.094               1850   6.6674213e-10  1.5726313e+10  3.9676221e-06  0.016555376  
    480000   0.096               1850   7.3862721e-10  1.7583496e+10  3.9676221e-06  0.017781633  
    490000   0.098               1850   8.6516706e-10  2.0557395e+10  3.9676221e-06  0.019110857  
    500000   0.1                 1850   1.0478435e-09  2.4693369e+10  3.9676221e-06  0.020520903  
    510000   0.102               1850   6.6573927e-10  1.9249483e+10  3.9676221e-06  0.013318041  
    520000   0.104               1850   6.0753667e-10  1.7519746e+10  3.9676221e-06  0.013878015  
    530000   0.106               1850   5.3213368e-10  1.5877645e+10  3.9676221e-06  0.01502321   
    540000   0.108               1850   5.3995026e-10  1.5418905e+10  3.9676221e-06  0.016255299  
    550000   0.11                1850   6.0244274e-10  1.6521195e+10  3.9676221e-06  0.01761343   
    560000   0.112               1850   6.7127142e-10  1.8069965e+10  3.9676221e-06  0.019049252  
    570000   0.114               1850   7.6567119e-10  2.0254715e+10  3.9676221e-06  0.02058843   
    580000   0.116               1850   8.7862254e-10  2.2964231e+10  3.9676221e-06  0.022241717  
    590000   0.118               1850   1.0158125e-09  2.6271261e+10  3.9676221e-06  0.024022186  
    600000   0.12                1850   1.1734272e-09  3.01706e+10    3.9676221e-06  0.025901797  
    610000   0.122               1850   1.3561695e-09  3.4703053e+10  3.9676221e-06  0.027900961  
    620000   0.124               1850   1.5642962e-09  3.9905984e+10  3.9676221e-06  0.030008001  
    630000   0.126               1850   6.8825968e-11  3.7386635e+09  3.9676221e-06  0.0037213491 
    640000   0.128               1850   2.8131613e-11  1.4057341e+09  3.9676221e-06  0.0034030647 
    650000   0.13                1850   3.3911531e-11  1.4884659e+09  3.9676221e-06  0.0034210603 
    660000   0.132               1850   8.850328e-11   2.8832071e+09  3.9676221e-06  0.0062127878 
    670000   0.134               1850   2.8067882e-11  1.421324e+09   3.9676221e-06  0.0038105108 
    680000   0.136               1850   2.6680138e-11  1.4921757e+09  3.9676221e-06  0.003922483  
    690000   0.138               1850   3.2074001e-11  1.6738554e+09  3.9676221e-06  0.004315821  
    700000   0.14                1850   3.5964249e-11  1.9065402e+09  3.9676221e-06  0.0045746307 
    710000   0.142               1850   4.2824685e-11  2.2008273e+09  3.9676221e-06  0.0049922152 
    720000   0.144               1850   4.9988731e-11  2.5621703e+09  3.9676221e-06  0.0053927561 
    730000   0.146               1850   5.9594178e-11  3.008476e+09   3.9676221e-06  0.0058870456 
    740000   0.148               1850   7.1102506e-11  3.5516216e+09  3.9676221e-06  0.0064294224 
    750000   0.15                1850   8.5099462e-11  4.2160604e+09  3.9676221e-06  0.0070330971 
    760000   0.152               1850   1.0245679e-10  5.0216549e+09  3.9676221e-06  0.0077166468 
    770000   0.154               1850   1.2258291e-10  5.993836e+09   3.9676221e-06  0.0084512785 
    780000   0.156               1850   1.4790629e-10  7.1753361e+09  3.9676221e-06  0.0092845514 
    790000   0.158               1850   1.7771771e-10  8.6060847e+09  3.9676221e-06  0.010176797  
    800000   0.16                1850   2.1472074e-10  1.0329983e+10  3.9676221e-06  0.011186902  
    810000   0.162               1850   2.5821159e-10  1.2405978e+10  3.9676221e-06  0.012267679  
    820000   0.164               1850   3.114825e-10   1.4898317e+10  3.9676221e-06  0.013473853  
    830000   0.166               1850   8.2959999e-12  3.7118483e+09  3.9676221e-06  0.00075256069
    840000   0.168               1850   6.5283948e-12  5.0869664e+08  3.9676221e-06  0.00085204915
    850000   0.17                1850   1.0877813e-12  2.2772845e+08  3.9676221e-06  0.00036833444
    860000   0.172               1850   4.3745729e-13  2.0845316e+08  3.9676221e-06  0.00021850181
    870000   0.174               1850   1.4837811e-13  2.0201749e+08  3.9676221e-06  0.00012229258
    880000   0.176               1850   4.3181518e-14  1.9911883e+08  3.9676221e-06  6.4028593e-05
    890000   0.178               1850   7.6138684e-15  1.9783095e+08  3.9676221e-06  1.6155141e-05
    900000   0.18                1850   7.1901658e-15  1.97823e+08    3.9676221e-06  2.0529183e-05
    910000   0.182               1850   1.0924972e-14  1.9800169e+08  3.9676221e-06  3.3833371e-05
    920000   0.184               1850   9.6990563e-15  1.9794206e+08  3.9676221e-06  3.2176062e-05
    930000   0.186               1850   4.3657148e-15  1.9775701e+08  3.9676221e-06  1.7657113e-05
    940000   0.188               1850   7.8508845e-16  1.9763674e+08  3.9676221e-06  7.3030475e-06
    950000   0.19                1850   3.7518148e-16  1.9762082e+08  3.9676221e-06  6.1795515e-06
    960000   0.192               1850   1.24918e-15    1.9765354e+08  3.9676221e-06  9.9582453e-06
    970000   0.194               1850   1.3523227e-15  1.9765431e+08  3.9676221e-06  1.036218e-05 
    980000   0.196               1850   6.4213881e-16  1.9762907e+08  3.9676221e-06  7.8413323e-06
    990000   0.198               1850   1.422295e-16   1.9761186e+08  3.9676221e-06  5.8205139e-06
   1000000   0.2                 1850   9.3520969e-17  1.9760951e+08  3.9676221e-06  5.7342671e-06
   1010000   0.202               1850   1.9637731e-16  1.9761316e+08  3.9676221e-06  5.6492239e-06
   1020000   0.204               1850   2.1999137e-16  1.9761356e+08  3.9676221e-06  5.5655573e-06
   1030000   0.206               1850   1.3444198e-16  1.9761e+08     3.9676221e-06  5.4830547e-06
   1040000   0.208               1850   6.2141385e-17  1.9760711e+08  3.9676221e-06  5.4018552e-06
   1050000   0.21                1850   5.2236205e-17  1.9760645e+08  3.9676221e-06  5.3218044e-06
   1060000   0.212               1850   6.5879499e-17  1.9760664e+08  3.9676221e-06  5.2429395e-06
   1070000   0.214               1850   6.8685271e-17  1.9760642e+08  3.9676221e-06  5.1652768e-06
   1080000   0.216               1850   5.6619455e-17  1.9760569e+08  3.9676221e-06  5.0887129e-06
   1090000   0.218               1850   4.5082331e-17  1.9760499e+08  3.9676221e-06  5.0133232e-06
   1100000   0.22                1850   4.2153524e-17  1.9760461e+08  3.9676221e-06  4.939028e-06 
   1110000   0.222               1850   4.3140199e-17  1.9760438e+08  3.9676221e-06  4.8658306e-06
   1120000   0.224               1850   4.2542666e-17  1.976041e+08   3.9676221e-06  4.7937399e-06
   1130000   0.226               1850   3.9969577e-17  1.9760375e+08  3.9676221e-06  4.7227024e-06
   1140000   0.228               1850   3.7460116e-17  1.9760341e+08  3.9676221e-06  4.6527251e-06
   1150000   0.23                1850   3.6068935e-17  1.9760313e+08  3.9676221e-06  4.5837795e-06
   1160000   0.232               1850   3.5302552e-17  1.9760287e+08  3.9676221e-06  4.5158516e-06
   1170000   0.234               1850   3.4386975e-17  1.9760261e+08  3.9676221e-06  4.4489392e-06
   1180000   0.236               1850   3.3207227e-17  1.9760235e+08  3.9676221e-06  4.3830128e-06
   1190000   0.238               1850   3.2042914e-17  1.9760209e+08  3.9676221e-06  4.3180687e-06
   1200000   0.24                1850   3.1051494e-17  1.9760185e+08  3.9676221e-06  4.2540821e-06
   1210000   0.242               1850   3.0176508e-17  1.9760162e+08  3.9676221e-06  4.1910432e-06
   1220000   0.244               1850   2.9309151e-17  1.9760139e+08  3.9676221e-06  4.1289422e-06
   1230000   0.246               1850   2.8425118e-17  1.9760117e+08  3.9676221e-06  4.0677575e-06
   1240000   0.248               1850   2.7562401e-17  1.9760096e+08  3.9676221e-06  4.0074818e-06
   1250000   0.25                1850   2.6744027e-17  1.9760075e+08  3.9676221e-06  3.9480991e-06
   1260000   0.252               1850   2.5962194e-17  1.9760055e+08  3.9676221e-06  3.8895949e-06
   1270000   0.254               1850   2.5201589e-17  1.9760036e+08  3.9676221e-06  3.8319599e-06
   1280000   0.256               1850   2.4457565e-17  1.9760017e+08  3.9676221e-06  3.7751753e-06
   1290000   0.258               1850   2.3734446e-17  1.9759999e+08  3.9676221e-06  3.7192364e-06
   1300000   0.26                1850   2.3035059e-17  1.9759981e+08  3.9676221e-06  3.664125e-06 
   1310000   0.262               1850   2.2358071e-17  1.9759964e+08  3.9676221e-06  3.6098298e-06
   1320000   0.264               1850   2.1700834e-17  1.9759947e+08  3.9676221e-06  3.5563379e-06
   1330000   0.266               1850   2.1062142e-17  1.9759931e+08  3.9676221e-06  3.5036392e-06
   1340000   0.268               1850   2.0442068e-17  1.9759915e+08  3.9676221e-06  3.4517235e-06
   1350000   0.27                1850   1.9840548e-17  1.97599e+08    3.9676221e-06  3.4005761e-06
   1360000   0.272               1850   1.9256974e-17  1.9759885e+08  3.9676221e-06  3.3501852e-06
   1370000   0.274               1850   1.8690582e-17  1.975987e+08   3.9676221e-06  3.3005429e-06
   1380000   0.276               1850   1.8140715e-17  1.9759856e+08  3.9676221e-06  3.2516338e-06
   1390000   0.278               1850   1.7607027e-17  1.9759843e+08  3.9676221e-06  3.2034527e-06
   1400000   0.28                1850   1.7089045e-17  1.975983e+08   3.9676221e-06  3.1559823e-06
   1410000   0.282               1850   1.6586363e-17  1.9759817e+08  3.9676221e-06  3.1092177e-06
   1420000   0.284               1850   1.6098453e-17  1.9759804e+08  3.9676221e-06  3.0631445e-06
   1430000   0.286               1850   1.5624897e-17  1.9759792e+08  3.9676221e-06  3.0177556e-06
   1440000   0.288               1850   1.5165238e-17  1.9759781e+08  3.9676221e-06  2.9730364e-06
   1450000   0.29                1850   1.4719142e-17  1.9759769e+08  3.9676221e-06  2.9289834e-06
   1460000   0.292               1850   1.4286137e-17  1.9759758e+08  3.9676221e-06  2.8855796e-06
   1470000   0.294               1850   1.3865911e-17  1.9759748e+08  3.9676221e-06  2.8428231e-06
   1480000   0.296               1850   1.3458e-17     1.9759737e+08  3.9676221e-06  2.8006956e-06
   1490000   0.298               1850   1.3062128e-17  1.9759727e+08  3.9676221e-06  2.7591965e-06
   1500000   0.3                 1850   1.2677888e-17  1.9759717e+08  3.9676221e-06  2.7183109e-06
   1510000   0.302               1850   1.2304936e-17  1.9759708e+08  3.9676221e-06  2.6780294e-06
   1520000   0.304               1850   1.1942955e-17  1.9759699e+08  3.9676221e-06  2.6383449e-06
   1530000   0.306               1850   1.1591656e-17  1.975969e+08   3.9676221e-06  2.5992521e-06
   1540000   0.308               1850   1.1250664e-17  1.9759681e+08  3.9676221e-06  2.5607357e-06
   1550000   0.31                1850   1.09197e-17    1.9759672e+08  3.9676221e-06  2.5227895e-06
   1560000   0.312               1850   1.059848e-17   1.9759664e+08  3.9676221e-06  2.4854067e-06
   1570000   0.314               1850   1.0286704e-17  1.9759656e+08  3.9676221e-06  2.4485772e-06
   1580000   0.316               1850   9.9841149e-18  1.9759649e+08  3.9676221e-06  2.4122952e-06
   1590000   0.318               1850   9.6904186e-18  1.9759641e+08  3.9676221e-06  2.3765499e-06
   1600000   0.32                1850   9.4053498e-18  1.9759634e+08  3.9676221e-06  2.3413328e-06
   1610000   0.322               1850   9.1286919e-18  1.9759627e+08  3.9676221e-06  2.3066407e-06
   1620000   0.324               1850   8.8601593e-18  1.975962e+08   3.9676221e-06  2.272461e-06 
   1630000   0.326               1850   8.5995179e-18  1.9759613e+08  3.9676221e-06  2.2387867e-06
   1640000   0.328               1850   8.3465449e-18  1.9759607e+08  3.9676221e-06  2.2056116e-06
   1650000   0.33                1850   8.1010152e-18  1.9759601e+08  3.9676221e-06  2.1729283e-06
   1660000   0.332               1850   7.8627217e-18  1.9759595e+08  3.9676221e-06  2.1407311e-06
   1670000   0.334               1850   7.6314225e-18  1.9759589e+08  3.9676221e-06  2.1090089e-06
   1680000   0.336               1850   7.4069365e-18  1.9759583e+08  3.9676221e-06  2.0777581e-06
   1690000   0.338               1850   7.1890519e-18  1.9759577e+08  3.9676221e-06  2.04697e-06  
   1700000   0.34                1850   6.97758e-18    1.9759572e+08  3.9676221e-06  2.0166386e-06
   1710000   0.342               1850   6.772312e-18   1.9759567e+08  3.9676221e-06  1.9867542e-06
   1720000   0.344               1850   6.5730942e-18  1.9759562e+08  3.9676221e-06  1.9573144e-06
   1730000   0.346               1850   6.3797362e-18  1.9759557e+08  3.9676221e-06  1.9283108e-06
   1740000   0.348               1850   6.1920682e-18  1.9759552e+08  3.9676221e-06  1.8997372e-06
   1750000   0.35                1850   6.009916e-18   1.9759547e+08  3.9676221e-06  1.8715864e-06
   1760000   0.352               1850   5.8331256e-18  1.9759543e+08  3.9676221e-06  1.8438532e-06
   1770000   0.354               1850   5.6615349e-18  1.9759539e+08  3.9676221e-06  1.8165308e-06
   1780000   0.356               1850   5.4949928e-18  1.9759534e+08  3.9676221e-06  1.7896134e-06
   1790000   0.358               1850   5.333353e-18   1.975953e+08   3.9676221e-06  1.7630955e-06
   1800000   0.36                1850   5.1764643e-18  1.9759526e+08  3.9676221e-06  1.7369699e-06
   1810000   0.362               1850   5.0241912e-18  1.9759522e+08  3.9676221e-06  1.7112314e-06
   1820000   0.364               1850   4.8763896e-18  1.9759519e+08  3.9676221e-06  1.685873e-06 
   1830000   0.366               1850   4.7329458e-18  1.9759515e+08  3.9676221e-06  1.6608922e-06
   1840000   0.368               1850   4.5937143e-18  1.9759511e+08  3.9676221e-06  1.6362801e-06
   1850000   0.37                1850   4.4585859e-18  1.9759508e+08  3.9676221e-06  1.6120342e-06
   1860000   0.372               1850   4.3274337e-18  1.9759505e+08  3.9676221e-06  1.5881477e-06
   1870000   0.374               1850   4.2001437e-18  1.9759501e+08  3.9676221e-06  1.5646159e-06
   1880000   0.376               1850   4.0765868e-18  1.9759498e+08  3.9676221e-06  1.5414307e-06
   1890000   0.378               1850   3.9566614e-18  1.9759495e+08  3.9676221e-06  1.5185885e-06
   1900000   0.38                1850   3.8402704e-18  1.9759492e+08  3.9676221e-06  1.496086e-06 
   1910000   0.382               1850   3.7273019e-18  1.9759489e+08  3.9676221e-06  1.4739167e-06
   1920000   0.384               1850   3.6176562e-18  1.9759487e+08  3.9676221e-06  1.4520759e-06
   1930000   0.386               1850   3.5112367e-18  1.9759484e+08  3.9676221e-06  1.4305588e-06
   1940000   0.388               1850   3.4079525e-18  1.9759481e+08  3.9676221e-06  1.4093616e-06
   1950000   0.39                1850   3.3077024e-18  1.9759479e+08  3.9676221e-06  1.3884776e-06
   1960000   0.392               1850   3.2104032e-18  1.9759476e+08  3.9676221e-06  1.3679035e-06
   1970000   0.394               1850   3.1159593e-18  1.9759474e+08  3.9676221e-06  1.3476328e-06
   1980000   0.396               1850   3.0243012e-18  1.9759471e+08  3.9676221e-06  1.327664e-06 
   1990000   0.398               1850   2.9353362e-18  1.9759469e+08  3.9676221e-06  1.3079905e-06
   2000000   0.4                 1850   2.8489865e-18  1.9759467e+08  3.9676221e-06  1.2886081e-06
   2010000   0.402               1850   2.7651823e-18  1.9759465e+08  3.9676221e-06  1.2695142e-06
   2020000   0.404               1850   2.6838395e-18  1.9759463e+08  3.9676221e-06  1.2507023e-06
   2030000   0.406               1850   2.6048894e-18  1.9759461e+08  3.9676221e-06  1.2321691e-06
   2040000   0.408               1850   2.5282612e-18  1.9759459e+08  3.9676221e-06  1.2139104e-06
   2050000   0.41                1850   2.4538873e-18  1.9759457e+08  3.9676221e-06  1.1959223e-06
   2060000   0.412               1850   2.381702e-18   1.9759455e+08  3.9676221e-06  1.178201e-06 
   2070000   0.414               1850   2.3116435e-18  1.9759453e+08  3.9676221e-06  1.1607431e-06
   2080000   0.416               1850   2.2436437e-18  1.9759452e+08  3.9676221e-06  1.1435433e-06
   2090000   0.418               1850   2.1776398e-18  1.975945e+08   3.9676221e-06  1.1265973e-06
   2100000   0.42                1850   2.113586e-18   1.9759448e+08  3.9676221e-06  1.1099045e-06
   2110000   0.422               1850   2.0514136e-18  1.9759447e+08  3.9676221e-06  1.0934585e-06
   2120000   0.424               1850   1.9910656e-18  1.9759445e+08  3.9676221e-06  1.0772548e-06
   2130000   0.426               1850   1.9324904e-18  1.9759444e+08  3.9676221e-06  1.0612907e-06
   2140000   0.428               1850   1.8756422e-18  1.9759442e+08  3.9676221e-06  1.0455641e-06
   2150000   0.43                1850   1.8204709e-18  1.9759441e+08  3.9676221e-06  1.0300719e-06
   2160000   0.432               1850   1.7669201e-18  1.9759439e+08  3.9676221e-06  1.0148086e-06
   2170000   0.434               1850   1.7149412e-18  1.9759438e+08  3.9676221e-06  9.9977041e-07
   2180000   0.436               1850   1.6644929e-18  1.9759437e+08  3.9676221e-06  9.8495558e-07
   2190000   0.438               1850   1.6155289e-18  1.9759436e+08  3.9676221e-06  9.7036033e-07
   2200000   0.44                1850   1.5680065e-18  1.9759434e+08  3.9676221e-06  9.5598174e-07
   2210000   0.442               1850   1.5218831e-18  1.9759433e+08  3.9676221e-06  9.4181655e-07
   2220000   0.444               1850   1.477115e-18   1.9759432e+08  3.9676221e-06  9.2786078e-07
   2230000   0.446               1850   1.4336652e-18  1.9759431e+08  3.9676221e-06  9.1411226e-07
   2240000   0.448               1850   1.3914858e-18  1.975943e+08   3.9676221e-06  9.0056498e-07
   2250000   0.45                1850   1.3505519e-18  1.9759429e+08  3.9676221e-06  8.8721995e-07
   2260000   0.452               1850   1.3108232e-18  1.9759428e+08  3.9676221e-06  8.7407305e-07
   2270000   0.454               1850   1.2722651e-18  1.9759427e+08  3.9676221e-06  8.6112158e-07
   2280000   0.456               1850   1.2348417e-18  1.9759426e+08  3.9676221e-06  8.4836219e-07
   2290000   0.458               1850   1.1985194e-18  1.9759425e+08  3.9676221e-06  8.3579198e-07
   2300000   0.46                1850   1.1632638e-18  1.9759424e+08  3.9676221e-06  8.2340741e-07
   2310000   0.462               1850   1.1290432e-18  1.9759423e+08  3.9676221e-06  8.112056e-07 
   2320000   0.464               1850   1.0958289e-18  1.9759422e+08  3.9676221e-06  7.9918449e-07
   2330000   0.466               1850   1.0635939e-18  1.9759421e+08  3.9676221e-06  7.8734231e-07
   2340000   0.468               1850   1.0323075e-18  1.9759421e+08  3.9676221e-06  7.7567575e-07
   2350000   0.47                1850   1.0019408e-18  1.975942e+08   3.9676221e-06  7.6418181e-07
   2360000   0.472               1850   9.7246681e-19  1.9759419e+08  3.9676221e-06  7.5285798e-07
   2370000   0.474               1850   9.4385908e-19  1.9759418e+08  3.9676221e-06  7.4170165e-07
   2380000   0.476               1850   9.1609565e-19  1.9759418e+08  3.9676221e-06  7.3071172e-07
   2390000   0.478               1850   8.8914648e-19  1.9759417e+08  3.9676221e-06  7.1988367e-07
   2400000   0.48                1850   8.6298928e-19  1.9759416e+08  3.9676221e-06  7.0921574e-07
   2410000   0.482               1850   8.3760261e-19  1.9759416e+08  3.9676221e-06  6.9870632e-07
   2420000   0.484               1850   8.1296422e-19  1.9759415e+08  3.9676221e-06  6.8835327e-07
   2430000   0.486               1850   7.8904986e-19  1.9759414e+08  3.9676221e-06  6.7815331e-07
   2440000   0.488               1850   7.6583957e-19  1.9759414e+08  3.9676221e-06  6.6810475e-07
   2450000   0.49                1850   7.433116e-19   1.9759413e+08  3.9676221e-06  6.5820491e-07
   2460000   0.492               1850   7.214446e-19   1.9759413e+08  3.9676221e-06  6.4845099e-07
   2470000   0.494               1850   7.0022164e-19  1.9759412e+08  3.9676221e-06  6.3884195e-07
   2480000   0.496               1850   6.7962429e-19  1.9759412e+08  3.9676221e-06  6.2937589e-07
   2490000   0.498               1850   6.596312e-19   1.9759411e+08  3.9676221e-06  6.2004935e-07
   2500000   0.5                 1850   6.4022714e-19  1.9759411e+08  3.9676221e-06  6.1086143e-07
   2510000   0.502               1850   6.213937e-19   1.975941e+08   3.9676221e-06  6.0180956e-07
   2520000   0.504               1850   6.0311528e-19  1.975941e+08   3.9676221e-06  5.9289232e-07
   2530000   0.506               1850   5.8537364e-19  1.9759409e+08  3.9676221e-06  5.8410677e-07
   2540000   0.508               1850   5.6815323e-19  1.9759409e+08  3.9676221e-06  5.7545107e-07
   2550000   0.51                1850   5.5144113e-19  1.9759408e+08  3.9676221e-06  5.6692451e-07
   2560000   0.512               1850   5.3522044e-19  1.9759408e+08  3.9676221e-06  5.5852421e-07
   2570000   0.514               1850   5.1947686e-19  1.9759408e+08  3.9676221e-06  5.5024837e-07
   2580000   0.516               1850   5.0419629e-19  1.9759407e+08  3.9676221e-06  5.420951e-07 
   2590000   0.518               1850   4.8936345e-19  1.9759407e+08  3.9676221e-06  5.3406169e-07
   2600000   0.52                1850   4.7496825e-19  1.9759406e+08  3.9676221e-06  5.2614803e-07
   2610000   0.522               1850   4.6099663e-19  1.9759406e+08  3.9676221e-06  5.183517e-07 
   2620000   0.524               1850   4.4743568e-19  1.9759406e+08  3.9676221e-06  5.1067073e-07
   2630000   0.526               1850   4.3427294e-19  1.9759405e+08  3.9676221e-06  5.0310315e-07
   2640000   0.528               1850   4.2149938e-19  1.9759405e+08  3.9676221e-06  4.9564887e-07
   2650000   0.53                1850   4.0909923e-19  1.9759405e+08  3.9676221e-06  4.8830367e-07
   2660000   0.532               1850   3.9706627e-19  1.9759405e+08  3.9676221e-06  4.8106876e-07
   2670000   0.534               1850   3.8538577e-19  1.9759404e+08  3.9676221e-06  4.7394014e-07
   2680000   0.536               1850   3.7404946e-19  1.9759404e+08  3.9676221e-06  4.6691752e-07
   2690000   0.538               1850   3.6304548e-19  1.9759404e+08  3.9676221e-06  4.5999824e-07
   2700000   0.54                1850   3.5236457e-19  1.9759403e+08  3.9676221e-06  4.5318108e-07
   2710000   0.542               1850   3.4199862e-19  1.9759403e+08  3.9676221e-06  4.4646542e-07
   2720000   0.544               1850   3.3193679e-19  1.9759403e+08  3.9676221e-06  4.3984874e-07
   2730000   0.546               1850   3.2217273e-19  1.9759403e+08  3.9676221e-06  4.3333128e-07
   2740000   0.548               1850   3.1269701e-19  1.9759402e+08  3.9676221e-06  4.2691117e-07
   2750000   0.55                1850   3.0349952e-19  1.9759402e+08  3.9676221e-06  4.2058585e-07
   2760000   0.552               1850   2.9457126e-19  1.9759402e+08  3.9676221e-06  4.1435333e-07
   2770000   0.554               1850   2.8590542e-19  1.9759402e+08  3.9676221e-06  4.0821301e-07
   2780000   0.556               1850   2.7749493e-19  1.9759401e+08  3.9676221e-06  4.0216398e-07
   2790000   0.558               1850   2.6933197e-19  1.9759401e+08  3.9676221e-06  3.9620468e-07
   2800000   0.56                1850   2.6140936e-19  1.9759401e+08  3.9676221e-06  3.9033385e-07
   2810000   0.562               1850   2.5371977e-19  1.9759401e+08  3.9676221e-06  3.8454998e-07
   2820000   0.564               1850   2.4625704e-19  1.9759401e+08  3.9676221e-06  3.7885234e-07
   2830000   0.566               1850   2.3901218e-19  1.97594e+08    3.9676221e-06  3.7323783e-07
   2840000   0.568               1850   2.31982e-19    1.97594e+08    3.9676221e-06  3.6770775e-07
   2850000   0.57                1850   2.2515739e-19  1.97594e+08    3.9676221e-06  3.6225863e-07
   2860000   0.572               1850   2.1853446e-19  1.97594e+08    3.9676221e-06  3.5689101e-07
   2870000   0.574               1850   2.1210507e-19  1.97594e+08    3.9676221e-06  3.5160186e-07
   2880000   0.576               1850   2.0586571e-19  1.97594e+08    3.9676221e-06  3.4639184e-07
   2890000   0.578               1850   1.9981006e-19  1.9759399e+08  3.9676221e-06  3.4125915e-07
   2900000   0.58                1850   1.9393175e-19  1.9759399e+08  3.9676221e-06  3.3620185e-07
   2910000   0.582               1850   1.8822749e-19  1.9759399e+08  3.9676221e-06  3.3122047e-07
   2920000   0.584               1850   1.8269055e-19  1.9759399e+08  3.9676221e-06  3.2631248e-07
   2930000   0.586               1850   1.7731664e-19  1.9759399e+08  3.9676221e-06  3.2147735e-07
   2940000   0.588               1850   1.7210051e-19  1.9759399e+08  3.9676221e-06  3.167136e-07 
   2950000   0.59                1850   1.6703812e-19  1.9759399e+08  3.9676221e-06  3.1202072e-07
   2960000   0.592               1850   1.6212453e-19  1.9759399e+08  3.9676221e-06  3.0739726e-07
   2970000   0.594               1850   1.5735466e-19  1.9759398e+08  3.9676221e-06  3.0284153e-07
   2980000   0.596               1850   1.5272578e-19  1.9759398e+08  3.9676221e-06  2.9835396e-07
   2990000   0.598               1850   1.4823307e-19  1.9759398e+08  3.9676221e-06  2.9393288e-07
   3000000   0.6                 1850   1.4387298e-19  1.9759398e+08  3.9676221e-06  2.8957779e-07
   3010000   0.602               1850   1.3964094e-19  1.9759398e+08  3.9676221e-06  2.8528702e-07
   3020000   0.604               1850   1.3553245e-19  1.9759398e+08  3.9676221e-06  2.8105885e-07
   3030000   0.606               1850   1.3154605e-19  1.9759398e+08  3.9676221e-06  2.7689462e-07
   3040000   0.608               1850   1.2767587e-19  1.9759398e+08  3.9676221e-06  2.72791e-07  
   3050000   0.61                1850   1.2392018e-19  1.9759398e+08  3.9676221e-06  2.6874886e-07
   3060000   0.612               1850   1.2027493e-19  1.9759397e+08  3.9676221e-06  2.6476659e-07
   3070000   0.614               1850   1.1673708e-19  1.9759397e+08  3.9676221e-06  2.608435e-07 
   3080000   0.616               1850   1.133023e-19   1.9759397e+08  3.9676221e-06  2.5697743e-07
   3090000   0.618               1850   1.099699e-19   1.9759397e+08  3.9676221e-06  2.5317017e-07
   3100000   0.62                1850   1.0673539e-19  1.9759397e+08  3.9676221e-06  2.4941918e-07
   3110000   0.622               1850   1.0359566e-19  1.9759397e+08  3.9676221e-06  2.4572332e-07
   3120000   0.624               1850   1.0054835e-19  1.9759397e+08  3.9676221e-06  2.4208233e-07
   3130000   0.626               1850   9.7590633e-20  1.9759397e+08  3.9676221e-06  2.3849521e-07
   3140000   0.628               1850   9.4719823e-20  1.9759397e+08  3.9676221e-06  2.3496114e-07
   3150000   0.63                1850   9.1933121e-20  1.9759397e+08  3.9676221e-06  2.31479e-07  
   3160000   0.632               1850   8.9228872e-20  1.9759397e+08  3.9676221e-06  2.2804907e-07
   3170000   0.634               1850   8.6603869e-20  1.9759397e+08  3.9676221e-06  2.2466957e-07
   3180000   0.636               1850   8.4056598e-20  1.9759397e+08  3.9676221e-06  2.2134081e-07
   3190000   0.638               1850   8.1584008e-20  1.9759396e+08  3.9676221e-06  2.1806105e-07
   3200000   0.64                1850   7.9184281e-20  1.9759396e+08  3.9676221e-06  2.1483007e-07
   3210000   0.642               1850   7.6855091e-20  1.9759396e+08  3.9676221e-06  2.1164689e-07
   3220000   0.644               1850   7.4594082e-20  1.9759396e+08  3.9676221e-06  2.0851042e-07
   3230000   0.646               1850   7.2399817e-20  1.9759396e+08  3.9676221e-06  2.0542075e-07
   3240000   0.648               1850   7.0269693e-20  1.9759396e+08  3.9676221e-06  2.0237628e-07
   3250000   0.65                1850   6.8202837e-20  1.9759396e+08  3.9676221e-06  1.993778e-07 
   3260000   0.652               1850   6.619673e-20   1.9759396e+08  3.9676221e-06  1.9642367e-07
   3270000   0.654               1850   6.4249411e-20  1.9759396e+08  3.9676221e-06  1.9351299e-07
   3280000   0.656               1850   6.2359419e-20  1.9759396e+08  3.9676221e-06  1.9064551e-07
   3290000   0.658               1850   6.0525004e-20  1.9759396e+08  3.9676221e-06  1.8782049e-07
   3300000   0.66                1850   5.8744616e-20  1.9759396e+08  3.9676221e-06  1.8503743e-07
   3310000   0.662               1850   5.7016526e-20  1.9759396e+08  3.9676221e-06  1.8229549e-07
   3320000   0.664               1850   5.5338896e-20  1.9759396e+08  3.9676221e-06  1.7959358e-07
   3330000   0.666               1850   5.3711185e-20  1.9759396e+08  3.9676221e-06  1.7693262e-07
   3340000   0.668               1850   5.2131195e-20  1.9759396e+08  3.9676221e-06  1.7431084e-07
   3350000   0.67                1850   5.0597552e-20  1.9759396e+08  3.9676221e-06  1.7172767e-07
   3360000   0.672               1850   4.910934e-20   1.9759396e+08  3.9676221e-06  1.6918333e-07
   3370000   0.674               1850   4.7664597e-20  1.9759396e+08  3.9676221e-06  1.6667617e-07
   3380000   0.676               1850   4.6262103e-20  1.9759396e+08  3.9676221e-06  1.6420569e-07
   3390000   0.678               1850   4.4901274e-20  1.9759396e+08  3.9676221e-06  1.6177256e-07
   3400000   0.68                1850   4.3580577e-20  1.9759396e+08  3.9676221e-06  1.5937566e-07
   3410000   0.682               1850   4.2298782e-20  1.9759395e+08  3.9676221e-06  1.5701438e-07
   3420000   0.684               1850   4.1054629e-20  1.9759395e+08  3.9676221e-06  1.5468798e-07
   3430000   0.686               1850   3.9846976e-20  1.9759395e+08  3.9676221e-06  1.5239587e-07
   3440000   0.688               1850   3.8674679e-20  1.9759395e+08  3.9676221e-06  1.5013739e-07
   3450000   0.69                1850   3.7536821e-20  1.9759395e+08  3.9676221e-06  1.4791229e-07
   3460000   0.692               1850   3.6432693e-20  1.9759395e+08  3.9676221e-06  1.4572067e-07
   3470000   0.694               1850   3.5361112e-20  1.9759395e+08  3.9676221e-06  1.4356165e-07
   3480000   0.696               1850   3.4320842e-20  1.9759395e+08  3.9676221e-06  1.414342e-07 
   3490000   0.698               1850   3.3311248e-20  1.9759395e+08  3.9676221e-06  1.3933843e-07
   3500000   0.7                 1850   3.2331006e-20  1.9759395e+08  3.9676221e-06  1.3727299e-07
   3510000   0.702               1850   3.1379927e-20  1.9759395e+08  3.9676221e-06  1.3523883e-07
   3520000   0.704               1850   3.045699e-20   1.9759395e+08  3.9676221e-06  1.3323519e-07
   3530000   0.706               1850   2.9560911e-20  1.9759395e+08  3.9676221e-06  1.3126059e-07
   3540000   0.708               1850   2.8691292e-20  1.9759395e+08  3.9676221e-06  1.2931548e-07
   3550000   0.71                1850   2.7847178e-20  1.9759395e+08  3.9676221e-06  1.2739901e-07
   3560000   0.712               1850   2.7028181e-20  1.9759395e+08  3.9676221e-06  1.2551159e-07
   3570000   0.714               1850   2.6233127e-20  1.9759395e+08  3.9676221e-06  1.2365181e-07
   3580000   0.716               1850   2.5461243e-20  1.9759395e+08  3.9676221e-06  1.2181905e-07
   3590000   0.718               1850   2.471231e-20   1.9759395e+08  3.9676221e-06  1.2001404e-07
   3600000   0.72                1850   2.3985665e-20  1.9759395e+08  3.9676221e-06  1.1823642e-07
   3610000   0.722               1850   2.328012e-20   1.9759395e+08  3.9676221e-06  1.1648446e-07
   3620000   0.724               1850   2.2595196e-20  1.9759395e+08  3.9676221e-06  1.1475812e-07
   3630000   0.726               1850   2.1930797e-20  1.9759395e+08  3.9676221e-06  1.1305833e-07
   3640000   0.728               1850   2.1285494e-20  1.9759395e+08  3.9676221e-06  1.1138257e-07
   3650000   0.73                1850   2.0659158e-20  1.9759395e+08  3.9676221e-06  1.0973158e-07
   3660000   0.732               1850   2.0051516e-20  1.9759395e+08  3.9676221e-06  1.0810579e-07
   3670000   0.734               1850   1.94617e-20    1.9759395e+08  3.9676221e-06  1.0650395e-07
   3680000   0.736               1850   1.8889328e-20  1.9759395e+08  3.9676221e-06  1.049261e-07 
   3690000   0.738               1850   1.8333577e-20  1.9759395e+08  3.9676221e-06  1.0337104e-07
   3700000   0.74                1850   1.7794312e-20  1.9759395e+08  3.9676221e-06  1.0183941e-07
   3710000   0.742               1850   1.727079e-20   1.9759395e+08  3.9676221e-06  1.0033012e-07
   3720000   0.744               1850   1.67626e-20    1.9759395e+08  3.9676221e-06  9.8843005e-08
   3730000   0.746               1850   1.6269448e-20  1.9759395e+08  3.9676221e-06  9.7378184e-08
   3740000   0.748               1850   1.5790912e-20  1.9759395e+08  3.9676221e-06  9.5935397e-08
   3750000   0.75                1850   1.5326438e-20  1.9759395e+08  3.9676221e-06  9.4513942e-08
   3760000   0.752               1850   1.4875688e-20  1.9759395e+08  3.9676221e-06  9.311374e-08 
   3770000   0.754               1850   1.4438166e-20  1.9759395e+08  3.9676221e-06  9.1734201e-08
   3780000   0.756               1850   1.4013504e-20  1.9759395e+08  3.9676221e-06  9.0375056e-08
   3790000   0.758               1850   1.3601268e-20  1.9759395e+08  3.9676221e-06  8.9035839e-08
   3800000   0.76                1850   1.3201187e-20  1.9759395e+08  3.9676221e-06  8.7716573e-08
   3810000   0.762               1850   1.2812949e-20  1.9759395e+08  3.9676221e-06  8.6417109e-08
   3820000   0.764               1850   1.2436136e-20  1.9759395e+08  3.9676221e-06  8.5136918e-08
   3830000   0.766               1850   1.207026e-20   1.9759395e+08  3.9676221e-06  8.387519e-08 
   3840000   0.768               1850   1.1715163e-20  1.9759395e+08  3.9676221e-06  8.2632214e-08
   3850000   0.77                1850   1.137034e-20   1.9759395e+08  3.9676221e-06  8.1407035e-08
   3860000   0.772               1850   1.1035917e-20  1.9759395e+08  3.9676221e-06  8.020092e-08 
   3870000   0.774               1850   1.0711401e-20  1.9759395e+08  3.9676221e-06  7.9012934e-08
   3880000   0.776               1850   1.0396335e-20  1.9759395e+08  3.9676221e-06  7.7842214e-08
   3890000   0.778               1850   1.0090514e-20  1.9759395e+08  3.9676221e-06  7.6688761e-08
   3900000   0.78                1850   9.7936842e-21  1.9759395e+08  3.9676221e-06  7.5552368e-08
   3910000   0.782               1850   9.5055941e-21  1.9759395e+08  3.9676221e-06  7.4432852e-08
   3920000   0.784               1850   9.2260165e-21  1.9759395e+08  3.9676221e-06  7.3330069e-08
   3930000   0.786               1850   8.9546582e-21  1.9759395e+08  3.9676221e-06  7.2243609e-08
   3940000   0.788               1850   8.6911903e-21  1.9759395e+08  3.9676221e-06  7.1172881e-08
   3950000   0.79                1850   8.4354988e-21  1.9759395e+08  3.9676221e-06  7.011812e-08 
   3960000   0.792               1850   8.1873812e-21  1.9759395e+08  3.9676221e-06  6.9079209e-08
   3970000   0.794               1850   7.9463468e-21  1.9759395e+08  3.9676221e-06  6.8054776e-08
   3980000   0.796               1850   7.7126004e-21  1.9759395e+08  3.9676221e-06  6.7046351e-08
   3990000   0.798               1850   7.4857642e-21  1.9759395e+08  3.9676221e-06  6.6053042e-08
   4000000   0.8                 1850   7.2654382e-21  1.9759395e+08  3.9676221e-06  6.5073731e-08
Loop time of 1003.03 on 1 procs for 4000000 steps with 1850 atoms

100.0% CPU use with 1 MPI tasks x 1 OpenMP threads

MPI task timing breakdown:
Section |  min time  |  avg time  |  max time  |%varavg| %total
---------------------------------------------------------------
Pair    | 761.86     | 761.86     | 761.86     |   0.0 | 75.96
Neigh   | 0.03006    | 0.03006    | 0.03006    |   0.0 |  0.00
Comm    | 0.090424   | 0.090424   | 0.090424   |   0.0 |  0.01
Output  | 0.28998    | 0.28998    | 0.28998    |   0.0 |  0.03
Modify  | 230.48     | 230.48     | 230.48     |   0.0 | 22.98
Other   |            | 10.28      |            |       |  1.03

Nlocal:           1850 ave        1850 max        1850 min
Histogram: 1 0 0 0 0 0 0 0 0 0
Nghost:              0 ave           0 max           0 min
Histogram: 1 0 0 0 0 0 0 0 0 0
Neighs:           7060 ave        7060 max        7060 min
Histogram: 1 0 0 0 0 0 0 0 0 0

Total # of neighbors = 7060
Ave neighs/atom = 3.8162162
Neighbor list builds = 50
Dangerous builds = 0
Generated 0 of 0 mixed pair_coeff terms from geometric mixing rule
Setting up Verlet run ...
  Unit style    : si
  Current step  : 4000000
  Time step     : 2e-07
Per MPI rank memory allocation (min/avg/max) = 13 | 13 | 13 Mbytes
   Step          Time         Atoms        KinEng     c_granularTemp c_solidVolume    c_maxSpeed  
   4000000   0.8                 1850   7.2654382e-21  1.9759395e+08  3.9676221e-06  6.5073731e-08
Loop time of 2.27e-07 on 1 procs for 0 steps with 1850 atoms

440.5% CPU use with 1 MPI tasks x 1 OpenMP threads

MPI task timing breakdown:
Section |  min time  |  avg time  |  max time  |%varavg| %total
---------------------------------------------------------------
Pair    | 0          | 0          | 0          |   0.0 |  0.00
Neigh   | 0          | 0          | 0          |   0.0 |  0.00
Comm    | 0          | 0          | 0          |   0.0 |  0.00
Output  | 0          | 0          | 0          |   0.0 |  0.00
Modify  | 0          | 0          | 0          |   0.0 |  0.00
Other   |            | 2.27e-07   |            |       |100.00

Nlocal:           1850 ave        1850 max        1850 min
Histogram: 1 0 0 0 0 0 0 0 0 0
Nghost:              0 ave           0 max           0 min
Histogram: 1 0 0 0 0 0 0 0 0 0
Neighs:           7060 ave        7060 max        7060 min
Histogram: 1 0 0 0 0 0 0 0 0 0

Total # of neighbors = 7060
Ave neighs/atom = 3.8162162
Neighbor list builds = 0
Dangerous builds = 0
Generated 0 of 0 mixed pair_coeff terms from geometric mixing rule
Neighbor list info ...
  update: every = 1 steps, delay = 0 steps, check = yes
  max neighbors/atom: 2000, page size: 100000
  master list distance cutoff = 0.00185
  ghost atom cutoff = 0.00185
  binsize = 0.000925, bins = 18 18 76
  3 neighbor lists, perpetual/occasional/extra = 1 2 0
  (1) pair granular, perpetual
      attributes: half, newton off, size, history
      pair build: half/size/bin/atomonly/newtoff
      stencil: full/bin/3d
      bin: standard
  (2) compute property/local, occasional
      attributes: half, newton off, size
      pair build: half/size/bin/atomonly/newtoff
      stencil: full/bin/3d
      bin: standard
  (3) compute pair/local, occasional
      attributes: half, newton off, size
      pair build: half/size/bin/atomonly/newtoff
      stencil: full/bin/3d
      bin: standard
Setting up Verlet run ...
  Unit style    : si
  Current step  : 4000000
  Time step     : 2e-07
Per MPI rank memory allocation (min/avg/max) = 14.26 | 14.26 | 14.26 Mbytes
   Step          Time         Atoms        KinEng     c_granularTemp c_solidVolume    c_maxSpeed  
   4000000   0.8                 1850   7.2654382e-21  1.9759395e+08  3.9676221e-06  6.5073731e-08
   4000001   0.8000002           1850   7.2654165e-21  1.9759395e+08  3.9676221e-06  6.5073635e-08
Loop time of 0.00632469 on 1 procs for 1 steps with 1850 atoms

100.0% CPU use with 1 MPI tasks x 1 OpenMP threads

MPI task timing breakdown:
Section |  min time  |  avg time  |  max time  |%varavg| %total
---------------------------------------------------------------
Pair    | 0.00020505 | 0.00020505 | 0.00020505 |   0.0 |  3.24
Neigh   | 0          | 0          | 0          |   0.0 |  0.00
Comm    | 8.5e-08    | 8.5e-08    | 8.5e-08    |   0.0 |  0.00
Output  | 0.0060558  | 0.0060558  | 0.0060558  |   0.0 | 95.75
Modify  | 6.0236e-05 | 6.0236e-05 | 6.0236e-05 |   0.0 |  0.95
Other   |            | 3.504e-06  |            |       |  0.06

Nlocal:           1850 ave        1850 max        1850 min
Histogram: 1 0 0 0 0 0 0 0 0 0
Nghost:              0 ave           0 max           0 min
Histogram: 1 0 0 0 0 0 0 0 0 0
Neighs:           7060 ave        7060 max        7060 min
Histogram: 1 0 0 0 0 0 0 0 0 0

Total # of neighbors = 7060
Ave neighs/atom = 3.8162162
Neighbor list builds = 0
Dangerous builds = 0
System init for write_data ...
Generated 0 of 0 mixed pair_coeff terms from geometric mixing rule
System init for write_restart ...
Generated 0 of 0 mixed pair_coeff terms from geometric mixing rule
seed Ntarget Nfinal dp_m density_kgm3 Dtube_m D_over_dp solidVolume_m3 bedHeight_m bedVolume_m3 packingFraction porosity minParticleBottom_m kineticEnergy_J maxSpeed_ms
52691 1850 1850 0.0016 1600 0.016 10 3.96762208197362e-06 0.0367044110712843 7.37985972325674e-06 0.537628387362179 0.462371612637821 -1.07557696288547e-06 7.26541652242614e-21 6.50736345303069e-08
Packing generation completed: co2_13x_seed_52691
ACCEPT only if Nfinal=Ntarget, the bed is settled, and overlap/geometry checks pass.
For the 20-packing pilot, change only seed_realization.
CO2 diffusion and particle LDF adsorption are added later in the pore-network solver, not here.
Total wall time: 0:22:36
