ITEM: TIMESTEP
4000000
ITEM: NUMBER OF ATOMS
1850
ITEM: BOX BOUNDS ff ff ff
-8.0000000000000002e-03 8.0000000000000002e-03
-8.0000000000000002e-03 8.0000000000000002e-03
0.0000000000000000e+00 7.0000000000000007e-02
ITEM: ATOMS id type x y z radius mass vx vy vz omegax omegay omegaz fx fy fz f_tubeWall[1] f_tubeWall[2] f_tubeWall[3] f_tubeWall[4] f_tubeWall[5] f_tubeWall[6] f_tubeWall[7] f_tubeWall[8]
1 1 0.00199617 0.00415736 0.00169206 0.0008 3.43146e-06 -1.38021e-13 -4.31633e-13 -4.55663e-13 5.01324e-10 -1.47423e-10 -3.17283e-10 1.83719e-16 -5.53255e-16 -8.35195e-16 0 0 0 0 0 0 0 0
2 1 -0.000330197 -0.000512334 0.000799237 0.0008 3.43146e-06 -7.46657e-14 2.4588e-13 -2.16957e-13 -2.86067e-10 -1.18336e-10 2.60906e-10 -2.1797e-16 -1.20805e-16 3.53433e-16 1 -0.000233482 -5.57698e-05 0.00138063 -0.000330197 -0.000512334 0 0.0008
3 1 -0.00016222 -0.00442599 0.00492507 0.0008 3.43146e-06 -5.98471e-14 9.06999e-13 1.84131e-13 2.74771e-09 2.49262e-10 8.19123e-10 -2.30068e-16 -1.56592e-15 -1.15368e-15 0 0 0 0 0 0 0 0
4 1 0.00305795 -0.00472832 0.00285071 0.0008 3.43146e-06 -4.98212e-13 7.32863e-14 1.73611e-13 1.48667e-10 -5.70259e-10 -7.2058e-10 -5.3861e-17 3.51528e-16 5.99203e-16 0 0 0 0 0 0 0 0
5 1 0.00391144 0.00177754 0.00079972 0.0008 3.43146e-06 -6.26693e-13 -1.86714e-13 2.72606e-14 2.31245e-10 -7.39714e-10 -6.76054e-10 -5.402e-16 -1.03974e-15 -7.2879e-16 1 -1.48049e-05 -9.15647e-06 0.000307717 0.00391144 0.00177754 0 0.0008
6 1 0.00717914 0.000554585 0.00362474 0.0008 3.43146e-06 -3.26654e-13 4.74181e-14 -9.49224e-14 2.59893e-10 -1.05669e-10 -6.14374e-11 -2.26008e-15 -2.0515e-16 -1.05599e-15 1 -0.000815802 -0.000165601 0.000121282 0.00797624 0.00061616 0.00362474 0.0008
7 1 0.00550893 0.0018639 0.000799374 0.0008 3.43146e-06 3.08513e-13 -5.49111e-13 2.70806e-13 7.16495e-10 4.42647e-10 1.65659e-10 -2.69622e-15 -1.00825e-15 -7.92504e-16 1 -7.0004e-05 0.000165431 0.00102698 0.00550893 0.0018639 0 0.0008
8 1 -0.000213062 -0.0038512 0.00225914 0.0008 3.43146e-06 -6.76648e-14 -1.00001e-12 6.84277e-13 1.25345e-09 -7.97e-10 -1.83886e-09 2.84066e-16 5.80997e-16 -4.82292e-16 0 0 0 0 0 0 0 0
9 1 0.000992642 -0.000742633 0.00325561 0.0008 3.43146e-06 5.22715e-13 -2.7122e-13 -5.91015e-13 1.01492e-09 1.26539e-09 -1.96806e-11 4.77092e-15 -1.30604e-16 -1.10964e-15 0 0 0 0 0 0 0 0
10 1 0.00190021 -0.00527137 0.00381189 0.0008 3.43146e-06 -4.69341e-13 -2.7555e-13 -5.34401e-14 1.05312e-09 7.7907e-10 3.4271e-10 -5.96641e-16 -7.58186e-16 9.50587e-17 0 0 0 0 0 0 0 0
11 1 -0.000953564 0.00265842 0.00324052 0.0008 3.43146e-06 2.71081e-13 -4.39562e-13 -1.08381e-12 1.46666e-10 1.14313e-09 1.62895e-10 5.16743e-16 1.74082e-16 9.45588e-16 0 0 0 0 0 0 0 0
12 1 -0.00696166 0.0018386 0.00200868 0.0008 3.43146e-06 1.55209e-13 -1.26961e-13 6.0283e-13 1.38256e-10 -7.84821e-10 -1.34401e-10 3.26369e-16 -2.12015e-16 5.15265e-17 1 0.000423254 -0.00014538 0.000151629 -0.00773479 0.00204279 0.00200868 0.0008
13 1 0.000996187 0.00161693 0.00456975 0.0008 3.43146e-06 5.41013e-13 -5.41846e-13 -4.91951e-13 1.11735e-09 1.36952e-09 1.49724e-09 -1.13719e-15 7.4664e-16 3.60683e-15 0 0 0 0 0 0 0 0
14 1 -0.00178558 0.00697536 0.00543186 0.0008 3.43146e-06 5.17442e-13 -3.33844e-13 -1.97451e-13 2.79693e-10 -1.74933e-10 5.25204e-10 -8.64965e-18 4.36726e-16 5.68144e-17 1 0.000125093 -0.000279549 8.85215e-05 -0.00198391 0.0077501 0.00543186 0.0008
15 1 -0.00382818 -0.00255441 0.00319259 0.0008 3.43146e-06 -1.03801e-12 1.08411e-12 -7.09366e-14 -3.45457e-10 -6.15882e-10 -3.77629e-10 -8.0187e-16 2.22796e-16 -5.5528e-16 0 0 0 0 0 0 0 0
16 1 -0.00463511 0.00128535 0.00347644 0.0008 3.43146e-06 -9.45344e-13 -4.92772e-13 -6.65883e-13 1.0421e-09 -2.01418e-09 -8.24281e-10 -7.56841e-16 1.14186e-16 1.32806e-15 0 0 0 0 0 0 0 0
17 1 -0.00113796 0.00410924 0.00215344 0.0008 3.43146e-06 1.60041e-13 -3.45432e-13 6.08578e-13 -3.11725e-11 -3.80255e-10 -4.44612e-11 2.06588e-16 1.12583e-16 3.1206e-16 0 0 0 0 0 0 0 0
18 1 -0.00233305 -0.00148605 0.00307659 0.0008 3.43146e-06 4.6589e-13 5.41855e-13 7.87175e-13 1.72801e-10 -3.42739e-11 -3.21396e-10 -1.19946e-15 5.63461e-16 -1.05036e-15 0 0 0 0 0 0 0 0
19 1 -0.00705628 -0.00143188 0.000799714 0.0008 3.43146e-06 1.19233e-14 1.40877e-14 7.09835e-14 3.77049e-11 -5.65146e-12 5.41872e-11 5.62241e-17 2.48588e-17 1.53302e-16 1 2.22429e-05 -0.000101892 0.000317754 -0.00705628 -0.00143188 0 0.0008
20 1 0.00185146 0.00547735 0.000799729 0.0008 3.43146e-06 -1.96058e-13 -1.77259e-13 9.09248e-15 2.22947e-10 -2.5383e-10 6.7945e-10 7.72392e-17 2.33824e-16 1.76596e-17 1 -4.07977e-05 -2.55317e-05 0.000292685 0.00185146 0.00547735 0 0.0008
21 1 -0.00392456 0.0060369 0.000799506 0.0008 3.43146e-06 3.30575e-13 2.06451e-13 -2.44874e-14 -2.497e-10 4.16401e-10 4.88867e-10 -1.86782e-16 -1.15797e-16 1.59621e-16 1 -6.89566e-05 1.00777e-05 0.000719263 -0.00392456 0.0060369 0 0.0008
22 1 0.00472298 -0.000976013 0.00267173 0.0008 3.43146e-06 -8.73383e-13 -2.70954e-13 -7.86801e-13 -2.97835e-10 1.45629e-09 5.30539e-10 -1.32067e-16 4.33579e-16 1.01831e-15 0 0 0 0 0 0 0 0
23 1 0.00604342 0.00391375 0.00219733 0.0008 3.43146e-06 -4.41933e-13 -1.30234e-13 3.17138e-13 -4.52363e-10 1.17183e-10 -1.97278e-10 -1.67041e-16 -8.98268e-16 -1.13427e-15 1 -8.04095e-06 -5.62942e-06 7.89053e-07 0.00671489 0.00434859 0.00219733 0.0008
24 1 0.00247019 -0.00676324 0.000799564 0.0008 3.43146e-06 -3.982e-13 -6.63105e-14 -7.40537e-14 8.29808e-11 -4.96452e-10 4.97932e-10 5.3207e-17 -3.33335e-17 7.50078e-17 1 8.40342e-05 0.000202022 0.000595901 0.00247019 -0.00676324 0 0.0008
25 1 0.0037816 0.006127 0.00218126 0.0008 3.43146e-06 -2.25588e-13 2.19187e-13 -2.38125e-14 2.39002e-10 3.36776e-10 -3.597e-10 6.32405e-16 2.8404e-16 1.19061e-15 1 -1.27604e-05 -1.83909e-05 1.74911e-06 0.00420175 0.00680774 0.00218126 0.0008
26 1 0.00122077 -0.00558473 0.000799423 0.0008 3.43146e-06 -3.94902e-13 6.99798e-15 2.43242e-13 -1.17029e-11 -4.92961e-10 3.65317e-10 -6.29609e-17 1.82052e-16 8.52787e-17 1 6.37039e-05 -1.69482e-05 0.000907405 0.00122077 -0.00558473 0 0.0008
27 1 0.000766085 0.00715956 0.00403231 0.0008 3.43146e-06 2.70521e-13 4.86763e-13 -1.73918e-13 2.34817e-10 1.8274e-10 2.73091e-10 5.51323e-17 -2.74281e-16 -1.95049e-16 1 -4.62104e-05 -0.0006044 7.38743e-05 0.000851155 0.00795459 0.00403231 0.0008
28 1 -0.00305401 0.00116467 0.000799936 0.0008 3.43146e-06 2.92132e-41 -4.16129e-42 -2.04528e-13 5.20149e-39 3.65157e-38 0.534183 -1.04333e-44 1.48618e-45 -3.28127e-21 1 4.17329e-45 -5.94466e-46 3.36626e-05 -0.00305401 0.00116467 0 0.0008
29 1 -0.00288057 -0.00365584 0.000799792 0.0008 3.43146e-06 -3.49491e-13 1.31274e-13 2.70018e-13 -1.42949e-10 -4.26121e-10 -4.46174e-10 -6.16431e-16 -4.58837e-16 -6.06847e-16 1 -8.6377e-06 3.70212e-05 0.000196223 -0.00288057 -0.00365584 0 0.0008
30 1 0.00364876 0.00279694 0.00398218 0.0008 3.43146e-06 7.9977e-15 3.40485e-13 4.11411e-13 1.5519e-10 2.1851e-10 -5.15324e-10 -1.25236e-15 -3.80898e-15 -2.62084e-16 0 0 0 0 0 0 0 0
31 1 0.00696284 0.00183404 0.00146565 0.0008 3.43146e-06 4.31731e-13 -2.62281e-13 -1.7397e-14 -2.70131e-10 -8.28999e-11 4.52382e-10 2.30713e-15 1.7272e-16 1.74522e-15 1 -0.0003844 -0.000156439 -6.85796e-06 0.00773613 0.00203773 0.00146565 0.0008
32 1 0.0042514 -0.00378159 0.00236258 0.0008 3.43146e-06 -7.99649e-13 -8.07148e-13 1.08402e-12 -7.90899e-10 -9.20866e-10 4.90685e-10 -7.46774e-16 -2.2632e-16 3.71842e-16 0 0 0 0 0 0 0 0
33 1 -0.000541227 -0.00718004 0.00153392 0.0008 3.43146e-06 -2.12864e-13 -4.69097e-13 2.65519e-13 3.50093e-10 1.84658e-10 2.19822e-10 -7.6947e-17 -3.29345e-16 1.00096e-17 1 8.60085e-05 0.0005626 0.000130749 -0.000601329 -0.00797737 0.00153392 0.0008
34 1 0.000267814 0.000138085 0.00213238 0.0008 3.43146e-06 1.35052e-13 2.98254e-14 -1.0142e-12 1.53487e-11 6.19385e-10 -6.8462e-10 2.76274e-16 -9.40821e-16 1.17771e-15 0 0 0 0 0 0 0 0
35 1 0.00334975 -0.00252979 0.00301757 0.0008 3.43146e-06 -9.76794e-13 -4.08149e-13 -5.78509e-14 -8.81003e-10 -5.8932e-10 7.968e-10 3.17283e-16 -6.47732e-18 -1.27447e-15 0 0 0 0 0 0 0 0
36 1 -0.00500367 0.00310075 0.00342456 0.0008 3.43146e-06 -1.57931e-12 -5.16185e-13 -1.08302e-12 -3.776e-10 -1.45477e-11 5.42006e-11 9.18677e-16 9.86825e-16 3.33214e-16 0 0 0 0 0 0 0 0
37 1 0.00360973 0.000173745 0.00263582 0.0008 3.43146e-06 -1.06915e-12 5.13651e-15 4.6616e-13 -3.73465e-10 2.24289e-10 1.5463e-10 -1.20668e-15 -7.75401e-16 1.50821e-15 0 0 0 0 0 0 0 0
38 1 0.000928401 0.00528216 0.00209163 0.0008 3.43146e-06 2.7072e-13 -7.83485e-13 -1.95116e-13 3.58059e-10 5.66279e-10 -8.54334e-11 -1.73601e-19 -1.51578e-16 -3.77695e-16 0 0 0 0 0 0 0 0
39 1 -0.00133116 -0.00547967 0.00222446 0.0008 3.43146e-06 -4.5288e-13 1.13565e-12 -6.69838e-13 -9.45089e-10 -1.80126e-10 -2.04581e-10 2.19806e-16 5.06682e-16 -4.34017e-16 0 0 0 0 0 0 0 0
40 1 0.00597963 -0.00196466 0.00327638 0.0008 3.43146e-06 -2.28732e-13 -1.11126e-14 1.08331e-12 7.76501e-10 7.28716e-10 -4.27193e-10 -2.32623e-15 1.6797e-16 3.05736e-16 0 0 0 0 0 0 0 0
41 1 -0.00181083 -0.0069688 0.0039761 0.0008 3.43146e-06 -4.44231e-13 -1.53122e-12 4.95432e-13 4.68547e-10 -7.9032e-10 4.58175e-11 -3.01523e-16 -5.34539e-16 -3.99518e-16 1 7.64192e-07 0.000238386 4.57856e-05 -0.00201197 -0.00774287 0.0039761 0.0008
42 1 0.00558691 0.00454209 0.000799301 0.0008 3.43146e-06 -2.96512e-13 -9.85802e-14 -2.70919e-13 1.1294e-10 -3.70343e-10 -1.30683e-10 -2.83807e-17 -2.29702e-16 -3.37978e-16 1 -4.34285e-05 -7.9307e-05 0.00121206 0.00558691 0.00454209 0 0.0008
43 1 0.00555917 -0.00113907 0.00458018 0.0008 3.43146e-06 -5.49059e-13 2.77557e-13 2.16765e-12 -6.40107e-10 -1.58677e-10 1.40283e-09 -9.01071e-16 -9.02545e-16 -9.17418e-16 0 0 0 0 0 0 0 0
44 1 -0.00374531 0.00444737 0.000799754 0.0008 3.43146e-06 1.01206e-13 1.00412e-13 2.29211e-13 -1.31331e-10 1.24697e-10 -7.86063e-10 -8.38852e-16 2.29105e-16 5.71972e-16 1 9.48066e-06 -2.4871e-05 0.000252408 -0.00374531 0.00444737 0 0.0008
45 1 -0.00102698 -0.00262701 0.00426145 0.0008 3.43146e-06 -1.67856e-13 1.43166e-13 -1.85648e-12 5.64361e-10 2.37591e-10 -7.66447e-11 -7.99968e-16 1.4164e-15 -7.56711e-16 0 0 0 0 0 0 0 0
46 1 0.000424992 -0.00475688 0.00346908 0.0008 3.43146e-06 -6.99164e-14 -1.79237e-13 8.7218e-13 2.94436e-10 -1.50591e-10 -4.00961e-10 3.41083e-16 -5.05934e-16 -4.34023e-16 0 0 0 0 0 0 0 0
47 1 -0.00155227 0.00182702 0.000799597 0.0008 3.43146e-06 3.66081e-13 -2.17271e-13 -2.41942e-13 2.74583e-10 4.58828e-10 -5.22348e-10 1.34611e-16 -4.03035e-16 7.85621e-16 1 -4.06544e-06 1.25013e-05 0.000529715 -0.00155227 0.00182702 0 0.0008
48 1 -0.00504047 0.00329402 0.000799326 0.0008 3.43146e-06 1.03972e-12 4.17325e-13 -2.70992e-13 -5.15156e-10 1.30183e-09 -2.6324e-09 2.15649e-16 1.92824e-16 4.416e-16 1 0.000109009 -2.96555e-05 0.00114607 -0.00504047 0.00329402 0 0.0008
49 1 0.00672924 -0.00256225 0.00455659 0.0008 3.43146e-06 -6.48826e-14 3.66425e-14 5.08088e-14 -6.60203e-10 3.02375e-10 -1.74393e-11 -3.43343e-16 -1.08798e-16 5.28332e-16 1 -0.00078997 0.000275066 0.000302569 0.00747637 -0.00284673 0.00455659 0.0008
50 1 -0.00266764 -0.00262305 0.00200264 0.0008 3.43146e-06 -2.11386e-13 -4.75194e-14 -6.97164e-14 -1.62844e-10 -4.56458e-10 -9.45447e-10 -7.01794e-16 6.01097e-16 7.86569e-16 0 0 0 0 0 0 0 0
51 1 -0.00498283 -0.00519786 0.00580804 0.0008 3.43146e-06 -8.83917e-13 -7.90305e-13 1.05099e-12 2.43457e-09 6.41887e-10 1.21544e-10 -2.47865e-16 -6.16191e-16 -2.83818e-16 1 0.000342819 0.000526967 -7.30026e-05 -0.00553614 -0.00577504 0.00580804 0.0008
52 1 0.00420895 -0.000106623 0.000799444 0.0008 3.43146e-06 -5.38002e-14 -5.86482e-14 2.70783e-13 7.7903e-11 -8.43592e-11 4.64068e-10 -4.05658e-16 -1.93259e-15 -1.05281e-15 1 6.54508e-06 0.00018173 0.000860085 0.00420895 -0.000106623 0 0.0008
53 1 0.00128921 0.00708405 0.000799885 0.0008 3.43146e-06 3.74098e-13 5.12937e-14 1.05322e-13 -5.21593e-11 4.62773e-10 4.47145e-10 -7.53373e-16 4.21963e-17 3.01616e-16 1 -1.09308e-06 -4.3887e-06 8.03821e-05 0.00128921 0.00708405 0 0.0008
54 1 0.000157688 -0.00438949 0.000799498 0.0008 3.43146e-06 -2.92994e-14 -3.06203e-13 1.96456e-13 3.83262e-10 -3.14701e-11 -4.45019e-10 -3.0919e-17 3.86883e-16 -8.31238e-17 1 -6.4424e-06 -6.2714e-05 0.000737369 0.000157688 -0.00438949 0 0.0008
55 1 -0.00248658 0.00513445 0.00157615 0.0008 3.43146e-06 6.4569e-14 1.65465e-13 -7.04265e-14 -8.10596e-10 -5.94563e-10 -2.18321e-10 -3.63909e-17 5.90267e-17 2.22367e-17 0 0 0 0 0 0 0 0
56 1 -0.00261156 0.000133481 0.00427867 0.0008 3.43146e-06 6.49109e-13 6.81269e-14 -9.77048e-13 -6.15996e-10 1.02929e-10 3.57158e-10 3.11836e-15 -4.01554e-16 -8.44838e-17 0 0 0 0 0 0 0 0
57 1 -0.00279708 0.00367966 0.00513814 0.0008 3.43146e-06 4.32398e-13 3.9796e-14 1.24626e-13 -7.3772e-10 -1.39941e-09 -5.55111e-10 6.99477e-16 -3.01926e-16 -3.66452e-16 0 0 0 0 0 0 0 0
58 1 0.00372602 -0.00573446 0.00389971 0.0008 3.43146e-06 -5.33912e-13 7.99451e-13 -5.43667e-13 2.18975e-10 3.16243e-10 1.71495e-09 -2.74733e-16 -3.44517e-16 2.49438e-16 0 0 0 0 0 0 0 0
59 1 -0.00190897 -0.00679463 0.000799624 0.0008 3.43146e-06 -2.47491e-13 9.83657e-14 1.11652e-13 -1.23874e-10 -3.12116e-10 -8.43695e-10 -3.4482e-16 1.6944e-16 6.14101e-17 1 9.3315e-05 -2.76654e-05 0.00047706 -0.00190897 -0.00679463 0 0.0008
60 1 0.00123684 0.000853087 0.00318483 0.0008 3.43146e-06 5.41498e-13 1.77301e-13 -1.08409e-12 -2.22301e-10 -2.77931e-10 5.16819e-10 -1.18408e-15 -2.4694e-15 -3.78736e-16 0 0 0 0 0 0 0 0
61 1 -0.0034762 0.00291169 0.00115734 0.0008 3.43146e-06 -1.08277e-12 -6.43896e-13 -1.27059e-15 6.37523e-10 -4.83717e-10 -7.74705e-10 -2.18604e-17 -3.88746e-16 8.01412e-17 0 0 0 0 0 0 0 0
62 1 0.00328757 -0.00127198 0.00203146 0.0008 3.43146e-06 -9.52127e-13 -5.22143e-13 -1.52447e-13 7.29221e-10 -5.60687e-10 3.11106e-11 -9.03367e-16 -9.98717e-16 2.40568e-16 0 0 0 0 0 0 0 0
63 1 0.00375926 -0.00429256 0.000799747 0.0008 3.43146e-06 -5.93304e-13 3.45921e-13 -2.056e-13 -4.38304e-10 -7.30377e-10 1.81745e-10 -5.65723e-16 5.50345e-16 -4.92256e-17 1 -6.84949e-05 -3.36121e-05 0.00026367 0.00375926 -0.00429256 0 0.0008
64 1 -0.00122469 -0.00108696 0.00199394 0.0008 3.43146e-06 8.62536e-14 2.06143e-13 3.79875e-13 4.99016e-10 9.81814e-10 -7.6785e-10 -2.86368e-16 -2.56947e-16 -8.36414e-16 0 0 0 0 0 0 0 0
65 1 -0.00121613 -0.00356944 0.000799154 0.0008 3.43146e-06 -1.38461e-13 5.05053e-13 -6.07412e-14 -6.36419e-10 -1.74232e-10 -3.83011e-10 6.98266e-17 9.48756e-17 1.16382e-16 1 -0.000196848 -5.99133e-06 0.00161112 -0.00121613 -0.00356944 0 0.0008
66 1 0.000225776 -0.00590588 0.00212386 0.0008 3.43146e-06 -6.04082e-14 2.26977e-13 8.88795e-13 1.92866e-10 -9.07768e-11 2.29069e-10 2.12679e-16 -2.4594e-17 -4.13794e-17 0 0 0 0 0 0 0 0
67 1 0.00028694 -0.00276589 0.00332204 0.0008 3.43146e-06 -1.34967e-13 -1.0476e-12 4.87972e-13 -2.16139e-09 -8.58366e-10 2.03112e-10 -7.45966e-16 -1.32764e-15 -1.46596e-15 0 0 0 0 0 0 0 0
68 1 0.000723344 -0.00291563 0.00106676 0.0008 3.43146e-06 -1.90432e-13 5.43224e-14 -4.19789e-13 2.95634e-10 -2.26164e-10 4.28033e-10 -1.35684e-16 3.32152e-16 8.36729e-17 0 0 0 0 0 0 0 0
69 1 -0.0021624 -0.00162129 0.000799936 0.0008 3.43146e-06 2.90599e-41 -4.45728e-42 -2.04528e-13 5.57148e-39 3.6324e-38 0.359276 -1.03786e-44 1.59189e-45 -3.28128e-21 1 4.15139e-45 -6.36751e-46 3.36626e-05 -0.0021624 -0.00162129 0 0.0008
70 1 -0.00256131 0.00639249 0.00415991 0.0008 3.43146e-06 1.07619e-12 -2.6879e-13 -2.03948e-13 1.09447e-10 -1.54893e-10 1.75546e-10 -1.67731e-16 3.69938e-16 6.28279e-16 0 0 0 0 0 0 0 0
71 1 -0.00484542 0.00469149 0.00348744 0.0008 3.43146e-06 -1.0952e-12 -1.26484e-12 -5.71287e-13 9.62005e-10 -7.64102e-10 -7.53852e-10 -4.68025e-16 -3.43797e-16 -2.41878e-17 0 0 0 0 0 0 0 0
72 1 0.00719107 0.000357568 0.00203734 0.0008 3.43146e-06 -8.16002e-15 3.91303e-14 4.07686e-13 -3.34036e-10 -4.03279e-10 -8.1145e-10 6.16417e-16 2.66881e-16 3.26691e-16 0 0 0 0 0 0 0 0
73 1 0.00265661 -0.00207343 0.000799273 0.0008 3.43146e-06 -4.38779e-14 7.33897e-14 7.03836e-14 -9.63816e-11 -3.87338e-11 6.08033e-10 4.92794e-16 2.21291e-16 -5.5937e-16 1 9.57794e-05 -0.00030343 0.00128415 0.00265661 -0.00207343 0 0.0008
74 1 0.00087935 -0.00714683 0.000799513 0.0008 3.43146e-06 -4.9819e-14 -8.72054e-14 7.66639e-14 1.06287e-10 -6.14591e-11 7.68326e-11 -5.17283e-16 9.57799e-17 2.82719e-17 1 2.1128e-05 9.4767e-05 0.000703814 0.00087935 -0.00714683 0 0.0008
75 1 -0.00649618 -0.00310496 0.00448598 0.0008 3.43146e-06 -1.07011e-12 1.12765e-13 5.11142e-13 6.77861e-10 -3.83899e-10 6.97425e-10 -1.16044e-15 -1.19699e-15 4.07967e-16 1 4.74051e-05 1.51237e-05 7.14605e-06 -0.0072179 -0.00344992 0.00448598 0.0008
76 1 0.000432361 0.00366771 0.00221269 0.0008 3.43146e-06 -8.00245e-14 -2.47985e-13 -4.54257e-13 -2.40982e-10 -4.07997e-10 -4.62974e-10 2.62111e-16 -9.26532e-16 6.35635e-16 0 0 0 0 0 0 0 0
77 1 0.00307196 0.00651181 0.000799909 0.0008 3.43146e-06 -1.16262e-13 3.01413e-13 2.09993e-13 -3.6747e-10 -1.61996e-10 -2.89572e-10 -1.22035e-16 -4.40912e-16 -2.03815e-16 1 -1.06543e-05 -3.70402e-06 5.72677e-05 0.00307196 0.00651181 0 0.0008
78 1 -0.0017918 0.00393431 0.00372016 0.0008 3.43146e-06 -5.24494e-13 -1.24962e-12 1.35865e-13 2.74714e-09 1.30814e-10 5.45468e-10 -5.29193e-16 4.57302e-16 -5.64061e-17 0 0 0 0 0 0 0 0
79 1 0.000762942 0.000353953 0.00552351 0.0008 3.43146e-06 2.70773e-13 -1.39122e-13 -6.5727e-13 -1.30459e-09 -1.71981e-09 -1.8663e-09 2.99134e-16 1.88041e-16 1.55714e-15 0 0 0 0 0 0 0 0
80 1 -0.00368853 -0.0013684 0.00212872 0.0008 3.43146e-06 4.85845e-13 5.41098e-13 2.99101e-13 1.98041e-10 -8.40412e-10 -9.61251e-10 -1.02118e-15 -2.55804e-16 -3.65165e-16 0 0 0 0 0 0 0 0
81 1 0.00694251 0.0019099 0.00444104 0.0008 3.43146e-06 4.08301e-14 4.99488e-13 2.48823e-13 -1.62491e-10 2.60059e-10 -5.81787e-10 -8.60093e-17 4.31081e-16 1.09475e-15 1 -0.000565549 -0.000167899 -4.10725e-05 0.00771344 0.00212198 0.00444104 0.0008
82 1 -0.00610432 -1.43409e-05 0.00352065 0.0008 3.43146e-06 -2.16667e-12 -1.46247e-13 4.46599e-14 -8.52983e-10 -1.04483e-09 -8.10982e-10 -1.07171e-16 4.96404e-16 -3.31429e-16 0 0 0 0 0 0 0 0
83 1 -0.00382968 0.00237064 0.00262032 0.0008 3.43146e-06 -7.78158e-13 5.32551e-14 -3.98095e-13 -1.66047e-09 1.30855e-10 2.30188e-09 1.71156e-15 2.665e-16 4.23999e-16 0 0 0 0 0 0 0 0
84 1 -0.00229868 0.0065284 0.000799936 0.0008 3.43146e-06 -9.08563e-41 -6.26652e-40 -1.75917e-13 7.83298e-37 -1.13568e-37 1.13792 3.24487e-44 2.23805e-43 2.57891e-21 1 -1.29794e-44 -8.95212e-44 3.36626e-05 -0.00229868 0.0065284 0 0.0008
85 1 0.00444384 0.00566544 0.000799916 0.0008 3.43146e-06 -3.35875e-13 8.05502e-14 -1.02993e-13 -1.1041e-10 -3.81639e-10 -3.96246e-10 5.39307e-16 -5.35686e-16 8.44087e-17 1 -5.21106e-06 -1.29517e-05 5.06507e-05 0.00444384 0.00566544 0 0.0008
86 1 0.00580107 0.000182968 0.00290299 0.0008 3.43146e-06 -1.5617e-12 -6.88984e-14 -1.08307e-12 1.32303e-09 1.13399e-10 5.74878e-10 3.19529e-15 -7.65696e-16 7.954e-16 0 0 0 0 0 0 0 0
87 1 -0.000661014 -0.00576381 0.000799749 0.0008 3.43146e-06 -2.69202e-13 2.14855e-13 -3.23685e-14 -2.70427e-10 -3.37832e-10 -1.41181e-10 1.25311e-16 -9.9959e-19 1.90667e-18 1 3.26441e-05 6.41842e-05 0.00026128 -0.000661014 -0.00576381 0 0.0008
88 1 0.00615556 -0.00106461 0.00196587 0.0008 3.43146e-06 5.36589e-14 1.76548e-13 -1.03186e-12 -2.22494e-09 -1.51567e-09 1.40849e-09 -6.66292e-16 -4.17628e-16 1.77912e-16 0 0 0 0 0 0 0 0
89 1 0.00240534 -0.00347483 0.00554551 0.0008 3.43146e-06 -6.37985e-13 -8.5928e-13 7.72938e-13 1.2969e-10 1.01895e-09 2.42055e-10 -1.30394e-16 -2.49707e-16 3.23717e-16 0 0 0 0 0 0 0 0
90 1 -0.0020887 -0.0050446 0.000863482 0.0008 3.43146e-06 -9.05995e-13 5.53283e-13 4.25642e-14 5.19558e-10 2.79112e-10 1.09854e-10 -1.34261e-16 3.95597e-16 3.24443e-16 0 0 0 0 0 0 0 0
91 1 0.00178045 -0.00408626 0.000799119 0.0008 3.43146e-06 -3.05786e-13 4.08568e-13 9.60033e-14 -5.07736e-10 -3.79974e-10 -2.82464e-10 3.52982e-16 -1.29493e-17 4.55989e-17 1 0.000395216 0.000169361 0.0017134 0.00178045 -0.00408626 0 0.0008
92 1 -0.000469525 -0.007185 0.00313169 0.0008 3.43146e-06 1.34882e-13 -1.27286e-12 4.99011e-13 6.43624e-10 2.3496e-10 -2.84507e-10 1.90105e-16 -3.2797e-16 4.05932e-17 1 8.68575e-06 0.000392629 0.000123011 -0.000521671 -0.00798297 0.00313169 0.0008
93 1 -0.0050851 -0.00104025 0.00283659 0.0008 3.43146e-06 -9.42095e-13 -9.15351e-14 1.74256e-13 1.50936e-09 -4.25252e-10 1.29654e-09 5.77885e-16 -8.55086e-16 -6.29249e-16 0 0 0 0 0 0 0 0
94 1 -0.00702693 -0.00157292 0.00414529 0.0008 3.43146e-06 3.60138e-13 2.36478e-13 -5.35014e-13 9.85314e-10 9.22663e-10 2.34953e-10 -6.83789e-16 4.28958e-16 -8.71017e-17 1 0.00156259 0.000220746 0.000507239 -0.00780681 -0.0017475 0.00414529 0.0008
95 1 -0.00529939 0.00487292 0.000799911 0.0008 3.43146e-06 8.95739e-13 -4.13744e-13 3.31618e-14 5.1531e-10 1.12008e-09 2.97369e-09 1.46717e-17 1.83554e-17 3.34889e-17 1 4.71326e-06 3.84549e-06 5.49689e-05 -0.00529939 0.00487292 0 0.0008
96 1 0.00284171 -0.00335132 0.00174272 0.0008 3.43146e-06 -4.31638e-13 -4.8104e-13 1.35617e-13 4.39585e-10 -2.61841e-10 -1.05376e-09 8.32296e-16 -1.74716e-16 2.10214e-17 0 0 0 0 0 0 0 0
97 1 -0.00185968 0.00537463 0.00302814 0.0008 3.43146e-06 7.42301e-15 1.17213e-12 3.70829e-13 -1.18473e-09 -4.54614e-11 -1.44512e-09 -7.05441e-16 -3.60483e-17 7.79817e-16 0 0 0 0 0 0 0 0
98 1 -0.000882883 0.00604675 0.00195321 0.0008 3.43146e-06 2.15647e-13 5.35132e-13 2.5963e-14 -8.40101e-10 -1.59021e-10 -2.39099e-10 -5.2947e-16 -1.34906e-15 6.20985e-16 0 0 0 0 0 0 0 0
99 1 0.000686791 0.00437085 0.000799066 0.0008 3.43146e-06 8.7123e-14 -2.50192e-13 -2.15607e-13 3.21787e-10 1.12393e-10 5.2495e-10 3.17025e-17 3.77525e-16 -2.11677e-16 1 2.37485e-05 0.000132261 0.0018698 0.000686791 0.00437085 0 0.0008
100 1 -0.00180919 -0.00395289 0.00223367 0.0008 3.43146e-06 -5.41175e-13 -1.40098e-13 -5.07598e-13 1.39891e-09 -5.40206e-10 7.8347e-10 -1.07691e-16 -4.07024e-17 -2.57152e-16 0 0 0 0 0 0 0 0
101 1 0.00242953 0.00183074 0.00360957 0.0008 3.43146e-06 -5.36579e-13 1.65297e-13 -4.63878e-13 1.04446e-09 -4.11305e-10 4.34776e-10 1.92762e-15 -1.48535e-15 6.53511e-16 0 0 0 0 0 0 0 0
102 1 -0.00708511 -0.00128272 0.0025735 0.0008 3.43146e-06 -3.01448e-13 3.61813e-13 1.21394e-13 -5.91264e-10 -1.98664e-10 4.74003e-10 -3.52711e-17 -8.68331e-16 2.31624e-16 1 0.000335512 4.32254e-05 0.000121233 -0.00787203 -0.00142519 0.0025735 0.0008
103 1 0.000842623 0.00276944 0.000799934 0.0008 3.43146e-06 -2.70689e-13 -3.7015e-15 -2.71046e-13 -1.27619e-11 -3.66268e-10 3.74355e-10 1.38947e-16 2.86203e-15 2.35654e-17 1 -3.36346e-07 3.31965e-07 3.47816e-05 0.000842623 0.00276944 0 0.0008
104 1 -0.00198759 0.000944463 0.00550819 0.0008 3.43146e-06 5.60213e-13 2.70919e-13 -5.41685e-13 6.62898e-10 -5.16328e-10 -4.19727e-10 3.20998e-15 6.85525e-16 -2.76293e-16 0 0 0 0 0 0 0 0
105 1 -0.00670286 -0.00262943 0.00179964 0.0008 3.43146e-06 -5.3639e-14 -3.56859e-13 9.61841e-15 2.63257e-10 1.09771e-10 -3.81525e-10 -2.04197e-16 -4.22991e-16 3.42068e-16 1 0.000101665 8.30779e-05 -6.23111e-07 -0.00744746 -0.00292152 0.00179964 0.0008
106 1 -0.00462524 0.00551845 0.00483866 0.0008 3.43146e-06 -1.59933e-13 -1.09116e-12 1.07971e-13 -9.27218e-10 8.99738e-10 -1.05634e-09 3.48524e-16 -2.91154e-16 -7.08244e-17 1 0.000470441 -0.000373943 8.36323e-05 -0.00513885 0.00613125 0.00483866 0.0008
107 1 -0.00464828 0.00549874 0.0021206 0.0008 3.43146e-06 1.99566e-13 -2.36132e-13 8.76524e-15 5.31968e-10 -6.34607e-10 -1.73274e-11 -2.33004e-16 1.73848e-16 -7.62991e-17 1 0.000127968 -0.00010958 -2.27293e-05 -0.00516462 0.00610955 0.0021206 0.0008
108 1 -0.00374744 -0.000180193 0.00319718 0.0008 3.43146e-06 1.08343e-12 7.04069e-14 2.71016e-13 1.92953e-10 5.78226e-10 -3.27204e-10 -1.56608e-16 -1.04647e-16 6.68462e-16 0 0 0 0 0 0 0 0
109 1 0.00194862 0.00270402 0.0023583 0.0008 3.43146e-06 -2.83123e-13 4.00909e-13 -8.34887e-13 -5.5628e-10 -9.12079e-10 5.8072e-10 1.41295e-15 -1.00213e-15 -5.95717e-17 0 0 0 0 0 0 0 0
110 1 0.0064812 0.0031372 0.00352514 0.0008 3.43146e-06 1.09724e-13 9.0236e-14 5.90308e-13 -1.6183e-10 7.4663e-10 -3.50679e-11 1.32163e-16 -4.4855e-16 3.0607e-16 1 -0.000820346 -0.000322567 0.000101395 0.00720078 0.00348551 0.00352514 0.0008
111 1 -0.00287164 0.002737 0.00384774 0.0008 3.43146e-06 -2.75498e-13 3.94322e-13 -1.07873e-12 1.90285e-09 1.13619e-09 -1.22644e-09 1.7042e-15 1.14108e-15 -6.732e-17 0 0 0 0 0 0 0 0
112 1 0.00324345 0.00460826 0.000799011 0.0008 3.43146e-06 -4.52855e-14 3.76622e-14 -2.70442e-13 -5.01635e-11 -5.74549e-11 6.90772e-10 -1.31538e-16 -5.1152e-16 6.38867e-16 1 4.80858e-05 -0.000105194 0.00203938 0.00324345 0.00460826 0 0.0008
113 1 -0.00198743 0.00275986 0.00202409 0.0008 3.43146e-06 4.31611e-13 -5.4214e-13 7.78234e-14 3.11684e-10 -4.18913e-10 4.1763e-10 2.50889e-16 -4.16463e-16 1.34627e-15 0 0 0 0 0 0 0 0
114 1 0.00717043 -0.000655355 0.000799489 0.0008 3.43146e-06 -3.04206e-15 -2.70147e-13 2.01483e-14 3.3808e-10 -3.01883e-12 3.38988e-10 2.62353e-16 2.79003e-17 1.78503e-16 1 -0.000139081 -3.18229e-05 0.000757702 0.00717043 -0.000655355 0 0.0008
115 1 -0.00329625 0.00464526 0.0039576 0.0008 3.43146e-06 -1.06727e-12 -1.5753e-12 -5.46414e-13 1.80434e-09 -2.41623e-09 -1.31464e-09 -9.11982e-16 4.54268e-16 8.25872e-16 0 0 0 0 0 0 0 0
116 1 -0.00598017 -0.00231779 0.0031923 0.0008 3.43146e-06 -3.04677e-13 8.10945e-14 -3.09618e-13 -1.46678e-09 -4.68708e-10 -5.48251e-10 -4.9738e-16 -6.11622e-16 2.4759e-16 0 0 0 0 0 0 0 0
117 1 -0.00235751 -0.00310623 0.0034955 0.0008 3.43146e-06 -1.08357e-12 2.51144e-13 1.08383e-12 -9.24956e-10 -3.78989e-10 -8.20409e-10 -7.18494e-16 -2.13102e-15 4.2653e-16 0 0 0 0 0 0 0 0
118 1 0.00307061 0.00478904 0.00269522 0.0008 3.43146e-06 8.30304e-13 6.15745e-13 2.85567e-13 -5.07217e-10 5.06686e-10 1.15265e-09 3.67439e-16 -2.53151e-15 3.53002e-16 0 0 0 0 0 0 0 0
119 1 -0.00452863 -0.00359512 0.000799186 0.0008 3.43146e-06 -4.42781e-14 -1.64897e-13 1.98654e-13 2.04826e-10 -4.66541e-11 2.18094e-10 -5.50144e-16 -3.21512e-16 -3.10387e-16 1 0.000101541 -1.52866e-05 0.00152038 -0.00452863 -0.00359512 0 0.0008
120 1 0.00504025 -0.00242216 0.00206578 0.0008 3.43146e-06 -5.74541e-13 -4.09255e-13 3.808e-13 -1.28364e-09 -1.12544e-09 6.82804e-11 -3.86839e-16 -1.34784e-15 2.32961e-16 0 0 0 0 0 0 0 0
121 1 0.00240677 0.00123323 0.000799931 0.0008 3.43146e-06 -6.5905e-13 3.24096e-13 2.11946e-13 -3.77626e-10 -8.61725e-10 1.68766e-10 -1.04473e-15 -4.34738e-16 -7.96481e-16 1 -2.84648e-07 7.2265e-07 3.76155e-05 0.00240677 0.00123323 0 0.0008
122 1 0.0063483 0.00339706 0.00540545 0.0008 3.43146e-06 1.62778e-12 7.87386e-13 1.62307e-12 -7.19577e-10 1.90588e-09 8.02794e-11 -1.9705e-15 3.23927e-15 1.02945e-15 1 -2.7282e-05 -1.4214e-05 4.22334e-06 0.0070536 0.00377447 0.00540545 0.0008
123 1 0.00397208 -0.00600548 0.000799754 0.0008 3.43146e-06 -2.74483e-13 1.01341e-13 -2.31312e-13 -1.24807e-10 -3.40999e-10 2.1632e-10 2.42811e-17 2.42954e-17 -8.39116e-17 1 -8.24017e-05 3.79454e-05 0.00025339 0.00397208 -0.00600548 0 0.0008
124 1 0.00611165 0.00175019 0.00281775 0.0008 3.43146e-06 -2.09137e-12 -5.42029e-13 5.24199e-13 2.56505e-10 -2.25402e-09 -6.16909e-12 6.21733e-16 1.8488e-16 -3.62178e-15 0 0 0 0 0 0 0 0
125 1 0.00120003 -0.00141195 0.000799177 0.0008 3.43146e-06 -1.30056e-13 1.65625e-14 -1.22771e-13 -3.43331e-11 -1.59325e-10 -5.00271e-10 2.1866e-16 1.006e-16 -7.27772e-16 1 -0.000166171 -0.000130835 0.00154609 0.00120003 -0.00141195 0 0.0008
126 1 -0.00385873 -0.00317204 0.00466752 0.0008 3.43146e-06 -5.43104e-13 2.53678e-13 -1.58498e-13 1.30572e-09 6.58609e-10 1.95823e-09 -1.8766e-15 -1.07628e-15 -1.74353e-15 0 0 0 0 0 0 0 0
127 1 -0.00290339 0.00395234 0.0025701 0.0008 3.43146e-06 -4.82954e-13 1.58015e-13 6.5587e-13 8.38006e-11 2.54218e-10 -1.55664e-10 8.66529e-17 1.43274e-16 9.84553e-16 0 0 0 0 0 0 0 0
128 1 -0.000267536 0.00227711 0.00184654 0.0008 3.43146e-06 -7.92044e-14 -2.46402e-13 -5.42121e-13 -2.44021e-10 -8.38748e-10 1.6052e-10 8.35596e-16 -7.37998e-16 3.0335e-16 0 0 0 0 0 0 0 0
129 1 0.00618191 -0.0036919 0.00356483 0.0008 3.43146e-06 -6.13122e-13 4.06911e-13 1.01711e-12 4.23228e-10 1.22441e-09 -4.21701e-11 -2.81077e-16 3.2119e-16 -4.66073e-16 1 -0.000522703 0.00026259 8.69482e-05 0.00686838 -0.00410187 0.00356483 0.0008
130 1 -0.00203687 -0.00690593 0.00239053 0.0008 3.43146e-06 -5.26776e-13 2.03879e-13 1.61385e-14 1.02031e-11 -3.7731e-11 7.04069e-10 1.10156e-16 1.9374e-16 5.28019e-17 1 9.29465e-06 2.18278e-05 -1.99654e-06 -0.00226317 -0.0076732 0.00239053 0.0008
131 1 -0.0049739 -0.00520592 0.00282413 0.0008 3.43146e-06 -1.44333e-13 -1.07842e-12 3.42135e-13 2.74409e-10 -3.37777e-10 -8.01019e-10 1.34169e-16 2.1859e-16 2.56359e-16 1 4.21017e-05 4.11571e-05 1.81642e-05 -0.00552649 -0.00578428 0.00282413 0.0008
132 1 0.00265202 -0.000473823 0.000799522 0.0008 3.43146e-06 -1.37353e-13 -1.81767e-14 2.25766e-14 1.98826e-11 -2.08529e-10 -5.42346e-10 -1.0817e-15 2.83581e-16 -1.31295e-15 1 -4.82505e-05 -9.83778e-05 0.000684832 0.00265202 -0.000473823 0 0.0008
133 1 0.00573139 -0.00435936 0.00218271 0.0008 3.43146e-06 -2.15804e-12 8.01418e-13 1.08308e-12 5.06565e-10 1.31698e-09 8.28445e-10 -3.96363e-16 -2.64426e-17 -3.66455e-17 1 -0.00151188 0.000994741 0.000335482 0.00636742 -0.00484313 0.00218271 0.0008
134 1 -0.00342836 -0.000510143 0.000799861 0.0008 3.43146e-06 8.18577e-14 -2.38561e-14 -2.06091e-14 3.00881e-11 1.05943e-10 -1.73044e-09 8.14032e-16 3.67678e-16 -4.67144e-16 1 2.18317e-05 7.18235e-06 0.000107695 -0.00342836 -0.000510143 0 0.0008
135 1 0.00363075 0.00109851 0.00465533 0.0008 3.43146e-06 -1.08181e-12 -5.41939e-13 8.28078e-13 -4.63096e-10 -7.14325e-10 1.24779e-09 5.49956e-16 -4.17072e-16 2.71448e-16 0 0 0 0 0 0 0 0
136 1 -0.000269049 0.00435807 0.00347324 0.0008 3.43146e-06 -2.43978e-14 3.17664e-13 -3.53764e-13 -6.53944e-10 8.97729e-10 8.17539e-10 1.27898e-15 -2.11755e-15 4.1544e-16 0 0 0 0 0 0 0 0
137 1 -0.000135032 0.00107548 0.000799441 0.0008 3.43146e-06 6.74766e-14 -1.36642e-13 -2.70943e-13 1.6998e-10 1.22948e-10 -4.86072e-10 2.24918e-16 -2.84587e-16 -4.35544e-16 1 -5.99802e-05 0.000106913 0.000866368 -0.000135032 0.00107548 0 0.0008
138 1 0.00581627 0.00021053 0.000799936 0.0008 3.43146e-06 2.90608e-41 -4.2984e-42 -2.04528e-13 5.37287e-39 3.63252e-38 3.48502 -1.03789e-44 1.53515e-45 3.49505e-21 1 4.15152e-45 -6.14053e-46 3.36626e-05 0.00581627 0.00021053 0 0.0008
139 1 0.00218557 0.000458151 0.00441005 0.0008 3.43146e-06 2.91168e-13 -6.45354e-14 3.0182e-13 -4.67073e-10 -7.62583e-10 -1.34993e-09 -3.08747e-15 -1.61935e-15 -5.11915e-16 0 0 0 0 0 0 0 0
140 1 -0.00719838 0.000161698 0.000799571 0.0008 3.43146e-06 -1.0758e-13 6.7521e-14 9.56563e-14 -9.59594e-11 -1.44969e-10 7.80345e-11 -4.23788e-17 -2.90052e-16 1.81189e-16 1 9.56053e-05 3.10054e-05 0.000581347 -0.00719838 0.000161698 0 0.0008
141 1 0.00119564 0.00018771 0.000799614 0.0008 3.43146e-06 -1.36558e-13 4.20169e-14 -2.71011e-13 -1.10048e-10 -1.75484e-10 5.06409e-10 8.88014e-16 -4.94652e-16 3.80949e-16 1 1.02511e-05 8.66049e-07 0.000496487 0.00119564 0.00018771 0 0.0008
142 1 0.00249396 -0.00675462 0.00389304 0.0008 3.43146e-06 9.56942e-14 -6.17385e-13 -5.16291e-13 -5.02935e-10 -5.13381e-10 1.67684e-10 -8.74476e-17 -7.0753e-16 -1.96027e-16 1 -0.000122046 0.000376991 8.33021e-06 0.00277095 -0.00750479 0.00389304 0.0008
143 1 0.00158623 0.00306267 0.00422227 0.0008 3.43146e-06 -4.60663e-13 -6.67151e-13 7.7846e-13 2.12975e-10 -1.78674e-09 -3.18508e-10 2.60994e-15 -4.5661e-15 1.63176e-15 0 0 0 0 0 0 0 0
144 1 -0.00606754 0.00129319 0.000799661 0.0008 3.43146e-06 4.06468e-13 -3.64336e-13 1.22029e-13 4.80404e-10 5.08224e-10 -8.49396e-10 2.03633e-16 1.81653e-16 3.44294e-16 1 4.44542e-05 8.94426e-05 0.000408192 -0.00606754 0.00129319 0 0.0008
145 1 0.00183764 -0.0019327 0.00217038 0.0008 3.43146e-06 -5.41054e-13 5.04829e-13 -2.21397e-13 -1.17561e-09 3.41819e-10 -9.41747e-10 3.5027e-16 -6.45224e-17 -5.00649e-16 0 0 0 0 0 0 0 0
146 1 -0.00316934 0.00646533 0.00214268 0.0008 3.43146e-06 9.05859e-14 -7.6027e-14 -4.95077e-13 7.71474e-10 -1.84952e-10 8.19996e-11 -1.99768e-17 -3.78103e-16 3.87753e-16 1 0.000322118 -0.000369259 4.93016e-05 -0.00352131 0.00718334 0.00214268 0.0008
147 1 -0.00660029 0.00286853 0.000799936 0.0008 3.43146e-06 2.96045e-41 -3.65386e-42 -2.04528e-13 4.56722e-39 3.70048e-38 -0.46922 -1.05731e-44 1.30495e-45 3.49505e-21 1 4.22919e-45 -5.21977e-46 3.36626e-05 -0.00660029 0.00286853 0 0.0008
148 1 0.00655496 -0.00297957 0.0021821 0.0008 3.43146e-06 -1.7347e-12 1.08307e-12 6.82656e-13 4.79508e-10 7.07922e-10 -3.31307e-10 -1.09684e-15 -9.25587e-16 6.09605e-16 1 -0.000445286 0.000160907 0.000175383 0.00728291 -0.00331046 0.0021821 0.0008
149 1 0.00526741 -0.00283559 0.005146 0.0008 3.43146e-06 -1.91564e-12 8.51802e-13 1.30971e-12 1.18131e-09 4.62624e-10 -1.75227e-09 -3.49364e-16 -4.79257e-16 1.1209e-16 0 0 0 0 0 0 0 0
150 1 0.00645177 0.00319609 0.000799906 0.0008 3.43146e-06 -9.1796e-14 -2.24255e-13 -2.42941e-13 2.42205e-10 -1.56053e-10 2.5785e-10 2.19712e-16 8.83263e-16 8.42445e-16 1 6.65721e-06 -1.56256e-05 5.98846e-05 0.00645177 0.00319609 0 0.0008
151 1 0.00208472 -0.000135638 0.00225632 0.0008 3.43146e-06 4.56088e-13 -8.94057e-14 -1.08287e-12 3.39437e-10 5.02167e-11 -1.0656e-09 -8.0197e-16 -1.27313e-15 2.29897e-16 0 0 0 0 0 0 0 0
152 1 -0.00308813 -0.00491168 0.00227677 0.0008 3.43146e-06 7.37173e-13 5.21108e-13 -1.9971e-13 -7.06034e-10 1.60292e-09 -5.31928e-10 -1.29371e-16 2.50187e-16 -1.68939e-16 0 0 0 0 0 0 0 0
153 1 -0.00454589 -0.00558377 0.00431846 0.0008 3.43146e-06 -7.85703e-13 -6.57269e-14 -7.6865e-13 -1.2038e-09 2.12318e-11 7.03282e-10 -3.01038e-16 -1.07866e-16 3.99673e-16 1 0.000140933 0.000225372 6.81674e-05 -0.00505081 -0.00620398 0.00431846 0.0008
154 1 0.00267248 -0.00529726 0.00140655 0.0008 3.43146e-06 -7.14476e-13 2.40663e-13 5.37093e-14 -5.38649e-11 5.68075e-10 1.2148e-11 -1.88604e-16 -2.08694e-16 1.91765e-17 0 0 0 0 0 0 0 0
155 1 -0.00510304 -0.00256184 0.001877 0.0008 3.43146e-06 3.53689e-14 -8.11886e-13 3.73546e-13 8.36423e-10 -4.71102e-10 -6.6161e-10 -9.16332e-16 -1.01821e-15 -1.62534e-16 0 0 0 0 0 0 0 0
156 1 0.00415005 0.00588419 0.00442171 0.0008 3.43146e-06 1.339e-12 -8.46161e-13 -1.30559e-12 2.51782e-09 7.04877e-10 1.96432e-09 -5.26871e-16 -6.78252e-16 -1.91442e-16 1 -0.000438976 -0.00049826 0.000145165 0.00461088 0.00653757 0.00442171 0.0008
157 1 -0.00142199 -9.78347e-05 0.00323534 0.0008 3.43146e-06 4.72948e-13 3.32464e-14 6.20787e-14 -6.05617e-10 -7.23587e-10 4.52055e-10 2.97984e-16 -2.16333e-16 4.87135e-16 0 0 0 0 0 0 0 0
158 1 0.00523233 0.00276191 0.00445103 0.0008 3.43146e-06 -6.24819e-13 1.36606e-13 1.41935e-13 8.91488e-10 -1.54721e-09 -6.94411e-10 -1.17924e-15 7.16985e-16 -3.00568e-16 0 0 0 0 0 0 0 0
159 1 0.00411413 -0.00273273 0.000799455 0.0008 3.43146e-06 -5.01846e-15 -4.06314e-13 -2.07508e-14 5.08587e-10 -1.4044e-11 -1.12189e-09 -2.08341e-16 1.43498e-17 -1.91794e-16 1 0.000108986 4.16962e-05 0.000833295 0.00411413 -0.00273273 0 0.0008
160 1 -0.00582754 0.00118871 0.00453842 0.0008 3.43146e-06 -9.68763e-13 -1.21126e-13 -9.999e-13 -8.26548e-11 1.79039e-09 -6.38948e-10 -2.38781e-16 4.0627e-17 -5.09537e-17 0 0 0 0 0 0 0 0
161 1 0.00276508 0.00543717 0.00508476 0.0008 3.43146e-06 -3.29188e-13 -2.16688e-12 -1.78049e-12 -5.61132e-10 -1.71748e-09 -1.62694e-09 -3.98236e-17 2.06357e-15 -1.34703e-15 0 0 0 0 0 0 0 0
162 1 0.00424917 -0.00581247 0.00236355 0.0008 3.43146e-06 -8.30183e-13 8.91388e-13 -6.67413e-13 -8.78504e-10 -2.25386e-10 1.83932e-10 -3.27646e-16 -1.63804e-16 6.5292e-17 1 -1.11648e-06 3.35493e-06 5.72441e-07 0.00472129 -0.00645828 0.00236355 0.0008
163 1 0.00168981 -0.00337228 0.00285134 0.0008 3.43146e-06 -5.41945e-13 -6.98156e-13 1.06038e-12 5.08577e-10 1.01413e-09 5.07443e-10 -2.83018e-16 -1.18949e-15 3.28747e-16 0 0 0 0 0 0 0 0
164 1 -0.00600716 0.00396981 0.00431707 0.0008 3.43146e-06 -3.5356e-13 -2.65148e-13 -9.04872e-13 -3.36501e-10 1.5944e-09 -5.1318e-10 7.12105e-16 -2.19439e-16 -7.29636e-16 1 0.000461288 -0.000194981 0.000168445 -0.00667428 0.00441067 0.00431707 0.0008
165 1 -0.00454204 0.00177416 0.000799284 0.0008 3.43146e-06 1.21779e-13 6.48028e-15 -2.70905e-13 1.59564e-11 1.56011e-10 1.38475e-09 2.35043e-16 -3.9152e-16 1.5381e-16 1 0.000131563 -1.74036e-05 0.0012552 -0.00454204 0.00177416 0 0.0008
166 1 0.00617942 -0.00369161 0.000799689 0.0008 3.43146e-06 -1.49287e-12 7.9199e-13 2.68733e-13 -9.91488e-10 -1.86491e-09 -9.68766e-10 -3.39949e-16 4.29147e-16 1.91795e-16 1 8.60353e-06 2.34559e-05 0.000359056 0.00617942 -0.00369161 0 0.0008
167 1 0.00342167 0.00322218 0.00200291 0.0008 3.43146e-06 8.90623e-13 2.39715e-13 9.3976e-13 -3.00881e-10 8.20758e-10 9.42664e-10 9.75593e-17 -1.47861e-15 9.03296e-16 0 0 0 0 0 0 0 0
168 1 -0.00602634 -0.000510049 0.00165656 0.0008 3.43146e-06 -3.89629e-13 1.57988e-13 5.1983e-13 1.18258e-10 -5.57648e-10 -2.95719e-11 3.46061e-16 -6.28034e-16 -1.83689e-16 0 0 0 0 0 0 0 0
169 1 -0.000611662 0.00343653 0.000799817 0.0008 3.43146e-06 2.70992e-13 -3.34834e-13 -2.71047e-13 4.40652e-10 3.34613e-10 -2.78095e-10 -6.04093e-16 1.03225e-15 -9.77214e-16 1 1.4347e-05 -1.46222e-05 0.000162381 -0.000611662 0.00343653 0 0.0008
170 1 0.00678488 -0.00220813 0.00079973 0.0008 3.43146e-06 -7.74549e-13 7.24165e-13 2.64518e-13 -9.04448e-10 -9.68096e-10 -1.57505e-09 -3.16359e-16 7.61544e-16 -1.85568e-16 1 -1.83347e-05 -6.07567e-05 0.000290828 0.00678488 -0.00220813 0 0.0008
171 1 -0.00109882 0.00496027 0.000799464 0.0008 3.43146e-06 1.76712e-13 -7.04225e-14 2.66741e-13 8.67521e-11 2.20716e-10 2.87105e-10 -6.61982e-16 -1.84025e-17 -6.28635e-17 1 1.21545e-05 3.59341e-05 0.000814192 -0.00109882 0.00496027 0 0.0008
172 1 -0.00521675 -0.0049631 0.00126171 0.0008 3.43146e-06 -9.54775e-14 -4.06639e-13 -7.15285e-15 3.48135e-10 3.6111e-10 -2.86858e-10 -9.74359e-17 1.53771e-16 -3.53824e-16 1 0.00047107 0.00050593 -1.62898e-06 -0.00579601 -0.00551419 0.00126171 0.0008
173 1 -0.00672668 0.00256759 0.00459108 0.0008 3.43146e-06 -8.21901e-13 -9.65125e-15 4.85253e-14 -1.69188e-10 -2.30105e-11 -3.64462e-10 1.00128e-15 -2.5288e-16 1.18696e-16 1 2.59426e-05 -4.22004e-06 2.47396e-06 -0.00747404 0.00285285 0.00459108 0.0008
174 1 0.00415229 -0.00391464 0.00475637 0.0008 3.43146e-06 -9.13408e-13 1.23181e-12 3.60811e-13 7.89393e-10 -4.9967e-10 2.62392e-09 -8.20374e-16 -4.84703e-16 -1.55652e-16 0 0 0 0 0 0 0 0
175 1 0.00212442 0.00688008 0.00482948 0.0008 3.43146e-06 1.52262e-13 1.17159e-14 -1.36147e-12 1.98485e-09 6.5702e-10 1.74564e-10 5.70623e-16 -1.04604e-15 7.46607e-17 1 -0.00019617 -0.000984788 -2.68828e-06 0.00236026 0.0076439 0.00482948 0.0008
176 1 -0.00409585 0.000858499 0.00203212 0.0008 3.43146e-06 8.54164e-13 2.7078e-13 1.29015e-13 -4.55973e-11 -6.73039e-10 7.12669e-10 -4.2719e-16 8.40175e-16 -3.97676e-16 0 0 0 0 0 0 0 0
177 1 -0.00335695 -0.00128268 0.00428878 0.0008 3.43146e-06 8.21289e-13 -4.52586e-13 -6.57192e-13 1.16715e-09 -9.04854e-10 3.60185e-10 4.88322e-16 -5.70352e-16 -2.26936e-15 0 0 0 0 0 0 0 0
178 1 -0.00365435 -0.00225551 0.000798941 0.0008 3.43146e-06 2.72888e-13 2.32846e-13 2.08914e-16 -2.83416e-10 3.40817e-10 -2.9898e-10 -7.87697e-16 -1.95678e-16 4.7752e-16 1 0.000231628 0.000275876 0.0022573 -0.00365435 -0.00225551 0 0.0008
179 1 0.00322225 -0.00643909 0.00528218 0.0008 3.43146e-06 -6.68524e-13 7.59329e-13 -9.48397e-13 -1.27014e-09 -1.5247e-10 3.33169e-10 3.17321e-16 -1.06353e-15 5.94755e-16 1 -0.000156352 0.000370288 5.20655e-06 0.00358012 -0.00715421 0.00528218 0.0008
180 1 0.000940942 -0.00713837 0.00388465 0.0008 3.43146e-06 -1.96657e-13 -1.23258e-12 -3.30713e-13 -4.65415e-10 5.05135e-10 4.64289e-10 1.80956e-16 -5.22892e-16 2.89491e-16 1 -5.11867e-06 8.39414e-05 5.22336e-06 0.00104547 -0.00793139 0.00388465 0.0008
181 1 -0.00488441 0.000211562 0.000799733 0.0008 3.43146e-06 5.68494e-13 6.73409e-14 -3.94413e-14 -1.22406e-10 7.1304e-10 -8.69851e-10 -3.8313e-16 -3.0067e-16 -2.46038e-16 1 -2.30492e-05 -1.41805e-05 0.000285392 -0.00488441 0.000211562 0 0.0008
182 1 -0.000416713 -0.00718568 0.00473067 0.0008 3.43146e-06 1.348e-13 -1.07443e-12 1.70058e-12 -8.8246e-10 -2.62784e-10 5.83228e-10 1.60055e-17 -4.73063e-16 -8.45355e-16 0 0 0 0 0 0 0 0
183 1 5.45028e-05 0.00596164 0.0032465 0.0008 3.43146e-06 1.65908e-14 1.064e-12 7.1084e-13 -1.22691e-09 -4.0718e-10 -1.42112e-09 3.54928e-17 -2.03088e-15 -3.37334e-16 0 0 0 0 0 0 0 0
184 1 0.00286059 -0.00660736 0.00234296 0.0008 3.43146e-06 -2.56382e-13 -4.27556e-13 6.99199e-13 7.32682e-10 5.40049e-10 4.83426e-10 -3.34591e-16 -3.5655e-16 1.04871e-16 1 -6.94098e-07 1.50152e-06 2.90254e-07 0.00317842 -0.0073415 0.00234296 0.0008
185 1 -0.00602991 0.00393491 0.00188056 0.0008 3.43146e-06 6.38979e-13 7.33924e-13 4.49326e-13 1.88005e-09 -1.90283e-09 1.20321e-09 7.05759e-16 -3.27877e-16 -4.20361e-17 1 0.000176356 -0.000163181 -9.74862e-06 -0.00669968 0.00437198 0.00188056 0.0008
186 1 -0.00176682 0.000191402 0.000799143 0.0008 3.43146e-06 4.71312e-13 -3.45164e-14 9.57493e-15 3.59159e-11 5.86955e-10 -2.08257e-10 3.4881e-16 -2.25644e-16 9.14152e-17 1 -0.000173525 -0.000112001 0.00164463 -0.00176682 0.000191402 0 0.0008
187 1 0.00244135 0.00283284 0.000799914 0.0008 3.43146e-06 -2.24756e-13 -2.33512e-13 1.93072e-13 2.95635e-10 -2.65081e-10 -6.81928e-10 -4.75146e-16 -2.13061e-16 3.56159e-16 1 5.93086e-06 2.07779e-06 5.21731e-05 0.00244135 0.00283284 0 0.0008
188 1 -0.00267366 -0.0054173 0.00563668 0.0008 3.43146e-06 9.98236e-13 -1.7642e-13 1.59993e-12 -2.42162e-10 -2.10899e-09 -7.0926e-10 9.14356e-16 -5.51759e-17 -1.57969e-15 0 0 0 0 0 0 0 0
189 1 -0.00614816 -0.00374754 0.000799392 0.0008 3.43146e-06 -2.31483e-13 -3.80974e-15 1.67837e-13 5.24933e-12 -2.76043e-10 1.51203e-10 8.31885e-17 -3.09891e-16 -6.80555e-17 1 -4.06247e-05 -3.71046e-05 0.000981955 -0.00614816 -0.00374754 0 0.0008
190 1 0.00112049 0.00149175 0.00172286 0.0008 3.43146e-06 -6.82732e-14 -1.66267e-13 -5.41861e-13 1.01147e-11 9.72118e-10 -3.58852e-11 1.83563e-15 -2.12197e-15 -3.86767e-16 0 0 0 0 0 0 0 0
191 1 -0.0023223 -0.00551558 0.00354476 0.0008 3.43146e-06 7.46783e-13 -1.89282e-13 2.62911e-13 2.08441e-10 -1.09788e-09 -1.52726e-09 6.85808e-16 -1.13171e-15 -3.69064e-17 0 0 0 0 0 0 0 0
192 1 -0.001669 -0.00114153 0.00449027 0.0008 3.43146e-06 1.17473e-13 5.38909e-13 -1.07878e-13 -8.56212e-10 -1.05945e-10 -5.75467e-10 -1.13828e-15 2.31271e-16 -4.2557e-16 0 0 0 0 0 0 0 0
193 1 0.00426247 0.00403276 0.00479188 0.0008 3.43146e-06 5.37488e-13 7.0623e-13 8.33449e-13 6.31467e-10 1.12436e-09 9.85549e-10 -1.5537e-16 -2.53023e-15 1.85641e-15 0 0 0 0 0 0 0 0
194 1 0.00441188 0.00447311 0.00188218 0.0008 3.43146e-06 6.18011e-13 5.87048e-13 -5.40742e-13 -7.12819e-10 8.95892e-10 -4.31204e-10 -1.02507e-15 -4.87112e-17 -2.1792e-16 0 0 0 0 0 0 0 0
195 1 0.000262744 -0.00167099 0.00206859 0.0008 3.43146e-06 -1.34878e-13 3.94251e-13 -2.53038e-13 -7.71217e-10 -7.21491e-11 8.53779e-10 -3.82397e-16 9.49662e-16 8.82808e-17 0 0 0 0 0 0 0 0
196 1 0.00476402 -0.00295486 0.00363236 0.0008 3.43146e-06 -1.87629e-12 1.08277e-12 1.08396e-12 -1.41935e-09 -7.17373e-10 6.13807e-11 -9.55878e-17 4.13736e-17 -9.42626e-16 0 0 0 0 0 0 0 0
197 1 0.00265408 0.00228751 0.00512631 0.0008 3.43146e-06 -1.08205e-12 -1.08411e-12 1.32386e-12 1.19284e-09 -2.01521e-10 6.89119e-10 -5.45561e-16 -7.99105e-16 9.22667e-16 0 0 0 0 0 0 0 0
198 1 -0.00368732 -0.00503724 0.000799273 0.0008 3.43146e-06 -2.69218e-13 -3.06723e-14 2.14368e-14 3.91855e-11 -3.40981e-10 6.45305e-10 -2.50676e-16 9.96532e-17 -1.40455e-17 1 8.34198e-05 -3.046e-05 0.00128383 -0.00368732 -0.00503724 0 0.0008
199 1 -0.00217577 0.00377136 0.000799288 0.0008 3.43146e-06 2.13435e-13 -2.15846e-13 2.70755e-13 2.54468e-10 2.44109e-10 1.74131e-10 1.33826e-16 6.88479e-17 5.4521e-16 1 -1.26652e-05 1.1791e-05 0.00124479 -0.00217577 0.00377136 0 0.0008
200 1 0.000817872 0.00441679 0.00464517 0.0008 3.43146e-06 2.7084e-13 -3.05945e-13 -3.67777e-13 2.11928e-09 -5.68955e-10 -3.62591e-10 7.55908e-18 -1.75448e-15 1.23853e-15 0 0 0 0 0 0 0 0
201 1 -0.00596251 -0.00403617 0.00236154 0.0008 3.43146e-06 -4.30681e-13 3.10774e-14 2.98012e-14 3.43496e-11 -3.47523e-11 3.23108e-10 5.32522e-17 1.58977e-16 -3.39938e-16 1 0.00010568 6.76089e-05 -3.16672e-06 -0.00662487 -0.00448454 0.00236154 0.0008
202 1 -0.00262064 0.00134377 0.002415 0.0008 3.43146e-06 6.01316e-13 2.64077e-13 -7.36089e-14 -2.39337e-10 7.786e-10 -7.09198e-10 6.19993e-16 -4.87874e-16 1.2661e-16 0 0 0 0 0 0 0 0
203 1 0.00508468 -0.00144545 0.000799714 0.0008 3.43146e-06 2.14042e-13 -5.41369e-13 -2.6713e-13 6.57813e-10 2.58699e-10 -5.32329e-10 -1.0511e-15 -5.99292e-17 -5.63814e-16 1 -2.9904e-05 -4.02374e-05 0.000317437 0.00508468 -0.00144545 0 0.0008
204 1 -0.0069072 -0.00203447 0.00567193 0.0008 3.43146e-06 3.02827e-13 2.4542e-13 7.49737e-13 -1.46655e-09 -1.33777e-09 1.8563e-10 -9.35292e-16 5.55133e-16 9.84602e-17 1 0.000919664 0.000278919 6.39177e-05 -0.00767404 -0.00226034 0.00567193 0.0008
205 1 -0.00444606 0.00391193 0.00214929 0.0008 3.43146e-06 8.51035e-13 -2.67134e-13 -5.115e-13 4.55161e-10 -2.08532e-09 8.83203e-10 4.3767e-16 1.5456e-16 -1.65971e-16 0 0 0 0 0 0 0 0
206 1 -0.00153741 0.00272066 0.00473002 0.0008 3.43146e-06 2.0041e-13 -1.27834e-13 -2.16655e-12 -1.33922e-09 3.48404e-10 8.35239e-10 -2.58932e-16 7.22353e-16 -7.71867e-16 0 0 0 0 0 0 0 0
207 1 0.00117028 -0.00364071 0.00433949 0.0008 3.43146e-06 2.78492e-13 -6.42469e-13 7.91138e-13 -4.25757e-10 -1.24839e-10 -6.16152e-10 2.17565e-16 -1.80773e-15 3.1993e-16 0 0 0 0 0 0 0 0
208 1 -0.00719383 0.000303009 0.00239287 0.0008 3.43146e-06 -4.39592e-13 -1.34867e-13 9.62368e-14 3.86823e-10 -2.60594e-10 -2.01093e-10 2.88399e-16 5.58536e-16 7.10694e-16 1 0.000207023 3.26619e-05 6.44019e-05 -0.00799291 0.000336667 0.00239287 0.0008
209 1 -0.00499625 -0.00138427 0.000799683 0.0008 3.43146e-06 2.67175e-13 1.06773e-13 2.70914e-13 -1.4265e-10 3.49532e-10 4.81747e-10 -5.34498e-16 -1.91616e-16 7.09005e-17 1 -2.44441e-05 -2.42398e-05 0.000369139 -0.00499625 -0.00138427 0 0.0008
210 1 0.00133082 -0.00707595 0.00233277 0.0008 3.43146e-06 2.60316e-14 -8.10339e-13 6.88845e-13 9.12834e-10 -4.88372e-11 1.12586e-10 4.05621e-16 -1.92074e-16 5.6107e-16 1 -4.60473e-08 1.57787e-06 1.04448e-07 0.00147869 -0.00786216 0.00233277 0.0008
211 1 0.00690319 -0.00102215 0.0054583 0.0008 3.43146e-06 1.43957e-14 4.3657e-13 7.97856e-13 -1.70132e-10 -3.94634e-10 -6.2119e-10 -7.84191e-16 5.44378e-16 4.22768e-16 0 0 0 0 0 0 0 0
212 1 -0.00111589 0.000937457 0.00205547 0.0008 3.43146e-06 5.25207e-13 -1.88706e-14 -6.45323e-13 -2.55863e-10 -7.03658e-12 4.79127e-10 1.19388e-16 -2.97042e-16 -1.21136e-16 0 0 0 0 0 0 0 0
213 1 -0.00706209 0.00140463 0.00354506 0.0008 3.43146e-06 -7.57758e-13 3.50321e-14 4.13442e-13 -2.85282e-10 -4.65915e-10 -8.88006e-11 6.72792e-17 -7.46547e-16 -1.2174e-16 1 0.000588328 -8.74584e-05 0.000146787 -0.0078463 0.00156061 0.00354506 0.0008
214 1 -0.00690233 0.00204899 0.00609429 0.0008 3.43146e-06 -4.55934e-13 4.28705e-13 -2.93246e-13 -1.98886e-10 4.45233e-10 3.53981e-10 1.23068e-15 5.51314e-16 9.41878e-16 1 1.1367e-05 -5.55716e-06 -1.78022e-06 -0.00766922 0.00227665 0.00609429 0.0008
215 1 0.00447428 0.00329074 0.000799921 0.0008 3.43146e-06 3.82011e-13 1.64656e-13 -1.03433e-13 -2.05091e-10 4.80681e-10 -5.53394e-10 -1.40887e-16 -3.0417e-16 2.87618e-16 1 -4.62123e-06 -3.01005e-07 4.59685e-05 0.00447428 0.00329074 0 0.0008
216 1 0.000214921 0.00589903 0.00079959 0.0008 3.43146e-06 6.36351e-14 -2.01591e-13 2.70808e-13 2.52825e-10 7.53888e-11 -5.17168e-10 -9.21297e-17 -2.84753e-17 1.34054e-16 1 6.36782e-06 3.85576e-05 0.000544587 0.000214921 0.00589903 0 0.0008
217 1 -0.000618136 -0.00208585 0.0007996 0.0008 3.43146e-06 -1.21808e-14 -2.47567e-13 -2.62998e-13 3.11698e-10 4.99178e-12 -1.04103e-10 -2.09533e-18 -5.16167e-16 1.32617e-16 1 0.000137151 7.54264e-05 0.000523846 -0.000618136 -0.00208585 0 0.0008
218 1 0.00520759 -0.0049722 0.00079992 0.0008 3.43146e-06 2.3553e-13 -4.04077e-14 2.1743e-13 6.3026e-11 3.07963e-10 -1.70726e-10 5.33928e-16 3.6489e-16 2.64786e-16 1 6.25693e-06 -6.92912e-06 4.72057e-05 0.00520759 -0.0049722 0 0.0008
219 1 -0.00256769 -0.000226994 0.00211844 0.0008 3.43146e-06 4.82288e-13 6.75802e-14 6.33827e-13 -6.66929e-10 -3.64762e-10 6.53283e-10 -3.18423e-17 -5.12899e-16 -7.61782e-16 0 0 0 0 0 0 0 0
220 1 0.00525242 0.00492568 0.00567629 0.0008 3.43146e-06 1.46997e-12 9.39124e-13 4.26464e-13 9.73615e-10 1.67469e-09 3.98063e-10 4.80295e-16 -1.36262e-15 9.05211e-16 1 -0.000878419 -0.000929057 0.000383496 0.00583544 0.00547244 0.00567629 0.0008
221 1 -0.00567016 0.000933253 0.00230697 0.0008 3.43146e-06 -3.43094e-13 -2.70978e-13 -1.07922e-12 -3.8248e-10 -9.43943e-10 1.52266e-10 -2.36655e-16 -1.88539e-17 -3.02313e-16 0 0 0 0 0 0 0 0
222 1 -0.000821374 0.00715304 0.0007996 0.0008 3.43146e-06 1.77014e-13 -1.13993e-13 -1.20901e-13 1.35076e-10 2.20532e-10 2.0976e-10 5.44046e-17 4.00119e-16 5.4599e-16 1 -6.4809e-06 -0.000180824 0.000524149 -0.000821374 0.00715304 0 0.0008
223 1 0.0048112 0.000909372 0.0018778 0.0008 3.43146e-06 -4.30219e-13 -2.54239e-13 1.37096e-13 -2.19533e-10 -4.62105e-10 -5.57259e-10 5.55305e-16 -2.49597e-15 -3.28138e-15 0 0 0 0 0 0 0 0
224 1 -0.00328432 -0.00640767 0.00151899 0.0008 3.43146e-06 1.30037e-13 5.56894e-13 -1.37832e-13 -8.49286e-11 2.22874e-10 1.71913e-10 -1.63464e-16 3.64051e-16 -7.51813e-17 1 0.000168539 0.000409573 8.85673e-05 -0.00364907 -0.00711929 0.00151899 0.0008
225 1 0.00311625 0.00162533 0.00217937 0.0008 3.43146e-06 -8.85379e-13 5.36816e-13 -5.04939e-14 -3.63544e-10 5.13489e-10 -9.18968e-10 5.82931e-16 -7.22386e-16 2.51073e-16 0 0 0 0 0 0 0 0
226 1 -0.00182571 0.00554862 0.0075887 0.0008 3.43146e-06 4.85488e-13 -7.85158e-14 -1.56352e-12 1.03687e-09 -1.5104e-09 6.81001e-10 8.832e-16 2.74733e-16 1.52848e-15 0 0 0 0 0 0 0 0
227 1 -0.000832352 0.00715206 0.00409474 0.0008 3.43146e-06 1.66549e-13 9.0182e-14 -5.40013e-13 7.53169e-10 -6.45285e-10 2.05554e-10 -4.38863e-18 -7.79965e-17 3.93206e-16 1 2.06e-05 -0.000399977 0.000144912 -0.000924794 0.00794637 0.00409474 0.0008
228 1 0.00541036 0.000820496 0.00691792 0.0008 3.43146e-06 2.06639e-12 2.70977e-13 5.09024e-13 -5.1564e-10 3.34767e-09 -1.61809e-09 -8.27259e-16 5.74505e-17 1.51099e-15 0 0 0 0 0 0 0 0
229 1 0.00571365 0.00181126 0.0056988 0.0008 3.43146e-06 -8.70056e-13 5.41577e-13 -1.34321e-12 -1.85676e-10 1.43491e-09 2.09986e-09 -3.3244e-15 6.58969e-17 6.43107e-16 0 0 0 0 0 0 0 0
230 1 -0.00378219 -0.00123205 0.00852324 0.0008 3.43146e-06 -1.08411e-12 -2.12148e-13 -2.53474e-12 -3.66725e-09 4.22397e-10 9.50467e-10 -1.46641e-15 -2.53176e-15 -3.48247e-16 0 0 0 0 0 0 0 0
231 1 0.00163913 -0.00264628 0.00852142 0.0008 3.43146e-06 -4.67805e-13 4.57449e-13 1.24404e-12 -2.83578e-10 1.08784e-09 3.79451e-10 1.29145e-16 -5.55232e-16 -2.41066e-15 0 0 0 0 0 0 0 0
232 1 0.000129024 0.00131433 0.00663525 0.0008 3.43146e-06 -2.03572e-13 -3.07761e-13 -1.55342e-12 -1.18915e-09 1.45475e-09 1.31015e-11 4.2828e-16 -1.07617e-15 1.59589e-15 0 0 0 0 0 0 0 0
233 1 0.00126341 0.00423504 0.00911438 0.0008 3.43146e-06 -5.41448e-13 -1.73148e-12 -1.83579e-14 1.6693e-09 -1.08353e-10 -1.7447e-09 4.41404e-16 8.38731e-16 2.1645e-15 0 0 0 0 0 0 0 0
234 1 -0.000236534 -0.00719665 0.00814833 0.0008 3.43146e-06 -9.38334e-14 1.63618e-13 1.00182e-12 1.26812e-09 6.36956e-10 1.68894e-10 -7.54255e-16 -2.90843e-16 2.89585e-15 1 -0.000122893 0.000844044 1.43926e-05 -0.000262796 -0.00799568 0.00814833 0.0008
235 1 -0.00189 0.00379674 0.0065729 0.0008 3.43146e-06 5.41887e-13 1.08164e-12 -1.57773e-12 -3.2646e-10 -2.21544e-09 -2.89627e-10 3.34814e-16 1.01759e-17 1.15672e-15 0 0 0 0 0 0 0 0
236 1 -0.000326918 0.00107177 0.00344072 0.0008 3.43146e-06 1.42269e-13 -2.66273e-13 -1.08416e-12 8.01724e-10 7.69462e-11 -2.46307e-11 5.94374e-17 -5.86066e-16 1.43554e-15 0 0 0 0 0 0 0 0
237 1 0.00410703 -0.00155233 0.00403213 0.0008 3.43146e-06 -4.20289e-13 1.36406e-13 -6.47889e-14 3.18018e-10 7.5748e-10 -1.14493e-09 1.14633e-15 1.29604e-15 3.49449e-16 0 0 0 0 0 0 0 0
238 1 -0.00477493 -1.43349e-05 0.00441091 0.0008 3.43146e-06 1.24205e-12 -8.99871e-14 2.16461e-12 6.77375e-11 1.11552e-09 7.12813e-10 1.16821e-15 -1.40188e-16 -2.99805e-16 0 0 0 0 0 0 0 0
239 1 -0.00339903 0.0014698 0.00466971 0.0008 3.43146e-06 -5.59813e-13 5.41388e-13 -2.16711e-12 -7.17759e-10 -1.31689e-09 5.681e-10 1.39262e-15 -2.28627e-16 9.92948e-17 0 0 0 0 0 0 0 0
240 1 -0.00202497 0.00504949 0.00484367 0.0008 3.43146e-06 9.73608e-13 8.16801e-13 3.86725e-13 -5.5729e-10 -2.01086e-09 1.12207e-09 2.24998e-17 -8.53371e-16 -3.2327e-16 0 0 0 0 0 0 0 0
241 1 0.00419147 0.00228629 0.00556809 0.0008 3.43146e-06 -2.14039e-12 -9.53617e-13 4.7921e-13 7.81799e-10 8.62693e-10 1.19588e-10 -1.40252e-15 -2.03282e-15 5.06857e-15 0 0 0 0 0 0 0 0
242 1 0.00429062 0.00152145 0.00326091 0.0008 3.43146e-06 -3.72074e-13 -1.33556e-13 -1.19697e-13 1.53012e-10 8.36665e-11 -2.89803e-10 1.09387e-15 -2.13511e-15 -1.45289e-15 0 0 0 0 0 0 0 0
243 1 -0.00494478 -0.000506635 0.00628963 0.0008 3.43146e-06 -6.35803e-13 2.70339e-13 2.16652e-12 -1.4462e-09 -2.08464e-09 3.70367e-10 1.97234e-15 1.12787e-16 1.35168e-15 0 0 0 0 0 0 0 0
244 1 0.00288231 0.00659794 0.00341792 0.0008 3.43146e-06 9.70177e-13 -1.83355e-12 -5.08844e-13 1.04677e-09 7.64455e-10 2.04164e-09 1.53626e-15 2.85101e-16 1.70552e-16 1 -8.55451e-06 -1.24044e-05 -4.70886e-06 0.00320255 0.00733101 0.00341792 0.0008
245 1 -0.00615294 -0.00373971 0.00789547 0.0008 3.43146e-06 3.01327e-13 -3.07556e-13 -8.02329e-13 -2.92308e-10 9.48633e-10 -5.10704e-10 7.83431e-16 1.86134e-15 5.65305e-17 1 0.000308883 0.000101435 8.29578e-05 -0.00683633 -0.00415507 0.00789547 0.0008
246 1 0.000861866 -0.00368848 0.00590757 0.0008 3.43146e-06 7.34186e-15 -6.55444e-13 1.3603e-12 6.65185e-10 -3.03682e-11 -6.33079e-10 -1.18244e-16 -8.83982e-16 1.96785e-16 0 0 0 0 0 0 0 0
247 1 0.00291187 -0.0048967 0.00499299 0.0008 3.43146e-06 -5.92392e-13 -1.48751e-12 -6.74535e-13 1.1203e-09 5.84742e-11 1.72727e-10 -1.74175e-16 -2.90874e-16 4.95107e-16 0 0 0 0 0 0 0 0
248 1 -0.000866147 0.00404008 0.0053682 0.0008 3.43146e-06 2.70816e-13 1.17007e-12 -1.03037e-13 2.35343e-09 1.68288e-09 -1.55548e-09 -2.77534e-16 -3.72534e-16 1.35327e-15 0 0 0 0 0 0 0 0
249 1 0.00389542 0.00153914 0.00991968 0.0008 3.43146e-06 1.08392e-12 -4.81765e-13 9.64594e-13 -2.53161e-10 2.6711e-09 -3.23041e-10 -1.08783e-15 -7.37461e-16 9.0473e-16 0 0 0 0 0 0 0 0
250 1 0.00108631 0.00580313 0.00539649 0.0008 3.43146e-06 5.12039e-13 -5.65324e-13 -3.47756e-13 -1.88263e-09 1.06993e-09 2.57016e-10 -9.95103e-16 -7.31372e-16 -2.52613e-16 0 0 0 0 0 0 0 0
251 1 -0.000545643 -0.00294446 0.00575362 0.0008 3.43146e-06 -1.49986e-13 -4.58909e-13 5.43815e-13 -2.20515e-10 -1.28267e-09 5.96209e-10 -1.4095e-15 -5.21613e-16 1.10539e-15 0 0 0 0 0 0 0 0
252 1 0.00381524 -0.0041023 0.00782237 0.0008 3.43146e-06 4.3959e-13 8.2441e-13 -9.58246e-15 2.37605e-09 3.04093e-09 -4.21018e-11 3.75906e-16 -3.01178e-15 1.41244e-15 0 0 0 0 0 0 0 0
253 1 0.00542901 0.001584 0.00833399 0.0008 3.43146e-06 -1.92505e-12 4.70917e-14 1.63336e-12 1.08861e-09 1.52136e-09 1.29695e-09 -2.87647e-15 5.39004e-15 -9.23461e-15 0 0 0 0 0 0 0 0
254 1 0.00368777 -0.00234265 0.00680351 0.0008 3.43146e-06 -5.46336e-13 8.09487e-14 1.19184e-12 -2.20143e-10 5.69063e-12 -2.56648e-10 6.04204e-17 -1.35407e-15 1.52568e-15 0 0 0 0 0 0 0 0
255 1 0.00304361 0.00315095 0.00644318 0.0008 3.43146e-06 -1.08404e-12 1.20823e-13 -6.68958e-13 -4.44435e-10 -2.62201e-09 8.46392e-10 -3.61989e-16 -1.60911e-15 9.76577e-16 0 0 0 0 0 0 0 0
256 1 -0.00462139 0.00332238 0.00741572 0.0008 3.43146e-06 9.80283e-13 -1.13178e-13 -1.05971e-12 2.10839e-10 1.78862e-09 3.94401e-10 1.33967e-15 -1.8232e-15 -9.92034e-16 0 0 0 0 0 0 0 0
257 1 -0.000480084 0.00541763 0.00465249 0.0008 3.43146e-06 4.66439e-14 1.8668e-12 1.28685e-12 3.18757e-10 9.03025e-10 4.95851e-10 8.56888e-16 -1.26819e-15 -3.52773e-16 0 0 0 0 0 0 0 0
258 1 0.00210776 -0.00556343 0.00924629 0.0008 3.43146e-06 2.95461e-13 1.1054e-12 1.30612e-12 -4.17852e-10 1.39398e-09 -3.28008e-10 -2.71672e-15 -5.55127e-17 1.23376e-15 0 0 0 0 0 0 0 0
259 1 0.00493282 0.0052457 0.00318185 0.0008 3.43146e-06 1.13872e-12 1.69903e-12 -2.35414e-13 -6.41774e-10 -1.1009e-09 -4.10011e-10 -5.38352e-16 3.29556e-16 1.08512e-16 1 -0.000899427 -0.000877571 2.72522e-05 0.00548038 0.00582799 0.00318185 0.0008
260 1 0.000236289 0.00719613 0.0019993 0.0008 3.43146e-06 -3.92783e-14 7.9892e-14 2.43077e-13 -3.14234e-10 -7.12257e-10 -5.01899e-11 -3.44055e-16 7.00495e-16 -2.44399e-16 1 -7.3987e-07 -2.72892e-06 -4.0999e-07 0.000262543 0.00799569 0.0019993 0.0008
261 1 -0.00320327 0.00467275 0.00773224 0.0008 3.43146e-06 -4.64949e-13 -8.08064e-13 2.16823e-12 6.81277e-10 -3.13118e-09 2.29122e-10 1.05571e-15 1.42936e-15 -5.21651e-16 0 0 0 0 0 0 0 0
262 1 0.00315765 0.00155902 0.00654797 0.0008 3.43146e-06 -1.08203e-12 -2.38211e-13 4.23455e-13 -7.25535e-10 3.24519e-10 -7.01148e-10 -6.77606e-16 7.85172e-16 -4.80359e-16 0 0 0 0 0 0 0 0
263 1 0.000732483 -0.00276831 0.00720914 0.0008 3.43146e-06 -2.70613e-13 -2.18724e-13 1.78324e-12 -7.43687e-10 -9.68788e-10 -2.1605e-10 -3.54156e-16 -4.59817e-16 -1.68555e-15 0 0 0 0 0 0 0 0
264 1 0.00643188 -0.00323675 0.00875557 0.0008 3.43146e-06 -8.48854e-13 1.08241e-12 -4.81423e-13 1.0367e-09 -1.17797e-09 -7.42503e-10 -8.61783e-17 -6.8034e-18 4.43986e-16 1 -0.000485798 0.000177274 -3.75661e-05 0.00714614 -0.0035962 0.00875557 0.0008
265 1 0.00563694 0.000191702 0.00546427 0.0008 3.43146e-06 -1.1404e-12 6.79392e-14 1.37137e-12 -5.24346e-11 -1.66285e-10 -7.822e-10 -2.13939e-15 4.33105e-16 1.16026e-15 0 0 0 0 0 0 0 0
266 1 0.00415232 0.000427509 0.00601084 0.0008 3.43146e-06 -1.42987e-12 1.28036e-13 9.92461e-13 2.80402e-10 -4.65176e-10 6.65418e-10 -4.12176e-15 9.13779e-16 4.64434e-16 0 0 0 0 0 0 0 0
267 1 0.000654792 -0.00577916 0.00467842 0.0008 3.43146e-06 -8.49712e-14 5.93914e-13 -7.35924e-13 -9.98864e-10 -1.03207e-09 -1.29116e-09 4.58974e-17 -6.31894e-16 -1.14624e-15 0 0 0 0 0 0 0 0
268 1 -0.00600534 0.00119947 0.0101617 0.0008 3.43146e-06 1.09603e-12 1.51663e-13 -3.16435e-12 -4.34831e-09 -3.10874e-09 1.56341e-09 -1.35816e-15 -1.512e-17 1.61545e-16 0 0 0 0 0 0 0 0
269 1 -0.000468499 -0.0013626 0.00345673 0.0008 3.43146e-06 -2.46165e-14 -8.01362e-14 -2.22935e-13 1.4528e-09 1.616e-10 -9.22177e-10 8.56003e-17 9.82356e-17 -1.05304e-15 0 0 0 0 0 0 0 0
270 1 0.00136718 -0.00478598 0.00217698 0.0008 3.43146e-06 -5.07735e-13 1.14622e-13 9.60342e-13 3.89141e-10 5.17884e-10 8.84935e-11 8.51154e-16 -3.24826e-17 -5.20942e-17 0 0 0 0 0 0 0 0
271 1 -0.00104367 -0.00567911 0.00538537 0.0008 3.43146e-06 -2.05579e-14 -1.20394e-12 -1.83554e-12 8.31561e-10 -3.89478e-10 2.28388e-10 4.86176e-16 -5.5966e-16 -1.73285e-15 0 0 0 0 0 0 0 0
272 1 -0.00268425 0.0051575 0.00629718 0.0008 3.43146e-06 1.06234e-12 3.38328e-13 -1.92369e-12 2.9719e-10 1.0223e-09 4.16985e-10 7.01784e-16 -4.68431e-16 1.07305e-15 0 0 0 0 0 0 0 0
273 1 0.00540591 -0.00394579 0.0077541 0.0008 3.43146e-06 -8.66049e-13 1.32761e-12 -2.1538e-12 2.31822e-10 -3.65612e-11 7.11117e-10 -7.24958e-16 -8.73814e-16 2.29303e-16 0 0 0 0 0 0 0 0
274 1 0.00481286 0.0046192 0.00994283 0.0008 3.43146e-06 -1.69047e-12 7.56183e-13 -2.1849e-12 1.74692e-10 -7.33194e-10 1.82833e-09 2.07499e-15 -5.56009e-16 -1.25725e-15 0 0 0 0 0 0 0 0
275 1 0.0022817 0.000121057 0.00597039 0.0008 3.43146e-06 -1.0842e-12 -1.01758e-13 1.11106e-12 1.97904e-10 -5.53494e-10 -1.12636e-09 -2.22179e-16 3.06975e-16 -7.95809e-16 0 0 0 0 0 0 0 0
276 1 0.0010003 0.00713064 0.00790896 0.0008 3.43146e-06 5.09809e-13 1.03842e-13 9.09203e-13 -1.19219e-09 -2.58803e-10 6.15838e-10 -9.92582e-16 4.14287e-17 3.38635e-16 1 -7.48946e-05 -0.00064926 0.000238122 0.00111137 0.00792243 0.00790896 0.0008
277 1 0.00487176 0.00248835 0.00212667 0.0008 3.43146e-06 1.00545e-12 -6.67667e-13 -5.90307e-13 -5.60797e-10 -6.4224e-10 -1.43981e-09 3.62687e-16 -4.38255e-15 -8.67268e-15 0 0 0 0 0 0 0 0
278 1 0.00430169 -0.00374528 0.00633991 0.0008 3.43146e-06 -7.28438e-13 3.60994e-13 6.57175e-13 6.07512e-10 1.03308e-09 4.06154e-10 -2.37134e-16 -8.78832e-16 5.90904e-16 0 0 0 0 0 0 0 0
279 1 -0.000499412 0.00126911 0.00501895 0.0008 3.43146e-06 2.70782e-13 -1.03028e-12 3.41386e-13 5.74194e-10 -1.43877e-11 -1.54609e-09 1.1491e-15 8.38283e-16 1.25602e-15 0 0 0 0 0 0 0 0
280 1 0.0040658 0.00594258 0.00601794 0.0008 3.43146e-06 1.36536e-12 -2.05746e-12 6.46506e-13 -1.20476e-09 -3.84635e-10 2.81401e-09 -5.42246e-17 1.87066e-16 7.73153e-16 1 -0.000280774 -0.000330495 0.000148731 0.00451734 0.00660255 0.00601794 0.0008
281 1 0.00374142 0.00411527 0.00762223 0.0008 3.43146e-06 8.67504e-13 -1.20045e-12 2.50184e-13 9.59073e-10 8.98278e-11 4.40144e-10 1.08732e-15 -8.39108e-16 2.55457e-15 0 0 0 0 0 0 0 0
282 1 -0.00681712 -0.00231717 0.00746148 0.0008 3.43146e-06 -1.57829e-12 3.13644e-13 6.97468e-13 -1.78879e-09 -1.5376e-09 7.9422e-10 -7.31368e-16 4.5538e-16 -2.02319e-16 1 0.000126129 6.08895e-05 4.12543e-05 -0.0075744 -0.00257457 0.00746148 0.0008
283 1 -0.00534554 -0.00219699 0.00597622 0.0008 3.43146e-06 -3.44217e-13 1.08387e-12 1.9362e-12 -1.07588e-09 -1.03046e-10 4.09323e-10 -9.71264e-16 -2.3608e-16 1.61674e-16 0 0 0 0 0 0 0 0
284 1 -0.00342281 0.00633497 0.00550622 0.0008 3.43146e-06 9.33127e-13 -9.44789e-13 -2.81419e-13 4.72872e-10 -5.88931e-11 4.53756e-10 5.52045e-16 -1.08087e-16 -3.62922e-16 1 0.000488537 -0.000639916 0.000154498 -0.00380285 0.00703835 0.00550622 0.0008
285 1 -0.00398925 -0.00285256 0.00804861 0.0008 3.43146e-06 1.35485e-12 -1.08242e-12 5.36882e-13 -2.34103e-09 -1.11692e-09 5.51341e-11 1.19655e-16 1.37551e-16 2.40926e-15 0 0 0 0 0 0 0 0
286 1 -0.00372168 -0.00500653 0.006773 0.0008 3.43146e-06 1.02185e-12 -2.1668e-12 1.08635e-12 2.75465e-09 1.38358e-09 1.41722e-09 8.67421e-16 5.54962e-16 -9.25593e-16 0 0 0 0 0 0 0 0
287 1 0.00706517 0.000854705 0.00678693 0.0008 3.43146e-06 3.24948e-13 -1.73539e-13 2.16488e-12 6.34738e-10 -9.26468e-10 -1.83854e-09 -5.84924e-17 6.70937e-16 -1.03795e-15 0 0 0 0 0 0 0 0
288 1 0.00374659 -0.00596344 0.00671692 0.0008 3.43146e-06 1.08158e-12 1.2229e-12 1.74602e-12 3.02242e-09 2.16841e-09 2.6876e-09 -6.71798e-17 -1.50307e-15 3.70398e-16 0 0 0 0 0 0 0 0
289 1 0.00080195 -0.0062693 0.00735701 0.0008 3.43146e-06 -2.12165e-13 5.49493e-13 5.84658e-13 7.88898e-10 -8.17061e-10 9.97087e-10 8.90865e-16 9.88742e-16 -3.14465e-15 0 0 0 0 0 0 0 0
290 1 0.00606218 -0.00388511 0.00629678 0.0008 3.43146e-06 1.2459e-13 9.32746e-13 -1.31884e-12 -5.87114e-10 -1.53264e-09 -1.10515e-09 -4.72666e-16 -1.3355e-16 2.49271e-16 1 -0.000275163 0.000154645 0.000105587 0.00673549 -0.00431662 0.00629678 0.0008
291 1 0.00718046 0.000535672 0.00522411 0.0008 3.43146e-06 2.54253e-13 -1.14874e-13 6.47603e-13 -5.63407e-11 8.07858e-10 1.5377e-10 -8.80214e-16 4.97881e-16 9.83672e-16 1 -0.000555936 -9.16066e-05 0.00019909 0.00797783 0.000595157 0.00522411 0.0008
292 1 0.00017535 -0.00160747 0.00626011 0.0008 3.43146e-06 -5.01728e-14 1.98072e-13 1.81842e-12 8.32455e-10 1.40284e-09 -6.29082e-10 7.45634e-16 -1.79553e-15 7.27808e-16 0 0 0 0 0 0 0 0
293 1 -0.000204958 0.00674117 0.00550706 0.0008 3.43146e-06 6.74474e-14 -4.06868e-14 -4.33036e-13 -6.22534e-10 4.74428e-10 -2.7079e-10 1.01212e-15 2.92478e-16 7.35993e-16 0 0 0 0 0 0 0 0
294 1 -0.00379525 -0.00193651 0.00568144 0.0008 3.43146e-06 1.0836e-12 -3.94184e-13 -2.70696e-13 -8.06562e-10 2.25088e-09 -2.26429e-09 4.20915e-16 -5.96164e-16 -8.11994e-16 0 0 0 0 0 0 0 0
295 1 -0.00395236 0.00601852 0.00346422 0.0008 3.43146e-06 2.37335e-13 -5.24629e-13 -1.151e-13 -2.64727e-10 7.07396e-10 -1.18766e-10 -3.90992e-16 1.62297e-16 4.61903e-16 1 0.000211055 -0.000201066 5.71581e-05 -0.00439135 0.006687 0.00346422 0.0008
296 1 -0.00182906 0.00696466 0.00285836 0.0008 3.43146e-06 5.16943e-13 2.90569e-13 -3.10366e-13 2.30829e-10 6.44809e-10 7.21625e-10 -1.65285e-16 -7.68484e-16 7.62966e-16 1 0.00038422 -0.00157432 0.000367735 -0.00203206 0.00773762 0.00285836 0.0008
297 1 0.00301844 0.000561042 0.00895164 0.0008 3.43146e-06 3.53848e-13 1.98932e-13 9.89904e-13 4.62237e-10 1.97779e-09 -7.41745e-10 9.59266e-16 -1.72013e-15 -5.62894e-15 0 0 0 0 0 0 0 0
298 1 -0.00206713 -0.006897 0.00555364 0.0008 3.43146e-06 4.5603e-14 -1.01332e-12 -1.21953e-12 -1.22843e-09 1.11394e-09 -3.70434e-10 2.42577e-16 8.42618e-18 -7.79578e-16 1 3.91158e-05 7.09434e-05 -1.9519e-06 -0.00229678 -0.00766321 0.00555364 0.0008
299 1 -0.00193367 -0.000727426 0.00820038 0.0008 3.43146e-06 -5.41791e-13 -2.70602e-13 -1.7642e-12 7.45201e-11 -2.04039e-10 -2.91254e-09 -2.28596e-16 1.66716e-16 1.22615e-15 0 0 0 0 0 0 0 0
300 1 0.00706346 -0.00139911 0.00912912 0.0008 3.43146e-06 9.33693e-13 5.39061e-13 1.24413e-12 2.04313e-09 1.1722e-09 -8.79869e-10 -3.43681e-16 1.25607e-16 -2.85493e-16 1 -0.00117916 0.000347795 0.000116037 0.00784753 -0.00155442 0.00912912 0.0008
301 1 -0.00413169 0.00449319 0.00644211 0.0008 3.43146e-06 -1.01247e-13 -9.81341e-14 -9.65376e-13 5.01291e-10 4.96722e-10 -6.61763e-10 1.06652e-15 -1.03546e-15 1.2492e-15 0 0 0 0 0 0 0 0
302 1 0.000275047 0.00323632 0.00719767 0.0008 3.43146e-06 -4.85167e-14 -1.06586e-12 -1.10247e-12 6.21417e-10 6.23099e-11 -1.24216e-09 -4.03254e-17 -2.98814e-16 -1.79913e-15 0 0 0 0 0 0 0 0
303 1 0.00257504 0.00340973 0.00846699 0.0008 3.43146e-06 9.80322e-13 -1.08294e-12 2.27892e-12 -1.60112e-10 -8.50937e-10 3.68738e-09 -7.32839e-16 7.77042e-16 -2.47796e-15 0 0 0 0 0 0 0 0
304 1 0.00537282 -0.00180945 0.00813979 0.0008 3.43146e-06 -8.28621e-13 9.24029e-14 -1.74465e-12 -3.49058e-09 -1.24301e-09 7.80166e-10 -5.88035e-16 -1.04586e-16 2.38316e-16 0 0 0 0 0 0 0 0
305 1 0.00180703 0.00261754 0.00730553 0.0008 3.43146e-06 -3.91285e-13 -3.4612e-13 -1.22633e-12 1.42525e-09 2.74275e-09 -4.25801e-10 -5.49855e-16 -1.07133e-15 -2.56167e-15 0 0 0 0 0 0 0 0
306 1 0.00287219 0.00501324 0.00662361 0.0008 3.43146e-06 -5.13591e-13 -3.88952e-13 -2.73542e-13 -2.34329e-09 2.33222e-09 -1.90879e-09 -9.725e-16 -4.06036e-16 -5.66641e-17 0 0 0 0 0 0 0 0
307 1 -0.000355977 -0.000316871 0.00759128 0.0008 3.43146e-06 1.35516e-13 1.35763e-13 2.67683e-13 -3.14111e-09 1.13761e-09 -1.43947e-09 -2.73736e-16 -1.84019e-18 -2.45267e-15 0 0 0 0 0 0 0 0
308 1 -0.0051553 -0.00360163 0.00367216 0.0008 3.43146e-06 -6.56127e-13 -8.33169e-13 3.44172e-13 1.25614e-09 -2.39844e-10 -3.25174e-10 -1.1815e-15 -6.96349e-16 -5.37103e-16 0 0 0 0 0 0 0 0
309 1 0.00674928 0.0025077 0.00669982 0.0008 3.43146e-06 -1.74656e-13 -7.24244e-13 -6.03294e-13 5.95588e-09 1.42986e-09 7.42612e-10 -1.09564e-15 1.00458e-15 1.39598e-15 1 -5.81448e-05 -1.22735e-05 -6.7919e-07 0.0074991 0.0027863 0.00669982 0.0008
310 1 0.00161879 0.00157002 0.00611168 0.0008 3.43146e-06 -5.42104e-13 -5.41748e-13 -1.08708e-12 -1.68691e-09 -2.34063e-09 5.4926e-10 7.19993e-16 7.21035e-16 2.49481e-15 0 0 0 0 0 0 0 0
311 1 -0.00213444 -0.0068724 0.00795929 0.0008 3.43146e-06 -5.76427e-13 -5.79426e-13 -8.04397e-13 1.43459e-10 1.47606e-09 2.45065e-09 -2.43777e-16 2.06415e-15 -1.71245e-15 0 0 0 0 0 0 0 0
312 1 0.00452719 -1.21022e-05 0.00393311 0.0008 3.43146e-06 3.33797e-14 -1.68397e-14 4.09379e-13 7.17995e-10 8.74625e-10 4.11334e-10 5.07413e-16 8.28836e-16 2.08537e-15 0 0 0 0 0 0 0 0
313 1 -0.00307439 -0.00383973 0.00589126 0.0008 3.43146e-06 7.44145e-13 2.14996e-14 1.05242e-12 -1.05314e-09 -7.68117e-10 -3.64752e-10 -6.83164e-16 -8.93063e-16 -2.2366e-15 0 0 0 0 0 0 0 0
314 1 0.00719767 0.000187148 0.00897122 0.0008 3.43146e-06 1.3491e-12 6.80864e-14 2.55182e-12 -9.06939e-11 3.16484e-09 -1.18033e-10 -6.71475e-16 4.73309e-16 -7.94786e-16 1 -7.28083e-05 -2.87215e-05 -2.50647e-06 0.0079973 0.00020794 0.00897122 0.0008
315 1 0.00276873 -0.00365206 0.0039982 0.0008 3.43146e-06 -8.21776e-13 -4.75918e-13 -9.51424e-14 3.15866e-10 -4.77798e-10 4.19117e-10 -8.83398e-17 -1.81139e-16 2.27935e-16 0 0 0 0 0 0 0 0
316 1 0.00650112 0.00309473 0.0081703 0.0008 3.43146e-06 6.67649e-13 1.05227e-13 1.12367e-12 2.41517e-09 2.84864e-09 3.82751e-10 3.22782e-16 1.41286e-15 -2.82349e-16 1 -8.7103e-05 -6.22653e-05 2.85694e-05 0.00722333 0.00343853 0.0081703 0.0008
317 1 -0.000765611 0.00010009 0.00610225 0.0008 3.43146e-06 -2.7103e-13 -1.67047e-13 -1.34688e-12 1.79853e-09 -5.11847e-10 2.32452e-10 3.15941e-17 -1.06202e-15 1.00928e-15 0 0 0 0 0 0 0 0
318 1 0.000532609 -0.00223334 0.00480989 0.0008 3.43146e-06 -2.70844e-13 3.24399e-13 1.1429e-12 8.74778e-10 6.78637e-10 3.66108e-10 1.85567e-16 1.288e-16 4.38952e-16 0 0 0 0 0 0 0 0
319 1 -0.00473157 0.000957158 0.00568017 0.0008 3.43146e-06 6.52108e-13 -2.70034e-13 6.01945e-13 -1.1008e-09 -1.56667e-09 -2.98824e-10 1.36476e-15 4.43775e-17 4.83807e-16 0 0 0 0 0 0 0 0
320 1 -0.000765537 -0.00576835 0.00381273 0.0008 3.43146e-06 -2.28424e-13 -6.34121e-13 1.00301e-12 -4.91258e-10 5.83618e-11 7.42305e-10 -1.45075e-16 -1.45054e-15 -1.10607e-15 0 0 0 0 0 0 0 0
321 1 -0.00362971 -0.00442639 0.00370158 0.0008 3.43146e-06 9.35855e-13 9.6797e-13 -1.08382e-12 2.45708e-10 -2.0955e-09 -7.41012e-10 -8.37146e-16 1.26291e-15 -3.15727e-16 0 0 0 0 0 0 0 0
322 1 -0.000596894 0.00259896 0.00601747 0.0008 3.43146e-06 -2.70825e-13 4.20231e-13 -2.05246e-12 6.39991e-10 -9.33104e-10 -6.75951e-10 2.15047e-16 -2.77186e-17 -1.32422e-16 0 0 0 0 0 0 0 0
323 1 0.000613628 0.000854461 0.00808882 0.0008 3.43146e-06 2.7108e-13 2.71127e-13 -1.85919e-12 5.43713e-10 -8.51991e-10 6.38356e-10 -2.76636e-16 1.59944e-17 3.33443e-15 0 0 0 0 0 0 0 0
324 1 0.00475694 0.00365626 0.00321314 0.0008 3.43146e-06 9.07446e-13 7.48573e-13 1.33213e-13 3.38023e-11 -5.27424e-10 2.61574e-10 -2.13789e-16 1.00401e-15 -2.37413e-15 0 0 0 0 0 0 0 0
325 1 -0.000281449 0.00471767 0.00993638 0.0008 3.43146e-06 5.39746e-14 1.16741e-13 2.0588e-12 -4.96191e-10 -8.01656e-10 5.61278e-10 6.69721e-16 -1.10388e-15 -5.20552e-16 0 0 0 0 0 0 0 0
326 1 -0.00560634 0.000506086 0.00733586 0.0008 3.43146e-06 -8.4625e-13 2.71471e-13 -1.17878e-12 -9.53989e-10 7.27425e-11 -3.26296e-10 1.46133e-15 -9.34413e-16 3.39523e-15 0 0 0 0 0 0 0 0
327 1 0.00233781 0.00681014 0.00872591 0.0008 3.43146e-06 1.7728e-13 7.84935e-13 -1.83956e-13 6.76271e-10 1.29336e-09 -1.48442e-10 4.22882e-18 -4.85763e-16 -4.22618e-16 1 -3.29327e-05 -0.000244927 1.26808e-05 0.00259749 0.00756658 0.00872591 0.0008
328 1 0.00523371 0.00406723 0.00826386 0.0008 3.43146e-06 7.58516e-13 -2.5436e-14 -6.79384e-13 1.95576e-09 1.87158e-09 -8.7984e-10 1.92898e-15 -2.35673e-16 4.89381e-15 0 0 0 0 0 0 0 0
329 1 -0.00621012 0.000373268 0.00586022 0.0008 3.43146e-06 -4.49598e-13 1.35437e-13 1.02329e-13 -4.68366e-10 3.41952e-11 -5.66982e-10 1.56105e-15 -8.60912e-18 2.03094e-15 0 0 0 0 0 0 0 0
330 1 0.00688305 -0.00211353 0.00770956 0.0008 3.43146e-06 -4.84828e-13 -1.6756e-13 -2.02576e-13 -1.97027e-09 3.16507e-10 4.05388e-10 -2.82014e-16 1.69934e-17 -1.35299e-16 1 -0.000216532 0.000103428 5.47596e-05 0.00764758 -0.00234829 0.00770956 0.0008
331 1 -0.00309364 -0.00650199 0.00673426 0.0008 3.43146e-06 -8.56101e-13 -1.2801e-12 1.07937e-12 1.32333e-09 -4.06983e-10 2.50405e-10 9.5584e-16 -6.27305e-17 5.65014e-16 1 0.000310558 0.00056156 0.000238417 -0.00343717 -0.00722398 0.00673426 0.0008
332 1 0.00258746 -0.00118226 0.0068454 0.0008 3.43146e-06 -1.04415e-12 -3.78744e-13 1.2735e-12 -2.09128e-10 5.76641e-10 1.11634e-09 2.04083e-15 -2.29223e-15 2.4473e-15 0 0 0 0 0 0 0 0
333 1 -0.000281736 0.00386426 0.00858377 0.0008 3.43146e-06 1.34977e-13 -1.90463e-13 -1.6827e-13 1.65141e-09 5.19096e-11 -1.68029e-09 -3.60901e-16 -2.87697e-15 -2.65417e-17 0 0 0 0 0 0 0 0
334 1 0.00456151 0.00364173 0.00633273 0.0008 3.43146e-06 -2.61911e-13 -8.25158e-13 1.33502e-12 2.08699e-11 -1.66128e-10 -2.17683e-09 8.78043e-17 -7.65658e-15 7.533e-15 0 0 0 0 0 0 0 0
335 1 -0.00107383 -0.00711969 0.00678751 0.0008 3.43146e-06 -1.82633e-13 2.64614e-13 -6.39676e-13 -1.03123e-09 -1.59932e-09 2.07003e-10 4.15096e-16 1.08525e-15 -8.19868e-16 1 1.38871e-05 0.00020737 6.28582e-05 -0.00119311 -0.00791053 0.00678751 0.0008
336 1 -0.00474004 0.00233172 0.00480218 0.0008 3.43146e-06 -6.37448e-13 -4.24005e-13 -2.16557e-12 9.34088e-10 1.2513e-09 5.1055e-10 3.18155e-16 4.98666e-16 -2.25436e-16 0 0 0 0 0 0 0 0
337 1 -0.00402376 0.00597093 0.0094844 0.0008 3.43146e-06 4.68501e-13 -2.71841e-13 1.09584e-12 -1.51914e-09 -2.19942e-10 3.17395e-10 3.71737e-16 3.72954e-16 -7.25456e-16 1 6.51024e-05 -0.000156602 4.35194e-05 -0.00447073 0.00663419 0.0094844 0.0008
338 1 0.00552248 0.00120418 0.00423101 0.0008 3.43146e-06 -5.87136e-13 2.14522e-13 2.52387e-13 -6.50398e-10 -5.5146e-10 4.4856e-10 -1.24651e-15 2.10247e-16 1.27493e-15 0 0 0 0 0 0 0 0
339 1 -0.00586565 -0.000979813 0.00507069 0.0008 3.43146e-06 1.78841e-12 9.53153e-14 1.42865e-12 5.70375e-10 -1.32339e-09 -6.23512e-10 -6.64065e-16 9.72343e-16 -5.87851e-16 0 0 0 0 0 0 0 0
340 1 0.00280717 0.00414858 0.00413755 0.0008 3.43146e-06 2.7229e-13 3.17466e-13 2.23282e-13 5.15037e-10 -1.77802e-09 1.0766e-10 -1.37916e-15 -2.92752e-15 2.26556e-16 0 0 0 0 0 0 0 0
341 1 0.00351014 -0.0062869 0.00826914 0.0008 3.43146e-06 -8.29297e-13 1.49934e-12 1.80702e-12 3.94974e-09 -2.46108e-09 -4.23982e-11 -5.26818e-16 -4.82305e-16 -1.07536e-16 1 -0.000406199 0.000454753 -9.77752e-05 0.00389992 -0.00698503 0.00826914 0.0008
342 1 -0.003006 3.85348e-05 0.00910763 0.0008 3.43146e-06 -1.08427e-12 2.16394e-15 3.00741e-14 5.76412e-09 -2.471e-09 -1.09745e-09 6.43454e-16 5.56102e-15 1.85064e-15 0 0 0 0 0 0 0 0
343 1 0.00436234 -0.000804851 0.0070088 0.0008 3.43146e-06 -1.38678e-12 8.35651e-15 1.11984e-12 -1.42266e-10 -6.77809e-10 3.05053e-10 -9.85024e-16 -8.05729e-16 3.1579e-16 0 0 0 0 0 0 0 0
344 1 0.00276096 -0.000862086 0.00351116 0.0008 3.43146e-06 -2.02554e-13 -2.71119e-13 -6.31953e-13 3.06343e-10 -1.86227e-09 2.01257e-09 1.84934e-15 6.34058e-17 -2.58927e-15 0 0 0 0 0 0 0 0
345 1 -0.00259058 -0.00519054 0.0081056 0.0008 3.43146e-06 1.08418e-12 -1.71958e-12 5.63102e-13 4.84429e-09 -2.07709e-09 3.2145e-09 4.05124e-16 -8.88084e-16 2.50658e-15 0 0 0 0 0 0 0 0
346 1 -0.00181783 0.00399659 0.00815829 0.0008 3.43146e-06 4.64924e-13 1.44828e-13 1.99984e-12 2.10343e-09 2.16871e-09 2.19778e-09 2.09977e-15 -3.1701e-16 8.45966e-16 0 0 0 0 0 0 0 0
347 1 -0.000500079 0.00197711 0.00874053 0.0008 3.43146e-06 -2.4323e-13 5.0556e-14 5.42467e-14 -8.91073e-10 -1.78206e-09 -1.69876e-09 -1.17607e-15 -2.65355e-15 -3.49513e-15 0 0 0 0 0 0 0 0
348 1 0.000389053 -0.00364461 0.00850259 0.0008 3.43146e-06 -1.34465e-13 -5.12228e-13 2.43453e-12 5.51601e-10 1.08363e-09 7.90165e-10 -1.97096e-16 6.1943e-16 -3.64073e-16 0 0 0 0 0 0 0 0
349 1 4.14916e-06 0.00305208 0.00445973 0.0008 3.43146e-06 -1.873e-14 -3.69512e-14 -1.76216e-12 -1.13492e-09 -1.22104e-09 -2.74548e-10 1.18029e-16 -1.63191e-15 1.80523e-15 0 0 0 0 0 0 0 0
350 1 0.0059126 -0.00106576 0.00671351 0.0008 3.43146e-06 4.76718e-13 4.80883e-13 7.1114e-13 3.83095e-11 7.93685e-10 7.15481e-10 2.65144e-16 9.5111e-16 -9.99877e-16 0 0 0 0 0 0 0 0
351 1 -0.00146927 -0.00423716 0.00594193 0.0008 3.43146e-06 5.03507e-13 3.49105e-13 -7.27973e-13 1.05201e-09 3.43334e-11 -4.18059e-10 6.73069e-17 -2.91259e-16 -1.41169e-15 0 0 0 0 0 0 0 0
352 1 -0.00349756 0.0031063 0.00914419 0.0008 3.43146e-06 1.08423e-12 1.08389e-12 2.64165e-13 8.4392e-10 3.15083e-09 -1.59047e-09 -7.94213e-16 5.38742e-16 -8.91471e-16 0 0 0 0 0 0 0 0
353 1 0.000623898 0.00233057 0.00317367 0.0008 3.43146e-06 -1.26316e-13 -1.24948e-13 -7.96216e-13 3.79306e-10 9.4123e-10 3.38318e-10 1.20154e-15 -2.04112e-15 1.35006e-16 0 0 0 0 0 0 0 0
354 1 -0.0018376 0.00145074 0.00380543 0.0008 3.43146e-06 5.42039e-13 -2.44093e-13 -1.08425e-12 2.4708e-10 -2.5613e-10 -3.75118e-10 9.81126e-16 -8.21657e-16 4.30269e-16 0 0 0 0 0 0 0 0
355 1 -0.00719987 -7.20766e-05 0.00468493 0.0008 3.43146e-06 -1.9024e-12 1.62862e-13 -6.09733e-13 8.9361e-10 7.74714e-10 2.27418e-10 -5.37817e-16 -3.26237e-16 6.52089e-16 1 0.000241846 2.28111e-05 4.43769e-06 -0.0079996 -8.00825e-05 0.00468493 0.0008
356 1 0.00229742 -0.00307978 0.00709211 0.0008 3.43146e-06 4.42229e-13 1.38476e-13 2.10762e-12 -1.03103e-09 8.31769e-10 9.39443e-10 -5.03154e-15 -1.56376e-15 6.13603e-16 0 0 0 0 0 0 0 0
357 1 0.00151268 0.00429855 0.0032097 0.0008 3.43146e-06 4.06669e-13 1.53071e-13 -8.61643e-13 -1.13655e-09 6.18144e-10 -2.48558e-10 8.07589e-16 -2.71115e-15 -2.75453e-17 0 0 0 0 0 0 0 0
358 1 0.00172099 -0.00699143 0.00527348 0.0008 3.43146e-06 -4.75666e-13 5.9938e-14 -8.21972e-13 -8.96515e-10 -4.9494e-10 5.52462e-10 5.05563e-16 -8.65699e-16 1.14802e-16 1 -4.24725e-05 9.97299e-05 1.69759e-05 0.00191218 -0.00776811 0.00527348 0.0008
359 1 -0.00229161 -0.0042883 0.00457063 0.0008 3.43146e-06 4.5036e-13 5.43459e-13 1.45187e-12 3.47218e-10 1.49288e-09 2.42578e-09 1.99719e-16 -2.33058e-15 -1.95799e-15 0 0 0 0 0 0 0 0
360 1 -0.00442469 0.00390024 0.00481285 0.0008 3.43146e-06 -1.26885e-12 -1.07784e-12 -2.13872e-12 -3.62187e-10 1.44405e-09 1.22447e-10 2.15988e-16 1.19426e-17 2.43053e-16 0 0 0 0 0 0 0 0
361 1 0.00207047 0.00645558 0.00204665 0.0008 3.43146e-06 4.26701e-13 -8.62122e-13 1.45385e-14 3.00044e-10 2.09646e-10 -2.0937e-09 3.08388e-16 -4.48217e-16 1.45414e-16 0 0 0 0 0 0 0 0
362 1 -0.00523918 -0.00371566 0.0052648 0.0008 3.43146e-06 -4.27128e-13 -8.32053e-14 1.2308e-12 -2.18144e-09 7.06762e-10 -1.35925e-09 -6.92178e-16 -1.15216e-15 -9.61877e-16 0 0 0 0 0 0 0 0
363 1 -0.00257125 0.00672546 0.0068027 0.0008 3.43146e-06 9.36802e-13 -1.14134e-12 -3.76078e-13 3.63295e-10 4.54235e-10 5.35784e-10 7.61857e-16 6.59765e-16 4.94143e-16 1 4.81256e-05 -0.000210188 6.55812e-05 -0.00285686 0.00747251 0.0068027 0.0008
364 1 -0.00392184 0.00296395 0.00602248 0.0008 3.43146e-06 1.16254e-13 4.76251e-13 -9.70902e-13 -2.97538e-10 -6.41708e-10 1.04162e-09 1.61397e-15 -1.44188e-15 -1.51728e-16 0 0 0 0 0 0 0 0
365 1 -0.00332106 0.00112903 0.0064138 0.0008 3.43146e-06 7.84173e-13 1.36778e-13 1.16675e-12 3.12724e-10 9.41171e-10 4.15865e-10 2.49195e-15 3.38458e-16 1.15211e-16 0 0 0 0 0 0 0 0
366 1 0.00612434 0.00378664 0.00956262 0.0008 3.43146e-06 1.33977e-12 4.10442e-13 3.16847e-13 -3.37945e-09 -1.75899e-09 3.5531e-10 5.95381e-16 1.63846e-15 -3.7706e-16 1 -0.000505257 -0.000324956 0.000111882 0.00680442 0.00420712 0.00956262 0.0008
367 1 -0.0044264 -0.0033517 0.00659333 0.0008 3.43146e-06 1.5788e-12 -6.21252e-13 1.3904e-12 2.60925e-09 1.22133e-09 1.90872e-10 -2.5428e-15 1.0777e-15 -3.45826e-15 0 0 0 0 0 0 0 0
368 1 0.00173596 -0.002063 0.0037694 0.0008 3.43146e-06 2.9408e-13 -6.11318e-13 -3.91096e-13 -2.07078e-09 2.57206e-10 -9.86554e-10 1.51174e-15 -4.45206e-15 -3.34769e-15 0 0 0 0 0 0 0 0
369 1 -0.00484245 -0.00187367 0.0042258 0.0008 3.43146e-06 1.59827e-12 -1.02061e-13 -4.50095e-13 1.46475e-09 2.17621e-09 -3.76358e-10 -7.73061e-16 -5.01083e-16 -1.70262e-15 0 0 0 0 0 0 0 0
370 1 0.00334102 -0.00637831 0.00985747 0.0008 3.43146e-06 7.30572e-13 1.41979e-12 -8.62598e-13 -3.43784e-09 4.22616e-09 -1.6245e-09 -2.56703e-15 -2.23461e-15 1.36428e-15 1 -0.000318849 0.000363839 -9.95559e-05 0.00371205 -0.00708665 0.00985747 0.0008
371 1 0.00234291 -0.0041086 0.00844825 0.0008 3.43146e-06 -5.30616e-13 6.54108e-13 2.52901e-12 -9.47332e-10 -6.11567e-10 -3.30482e-10 -3.58108e-16 -2.18164e-15 4.10634e-15 0 0 0 0 0 0 0 0
372 1 -0.00715473 0.000810465 0.00707503 0.0008 3.43146e-06 3.17808e-13 7.70423e-14 -4.26755e-13 6.72425e-10 4.59129e-10 1.81992e-10 3.81896e-16 7.33065e-16 1.73021e-15 1 0.000710687 -8.33265e-05 -2.56961e-05 -0.00794916 0.000900456 0.00707503 0.0008
373 1 0.000651621 0.00449659 0.00623354 0.0008 3.43146e-06 2.38575e-13 -8.05347e-13 -1.54772e-12 -1.31681e-09 2.61269e-10 -1.88843e-09 7.50026e-16 -8.31352e-16 6.13433e-16 0 0 0 0 0 0 0 0
374 1 0.00152457 0.00576231 0.00385476 0.0008 3.43146e-06 5.02007e-13 1.95876e-12 -9.08929e-13 1.86751e-10 1.30354e-09 9.83863e-10 9.06274e-16 -1.66487e-15 3.93891e-16 0 0 0 0 0 0 0 0
375 1 0.0010868 -0.000443641 0.00687214 0.0008 3.43146e-06 -3.35608e-14 -1.35535e-13 1.08371e-12 1.5842e-10 1.23823e-09 1.42612e-09 -1.27132e-15 3.12668e-16 3.44516e-15 0 0 0 0 0 0 0 0
376 1 -0.00125546 -0.00148178 0.00696381 0.0008 3.43146e-06 -5.33723e-13 2.24471e-13 7.83757e-13 7.38737e-10 -3.09322e-09 -2.30382e-10 5.72486e-16 7.1517e-16 2.15986e-16 0 0 0 0 0 0 0 0
377 1 -0.00113597 -0.00255493 0.00262261 0.0008 3.43146e-06 -5.41167e-13 -1.08127e-12 2.33733e-13 1.56461e-10 1.06759e-09 -1.04357e-09 6.9841e-16 1.70595e-16 -9.15456e-16 0 0 0 0 0 0 0 0
378 1 -0.00526771 0.00118724 0.0087427 0.0008 3.43146e-06 8.45793e-13 -5.39232e-13 3.83077e-12 4.04297e-09 -6.37385e-10 -3.19344e-09 -1.59449e-15 -9.82041e-16 6.64518e-15 0 0 0 0 0 0 0 0
379 1 -0.00279209 -0.00373757 0.00746271 0.0008 3.43146e-06 7.60319e-13 -9.41416e-13 1.17281e-12 2.12343e-09 6.98695e-10 -4.12971e-10 -5.09288e-16 -1.93886e-15 -3.22862e-15 0 0 0 0 0 0 0 0
380 1 -0.00121451 0.0026739 0.00749057 0.0008 3.43146e-06 1.91539e-13 5.98199e-13 -8.16181e-13 -2.27027e-10 2.04667e-09 -8.21702e-10 9.34236e-17 -2.48398e-15 -1.21991e-15 0 0 0 0 0 0 0 0
381 1 0.00574159 0.00434534 0.00426851 0.0008 3.43146e-06 4.61677e-13 9.684e-13 1.97802e-13 -9.15422e-10 -3.95211e-10 -6.11109e-10 3.37284e-16 -5.95548e-16 -3.60756e-16 1 -0.000777379 -0.000382093 0.000278981 0.00637907 0.00482779 0.00426851 0.0008
382 1 -0.00556069 0.00457455 0.00572884 0.0008 3.43146e-06 8.89591e-13 9.48172e-14 -1.51292e-13 5.11071e-10 -1.7414e-10 7.97315e-10 3.86679e-16 -6.04905e-16 1.18398e-16 1 0.000692033 -0.000513191 0.000258735 -0.00617808 0.00508245 0.00572884 0.0008
383 1 0.00511722 -0.00506502 0.00348042 0.0008 3.43146e-06 -7.73414e-13 1.5025e-12 -4.33516e-13 -2.25501e-10 -4.88652e-10 -7.12152e-10 -6.59067e-17 -1.13306e-16 4.10207e-16 1 -7.69487e-06 7.21552e-06 1.50744e-06 0.00568578 -0.00562778 0.00348042 0.0008
384 1 -0.00321429 -0.0064432 0.00453552 0.0008 3.43146e-06 4.43429e-13 -1.12848e-12 -1.27949e-13 -8.88756e-11 1.86952e-10 -1.13746e-09 2.13267e-16 -3.52021e-16 9.03815e-17 1 0.0003767 0.000532965 0.000163934 -0.00357121 -0.00715866 0.00453552 0.0008
385 1 -0.00242668 0.00239527 0.0060193 0.0008 3.43146e-06 8.1767e-13 1.08403e-12 -6.54377e-13 -1.3007e-09 9.25058e-10 -1.53252e-11 1.01391e-15 3.33479e-16 -6.83295e-16 0 0 0 0 0 0 0 0
386 1 0.00508916 -0.0050938 0.00668624 0.0008 3.43146e-06 -1.19137e-12 1.81641e-12 -2.32241e-14 -1.55586e-09 1.45398e-09 -5.58434e-10 -4.2911e-17 -3.53313e-16 -1.02141e-16 1 -0.000394569 0.000492312 0.000193297 0.00565428 -0.00565943 0.00668624 0.0008
387 1 0.00201818 -0.00691214 0.00839151 0.0008 3.43146e-06 -8.31895e-14 3.48076e-13 4.18147e-13 9.03092e-10 -1.2895e-09 -5.61413e-11 -2.22753e-15 3.82375e-16 -1.13896e-17 1 -0.000395536 0.00130144 0.000274933 0.00224219 -0.00767936 0.00839151 0.0008
388 1 0.00112432 0.00711242 0.00631469 0.0008 3.43146e-06 5.4165e-13 6.81803e-14 -7.89373e-13 1.05889e-09 3.73434e-10 6.5781e-10 -9.29261e-16 -9.20317e-16 -2.74205e-16 1 -0.000399601 -0.00130906 0.000166609 0.00124911 0.00790188 0.00631469 0.0008
389 1 0.000882857 0.0027685 0.00860179 0.0008 3.43146e-06 -4.20823e-14 -2.39301e-13 6.49657e-13 -2.16128e-09 -9.03912e-10 1.56477e-09 -4.60453e-16 -1.43313e-15 -2.68077e-15 0 0 0 0 0 0 0 0
390 1 0.00207035 0.00408667 0.0055855 0.0008 3.43146e-06 -8.81748e-13 -9.36041e-13 -2.08614e-12 -1.48575e-10 2.8986e-10 7.79e-10 -1.9537e-15 -5.21856e-16 2.4178e-15 0 0 0 0 0 0 0 0
391 1 -0.000316945 -0.00396044 0.00701677 0.0008 3.43146e-06 -1.05379e-13 -2.16732e-12 -1.19853e-12 5.36827e-09 9.49431e-10 2.34168e-09 2.93725e-16 -2.4269e-16 -1.23171e-15 0 0 0 0 0 0 0 0
392 1 0.00676834 -0.00245714 0.00615191 0.0008 3.43146e-06 -1.9794e-13 -5.84373e-13 1.1352e-13 1.45053e-09 -3.9049e-10 7.70462e-10 -2.04281e-16 3.62604e-18 -3.03802e-17 1 -0.000819891 0.00031164 0.000318658 0.0075198 -0.00272995 0.00615191 0.0008
393 1 -0.00202038 0.00255799 0.0088671 0.0008 3.43146e-06 1.08401e-12 -3.6657e-13 -1.95257e-12 2.68807e-09 -1.67221e-09 -7.11687e-10 2.6467e-16 -1.3166e-15 -2.43545e-15 0 0 0 0 0 0 0 0
394 1 0.00165744 -0.00211746 0.00594096 0.0008 3.43146e-06 -5.41608e-13 -4.89395e-13 1.18466e-12 2.89799e-10 -9.0973e-10 -5.95786e-10 5.73188e-16 -8.46661e-16 2.01185e-15 0 0 0 0 0 0 0 0
395 1 0.00603499 0.00392716 0.00688616 0.0008 3.43146e-06 -1.09335e-12 -1.15775e-12 1.14627e-12 -3.83632e-09 -7.71125e-10 5.25451e-10 3.44525e-16 -2.33037e-15 1.78816e-15 1 -0.000221394 -0.000151789 5.05306e-05 0.0067053 0.00436336 0.00688616 0.0008
396 1 -0.00359596 -0.000158094 0.00550451 0.0008 3.43146e-06 1.8671e-13 6.79082e-14 1.83576e-12 -6.56836e-10 1.44949e-09 3.01073e-10 2.29926e-15 -4.12318e-17 2.08911e-16 0 0 0 0 0 0 0 0
397 1 -0.00371381 -0.00616915 0.00304123 0.0008 3.43146e-06 4.46134e-13 -5.18357e-14 6.14637e-13 1.09302e-09 3.26425e-10 -5.11788e-10 -3.27151e-16 6.12629e-17 1.51889e-16 1 0.000826871 0.00110744 0.000114439 -0.00412603 -0.00685389 0.00304123 0.0008
398 1 0.0048433 0.00519514 0.00719899 0.0008 3.43146e-06 1.14452e-12 8.47668e-14 1.48445e-12 1.29345e-10 -1.67176e-09 5.78282e-10 -4.2337e-18 1.73075e-16 2.19941e-15 0 0 0 0 0 0 0 0
399 1 -0.000249293 -0.00455334 0.00965623 0.0008 3.43146e-06 1.34199e-13 8.07282e-13 2.31448e-12 -4.77403e-10 5.76275e-10 1.61538e-09 2.65232e-17 1.50191e-15 -4.96297e-15 0 0 0 0 0 0 0 0
400 1 -0.00641553 -0.000948049 0.00673802 0.0008 3.43146e-06 -1.07601e-12 2.71023e-13 2.0553e-13 4.4921e-10 -6.26585e-10 -1.09067e-10 3.57025e-16 -2.95729e-16 2.21708e-15 0 0 0 0 0 0 0 0
401 1 -0.00241261 -0.00116427 0.00590605 0.0008 3.43146e-06 4.44163e-13 -3.3722e-13 -1.57283e-12 8.83217e-10 -4.54132e-10 2.85892e-09 -3.52064e-16 -5.10426e-16 -9.98228e-16 0 0 0 0 0 0 0 0
402 1 -0.00309064 0.00650318 0.00829915 0.0008 3.43146e-06 8.55333e-13 -1.27128e-12 5.36137e-13 -6.53351e-10 -3.50741e-10 2.90611e-10 2.86443e-16 4.465e-16 3.43144e-16 1 0.000133246 -0.00020172 6.12518e-05 -0.00343393 0.00722552 0.00829915 0.0008
403 1 -0.00636076 -0.00337494 0.00635226 0.0008 3.43146e-06 1.62513e-13 5.21216e-13 1.01766e-12 1.8079e-09 -4.60191e-10 4.93591e-10 -4.94894e-17 4.12898e-16 -8.14026e-16 1 0.000973588 0.000613805 0.000190325 -0.00706686 -0.00374959 0.00635226 0.0008
404 1 -0.000167492 -0.000799608 0.00492288 0.0008 3.43146e-06 -6.81667e-14 2.70061e-13 1.76563e-13 -2.06762e-09 -9.87406e-10 -5.96766e-10 -1.27625e-16 -1.33458e-16 -1.15746e-16 0 0 0 0 0 0 0 0
405 1 -0.00116072 0.00559775 0.00608887 0.0008 3.43146e-06 5.42124e-13 8.57129e-13 -1.25001e-12 2.81985e-10 -1.6281e-09 3.46099e-10 8.52849e-16 -2.91548e-16 4.52585e-16 0 0 0 0 0 0 0 0
406 1 0.00287187 -0.00208915 0.00489582 0.0008 3.43146e-06 -6.44202e-13 6.56075e-13 -2.50116e-13 -6.23243e-10 -1.13882e-09 5.54717e-10 -1.42634e-15 1.39213e-15 -3.60021e-15 0 0 0 0 0 0 0 0
407 1 0.000936219 0.00297234 0.00575722 0.0008 3.43146e-06 -2.35917e-13 -5.03206e-13 -1.88658e-12 1.12797e-09 1.17057e-09 -7.64279e-10 -3.29858e-15 -1.21576e-15 3.50482e-15 0 0 0 0 0 0 0 0
408 1 -0.0016225 -0.00538686 0.00950735 0.0008 3.43146e-06 5.41825e-13 1.25099e-12 -4.06298e-13 1.06665e-09 1.99245e-09 2.18231e-09 -4.16982e-16 3.14666e-15 3.87548e-15 0 0 0 0 0 0 0 0
409 1 -0.00427595 -0.00384376 0.00235851 0.0008 3.43146e-06 -2.12464e-14 2.21889e-13 8.25087e-14 -3.96982e-10 -1.67672e-10 1.5675e-09 -7.02619e-16 4.5177e-16 -7.38471e-16 0 0 0 0 0 0 0 0
410 1 -0.00164899 -0.00553573 0.00685897 0.0008 3.43146e-06 5.41449e-13 7.828e-13 9.97553e-13 -2.81428e-09 2.41475e-09 -1.16156e-09 2.47578e-16 7.65119e-16 -1.85736e-15 0 0 0 0 0 0 0 0
411 1 -0.00529208 0.00224956 0.00643667 0.0008 3.43146e-06 2.81076e-13 -1.07697e-12 -1.04629e-12 5.35381e-11 3.36168e-10 8.80241e-10 1.80219e-15 -1.01328e-15 -7.84692e-16 0 0 0 0 0 0 0 0
412 1 0.00147504 -0.000907802 0.00484497 0.0008 3.43146e-06 5.16692e-13 -2.71083e-13 -4.93592e-13 1.52148e-09 7.42173e-10 1.57735e-09 1.00774e-15 4.32247e-16 -1.16032e-15 0 0 0 0 0 0 0 0
413 1 0.00207377 0.000767952 0.00741853 0.0008 3.43146e-06 -1.08419e-12 2.70811e-13 1.45578e-12 -4.15438e-10 3.1839e-10 3.55393e-10 8.93485e-16 1.40264e-15 -8.66744e-16 0 0 0 0 0 0 0 0
414 1 -0.00245862 -0.00245342 0.00495349 0.0008 3.43146e-06 -1.08237e-12 2.79305e-13 -1.93143e-13 1.79445e-09 8.53482e-10 -9.84257e-10 -5.83115e-17 8.33819e-16 -1.78617e-15 0 0 0 0 0 0 0 0
415 1 0.00456416 -0.00556882 0.00525198 0.0008 3.43146e-06 -1.44241e-12 1.08912e-12 -1.66775e-13 7.62341e-10 -1.30779e-09 5.45214e-10 1.21751e-16 -7.13046e-16 2.81939e-16 1 -0.000166559 0.000163486 7.08017e-05 0.00507112 -0.00618738 0.00525198 0.0008
416 1 -3.72587e-05 0.00625243 0.00702061 0.0008 3.43146e-06 2.04094e-14 -6.87545e-13 -1.20137e-13 1.12624e-09 4.14483e-11 -1.59494e-09 -1.18056e-16 1.13383e-15 -7.29468e-16 0 0 0 0 0 0 0 0
417 1 -0.00395612 -0.00601628 0.00799078 0.0008 3.43146e-06 2.16816e-12 -1.07451e-12 -1.39904e-12 -1.41223e-09 1.13027e-09 -3.00823e-09 1.78743e-16 7.17774e-16 1.65583e-16 1 0.000357204 0.000539176 0.000241495 -0.00439541 -0.00668434 0.00799078 0.0008
418 1 0.00712709 -0.0010246 0.00387451 0.0008 3.43146e-06 -2.39547e-14 -2.71073e-13 3.1719e-13 -6.81894e-10 5.10928e-10 3.51088e-10 -1.67206e-15 7.33311e-16 -2.2242e-16 1 -0.000484696 -4.77238e-05 7.13882e-05 0.00791859 -0.00113839 0.00387451 0.0008
419 1 0.00565137 -0.00446193 0.00486261 0.0008 3.43146e-06 3.6253e-13 1.5031e-12 2.12906e-13 -2.51986e-10 5.80064e-10 -1.76132e-09 -2.36451e-16 -2.50595e-16 -2.40765e-16 1 -0.000643073 0.000305579 0.000133374 0.00627889 -0.00495737 0.00486261 0.0008
420 1 -0.00442196 0.00568287 0.00796199 0.0008 3.43146e-06 4.47372e-13 -1.48515e-12 2.20986e-13 -5.20815e-11 -2.91922e-10 -6.70919e-10 6.31858e-16 4.60356e-16 -1.30308e-15 1 0.000570428 -0.000832392 0.000151387 -0.00491287 0.00631377 0.00796199 0.0008
421 1 0.00336289 -0.000478083 0.0049546 0.0008 3.43146e-06 -2.00162e-13 -4.69718e-14 7.28659e-13 4.07229e-10 -3.36365e-11 1.14551e-09 -2.57935e-15 1.475e-15 4.27077e-16 0 0 0 0 0 0 0 0
422 1 0.00245565 0.0053241 0.00814568 0.0008 3.43146e-06 -4.3259e-13 -2.16114e-12 1.10844e-12 -3.44163e-09 -1.41306e-09 -9.45009e-10 3.0208e-15 4.66937e-16 -4.42994e-15 0 0 0 0 0 0 0 0
423 1 0.00717951 -0.000550266 0.00754296 0.0008 3.43146e-06 -1.19764e-12 -2.69334e-13 -1.27779e-13 1.99679e-09 -3.03745e-10 4.45749e-10 -1.22501e-16 -3.14464e-16 1.91507e-16 1 -0.00089389 0.000138872 -6.74253e-05 0.00797661 -0.000611359 0.00754296 0.0008
424 1 -0.00198378 -0.00280628 0.0064398 0.0008 3.43146e-06 -3.3074e-13 -5.64659e-13 -3.33807e-13 -1.02914e-09 2.97815e-10 1.10225e-10 -6.70441e-16 -2.18082e-15 -1.02883e-15 0 0 0 0 0 0 0 0
425 1 0.00440658 -0.00156723 0.00560332 0.0008 3.43146e-06 -1.53774e-13 -1.3622e-13 1.37447e-12 -1.41872e-10 -7.49634e-10 3.26392e-10 -1.47674e-15 -7.72743e-16 7.65639e-17 0 0 0 0 0 0 0 0
426 1 -0.00102178 -0.00409163 0.00361843 0.0008 3.43146e-06 -5.41803e-13 8.32525e-13 1.83549e-13 -2.57835e-09 1.40291e-10 -2.89729e-10 -1.09436e-16 -8.74663e-16 -2.20761e-16 0 0 0 0 0 0 0 0
427 1 -0.00655454 0.00298058 0.00305237 0.0008 3.43146e-06 1.36787e-13 -3.63444e-13 -1.48729e-13 -7.79732e-10 5.59832e-10 -3.4305e-10 2.69769e-16 -2.9511e-16 -4.16623e-16 1 0.000561434 -9.99519e-05 -4.42206e-05 -0.00728241 0.00331157 0.00305237 0.0008
428 1 0.00465456 0.00224049 0.00709837 0.0008 3.43146e-06 -2.17261e-12 -7.58672e-13 2.16834e-12 -9.44542e-10 -1.51569e-09 3.55936e-10 -3.37713e-16 -1.77942e-15 1.40129e-15 0 0 0 0 0 0 0 0
429 1 -0.00718793 0.000416989 0.00938914 0.0008 3.43146e-06 7.64195e-13 1.36158e-13 -4.28801e-12 -3.31903e-09 5.526e-09 3.10192e-10 2.77864e-16 -7.40577e-19 1.50512e-15 1 3.15847e-06 -2.85816e-07 6.89757e-08 -0.00798657 0.000463321 0.00938914 0.0008
430 1 -0.00418821 0.000246787 0.00802971 0.0008 3.43146e-06 1.53144e-12 -1.30092e-13 1.96752e-12 2.23454e-09 -2.33032e-09 9.92814e-10 1.5523e-15 2.13636e-16 1.89066e-15 0 0 0 0 0 0 0 0
431 1 0.000666014 -0.00143912 0.00809626 0.0008 3.43146e-06 -2.4312e-13 -2.97593e-13 1.24591e-12 2.92859e-10 2.87144e-10 -3.18638e-10 1.60001e-15 4.1486e-16 -2.10914e-15 0 0 0 0 0 0 0 0
432 1 -0.00323912 0.00171487 0.0116559 0.0008 3.43146e-06 1.08422e-12 5.42004e-13 2.40177e-12 3.77034e-09 -1.32456e-09 1.35344e-09 1.72872e-15 3.80007e-16 8.23244e-16 0 0 0 0 0 0 0 0
433 1 0.00460554 -0.00304484 0.00880578 0.0008 3.43146e-06 -5.13291e-13 5.79018e-13 -3.9315e-13 1.54316e-09 1.55314e-09 -3.80571e-10 7.42015e-17 -1.35593e-15 9.15923e-16 0 0 0 0 0 0 0 0
434 1 -0.00161993 -0.00371806 0.0115414 0.0008 3.43146e-06 5.42007e-13 1.08371e-12 -2.01736e-12 -8.62264e-11 2.13655e-09 -3.68732e-10 -9.50202e-16 2.1963e-15 3.20997e-15 0 0 0 0 0 0 0 0
435 1 -0.00560005 0.00187013 0.0128588 0.0008 3.43146e-06 -2.05863e-12 4.15936e-13 6.52042e-13 -4.60152e-10 -1.34566e-09 -2.15174e-10 -1.02807e-15 -1.16865e-15 2.01708e-15 0 0 0 0 0 0 0 0
436 1 -0.000226931 0.00416956 0.0127128 0.0008 3.43146e-06 6.54368e-14 -4.52695e-13 4.88708e-13 -2.56674e-09 -6.85242e-10 8.64025e-10 6.91999e-16 -3.63437e-15 -2.26869e-15 0 0 0 0 0 0 0 0
437 1 0.00207135 0.00212531 0.012399 0.0008 3.43146e-06 1.4446e-13 -1.08309e-12 9.89641e-13 -8.00357e-10 1.87103e-09 -1.84097e-09 -1.01343e-15 -5.10131e-16 -9.90267e-16 0 0 0 0 0 0 0 0
438 1 -0.00448508 0.00213387 0.0102517 0.0008 3.43146e-06 2.09889e-12 1.07815e-12 -1.8405e-13 -1.71684e-09 -1.29808e-10 -1.62016e-09 1.74322e-15 6.51151e-16 -4.39346e-15 0 0 0 0 0 0 0 0
439 1 0.00521329 0.0024156 0.00968693 0.0008 3.43146e-06 2.16718e-12 1.43381e-13 1.26165e-12 2.69766e-09 -1.6888e-09 -2.37521e-10 5.79997e-16 -1.60485e-15 4.05131e-15 0 0 0 0 0 0 0 0
440 1 -0.00433245 -0.000351177 0.0114808 0.0008 3.43146e-06 -8.09309e-14 1.37543e-13 2.16644e-13 -2.15812e-09 1.84358e-10 1.31113e-09 1.69594e-16 -3.85142e-16 -3.60149e-16 0 0 0 0 0 0 0 0
441 1 0.00324942 0.00300155 0.00985904 0.0008 3.43146e-06 9.9453e-13 1.4612e-13 1.94849e-12 4.82368e-10 7.02559e-11 1.23621e-10 -7.25571e-16 5.34893e-16 5.36498e-15 0 0 0 0 0 0 0 0
442 1 0.00401807 -0.00103421 0.0114609 0.0008 3.43146e-06 8.2199e-13 -5.41223e-13 2.95603e-13 7.60636e-11 -5.45778e-10 -1.57452e-10 4.45986e-16 -8.0277e-17 9.71617e-16 0 0 0 0 0 0 0 0
443 1 -0.00279422 -0.00244695 0.0118504 0.0008 3.43146e-06 1.07987e-12 1.05857e-13 2.52874e-13 -2.27888e-10 2.29621e-10 7.32618e-10 -2.64873e-16 -3.35973e-16 1.5862e-15 0 0 0 0 0 0 0 0
444 1 0.000477321 0.00152531 0.0100716 0.0008 3.43146e-06 1.34678e-13 -5.41728e-13 -1.68707e-12 1.69464e-10 -2.11373e-09 -1.35335e-10 -1.103e-16 -3.26336e-17 -2.63917e-15 0 0 0 0 0 0 0 0
445 1 0.003545 -0.00203726 0.0103077 0.0008 3.43146e-06 9.8777e-13 -9.26347e-13 7.0338e-13 -1.04775e-09 -6.07685e-11 -2.78726e-10 4.68582e-16 -1.25512e-15 2.00693e-15 0 0 0 0 0 0 0 0
446 1 -0.0068 -0.00236646 0.0108707 0.0008 3.43146e-06 6.27389e-14 1.63874e-13 1.22236e-12 5.54143e-10 -1.61421e-09 -6.39726e-12 9.67639e-16 7.26555e-16 4.58586e-16 1 3.10778e-06 1.53125e-06 8.76607e-07 -0.00755554 -0.0026294 0.0108707 0.0008
447 1 0.00624743 -0.00357909 0.0103075 0.0008 3.43146e-06 -1.05824e-12 8.82634e-14 7.53649e-13 -1.31138e-10 1.15167e-09 5.82706e-10 -3.37465e-16 -2.82651e-15 -1.53675e-16 1 -3.93154e-06 1.21586e-06 7.89346e-08 0.00694157 -0.00397676 0.0103075 0.0008
448 1 0.0034821 0.00433916 0.0107846 0.0008 3.43146e-06 -1.07552e-12 -1.35195e-13 -8.42915e-13 -1.39422e-09 2.26104e-09 1.06498e-10 -4.6272e-16 -1.00289e-15 1.17142e-15 0 0 0 0 0 0 0 0
449 1 -0.00239325 -0.000976063 0.0113067 0.0008 3.43146e-06 -1.08392e-12 -7.03673e-14 3.98024e-12 2.7615e-09 -2.15223e-09 2.02694e-10 -1.49285e-16 3.02481e-15 -3.39868e-15 0 0 0 0 0 0 0 0
450 1 0.0071865 0.000349157 0.0120693 0.0008 3.43146e-06 -3.68764e-15 -1.28919e-13 -1.26029e-13 1.59964e-09 -4.26357e-09 2.86431e-09 2.8848e-16 3.44238e-16 -9.66619e-16 0 0 0 0 0 0 0 0
451 1 -0.000569811 0.00717786 0.00821155 0.0008 3.43146e-06 2.70969e-13 -4.61156e-13 4.61662e-13 -5.1198e-10 -3.03304e-10 3.64645e-10 1.76047e-17 3.73733e-17 -5.65382e-16 1 -5.73275e-05 -0.00062157 0.000195758 -0.000633085 0.00797491 0.00821155 0.0008
452 1 0.000296631 0.00243221 0.0113775 0.0008 3.43146e-06 1.34722e-13 -1.08418e-12 -1.26152e-12 8.2148e-10 -1.36478e-09 2.9108e-09 4.34708e-16 -1.60883e-16 -1.72831e-15 0 0 0 0 0 0 0 0
453 1 0.00124593 0.00114594 0.0114415 0.0008 3.43146e-06 5.418e-13 -1.25332e-13 2.55013e-12 -2.35829e-09 -4.46238e-09 -1.63705e-09 9.41509e-17 -3.71698e-15 -4.61688e-15 0 0 0 0 0 0 0 0
454 1 -0.00639049 0.00331767 0.00977861 0.0008 3.43146e-06 -8.61335e-14 5.00725e-13 -9.72898e-14 2.82798e-10 -1.999e-11 5.05426e-10 1.44657e-15 -8.34097e-16 1.5428e-16 1 0.000396331 -0.000274197 0.000135317 -0.00710018 0.00368612 0.00977861 0.0008
455 1 0.00040182 3.1881e-05 0.00944452 0.0008 3.43146e-06 -1.94726e-14 5.05165e-13 1.55355e-12 -3.00729e-09 7.53344e-10 -2.26209e-10 -1.83349e-15 -2.0765e-15 -1.57537e-15 0 0 0 0 0 0 0 0
456 1 0.000784338 -0.00715757 0.00937938 0.0008 3.43146e-06 -2.71126e-13 1.51265e-14 -4.45277e-13 -5.75269e-10 3.05093e-10 3.61281e-10 5.88407e-16 -3.04474e-15 2.52312e-15 1 -0.00022593 0.000557702 8.83722e-05 0.000871436 -0.0079524 0.00937938 0.0008
457 1 -0.00210099 0.00611601 0.0117436 0.0008 3.43146e-06 -1.08413e-12 -1.36668e-12 -1.73478e-13 -1.05091e-09 -1.9232e-10 6.49209e-10 -1.91287e-16 -1.52952e-15 1.26427e-15 0 0 0 0 0 0 0 0
458 1 0.00527393 -0.00253246 0.00671667 0.0008 3.43146e-06 -5.25758e-13 -1.01917e-12 4.89558e-13 9.40118e-10 7.775e-10 -1.12882e-09 -6.73005e-16 -9.2092e-17 -1.08027e-16 0 0 0 0 0 0 0 0
459 1 0.00332067 -0.000829756 0.00822211 0.0008 3.43146e-06 -1.00561e-12 7.29102e-15 2.12015e-13 -2.59581e-11 2.86788e-10 -7.14603e-11 2.01933e-15 -2.46018e-15 -6.47967e-16 0 0 0 0 0 0 0 0
460 1 0.00357933 -0.00494119 0.00917 0.0008 3.43146e-06 7.99487e-13 1.84929e-12 3.66681e-12 -1.94474e-09 -5.66262e-09 1.07918e-09 3.15179e-16 -1.01592e-15 1.77106e-15 0 0 0 0 0 0 0 0
461 1 -0.00305637 -0.00359366 0.0091155 0.0008 3.43146e-06 1.08327e-12 9.64537e-13 1.74257e-12 -1.72877e-09 1.37787e-09 -5.44936e-10 -6.21322e-16 -1.05901e-15 -2.50162e-15 0 0 0 0 0 0 0 0
462 1 -0.00416743 -0.00238156 0.00956714 0.0008 3.43146e-06 6.01894e-13 1.04668e-12 5.64523e-13 -4.48491e-10 6.99857e-10 1.23432e-09 1.3034e-15 3.95965e-15 2.4689e-16 0 0 0 0 0 0 0 0
463 1 0.000708319 -0.0052112 0.00855665 0.0008 3.43146e-06 5.61831e-14 1.0897e-12 2.27361e-12 -6.02219e-10 1.78058e-10 -1.95916e-10 3.34791e-16 -4.76218e-16 1.70541e-15 0 0 0 0 0 0 0 0
464 1 -0.005824 0.00252098 0.0110442 0.0008 3.43146e-06 -2.93371e-13 -1.08373e-12 -4.17851e-12 4.05559e-09 1.35508e-09 -9.15555e-10 6.86185e-16 -6.80684e-17 2.1938e-15 0 0 0 0 0 0 0 0
465 1 -0.00714893 -0.000858239 0.0118941 0.0008 3.43146e-06 8.71865e-13 -2.70951e-13 -5.24873e-14 2.97998e-09 5.24767e-10 -4.36287e-10 -3.67482e-15 3.84951e-16 1.21421e-15 1 0.00027021 9.06829e-05 6.87616e-05 -0.00794297 -0.000953565 0.0118941 0.0008
466 1 0.00127092 -0.00274608 0.0124742 0.0008 3.43146e-06 5.40295e-13 1.084e-12 2.77006e-13 -1.17464e-09 -4.78151e-10 1.40035e-09 -7.35053e-16 -9.252e-18 -1.02458e-14 0 0 0 0 0 0 0 0
467 1 0.00339967 0.00457113 0.00919494 0.0008 3.43146e-06 -6.41894e-13 -2.76697e-13 6.57832e-13 -1.29614e-10 3.33755e-09 -2.60289e-10 5.48467e-16 -2.81396e-15 -3.0785e-15 0 0 0 0 0 0 0 0
468 1 0.00394473 0.000628391 0.00758447 0.0008 3.43146e-06 -1.83435e-12 1.5534e-13 5.34379e-13 -3.85462e-10 -1.72285e-10 -3.5274e-10 1.94085e-15 4.91182e-15 2.37039e-16 0 0 0 0 0 0 0 0
469 1 0.00168707 -0.000294275 0.00854957 0.0008 3.43146e-06 -4.03279e-13 -5.46669e-14 1.63398e-12 4.2075e-10 -1.15438e-10 9.09122e-10 1.406e-15 -1.78244e-15 -9.27099e-17 0 0 0 0 0 0 0 0
470 1 -0.00429003 -0.00411896 0.00998761 0.0008 3.43146e-06 2.16745e-12 2.15937e-12 3.51213e-13 1.62995e-09 -1.97181e-09 -2.84087e-10 -2.53382e-15 2.36765e-15 4.04805e-15 0 0 0 0 0 0 0 0
471 1 0.000745319 0.00290518 0.0128386 0.0008 3.43146e-06 2.71002e-13 1.04095e-12 2.5966e-12 -1.20526e-09 1.08302e-09 2.72645e-10 -2.28006e-16 -3.18568e-15 -3.36208e-15 0 0 0 0 0 0 0 0
472 1 0.00263024 0.00657404 0.00633129 0.0008 3.43146e-06 1.08365e-12 -1.45319e-12 -7.79007e-13 -4.65109e-09 9.1457e-10 -2.26046e-09 -6.76539e-16 -8.51585e-17 9.70832e-16 0 0 0 0 0 0 0 0
473 1 -0.00697934 -0.00176994 0.00895534 0.0008 3.43146e-06 -1.22283e-12 -3.77038e-13 -1.17544e-12 1.81651e-09 2.03886e-09 -6.82741e-11 -1.71651e-16 -1.54523e-16 -9.90653e-16 1 0.000273202 9.9386e-05 8.965e-05 -0.00775453 -0.00196653 0.00895534 0.0008
474 1 -0.00306954 0.00492699 0.012198 0.0008 3.43146e-06 -2.52212e-13 -1.67436e-12 1.06862e-13 3.12187e-10 -1.12257e-10 7.03282e-10 1.01125e-15 1.3242e-15 3.54588e-16 0 0 0 0 0 0 0 0
475 1 0.00171702 0.00148405 0.00906121 0.0008 3.43146e-06 5.41892e-13 5.421e-13 2.06089e-12 1.7065e-09 -1.81337e-09 1.80474e-10 -6.33201e-16 5.7521e-16 -7.09197e-15 0 0 0 0 0 0 0 0
476 1 0.000612949 -0.00717391 0.01097 0.0008 3.43146e-06 2.71089e-13 1.70339e-12 -1.09195e-12 -1.49146e-09 5.1577e-10 -3.95464e-10 5.248e-16 -3.03425e-15 -3.07359e-16 1 -2.1338e-06 2.44053e-05 4.62228e-06 0.00068105 -0.00797096 0.01097 0.0008
477 1 0.0020037 0.00381568 0.010469 0.0008 3.43146e-06 -1.08379e-12 -1.08216e-12 1.68525e-12 -3.91039e-09 -8.56091e-10 8.61197e-11 -8.4496e-16 -2.98903e-16 4.3041e-15 0 0 0 0 0 0 0 0
478 1 -0.00482818 -0.00165996 0.00739129 0.0008 3.43146e-06 6.00078e-14 -5.41926e-13 9.09983e-13 3.31321e-09 1.85495e-09 9.24663e-10 3.7614e-15 -1.8695e-16 4.04849e-15 0 0 0 0 0 0 0 0
479 1 0.000839194 0.00629967 0.00926559 0.0008 3.43146e-06 2.71091e-13 1.07514e-12 8.91211e-13 -3.79664e-11 -1.283e-09 1.25125e-09 -2.33639e-16 3.93543e-16 4.24501e-16 0 0 0 0 0 0 0 0
480 1 0.00264104 -0.00669877 0.0119908 0.0008 3.43146e-06 7.50882e-13 -1.60968e-12 9.96987e-14 -8.24216e-11 4.69775e-10 -1.4603e-10 2.74251e-15 5.57002e-15 -1.45463e-15 1 -0.000628329 0.000811635 -5.75418e-05 0.00293424 -0.00744246 0.0119908 0.0008
481 1 -0.0018314 0.00696371 0.00917123 0.0008 3.43146e-06 4.67441e-13 -4.9945e-13 2.79305e-13 -3.72972e-10 1.74374e-10 3.59591e-10 -1.13509e-16 -2.67656e-16 5.02175e-16 1 0.000188954 -0.000727675 0.000269994 -0.00203474 0.00773691 0.00917123 0.0008
482 1 -6.16295e-05 -0.00353059 0.0108722 0.0008 3.43146e-06 9.31208e-14 1.01637e-12 3.23286e-12 1.38796e-09 1.87019e-10 -3.31492e-10 -2.27858e-15 9.67795e-15 -1.04808e-14 0 0 0 0 0 0 0 0
483 1 0.00184733 -0.00279216 0.0101009 0.0008 3.43146e-06 4.18281e-13 7.39307e-13 4.27e-14 4.86083e-11 1.38462e-10 -6.81689e-10 3.07391e-17 3.66965e-15 1.14691e-15 0 0 0 0 0 0 0 0
484 1 0.000153004 0.00719895 0.01261 0.0008 3.43146e-06 9.26365e-14 1.60227e-12 4.12225e-13 -5.27735e-10 -1.44e-09 1.4078e-10 2.23951e-15 -9.05436e-16 -3.27767e-16 1 -0.000142343 -0.000923767 7.49339e-05 0.000169991 0.00799819 0.01261 0.0008
485 1 0.00122607 -0.00433141 0.00732539 0.0008 3.43146e-06 -1.87643e-13 -5.50906e-13 2.16238e-12 -1.25064e-09 -2.45623e-10 2.32553e-10 -1.37863e-15 1.71478e-16 -1.12507e-15 0 0 0 0 0 0 0 0
486 1 -0.00718558 -0.000464404 0.0080539 0.0008 3.43146e-06 -2.16763e-12 1.48168e-13 4.83577e-13 -3.82704e-11 -5.94994e-10 4.51708e-10 -2.25792e-16 -8.81042e-16 1.76165e-15 1 0.000916889 -9.64381e-05 -5.9288e-05 -0.00798334 -0.000515964 0.0080539 0.0008
487 1 0.00297005 0.00655949 0.0130814 0.0008 3.43146e-06 2.04084e-14 1.64279e-12 5.81783e-13 -5.86543e-10 5.39839e-10 -8.07866e-10 8.00671e-16 1.03536e-16 8.01205e-16 1 -0.000361649 -0.000819015 0.0002969 0.0032998 0.00728775 0.0130814 0.0008
488 1 0.00295611 -0.00458119 0.00656061 0.0008 3.43146e-06 -7.38621e-13 8.69671e-13 2.16151e-12 -3.31198e-09 -4.81936e-10 -6.81568e-10 -8.88635e-16 -5.35216e-17 2.65318e-16 0 0 0 0 0 0 0 0
489 1 -0.0048534 0.00368698 0.0101513 0.0008 3.43146e-06 7.39186e-13 9.86879e-13 1.98678e-13 1.92052e-09 1.43728e-09 3.20255e-09 1.81615e-16 -5.49899e-16 5.0053e-16 0 0 0 0 0 0 0 0
490 1 0.00680895 0.00234184 0.00960148 0.0008 3.43146e-06 1.97319e-12 3.50141e-13 6.64962e-13 2.85981e-09 1.98212e-09 2.92314e-10 -6.39866e-16 -5.34104e-16 -1.49163e-16 1 -0.000519848 -0.000255775 0.000182536 0.00756506 0.0026019 0.00960148 0.0008
491 1 -0.00692587 0.00196939 0.00910418 0.0008 3.43146e-06 -1.16089e-12 7.75786e-13 -3.91293e-12 5.4941e-09 3.53897e-09 5.31448e-10 1.84072e-15 -3.97298e-16 4.91309e-16 1 0.000570039 -0.000178237 0.000159004 -0.00769495 0.00218808 0.00910418 0.0008
492 1 0.00432815 0.00575414 0.0109605 0.0008 3.43146e-06 -1.76943e-12 -3.04497e-13 -8.36262e-13 1.94443e-09 9.34606e-10 -1.54444e-09 -1.09796e-16 2.00848e-16 5.83668e-16 1 -7.29283e-05 -0.000194578 1.60199e-05 0.00480892 0.0063933 0.0109605 0.0008
493 1 -0.002396 0.00527829 0.00905876 0.0008 3.43146e-06 -9.33709e-13 -2.09119e-13 4.2707e-13 -7.58581e-10 1.03035e-09 -2.39981e-09 1.06784e-16 -1.38648e-16 1.56767e-15 0 0 0 0 0 0 0 0
494 1 0.00463811 -0.00320159 0.010404 0.0008 3.43146e-06 -1.92164e-13 -7.32628e-13 6.81634e-13 -1.83952e-10 1.30827e-09 -7.46217e-10 2.71387e-15 -7.33643e-16 1.68193e-15 0 0 0 0 0 0 0 0
495 1 0.00300966 0.00191482 0.00810023 0.0008 3.43146e-06 1.08426e-12 4.11066e-13 1.96832e-12 6.5776e-10 1.87757e-09 -2.78455e-09 -4.17161e-17 -3.28968e-15 -2.14433e-15 0 0 0 0 0 0 0 0
496 1 -0.00544481 -0.00249498 0.00860797 0.0008 3.43146e-06 1.71369e-12 9.59093e-13 -2.05657e-12 -2.54934e-09 -1.1619e-09 -1.18271e-09 2.3499e-15 1.58019e-16 5.52174e-15 0 0 0 0 0 0 0 0
497 1 -0.000541996 0.00185111 0.0126099 0.0008 3.43146e-06 2.70853e-13 6.44715e-13 4.33663e-12 -7.03322e-09 3.42731e-09 -1.35388e-09 -9.31963e-16 -2.64151e-15 -3.32193e-16 0 0 0 0 0 0 0 0
498 1 0.00146125 -0.00379733 0.0112839 0.0008 3.43146e-06 5.28712e-13 5.86206e-13 2.4289e-12 -1.36124e-09 1.34215e-09 -4.80246e-11 -1.16891e-15 1.17054e-14 2.99375e-15 0 0 0 0 0 0 0 0
499 1 -0.00718165 0.000519642 0.0110057 0.0008 3.43146e-06 5.30792e-13 2.7046e-13 -1.82627e-12 4.49686e-10 2.16456e-09 3.90891e-10 -2.44106e-15 3.6494e-16 6.56918e-16 1 0.000590879 0.000137512 7.65444e-05 -0.00797914 0.000577347 0.0110057 0.0008
500 1 0.000481058 0.00522739 0.00813375 0.0008 3.43146e-06 1.35396e-13 -1.41429e-12 6.61775e-13 -2.03597e-09 1.49216e-09 -5.12271e-10 -9.57791e-17 2.72468e-15 -8.02915e-16 0 0 0 0 0 0 0 0
501 1 0.00217971 -0.00686267 0.00680062 0.0008 3.43146e-06 1.89738e-13 9.26375e-13 1.48281e-13 -1.15963e-10 9.50095e-10 -5.51933e-10 -1.49484e-15 -1.50721e-16 -7.82362e-16 1 -0.000130558 0.000769986 0.000244437 0.00242173 -0.00762465 0.00680062 0.0008
502 1 -0.00624867 0.00357759 0.0082069 0.0008 3.43146e-06 1.60107e-13 -5.76699e-13 8.51861e-13 -1.36539e-09 -4.25822e-10 -5.58731e-10 1.12997e-15 -1.36273e-15 2.38584e-16 1 0.000372109 -0.000231553 0.000146764 -0.00694263 0.0039749 0.0082069 0.0008
503 1 0.00325479 -0.0034275 0.00957184 0.0008 3.43146e-06 1.67979e-14 1.37006e-13 1.6191e-12 7.60042e-10 1.66728e-09 -5.29372e-10 -5.8964e-16 -2.58635e-15 3.43351e-15 0 0 0 0 0 0 0 0
504 1 -0.00357132 -0.000983585 0.0102241 0.0008 3.43146e-06 4.17406e-14 4.0644e-13 2.29257e-12 -1.6577e-10 -2.88575e-10 1.59514e-09 -3.39941e-15 1.56002e-15 -1.01257e-15 0 0 0 0 0 0 0 0
505 1 -0.00101883 -0.00507966 0.0109562 0.0008 3.43146e-06 -4.12627e-13 2.16738e-12 1.84873e-13 -1.48273e-09 -3.13413e-09 -3.68699e-10 5.01432e-15 -1.6523e-15 -8.61102e-16 0 0 0 0 0 0 0 0
506 1 0.000377885 -0.00719022 0.0061193 0.0008 3.43146e-06 -1.33361e-13 8.46473e-14 -2.31431e-13 -3.41714e-10 1.17234e-09 1.71804e-10 -4.81297e-17 -2.10294e-16 -2.21953e-16 1 1.74214e-05 0.000114199 -1.68085e-05 0.000419864 -0.00798897 0.0061193 0.0008
507 1 0.00238958 -0.00149451 0.00933977 0.0008 3.43146e-06 2.81576e-13 2.26272e-13 2.66017e-13 5.16059e-10 1.40843e-09 -2.47751e-10 -1.00374e-16 -8.86118e-16 -1.37327e-15 0 0 0 0 0 0 0 0
508 1 3.52643e-05 0.00305626 0.0099277 0.0008 3.43146e-06 -1.86874e-13 -6.38295e-13 -2.16027e-12 9.38118e-11 -3.4252e-10 1.50087e-09 -7.60962e-16 -3.3031e-15 6.84842e-16 0 0 0 0 0 0 0 0
509 1 0.00331101 -0.000463735 0.0101442 0.0008 3.43146e-06 1.07648e-12 -1.35726e-13 2.41463e-14 3.24741e-10 5.58157e-11 4.76764e-12 -5.56127e-16 2.71801e-16 2.28003e-16 0 0 0 0 0 0 0 0
510 1 -0.00217915 0.000351999 0.0104405 0.0008 3.43146e-06 -1.02505e-12 -1.35714e-13 8.17999e-13 -6.04729e-09 1.85093e-09 -1.69235e-11 -3.41586e-15 3.35357e-16 -4.13298e-15 0 0 0 0 0 0 0 0
511 1 -0.00065543 -0.00128468 0.0089847 0.0008 3.43146e-06 -2.70865e-13 -1.97511e-13 5.41257e-13 -3.12636e-09 -7.64094e-10 2.04536e-09 -4.16806e-16 2.64754e-15 -4.85655e-15 0 0 0 0 0 0 0 0
512 1 -0.00230099 -0.00164319 0.0135352 0.0008 3.43146e-06 3.47108e-13 5.39877e-13 -2.86123e-13 -1.21453e-09 3.87469e-10 -1.13673e-09 -1.26933e-16 -2.28273e-15 4.73377e-15 0 0 0 0 0 0 0 0
513 1 0.00303094 0.00653147 0.0114831 0.0008 3.43146e-06 -6.19162e-13 -4.09146e-13 1.53705e-12 -1.99367e-09 2.31144e-10 -5.05587e-10 -1.1452e-15 9.43132e-16 -1.11481e-15 1 -0.000401601 -0.000551216 0.000171686 0.00336749 0.00725672 0.0114831 0.0008
514 1 -0.0026537 0.00154079 0.00780774 0.0008 3.43146e-06 6.05201e-13 5.4175e-13 -2.16762e-12 -2.92464e-09 -5.17168e-11 -2.23957e-09 1.89465e-16 5.82345e-17 3.02675e-16 0 0 0 0 0 0 0 0
515 1 0.00499567 -0.00518518 0.0125274 0.0008 3.43146e-06 -1.00557e-12 -1.35856e-12 -9.09719e-13 6.79055e-10 -2.45447e-09 2.01581e-09 -1.34808e-15 5.05008e-15 -5.05728e-15 1 -0.000118781 0.000142898 3.44226e-06 0.0055506 -0.00576115 0.0125274 0.0008
516 1 -0.00350265 -0.00629084 0.0124016 0.0008 3.43146e-06 5.7062e-14 -2.84765e-13 4.56908e-13 6.00124e-10 -1.54779e-10 -1.95111e-10 6.08085e-16 1.04276e-15 7.11793e-16 1 0.000127747 0.000180446 2.56273e-05 -0.00389171 -0.0069896 0.0124016 0.0008
517 1 -0.00432195 -0.00381738 0.0116556 0.0008 3.43146e-06 1.5565e-12 1.08244e-12 -4.1514e-13 6.47147e-10 -5.05582e-10 7.01788e-10 -1.80125e-15 -5.63231e-16 1.31744e-14 0 0 0 0 0 0 0 0
518 1 -0.000856472 0.00573784 0.00884679 0.0008 3.43146e-06 2.70943e-13 -4.89937e-14 9.22414e-13 -2.64219e-10 -4.71856e-10 -9.09184e-11 7.46785e-16 -1.0352e-15 -7.21273e-16 0 0 0 0 0 0 0 0
519 1 -0.00197535 0.0024817 0.0122823 0.0008 3.43146e-06 -3.99463e-13 5.31396e-14 1.40291e-12 -2.23184e-09 -3.12012e-09 6.09003e-10 5.58657e-16 1.87016e-15 3.65517e-15 0 0 0 0 0 0 0 0
520 1 0.00176995 -0.0055282 0.00591859 0.0008 3.43146e-06 -4.8875e-13 -2.16824e-12 -1.46429e-12 1.27927e-09 1.43595e-10 -7.31768e-10 -1.00387e-16 -2.58542e-17 -6.55051e-16 0 0 0 0 0 0 0 0
521 1 -0.00186537 -0.0030816 0.012988 0.0008 3.43146e-06 5.41603e-13 7.49784e-13 6.50501e-14 1.34364e-09 -1.54166e-09 1.1244e-09 1.20433e-16 2.1381e-15 4.41686e-15 0 0 0 0 0 0 0 0
522 1 -0.00714236 -0.000913248 0.0102958 0.0008 3.43146e-06 1.53684e-13 2.70906e-13 -4.38433e-13 -2.17351e-09 2.98318e-10 2.9693e-10 -3.27943e-16 -7.15149e-16 8.73079e-16 1 0.000748027 0.000237667 0.000234025 -0.00793539 -0.00101465 0.0102958 0.0008
523 1 0.00397185 0.00414536 0.0122953 0.0008 3.43146e-06 1.94913e-13 1.07457e-13 -5.86308e-13 9.39293e-10 -8.73026e-10 3.29734e-11 -1.1933e-16 1.1268e-15 2.65274e-15 0 0 0 0 0 0 0 0
524 1 -0.00569369 0.00440712 0.0128274 0.0008 3.43146e-06 1.5549e-12 -1.87528e-13 -1.51057e-12 5.37972e-10 2.032e-09 1.07882e-09 2.12457e-16 -7.80039e-17 7.19071e-16 1 2.15511e-05 -1.7182e-05 4.11254e-06 -0.00632627 0.00489676 0.0128274 0.0008
525 1 0.00145522 0.00568098 0.00694857 0.0008 3.43146e-06 4.07642e-13 -5.38682e-13 4.7844e-14 2.2246e-09 -1.55184e-09 1.69054e-09 1.04347e-15 1.093e-15 -1.99285e-15 0 0 0 0 0 0 0 0
526 1 0.0048116 -0.00535686 0.00823934 0.0008 3.43146e-06 2.10903e-12 8.83881e-13 3.78367e-12 2.67293e-09 4.09299e-09 -2.72293e-09 -7.49311e-16 2.00775e-16 -6.28785e-16 1 -0.000619896 0.000500611 0.000231613 0.00534584 -0.00595164 0.00823934 0.0008
527 1 0.00267541 -0.00469989 0.0104674 0.0008 3.43146e-06 -6.47024e-13 8.05432e-13 -1.94373e-12 -3.87737e-10 8.90817e-10 3.30164e-09 3.66836e-15 -4.54961e-15 6.84004e-15 0 0 0 0 0 0 0 0
528 1 0.000793528 0.00561438 0.0107096 0.0008 3.43146e-06 -2.7022e-13 1.02111e-12 2.1832e-12 -6.18661e-10 -3.3487e-11 -4.69085e-11 6.24302e-16 -3.70237e-15 9.26242e-16 0 0 0 0 0 0 0 0
529 1 -0.0030488 0.00302563 0.00736176 0.0008 3.43146e-06 1.08357e-12 2.19549e-13 -2.16828e-12 2.02555e-09 2.56535e-09 9.42145e-10 2.71302e-16 5.33167e-16 -6.45699e-16 0 0 0 0 0 0 0 0
530 1 -0.00458058 0.00555506 0.0127735 0.0008 3.43146e-06 1.15733e-13 -2.16999e-13 -9.43871e-13 1.83605e-09 -4.55981e-10 1.32586e-11 2.96466e-16 -3.67277e-16 -5.29826e-16 1 6.52757e-06 -8.88714e-06 3.16847e-06 -0.00508951 0.00617227 0.0127735 0.0008
531 1 -0.00222804 0.00479984 0.0108435 0.0008 3.43146e-06 -6.84203e-13 -2.21921e-13 2.87151e-13 1.36602e-09 3.56271e-10 -7.04273e-11 -3.27105e-18 -7.09564e-16 5.72357e-16 0 0 0 0 0 0 0 0
532 1 -0.00159933 0.00383406 0.00973446 0.0008 3.43146e-06 3.40906e-13 -2.99459e-13 6.97482e-13 -1.08313e-09 -2.33154e-09 -2.90719e-10 6.39148e-16 1.8128e-16 -1.27163e-15 0 0 0 0 0 0 0 0
533 1 -0.0009858 -0.00713241 0.0110148 0.0008 3.43146e-06 3.20555e-13 1.97942e-12 -4.25384e-13 -4.48908e-10 2.49515e-10 -1.77701e-11 1.81788e-16 -1.39653e-15 -2.16091e-15 1 7.84673e-06 0.000205287 3.92568e-05 -0.0010953 -0.00792466 0.0110148 0.0008
534 1 0.00169274 0.00699868 0.0122248 0.0008 3.43146e-06 2.04276e-13 1.25975e-12 1.20694e-12 -1.40083e-09 6.73285e-10 -1.74521e-10 -1.18782e-17 1.72415e-15 -1.72119e-16 1 -0.000151597 -0.000682402 4.26068e-05 0.0018807 0.00777579 0.0122248 0.0008
535 1 -0.00591687 0.00410355 0.0112711 0.0008 3.43146e-06 1.47473e-12 -2.16324e-12 1.13824e-13 1.09907e-09 -9.27864e-10 -1.16841e-09 -2.73004e-16 2.0038e-16 7.26979e-16 1 0.000781443 -0.000554508 2.94212e-05 -0.00657376 0.00455913 0.0112711 0.0008
536 1 0.0070759 0.00133589 0.0108156 0.0008 3.43146e-06 2.16252e-12 3.15587e-13 -1.05331e-12 -1.44512e-09 -1.6376e-09 1.15369e-10 -2.56423e-15 -7.91184e-16 6.66443e-16 1 -0.00179242 -0.000331376 0.000208432 0.00786113 0.00148414 0.0108156 0.0008
537 1 -0.00557562 -0.00455668 0.00914341 0.0008 3.43146e-06 1.07938e-12 1.41514e-12 -1.38161e-12 -1.65398e-09 8.95998e-10 5.28027e-10 7.67643e-16 1.46007e-15 4.07828e-15 1 0.00119662 0.000743389 -4.18542e-05 -0.00619448 -0.00506245 0.00914341 0.0008
538 1 0.00445039 -0.00119586 0.00929311 0.0008 3.43146e-06 4.35245e-13 5.03898e-13 -2.51591e-12 5.52564e-10 3.27671e-09 1.04945e-09 1.45639e-15 -1.07215e-15 -1.20423e-15 0 0 0 0 0 0 0 0
539 1 0.00258331 -0.00366534 0.0126398 0.0008 3.43146e-06 -7.46041e-13 1.03229e-12 -1.55166e-12 1.18759e-09 -1.61233e-09 1.5171e-10 -5.73476e-15 2.22109e-15 -6.08338e-16 0 0 0 0 0 0 0 0
540 1 -0.0035261 -0.000765073 0.0069829 0.0008 3.43146e-06 4.28729e-13 -9.53434e-14 -5.60572e-14 1.53237e-09 9.78587e-10 -5.23751e-09 4.60036e-16 1.24208e-15 -4.19049e-16 0 0 0 0 0 0 0 0
541 1 0.00237837 -0.00237919 0.013568 0.0008 3.43146e-06 -8.4957e-13 9.19421e-13 1.22873e-13 9.1982e-10 -7.0169e-10 -1.76624e-09 3.31611e-16 -4.21588e-15 -1.13731e-15 0 0 0 0 0 0 0 0
542 1 -0.0027995 0.00663377 0.0104009 0.0008 3.43146e-06 -9.69291e-14 -1.07551e-12 -7.44699e-13 1.5848e-09 -1.41611e-09 -5.43426e-10 6.52636e-16 -1.66486e-16 -4.6767e-16 1 0.000125643 -0.000308563 0.000111036 -0.00311043 0.00737056 0.0104009 0.0008
543 1 0.00152584 0.00417552 0.00753365 0.0008 3.43146e-06 2.58553e-13 -2.11602e-12 9.51347e-13 1.43145e-09 -1.74022e-09 8.3729e-11 3.46664e-15 -1.37649e-16 -6.11636e-15 0 0 0 0 0 0 0 0
544 1 -0.00130713 -0.00189752 0.0120603 0.0008 3.43146e-06 -5.24207e-13 3.46936e-13 -6.1367e-14 1.41229e-09 3.3037e-10 4.45567e-10 3.37706e-17 -6.9776e-15 2.33149e-15 0 0 0 0 0 0 0 0
545 1 0.0028524 0.00104031 0.0110252 0.0008 3.43146e-06 1.0836e-12 -3.30948e-13 1.5975e-12 6.61781e-10 -1.77318e-09 -7.71861e-10 1.15874e-15 1.34627e-15 -2.58646e-15 0 0 0 0 0 0 0 0
546 1 -0.00025193 -0.00611402 0.0100077 0.0008 3.43146e-06 -1.3601e-13 1.34974e-12 1.0128e-12 2.15185e-09 -1.91526e-10 -2.20408e-09 -8.61915e-16 2.66859e-15 3.42761e-15 0 0 0 0 0 0 0 0
547 1 0.00225313 -0.00551225 0.00765431 0.0008 3.43146e-06 -4.4697e-13 1.98274e-12 2.04437e-12 1.46783e-09 -6.19928e-10 1.79381e-09 -2.105e-15 7.55824e-16 -4.04859e-16 0 0 0 0 0 0 0 0
548 1 0.00131876 -0.00423872 0.00967043 0.0008 3.43146e-06 4.53597e-13 2.16669e-12 1.3139e-12 -1.05161e-09 4.27711e-10 8.26127e-11 1.43023e-16 -1.61786e-15 -1.0907e-16 0 0 0 0 0 0 0 0
549 1 0.00221379 0.00516939 0.0112951 0.0008 3.43146e-06 -1.06837e-12 3.63185e-13 1.39001e-12 2.47323e-09 1.15053e-10 -4.37597e-10 -3.54076e-16 -1.52847e-15 6.78498e-16 0 0 0 0 0 0 0 0
550 1 -0.00112107 0.00151321 0.0101394 0.0008 3.43146e-06 -5.4105e-13 -3.29135e-13 -2.55062e-12 3.22775e-09 9.63652e-10 -4.64244e-10 4.52075e-16 1.75303e-15 -2.38655e-15 0 0 0 0 0 0 0 0
551 1 0.00709084 -0.00124961 0.0120474 0.0008 3.43146e-06 1.20299e-13 -5.41867e-13 -1.49681e-12 1.95154e-09 -2.27916e-09 7.00862e-10 -8.23523e-16 8.99631e-17 -4.18995e-17 1 -7.37284e-05 2.28512e-05 -5.51321e-07 0.00787859 -0.00138843 0.0120474 0.0008
552 1 -0.00110209 0.000369705 0.00901559 0.0008 3.43146e-06 -5.42065e-13 -6.07716e-13 -6.42389e-13 -3.98989e-10 -2.42888e-09 1.19475e-09 3.24383e-16 -2.53862e-15 -5.35142e-16 0 0 0 0 0 0 0 0
553 1 -0.00521017 -0.00297632 0.0106246 0.0008 3.43146e-06 2.02389e-12 9.1225e-13 -5.99272e-14 2.57999e-10 -4.20965e-10 1.86901e-10 9.52435e-17 -1.76931e-15 3.65947e-15 0 0 0 0 0 0 0 0
554 1 0.00229064 -0.000560116 0.0113722 0.0008 3.43146e-06 -3.38009e-13 3.54013e-13 1.31488e-12 -1.47786e-09 -3.74706e-10 1.66256e-11 3.07342e-15 -2.91837e-16 -2.50445e-15 0 0 0 0 0 0 0 0
555 1 -0.00267186 0.00190391 0.0101729 0.0008 3.43146e-06 5.90929e-13 5.41438e-13 2.26743e-13 -4.14291e-09 2.85676e-09 -1.06616e-09 4.77587e-15 -9.36988e-16 1.01361e-16 0 0 0 0 0 0 0 0
556 1 -0.00469158 -9.01355e-05 0.00951383 0.0008 3.43146e-06 -2.16838e-12 -5.23393e-14 1.59062e-12 -3.77646e-09 3.45575e-09 -1.7267e-09 -2.41464e-15 9.30107e-17 4.8165e-15 0 0 0 0 0 0 0 0
557 1 -0.000687313 0.00503743 0.0114501 0.0008 3.43146e-06 2.70907e-13 -1.20103e-12 3.60285e-13 1.80376e-09 3.50413e-10 -7.5897e-10 4.93926e-16 -4.08294e-15 5.03318e-16 0 0 0 0 0 0 0 0
558 1 -0.0019349 -0.00246966 0.00892073 0.0008 3.43146e-06 5.42104e-13 1.07645e-12 2.27314e-12 8.64996e-10 -3.17233e-09 1.32198e-09 -1.16262e-15 -1.10337e-15 -9.35262e-15 0 0 0 0 0 0 0 0
559 1 0.00544783 0.00470798 0.0125494 0.0008 3.43146e-06 -1.11527e-12 -1.01121e-12 -5.01483e-13 3.26694e-09 2.02825e-09 6.64552e-11 4.39404e-16 4.16025e-16 1.37343e-15 1 -0.000193307 -0.000238848 4.12017e-05 0.00605292 0.00523089 0.0125494 0.0008
560 1 -0.000772141 -0.0056902 0.00818737 0.0008 3.43146e-06 1.66488e-13 2.08281e-12 9.5383e-13 -7.51987e-10 -2.41131e-09 -1.37285e-09 3.94347e-16 3.39002e-16 2.58962e-15 0 0 0 0 0 0 0 0
561 1 -0.000629256 0.00456518 0.00718889 0.0008 3.43146e-06 1.05114e-13 1.30307e-12 -7.85428e-13 -6.67921e-10 4.21064e-10 1.31288e-10 1.06271e-15 -2.61459e-15 1.19438e-15 0 0 0 0 0 0 0 0
562 1 -0.00450575 0.004267 0.00870147 0.0008 3.43146e-06 1.37182e-13 2.08952e-12 -1.61921e-13 -1.71016e-09 -2.14652e-09 1.28022e-09 8.46638e-16 -1.53556e-15 -1.27269e-15 0 0 0 0 0 0 0 0
563 1 -0.00217709 0.000101961 0.00685478 0.0008 3.43146e-06 3.06084e-13 -4.73286e-14 -6.74632e-13 1.07523e-10 1.61481e-09 -1.43177e-09 -3.62253e-16 9.98199e-16 -1.0135e-15 0 0 0 0 0 0 0 0
564 1 0.00321133 -0.0024223 0.0083283 0.0008 3.43146e-06 -7.36387e-13 8.30715e-13 7.1367e-13 -7.47426e-10 -4.32441e-10 3.26682e-10 4.03647e-16 -9.92777e-16 -4.7956e-16 0 0 0 0 0 0 0 0
565 1 0.00418237 0.00289924 0.00856342 0.0008 3.43146e-06 2.16806e-12 1.52898e-13 2.18674e-13 -1.72485e-09 2.35415e-10 1.75708e-09 1.68059e-16 4.33072e-16 6.31809e-15 0 0 0 0 0 0 0 0
566 1 -0.00308329 -0.00516057 0.0101181 0.0008 3.43146e-06 7.87469e-13 9.46575e-13 1.15071e-12 -8.5884e-10 -6.20758e-11 -1.79391e-09 6.15252e-15 -1.70294e-15 2.7496e-15 0 0 0 0 0 0 0 0
567 1 -0.00445777 -0.00565438 0.0094657 0.0008 3.43146e-06 1.4291e-12 1.8414e-12 4.66133e-13 -6.87556e-10 -1.79898e-09 -1.15828e-11 1.05267e-15 -5.99937e-16 1.49737e-15 1 0.000204819 0.000207168 8.70088e-05 -0.0049529 -0.00628242 0.0094657 0.0008
568 1 0.00202811 0.00690886 0.0102947 0.0008 3.43146e-06 -4.4781e-13 -1.19893e-14 -1.04545e-12 2.1097e-09 2.56858e-09 -5.43287e-10 -1.67814e-15 -8.41472e-16 9.23149e-16 1 -0.000183551 -0.000470892 -2.61522e-07 0.00225333 0.0076761 0.0102947 0.0008
569 1 0.00375685 -0.00451297 0.0117705 0.0008 3.43146e-06 -5.31213e-14 -7.19538e-13 -6.97834e-15 3.61209e-09 8.94229e-10 -1.04324e-09 -1.83354e-15 1.70185e-15 5.13993e-16 0 0 0 0 0 0 0 0
570 1 -0.00681781 -0.0023135 0.0124697 0.0008 3.43146e-06 -6.39792e-15 -5.14492e-13 -3.06971e-12 1.31941e-10 1.49795e-09 -1.34328e-09 1.74276e-15 -1.49897e-15 1.74054e-15 0 0 0 0 0 0 0 0
571 1 -0.00548128 0.0046683 0.00732364 0.0008 3.43146e-06 7.59958e-13 -6.77323e-13 2.01439e-13 4.93748e-10 6.97385e-11 2.19338e-10 1.08012e-15 -5.46616e-16 -8.04658e-16 0 0 0 0 0 0 0 0
572 1 0.00656391 -0.00295912 0.0118149 0.0008 3.43146e-06 2.73807e-13 -4.15376e-14 2.12923e-13 2.26212e-09 -7.09369e-10 -1.34157e-10 2.94019e-16 -1.185e-16 -1.26248e-16 1 -5.10631e-05 2.24159e-05 5.78623e-07 0.00729314 -0.00328787 0.0118149 0.0008
573 1 0.00584764 -0.000611373 0.00980607 0.0008 3.43146e-06 1.19749e-12 2.70602e-13 -2.21032e-13 1.3709e-09 -5.14172e-09 -1.37845e-09 -2.12042e-15 4.05336e-16 -1.28463e-15 0 0 0 0 0 0 0 0
574 1 0.00702399 0.00158341 0.00820996 0.0008 3.43146e-06 5.05405e-13 5.41552e-13 3.1507e-13 -2.43296e-09 -8.53492e-11 -5.43947e-10 -1.95457e-16 -1.94855e-16 4.00389e-16 1 -0.000265264 -5.28426e-05 9.47898e-05 0.00780416 0.00175928 0.00820996 0.0008
575 1 0.00192456 0.00221803 0.0104673 0.0008 3.43146e-06 5.41852e-13 -1.08419e-12 3.63557e-12 1.54083e-09 2.77467e-09 2.08092e-09 -2.68784e-16 1.04207e-15 -1.23455e-15 0 0 0 0 0 0 0 0
576 1 0.000548846 0.00400895 0.011106 0.0008 3.43146e-06 -2.71046e-13 -1.3001e-12 8.85942e-13 3.60001e-09 3.50637e-10 5.42217e-11 4.84931e-16 2.64523e-15 3.09334e-15 0 0 0 0 0 0 0 0
577 1 0.00513014 -0.00505216 0.0109267 0.0008 3.43146e-06 -4.34781e-13 -4.69201e-13 -8.56475e-13 1.16871e-09 -2.63939e-09 8.08342e-10 8.9686e-16 1.03466e-16 -2.04027e-15 1 -0.00010868 0.00012825 -5.35429e-05 0.00570001 -0.00561336 0.0109267 0.0008
578 1 -0.00271401 -0.00199338 0.00760762 0.0008 3.43146e-06 -6.29949e-13 -3.09413e-13 -1.10582e-12 -1.71389e-09 1.2095e-09 3.0993e-09 7.26971e-16 -1.32986e-15 2.05999e-15 0 0 0 0 0 0 0 0
579 1 -0.00641202 -0.00327675 0.00961361 0.0008 3.43146e-06 7.29345e-13 1.00622e-12 -4.88731e-13 1.45451e-09 1.43774e-09 7.16496e-10 1.33536e-15 -1.52215e-15 9.81305e-16 1 0.00136432 0.000527913 0.000215428 -0.0071237 -0.00364045 0.00961361 0.0008
580 1 -0.00576334 -0.000258573 0.0107728 0.0008 3.43146e-06 4.17046e-13 -1.35458e-13 -1.69358e-13 1.6107e-09 -8.74295e-10 -1.15493e-09 -1.78364e-15 1.51389e-16 1.00255e-15 0 0 0 0 0 0 0 0
581 1 0.00570225 -0.000245464 0.00807499 0.0008 3.43146e-06 1.22018e-12 -1.352e-13 -1.37474e-12 3.43336e-09 -1.32482e-09 -3.24921e-09 3.26662e-16 -6.25043e-17 1.11724e-15 0 0 0 0 0 0 0 0
582 1 0.0036351 0.00621525 0.00753436 0.0008 3.43146e-06 4.84608e-13 -2.07343e-12 1.4798e-14 -1.42797e-10 -1.32881e-10 1.85435e-09 4.95089e-16 6.73562e-16 4.04388e-16 1 -0.000124466 -0.000193253 6.22886e-05 0.00403887 0.00690561 0.00753436 0.0008
583 1 0.00187584 0.000234823 0.010047 0.0008 3.43146e-06 5.42146e-13 1.17699e-13 1.22485e-12 -5.63962e-10 1.72162e-09 -1.27519e-10 3.34345e-16 4.78319e-16 -1.08586e-15 0 0 0 0 0 0 0 0
584 1 0.000229893 -0.0052579 0.00625718 0.0008 3.43146e-06 6.55159e-14 -4.33898e-13 -1.96541e-12 -3.7859e-09 -2.3729e-10 -1.09734e-09 -1.66955e-16 -8.4028e-16 -2.76117e-15 0 0 0 0 0 0 0 0
585 1 -0.00204923 -0.00110638 0.00974964 0.0008 3.43146e-06 -2.57747e-13 5.29937e-13 1.25273e-12 -1.52424e-09 1.81372e-09 -9.19574e-10 1.29849e-16 -1.29768e-16 -3.97261e-15 0 0 0 0 0 0 0 0
586 1 -0.00133498 -0.00707567 0.00932957 0.0008 3.43146e-06 -5.41885e-13 1.73477e-12 -7.74157e-13 -1.35521e-09 -1.78133e-09 1.09354e-09 1.70491e-16 8.69615e-16 3.43906e-15 1 0.000214628 0.0007308 -2.56557e-05 -0.00148321 -0.0078613 0.00932957 0.0008
587 1 0.0046081 0.000407567 0.00904179 0.0008 3.43146e-06 1.59669e-13 -1.35102e-13 -1.56099e-13 1.14001e-09 -7.88479e-10 2.95374e-10 -5.31369e-16 -2.49239e-16 -5.46742e-16 0 0 0 0 0 0 0 0
588 1 -0.00538785 -0.00477683 0.0109471 0.0008 3.43146e-06 1.47946e-12 1.18092e-12 -5.27679e-13 5.44087e-10 1.32989e-09 -8.28683e-11 4.24053e-16 1.23595e-16 4.38895e-15 1 0.000439307 0.000599084 0.000117941 -0.0059861 -0.00530722 0.0109471 0.0008
589 1 -0.00465168 -0.00429708 0.00786393 0.0008 3.43146e-06 -1.35487e-13 -1.98356e-12 2.00947e-12 -1.59192e-09 -2.31992e-09 -1.88361e-09 2.89679e-16 1.15689e-15 2.44415e-15 0 0 0 0 0 0 0 0
590 1 0.0063485 0.00339747 0.0123774 0.0008 3.43146e-06 -3.27738e-13 -8.56811e-13 -8.61842e-13 -2.45365e-09 -2.48354e-09 7.49465e-10 -4.52608e-16 8.11508e-16 4.55431e-16 1 -0.000495616 -0.000360006 0.000129314 0.00705346 0.00377474 0.0123774 0.0008
591 1 -0.00564725 -0.000729389 0.00840214 0.0008 3.43146e-06 -2.16736e-12 -2.72226e-13 3.90239e-12 -7.36203e-11 -3.41194e-09 -9.96011e-10 1.55076e-15 5.21113e-16 7.44139e-15 0 0 0 0 0 0 0 0
592 1 -0.00424643 0.00177279 0.00754911 0.0008 3.43146e-06 1.74685e-12 2.77805e-13 1.62811e-13 -2.1151e-09 9.01084e-11 4.06659e-10 3.1133e-15 3.50461e-15 1.30858e-15 0 0 0 0 0 0 0 0
593 1 0.00470551 0.000158168 0.0106189 0.0008 3.43146e-06 1.57282e-12 1.65815e-13 -2.19963e-12 -1.13389e-09 2.73646e-09 2.74116e-10 -1.86871e-15 -3.44424e-16 -2.72083e-15 0 0 0 0 0 0 0 0
594 1 0.00452524 0.00560075 0.0087132 0.0008 3.43146e-06 -8.05047e-13 -6.03522e-13 -6.3848e-13 7.08563e-11 -1.23717e-09 -3.11929e-10 6.03589e-16 -1.03148e-15 -9.24563e-16 1 -0.000268838 -0.000556879 6.34629e-05 0.00502774 0.00622269 0.0087132 0.0008
595 1 -0.00298109 -0.00355915 0.0107163 0.0008 3.43146e-06 1.08401e-12 1.07337e-12 1.22564e-12 4.32409e-10 9.57892e-10 2.66543e-10 2.16807e-15 -6.32744e-16 -1.98568e-16 0 0 0 0 0 0 0 0
596 1 -0.00451662 0.00262805 0.0119589 0.0008 3.43146e-06 2.16835e-12 -1.08421e-12 -1.42365e-12 -5.61774e-09 -2.59594e-09 -4.91121e-10 -2.16378e-15 1.82441e-15 6.03766e-16 0 0 0 0 0 0 0 0
597 1 0.00306015 0.00294564 0.0114465 0.0008 3.43146e-06 3.60908e-13 -8.74613e-13 2.02101e-13 6.54762e-10 -1.22637e-09 1.7363e-09 -7.22359e-16 2.59744e-16 2.59615e-15 0 0 0 0 0 0 0 0
598 1 -0.00165809 -0.00382361 0.00985717 0.0008 3.43146e-06 5.41693e-13 4.62564e-13 1.56581e-12 -3.64513e-10 -1.08544e-09 -1.39047e-09 -8.47534e-16 2.13819e-15 -5.77877e-15 0 0 0 0 0 0 0 0
599 1 -0.0017273 0.00405756 0.0121685 0.0008 3.43146e-06 -3.59553e-13 -1.37035e-12 5.162e-14 -1.6978e-10 2.81471e-10 -5.42152e-10 3.01025e-15 -1.1455e-15 9.71581e-16 0 0 0 0 0 0 0 0
600 1 0.00692885 -0.0019577 0.010622 0.0008 3.43146e-06 1.50418e-12 7.39859e-13 -7.90637e-14 -1.4843e-09 2.99568e-10 -1.39664e-09 -6.76902e-16 -1.87719e-16 -1.69746e-16 1 -7.0745e-05 1.74134e-05 7.48951e-08 0.00769861 -0.00217519 0.010622 0.0008
601 1 -0.00131494 0.0060181 0.0103533 0.0008 3.43146e-06 2.15184e-13 6.37963e-13 7.61684e-14 -7.14649e-10 3.69213e-11 -4.81554e-10 6.83815e-16 -1.27921e-15 1.77701e-15 0 0 0 0 0 0 0 0
602 1 -0.00183743 0.00093761 0.0118891 0.0008 3.43146e-06 5.42005e-13 -2.45873e-13 -1.0796e-12 5.34624e-09 7.25352e-10 -1.26838e-10 -1.62254e-15 -5.89899e-16 2.29461e-15 0 0 0 0 0 0 0 0
603 1 0.00100658 0.00555557 0.0122933 0.0008 3.43146e-06 5.42057e-13 1.14156e-12 2.44872e-12 4.77723e-10 1.02663e-09 6.26879e-10 -5.03563e-16 -6.98115e-15 1.13401e-15 0 0 0 0 0 0 0 0
604 1 -0.00701967 0.00160224 0.0121719 0.0008 3.43146e-06 7.72632e-13 5.31814e-13 2.05751e-13 1.30092e-09 -6.59314e-10 9.34039e-10 -2.79728e-15 -2.31145e-16 4.5491e-17 1 0.000186288 -4.52765e-05 2.99481e-05 -0.00779941 0.00178021 0.0121719 0.0008
605 1 -0.00305887 -0.0065182 0.00921583 0.0008 3.43146e-06 1.04567e-12 -3.68101e-14 -1.87459e-12 -2.61676e-09 -4.4817e-11 -1.15372e-09 -8.76287e-16 2.55189e-15 7.59418e-17 1 0.000148232 0.000224287 6.13294e-05 -0.00339863 -0.00724219 0.00921583 0.0008
606 1 0.0021499 0.00542238 0.00971676 0.0008 3.43146e-06 -1.29129e-13 -3.67452e-13 1.14386e-14 -3.59685e-09 -1.51055e-09 1.40143e-09 -2.51233e-15 -2.9841e-15 -9.09341e-16 0 0 0 0 0 0 0 0
607 1 -0.005034 0.00276501 0.00885708 0.0008 3.43146e-06 2.16589e-12 8.82404e-13 3.87784e-12 -4.11729e-09 4.28582e-10 1.80095e-09 6.96013e-16 -6.9542e-16 1.78084e-15 0 0 0 0 0 0 0 0
608 1 -0.000726812 -0.00267953 0.0078834 0.0008 3.43146e-06 -8.89361e-13 -1.08425e-12 3.356e-12 -2.14493e-09 1.75447e-09 -6.70901e-10 -5.16329e-16 -1.6081e-16 9.72622e-16 0 0 0 0 0 0 0 0
609 1 -0.000377867 0.00719038 0.00979966 0.0008 3.43146e-06 3.57206e-14 -2.32963e-13 -1.08983e-13 1.78427e-10 6.3215e-11 1.82091e-11 7.52184e-16 -1.07218e-15 1.17159e-15 1 5.49314e-06 -0.000344915 0.000106577 -0.000419835 0.00798898 0.00979966 0.0008
610 1 -0.000281989 -0.00188323 0.0108321 0.0008 3.43146e-06 1.34982e-13 5.4185e-13 2.74789e-13 -1.05309e-09 -1.22426e-09 -2.34996e-10 2.16136e-16 3.72323e-17 -3.49817e-15 0 0 0 0 0 0 0 0
611 1 0.00443771 0.000335007 0.0121859 0.0008 3.43146e-06 1.89047e-12 4.01711e-13 2.3332e-12 1.33941e-09 -1.4694e-09 4.05181e-10 -4.14054e-16 1.49734e-15 -5.24554e-16 0 0 0 0 0 0 0 0
612 1 0.00609497 0.00261097 0.0110076 0.0008 3.43146e-06 2.16815e-12 -8.7921e-13 4.05179e-12 -7.32967e-10 9.60833e-11 6.96203e-11 -1.0632e-16 -2.7632e-15 -3.8435e-15 0 0 0 0 0 0 0 0
613 1 -0.00636892 0.0020974 0.00760993 0.0008 3.43146e-06 -1.78766e-12 1.08385e-12 -2.16825e-12 -5.33319e-09 -3.73611e-09 8.9579e-10 1.53775e-15 1.78024e-16 -2.70472e-16 0 0 0 0 0 0 0 0
614 1 0.00183055 0.0037854 0.0120592 0.0008 3.43146e-06 -5.42108e-13 -7.864e-14 2.26431e-12 2.95506e-09 1.63015e-09 -2.20797e-09 1.14327e-16 -2.71199e-15 2.99587e-15 0 0 0 0 0 0 0 0
615 1 -0.00622174 -0.00362511 0.01168 0.0008 3.43146e-06 1.87267e-12 1.08276e-12 -1.93049e-13 -7.0176e-10 -1.38318e-10 4.08095e-11 -7.88667e-16 4.53052e-16 3.53934e-16 1 0.00129676 0.000790072 -3.11728e-05 -0.00691228 -0.00402746 0.01168 0.0008
616 1 -0.000776578 -0.000416401 0.0104291 0.0008 3.43146e-06 2.61926e-13 1.359e-13 1.31914e-12 2.9775e-09 -9.33737e-10 1.03467e-09 -5.9782e-16 -1.81954e-16 -3.3084e-15 0 0 0 0 0 0 0 0
617 1 -0.00369852 0.00147796 0.00902257 0.0008 3.43146e-06 1.08249e-12 5.52232e-13 3.17455e-12 7.77485e-10 -1.96487e-09 -1.31691e-09 2.93823e-15 6.0179e-16 -2.52594e-15 0 0 0 0 0 0 0 0
618 1 -0.00350804 0.00452226 0.0099255 0.0008 3.43146e-06 -1.08404e-12 2.08295e-12 4.60133e-13 1.39611e-09 3.9189e-10 -1.41247e-09 3.55626e-16 2.32651e-16 1.05121e-15 0 0 0 0 0 0 0 0
619 1 -0.00113901 0.0010783 0.00758163 0.0008 3.43146e-06 5.41202e-13 -5.42077e-13 -1.06793e-12 4.43181e-10 -5.40843e-10 1.21965e-09 -8.41861e-17 -2.65614e-16 3.36525e-16 0 0 0 0 0 0 0 0
620 1 -0.00630901 0.00347101 0.00661216 0.0008 3.43146e-06 3.16642e-13 -1.06982e-12 -3.39557e-13 7.6191e-10 7.27793e-11 -9.61079e-10 1.08699e-15 -3.44163e-16 -1.26526e-15 1 0.00135974 -0.000680201 0.000144485 -0.00700923 0.00385625 0.00661216 0.0008
621 1 -0.00140974 -0.00411326 0.00817525 0.0008 3.43146e-06 4.93846e-13 -1.66559e-12 5.22653e-13 -5.98173e-09 1.07322e-09 -2.74045e-09 1.06697e-17 3.09532e-15 -6.22427e-16 0 0 0 0 0 0 0 0
622 1 0.00597613 0.000980059 0.00971021 0.0008 3.43146e-06 2.16118e-12 -5.22198e-13 9.20385e-13 -1.71291e-10 3.21658e-09 2.19003e-10 -5.53449e-16 1.2719e-15 9.44276e-16 0 0 0 0 0 0 0 0
623 1 0.00460243 0.00320703 0.010936 0.0008 3.43146e-06 2.15771e-12 -1.06285e-12 -2.86859e-13 -2.79331e-09 1.41532e-09 1.46562e-09 1.03041e-15 6.92644e-16 7.26364e-15 0 0 0 0 0 0 0 0
624 1 -0.00388872 0.00606025 0.0114224 0.0008 3.43146e-06 -1.08193e-12 -6.30707e-13 -1.1013e-13 -9.91249e-10 1.9181e-09 -1.57499e-09 5.27627e-16 -6.84606e-16 -1.23144e-16 1 0.000557135 -0.000858904 0.000174746 -0.00432043 0.00673304 0.0114224 0.0008
625 1 0.000774884 -0.00441405 0.0144094 0.0008 3.43146e-06 -2.70921e-13 1.10766e-13 -2.23106e-12 1.20062e-09 -1.60275e-09 -5.73608e-10 -6.86134e-17 -7.14795e-16 -1.80328e-16 0 0 0 0 0 0 0 0
626 1 -0.00264486 0.00469624 0.0162473 0.0008 3.43146e-06 1.08405e-12 -2.16836e-12 -1.9823e-12 5.17283e-09 8.41678e-10 1.67244e-09 1.88648e-16 1.00935e-16 -4.51224e-15 0 0 0 0 0 0 0 0
627 1 0.00210448 -0.00516491 0.0118873 0.0008 3.43146e-06 -1.08403e-12 -1.10027e-13 -1.52094e-12 6.4009e-10 -1.68849e-09 -1.64071e-09 -1.37259e-15 -9.66007e-16 -9.02764e-15 0 0 0 0 0 0 0 0
628 1 0.00348851 0.00629861 0.00971246 0.0008 3.43146e-06 -9.36527e-14 6.057e-13 1.22242e-13 -1.06553e-09 -1.64094e-09 -4.39276e-10 -1.15418e-16 -7.37852e-17 6.58457e-17 1 -4.60945e-05 -0.000122513 3.79447e-05 0.00387604 0.00699831 0.00971246 0.0008
629 1 -0.00177361 -0.00242043 0.0106189 0.0008 3.43146e-06 -1.90268e-13 1.0836e-12 5.96943e-14 1.83207e-09 1.16803e-09 -6.21535e-10 1.33732e-16 -1.53393e-15 -5.05941e-16 0 0 0 0 0 0 0 0
630 1 0.000710567 -0.000296325 0.0110044 0.0008 3.43146e-06 2.70413e-13 -2.56779e-14 2.71474e-12 4.79659e-10 -3.86265e-10 -1.0001e-10 7.4587e-16 3.67289e-15 -4.72216e-15 0 0 0 0 0 0 0 0
631 1 -0.000289046 -0.00288584 0.0127985 0.0008 3.43146e-06 1.29419e-13 1.08211e-12 8.8452e-13 -4.02714e-09 5.72325e-10 -3.12313e-10 -1.0828e-15 -3.5018e-16 -1.0161e-14 0 0 0 0 0 0 0 0
632 1 -0.00340556 0.0031827 0.0107943 0.0008 3.43146e-06 -1.25209e-13 1.07818e-12 -8.79834e-13 8.07558e-10 -5.91222e-10 3.09542e-09 1.598e-15 3.47438e-15 2.87903e-15 0 0 0 0 0 0 0 0
633 1 0.00564315 -0.00219241 0.00967511 0.0008 3.43146e-06 3.4971e-13 -2.76227e-13 -1.44907e-12 -4.31627e-10 8.65198e-10 1.0036e-10 -4.12038e-16 2.55479e-16 -1.37737e-15 0 0 0 0 0 0 0 0
634 1 -0.00649856 0.00310105 0.0123735 0.0008 3.43146e-06 3.56208e-13 -1.08403e-12 -8.4654e-14 -1.3574e-09 7.65545e-10 -1.15464e-09 -1.31934e-15 -2.30731e-17 1.10492e-15 1 0.00067618 -0.000579698 -4.16026e-05 -0.00722008 0.00344535 0.0123735 0.0008
635 1 -0.00330609 0.00192723 0.0132396 0.0008 3.43146e-06 -1.08392e-12 -2.13029e-13 -7.82897e-13 -3.25858e-09 -1.38927e-09 -3.67367e-10 1.02437e-16 1.36722e-15 -1.51064e-15 0 0 0 0 0 0 0 0
636 1 -0.00674624 -0.00251563 0.0144859 0.0008 3.43146e-06 1.75308e-12 1.04723e-12 -2.00444e-12 -1.81963e-10 2.65899e-09 4.9955e-10 -2.46702e-15 8.20519e-16 3.41677e-15 1 2.3453e-06 7.92982e-07 5.69203e-07 -0.00749581 -0.00279514 0.0144859 0.0008
637 1 -0.000474043 0.00575024 0.0128661 0.0008 3.43146e-06 1.35561e-13 8.31843e-13 2.36965e-12 -3.01153e-09 -9.74891e-10 8.22009e-10 -1.77231e-16 -7.06663e-15 2.29284e-15 0 0 0 0 0 0 0 0
638 1 0.00350113 0.00413406 0.013895 0.0008 3.43146e-06 -2.7292e-13 -9.9718e-14 2.01706e-13 -7.77686e-10 -2.79649e-09 1.21326e-09 -1.48215e-15 -4.59608e-16 -2.58912e-15 0 0 0 0 0 0 0 0
639 1 0.00682854 -0.00228279 0.0132405 0.0008 3.43146e-06 -9.12297e-13 -6.67045e-14 -1.15595e-12 -3.07572e-09 -4.62393e-10 4.4816e-10 -1.32148e-15 -1.93775e-16 -8.26502e-16 1 -1.31167e-06 5.28455e-07 -3.08063e-08 0.00758726 -0.00253643 0.0132405 0.0008
640 1 0.00221819 0.00318694 0.0135859 0.0008 3.43146e-06 -4.7258e-13 2.47184e-13 3.31608e-12 1.79428e-09 -1.23245e-09 4.05406e-09 -5.19806e-15 -7.90891e-16 1.70118e-15 0 0 0 0 0 0 0 0
641 1 -0.00500143 -0.00517963 0.0142498 0.0008 3.43146e-06 1.87157e-12 -4.37897e-13 -1.30672e-12 -4.06102e-10 1.84804e-09 -2.04029e-09 2.13769e-15 4.09985e-16 2.51441e-15 1 0.000145562 0.000131317 5.8152e-05 -0.00555699 -0.00575498 0.0142498 0.0008
642 1 0.00558609 -0.00420472 0.0155249 0.0008 3.43146e-06 -1.69994e-12 -1.39821e-12 -3.3353e-12 1.52785e-09 4.39548e-09 -1.56746e-09 6.73171e-17 2.181e-16 -2.40735e-15 0 0 0 0 0 0 0 0
643 1 0.00694111 0.00191372 0.012301 0.0008 3.43146e-06 8.02646e-13 -1.9055e-13 -1.63271e-13 2.35405e-09 2.87242e-10 6.84996e-10 -5.45139e-17 -6.99155e-16 -5.64305e-16 1 -5.76291e-05 -1.44917e-05 1.49005e-05 0.00771224 0.00212633 0.012301 0.0008
644 1 -0.00137574 -0.00567719 0.0143091 0.0008 3.43146e-06 -5.75855e-13 7.29133e-13 -1.52644e-12 -3.07776e-09 1.39389e-09 -4.45695e-10 3.15158e-15 -4.94509e-15 9.26779e-15 0 0 0 0 0 0 0 0
645 1 -0.000990221 0.00150887 0.0164735 0.0008 3.43146e-06 5.40949e-13 -1.72203e-13 -1.29495e-12 4.48108e-09 1.55692e-09 -2.50594e-09 3.13165e-17 2.17922e-15 1.4017e-15 0 0 0 0 0 0 0 0
646 1 0.00311815 -0.00383809 0.0157569 0.0008 3.43146e-06 2.10342e-13 4.12088e-13 2.35782e-13 -1.16483e-09 -8.04917e-10 3.20835e-09 -1.18073e-16 -1.75363e-15 1.72605e-15 0 0 0 0 0 0 0 0
647 1 -0.00551775 0.00170074 0.0165083 0.0008 3.43146e-06 -3.04685e-13 5.41759e-13 -9.20586e-13 1.41295e-09 -7.17928e-10 1.50366e-09 3.85587e-15 -3.15495e-16 -3.04035e-15 0 0 0 0 0 0 0 0
648 1 0.00302463 0.00303874 0.0149588 0.0008 3.43146e-06 -8.38458e-14 1.08337e-12 1.16587e-12 -1.17532e-09 2.75624e-09 -1.11336e-09 -2.84062e-15 6.04331e-16 -8.17902e-16 0 0 0 0 0 0 0 0
649 1 0.00304133 0.00536578 0.0155254 0.0008 3.43146e-06 -5.04748e-13 -1.01224e-13 -9.58925e-13 2.72481e-09 -1.30344e-09 -1.43045e-09 -1.86975e-15 -3.28336e-15 -4.91991e-15 0 0 0 0 0 0 0 0
650 1 -0.00498631 0.00113106 0.0113932 0.0008 3.43146e-06 -1.69478e-12 -1.32319e-13 -1.72479e-13 3.79232e-09 -1.94915e-09 -2.5236e-09 2.84924e-15 5.58395e-15 -3.83972e-15 0 0 0 0 0 0 0 0
651 1 0.00279872 -0.000724322 0.0129858 0.0008 3.43146e-06 4.70786e-14 2.7061e-13 6.54789e-13 1.16234e-09 2.0635e-09 -7.20638e-11 3.85433e-15 1.98785e-16 1.78854e-16 0 0 0 0 0 0 0 0
652 1 0.000798967 -0.00164877 0.00967632 0.0008 3.43146e-06 1.67339e-13 3.21336e-13 1.26355e-12 -9.29195e-10 -2.06014e-11 2.12266e-09 -7.56756e-16 1.25827e-15 -6.64326e-15 0 0 0 0 0 0 0 0
653 1 0.00528873 0.00222148 0.0126055 0.0008 3.43146e-06 7.54942e-13 -1.06445e-12 -6.49046e-13 -8.00762e-10 -5.54203e-10 1.08418e-09 -6.39252e-16 8.43853e-16 1.57399e-15 0 0 0 0 0 0 0 0
654 1 0.0064503 -0.00320039 0.0146288 0.0008 3.43146e-06 -1.82457e-13 -2.82978e-13 -3.36471e-12 -8.20119e-11 -4.65401e-09 4.13513e-10 2.47268e-15 2.39598e-15 1.50197e-16 1 -0.000958611 0.000364944 3.94247e-05 0.00716638 -0.00355569 0.0146288 0.0008
655 1 0.00515437 -0.00439303 0.0094693 0.0008 3.43146e-06 2.13204e-12 -1.78528e-12 1.45533e-12 -1.57726e-09 -2.66432e-09 2.99358e-09 8.21123e-16 -7.93104e-16 -1.34422e-15 0 0 0 0 0 0 0 0
656 1 0.00499182 -0.00138089 0.0126817 0.0008 3.43146e-06 -8.2617e-13 4.30541e-13 -1.45806e-12 -7.34323e-10 3.82729e-10 1.91059e-10 -2.46723e-15 2.51424e-16 1.33039e-15 0 0 0 0 0 0 0 0
657 1 0.00436131 0.00455574 0.0167291 0.0008 3.43146e-06 1.66371e-12 -1.90244e-12 2.34247e-13 -2.35649e-09 -1.56464e-09 -8.12482e-10 1.50533e-15 1.24264e-15 -1.76486e-15 0 0 0 0 0 0 0 0
658 1 -0.003717 -0.00275024 0.0131211 0.0008 3.43146e-06 1.17894e-13 -1.98909e-13 -2.75945e-13 6.56005e-10 -1.53899e-09 -8.32929e-10 1.68824e-15 1.91781e-16 -1.49206e-17 0 0 0 0 0 0 0 0
659 1 -0.00292631 -0.00411205 0.0123792 0.0008 3.43146e-06 1.08276e-12 1.01271e-12 -1.18382e-12 4.5943e-10 9.05089e-10 -4.79521e-10 -8.02078e-16 1.05067e-15 8.27102e-15 0 0 0 0 0 0 0 0
660 1 -0.00182181 0.00585385 0.0155109 0.0008 3.43146e-06 -3.00698e-13 -1.85086e-12 1.67992e-12 -1.23158e-09 -1.48693e-09 -5.77716e-10 7.52983e-16 2.37744e-15 -9.15984e-16 0 0 0 0 0 0 0 0
661 1 -0.00471047 0.00544562 0.0143643 0.0008 3.43146e-06 6.61904e-13 -2.1679e-12 -1.12575e-12 7.6209e-10 1.23347e-09 -1.10739e-09 -3.31873e-16 1.03009e-15 -3.5411e-16 1 0.000148742 -0.000185135 5.03503e-05 -0.00523369 0.0060505 0.0143643 0.0008
662 1 -0.00473968 -0.00397511 0.0132303 0.0008 3.43146e-06 8.98195e-13 -5.36986e-13 -1.53421e-12 3.81054e-10 3.4021e-10 1.88007e-09 3.21736e-15 -3.09364e-17 2.2004e-15 0 0 0 0 0 0 0 0
663 1 -0.0041614 0.00462698 0.0167821 0.0008 3.43146e-06 2.06033e-13 -4.11174e-13 1.58492e-12 7.63444e-11 2.7714e-09 4.26409e-09 2.70316e-15 1.50224e-15 -3.21572e-15 0 0 0 0 0 0 0 0
664 1 -0.00141169 -0.00400746 0.016769 0.0008 3.43146e-06 -5.42048e-13 1.73455e-12 1.00155e-12 -5.93956e-10 1.27575e-09 -1.97749e-09 -5.70791e-16 -3.13692e-15 7.50318e-16 0 0 0 0 0 0 0 0
665 1 -0.00080444 0.00416057 0.0154367 0.0008 3.43146e-06 2.72079e-13 -1.52943e-12 -1.28467e-12 2.28528e-09 3.46343e-09 -3.5025e-09 -2.63847e-16 -1.51653e-15 4.6839e-15 0 0 0 0 0 0 0 0
666 1 -0.0037788 -0.00612918 0.0146526 0.0008 3.43146e-06 -7.63598e-14 1.38665e-13 -1.61142e-12 -2.41556e-09 2.04225e-12 1.69345e-10 7.29286e-17 4.50976e-16 1.40589e-15 1 0.000311625 0.000511333 9.15038e-05 -0.00419841 -0.0068098 0.0146526 0.0008
667 1 -0.0011763 0.00289727 0.0109603 0.0008 3.43146e-06 -6.11384e-14 -1.08401e-12 6.44121e-13 1.24077e-09 3.36263e-09 -2.21547e-09 9.21499e-16 -4.1235e-16 1.8641e-15 0 0 0 0 0 0 0 0
668 1 -0.000794214 -0.0071562 0.0144936 0.0008 3.43146e-06 -2.31977e-13 -3.14126e-13 3.21707e-13 2.53922e-10 2.29595e-10 5.76533e-11 1.14011e-15 3.84304e-15 1.70228e-16 1 2.11465e-05 0.000110074 -1.52978e-05 -0.000882443 -0.00795118 0.0144936 0.0008
669 1 -0.00311469 0.00153845 0.014779 0.0008 3.43146e-06 7.80515e-13 2.07389e-13 -6.8367e-13 2.46615e-09 4.2914e-09 -1.1634e-09 3.23537e-15 -3.37199e-15 6.9456e-16 0 0 0 0 0 0 0 0
670 1 -0.00518399 -0.0016121 0.0135948 0.0008 3.43146e-06 1.49924e-12 5.4077e-13 -2.10045e-12 -4.93698e-10 -2.87085e-09 -2.10102e-09 -9.0477e-16 1.23722e-16 9.26224e-16 0 0 0 0 0 0 0 0
671 1 0.00296603 -0.00327544 0.0111373 0.0008 3.43146e-06 5.97771e-13 4.83656e-13 1.49102e-12 -1.11425e-09 -1.01597e-09 3.95592e-11 -4.45387e-15 1.62072e-15 2.52036e-15 0 0 0 0 0 0 0 0
672 1 -0.00378791 -0.00218151 0.0155398 0.0008 3.43146e-06 -2.06306e-13 1.08296e-12 3.2271e-13 -6.08605e-10 -2.5548e-09 1.95635e-09 -4.33425e-16 -2.82247e-16 -6.91384e-15 0 0 0 0 0 0 0 0
673 1 -0.00719572 0.000264825 0.0130318 0.0008 3.43146e-06 4.00806e-13 1.35245e-13 1.15991e-12 -2.29806e-09 -1.47006e-09 2.19045e-10 -3.27726e-15 5.24216e-16 -1.04943e-15 1 0.000966416 -1.63312e-05 0.000278401 -0.00799459 0.000294226 0.0130318 0.0008
674 1 0.00200857 0.00194154 0.0155272 0.0008 3.43146e-06 1.08189e-12 5.3993e-13 3.50874e-12 1.44955e-09 1.76817e-09 1.37575e-09 1.86378e-15 -2.83233e-17 2.08454e-15 0 0 0 0 0 0 0 0
675 1 0.000232304 -0.000355732 0.0142358 0.0008 3.43146e-06 -6.77963e-14 3.61845e-13 -1.37117e-12 1.09991e-09 5.4327e-10 6.78222e-10 -6.21621e-17 -1.40012e-15 1.73179e-15 0 0 0 0 0 0 0 0
676 1 -0.00660363 0.00286983 0.0163937 0.0008 3.43146e-06 -2.16743e-12 8.39327e-13 -8.17894e-13 -2.10523e-09 2.00952e-09 -1.57685e-10 2.69482e-16 -2.56374e-15 1.43664e-15 1 0.000274059 -0.000111399 7.88227e-05 -0.0073371 0.00318858 0.0163937 0.0008
677 1 -0.00462394 0.00167416 0.0141104 0.0008 3.43146e-06 -2.16826e-12 3.28341e-14 3.80003e-13 1.52572e-09 1.43587e-09 7.68305e-10 1.85071e-15 -1.55013e-15 1.23749e-15 0 0 0 0 0 0 0 0
678 1 0.00121037 0.00441356 0.0133936 0.0008 3.43146e-06 -5.42281e-13 -2.16806e-12 3.49928e-12 1.59551e-09 -3.02459e-09 -1.36792e-09 -2.09541e-16 2.35451e-15 -5.98348e-16 0 0 0 0 0 0 0 0
679 1 0.00414726 0.00026852 0.0162821 0.0008 3.43146e-06 8.99948e-13 -1.35341e-13 4.89376e-13 7.73421e-10 -2.5743e-09 -1.71436e-09 2.73607e-16 2.66934e-16 -6.6874e-16 0 0 0 0 0 0 0 0
680 1 -0.000369691 0.00122904 0.0141136 0.0008 3.43146e-06 1.24096e-13 1.62652e-12 -7.74721e-13 -5.36095e-09 -4.39145e-09 2.68874e-09 1.81066e-15 -3.18889e-16 -6.41626e-15 0 0 0 0 0 0 0 0
681 1 0.00206575 -0.00222321 0.0165399 0.0008 3.43146e-06 -5.74769e-13 6.44674e-13 7.12683e-13 -6.95065e-10 -8.5781e-10 3.8728e-10 2.05486e-15 3.56827e-15 3.29705e-15 0 0 0 0 0 0 0 0
682 1 -0.00171257 0.00308006 0.0161896 0.0008 3.43146e-06 5.42099e-13 3.43093e-14 -1.96659e-12 2.66465e-09 2.40249e-09 -1.72767e-09 7.97242e-16 1.63799e-15 -1.52622e-15 0 0 0 0 0 0 0 0
683 1 6.5831e-05 0.00363963 0.0141994 0.0008 3.43146e-06 -8.24155e-14 -1.08458e-12 -2.62349e-12 -1.98814e-10 -3.02598e-09 1.87531e-09 -3.77751e-15 -1.08313e-15 4.03719e-15 0 0 0 0 0 0 0 0
684 1 -0.00168504 -0.000459826 0.0126526 0.0008 3.43146e-06 1.48396e-12 -4.03955e-13 -5.36823e-13 -4.64921e-09 -1.07627e-08 6.70282e-09 1.63952e-15 1.7495e-15 2.74902e-15 0 0 0 0 0 0 0 0
685 1 -0.00163519 0.00101765 0.0150942 0.0008 3.43146e-06 -2.38094e-13 -8.56074e-14 -1.92091e-12 -5.3774e-09 -2.04494e-09 -4.59518e-10 3.84807e-15 4.34594e-16 7.5973e-16 0 0 0 0 0 0 0 0
686 1 0.00236725 0.00679987 0.0167553 0.0008 3.43146e-06 3.29919e-13 2.16656e-12 1.2669e-13 2.93212e-10 1.37519e-09 -4.95254e-10 1.70201e-16 -4.85668e-16 -1.41813e-15 1 -4.1892e-05 -0.000110457 1.66235e-05 0.00263023 0.00755526 0.0167553 0.0008
687 1 -0.00325766 0.00338757 0.0125889 0.0008 3.43146e-06 7.02939e-14 -1.03678e-12 -1.67915e-12 1.57851e-09 -5.88728e-10 -2.63195e-10 1.56582e-15 1.55933e-15 1.25868e-15 0 0 0 0 0 0 0 0
688 1 -0.00719418 0.000301752 0.0146307 0.0008 3.43146e-06 -8.86994e-13 1.35638e-13 -2.48727e-14 2.33065e-09 -1.21429e-10 2.59359e-10 -2.06676e-15 -1.10808e-16 1.98682e-16 1 0.000753769 5.90456e-06 0.000229975 -0.00799297 0.000335256 0.0146307 0.0008
689 1 0.00465918 -0.00548999 0.0153054 0.0008 3.43146e-06 -1.33829e-12 -5.87659e-13 -1.4565e-12 -1.66741e-09 -8.53813e-10 1.74677e-09 7.99466e-16 3.6658e-16 -5.35694e-16 1 -0.000623036 0.00060197 -1.09923e-05 0.00517647 -0.00609952 0.0153054 0.0008
690 1 0.0043916 -0.00126959 0.0166485 0.0008 3.43146e-06 -2.16737e-12 5.3554e-13 -9.73484e-13 4.4115e-10 3.84251e-09 -2.14629e-09 -5.04612e-16 3.22971e-16 -9.75061e-16 0 0 0 0 0 0 0 0
691 1 -0.00336699 -0.00636425 0.0161805 0.0008 3.43146e-06 9.69078e-13 8.82433e-13 6.65239e-14 9.86849e-10 9.72876e-10 -6.09669e-10 1.23967e-15 -2.61403e-15 1.82301e-15 1 2.05842e-06 3.50576e-06 9.19748e-07 -0.00374109 -0.00707137 0.0161805 0.0008
692 1 -0.00372939 0.000743293 0.0104823 0.0008 3.43146e-06 2.51246e-13 1.91136e-13 2.7748e-13 1.81317e-09 -1.45458e-09 -6.80053e-10 1.54508e-15 3.6875e-16 -3.8406e-15 0 0 0 0 0 0 0 0
693 1 0.00123768 -0.00629294 0.0126414 0.0008 3.43146e-06 9.4143e-14 -4.1775e-14 4.57907e-13 1.58414e-09 -9.77285e-10 -2.29169e-09 5.69199e-15 5.34459e-15 1.01694e-15 0 0 0 0 0 0 0 0
694 1 0.00568357 -0.000690272 0.0139481 0.0008 3.43146e-06 9.87817e-14 2.70972e-13 -4.35878e-13 1.81424e-09 4.23232e-10 -2.95144e-11 -2.92966e-15 3.53852e-16 8.44886e-16 0 0 0 0 0 0 0 0
695 1 -0.00133376 -0.00428966 0.0151967 0.0008 3.43146e-06 5.42052e-13 8.74092e-13 -2.88665e-12 5.92454e-10 -2.78653e-09 7.32569e-10 -5.45871e-16 -1.92988e-15 5.27379e-15 0 0 0 0 0 0 0 0
696 1 0.00113021 -0.00701857 0.0153808 0.0008 3.43146e-06 -3.11675e-13 2.237e-13 -5.48603e-13 1.5074e-10 -8.13814e-10 6.2684e-10 2.25137e-15 7.4741e-16 -4.44355e-16 0 0 0 0 0 0 0 0
697 1 0.0041881 -0.00585706 0.013734 0.0008 3.43146e-06 -7.84491e-13 -7.87057e-13 -1.68429e-12 -2.9214e-09 4.67249e-10 1.28846e-09 -6.00796e-15 9.81899e-15 -2.01068e-15 1 -0.000357952 0.000341431 -6.64839e-05 0.0046532 -0.00650751 0.013734 0.0008
698 1 0.00113 -0.0013918 0.013412 0.0008 3.43146e-06 8.6036e-14 5.41025e-13 -6.799e-13 -3.34237e-09 1.14582e-09 1.23266e-09 7.15002e-16 4.91783e-17 -4.32348e-16 0 0 0 0 0 0 0 0
699 1 -0.00127733 -0.00102428 0.0162747 0.0008 3.43146e-06 5.42132e-13 5.42102e-13 2.61064e-13 -2.0017e-09 6.55537e-10 4.34698e-10 1.06649e-15 -2.39935e-15 6.30151e-16 0 0 0 0 0 0 0 0
700 1 0.00690107 0.0020551 0.0150205 0.0008 3.43146e-06 -1.69485e-12 8.34829e-13 1.7045e-12 -2.9021e-10 2.12199e-09 -1.59881e-09 1.64812e-16 2.72395e-15 1.37828e-15 1 -0.00089313 -0.000176277 -0.000134993 0.00766725 0.00228327 0.0150205 0.0008
701 1 -0.00150497 0.00704119 0.0129043 0.0008 3.43146e-06 -5.4198e-13 3.08142e-13 2.54099e-13 -4.09463e-10 1.38038e-10 -6.61316e-10 -1.66913e-16 2.10522e-15 3.14429e-15 1 5.80115e-05 -0.000221491 6.08977e-05 -0.00167213 0.0078233 0.0129043 0.0008
702 1 -0.000361769 -0.00159889 0.0150957 0.0008 3.43146e-06 1.35531e-13 -5.42103e-13 1.71836e-13 9.86558e-12 1.34206e-10 -5.61902e-10 -3.7904e-16 5.43241e-16 4.19753e-15 0 0 0 0 0 0 0 0
703 1 0.000105063 -0.00116109 0.0122059 0.0008 3.43146e-06 2.2807e-14 -3.71322e-13 8.31415e-13 1.88394e-09 2.49467e-10 -1.38411e-09 7.13819e-16 -2.75333e-15 1.77924e-15 0 0 0 0 0 0 0 0
704 1 0.00562796 0.00115028 0.0114681 0.0008 3.43146e-06 2.16823e-12 -4.64802e-13 -2.65368e-12 2.99688e-09 -8.16062e-11 3.70303e-10 9.03442e-16 -8.3566e-16 -5.70288e-16 0 0 0 0 0 0 0 0
705 1 -0.000135462 -0.00606751 0.0118524 0.0008 3.43146e-06 -1.74404e-13 1.97279e-12 6.08001e-13 2.97685e-09 9.04825e-10 2.13033e-09 2.25641e-16 5.11078e-15 -2.87027e-15 0 0 0 0 0 0 0 0
706 1 0.00539324 -0.00192643 0.0112325 0.0008 3.43146e-06 3.23182e-13 -5.41255e-13 -3.21265e-12 4.06168e-10 -1.262e-09 -3.06769e-10 -7.8374e-16 4.66299e-16 -1.28498e-15 0 0 0 0 0 0 0 0
707 1 0.00688366 0.00209594 0.0166194 0.0008 3.43146e-06 5.06589e-13 -1.06274e-12 5.70818e-12 2.81248e-09 6.65382e-10 8.06994e-10 -1.98617e-16 2.23153e-15 4.68071e-15 0 0 0 0 0 0 0 0
708 1 0.000677912 -0.00512247 0.0108504 0.0008 3.43146e-06 2.70553e-13 5.25206e-13 3.83912e-12 -2.89584e-09 -5.06022e-09 -1.71902e-09 -1.36632e-16 7.79855e-15 3.70564e-15 0 0 0 0 0 0 0 0
709 1 -0.00250701 0.00301414 0.0146733 0.0008 3.43146e-06 -4.73768e-13 -4.86143e-13 -2.78238e-12 -3.94876e-09 -8.48383e-10 2.00978e-09 3.13283e-15 2.39515e-16 -7.09304e-16 0 0 0 0 0 0 0 0
710 1 0.000494406 -0.00252306 0.0165369 0.0008 3.43146e-06 2.7053e-13 -1.08296e-12 -2.8327e-13 2.59895e-10 -4.71861e-10 1.93519e-09 -2.53541e-17 -2.8094e-16 3.32911e-15 0 0 0 0 0 0 0 0
711 1 -0.000487072 -0.0027813 0.00952466 0.0008 3.43146e-06 1.5239e-13 1.0834e-12 4.108e-12 -1.33461e-09 8.81318e-10 -1.37227e-09 2.26373e-15 -8.06898e-16 -8.72165e-15 0 0 0 0 0 0 0 0
712 1 -0.00361059 -0.00508713 0.0134499 0.0008 3.43146e-06 1.084e-12 -6.88114e-13 -7.91618e-13 -1.36153e-09 -5.84531e-10 -2.11111e-09 -2.36546e-16 6.79923e-16 1.36322e-15 0 0 0 0 0 0 0 0
713 1 0.00201368 0.000398837 0.0138147 0.0008 3.43146e-06 1.08278e-12 1.30757e-13 -6.53214e-13 7.14863e-10 1.68409e-09 -6.65912e-10 3.9254e-16 9.03898e-16 -2.08275e-15 0 0 0 0 0 0 0 0
714 1 0.00125366 -8.59509e-05 0.012494 0.0008 3.43146e-06 -9.68842e-14 3.53125e-14 9.48824e-13 -2.43268e-10 1.15815e-09 2.28496e-09 2.0737e-15 -2.50559e-17 -6.2969e-16 0 0 0 0 0 0 0 0
715 1 0.00411988 -0.00254754 0.0119754 0.0008 3.43146e-06 -1.44375e-12 7.82967e-13 -6.66503e-13 -2.83667e-09 2.56259e-09 -1.58119e-09 -2.14892e-16 -2.35079e-15 -2.5669e-16 0 0 0 0 0 0 0 0
716 1 -0.00263932 -0.00669897 0.0136849 0.0008 3.43146e-06 -5.83987e-13 -3.05087e-13 1.38545e-13 -8.81585e-11 -5.03928e-10 5.0631e-10 1.46026e-15 -5.77219e-16 1.05367e-15 1 5.16255e-05 0.000114612 1.06446e-05 -0.00293252 -0.00744314 0.0136849 0.0008
717 1 -0.00269399 -0.00374937 0.0158426 0.0008 3.43146e-06 1.0839e-12 -1.08409e-12 -3.41925e-12 4.20054e-09 1.02197e-09 -6.75623e-10 1.28492e-16 3.58463e-17 7.17875e-15 0 0 0 0 0 0 0 0
718 1 -0.00179049 0.00186697 0.0137473 0.0008 3.43146e-06 -5.43058e-13 -5.41337e-13 -2.02922e-12 4.8125e-09 2.86214e-09 3.91344e-10 -5.08663e-16 -3.88743e-16 -3.96076e-15 0 0 0 0 0 0 0 0
719 1 0.00185372 -0.00620354 0.0106897 0.0008 3.43146e-06 5.41843e-13 6.08366e-13 -5.68585e-13 2.17403e-09 -7.49167e-10 -9.95329e-10 -3.60341e-16 1.26466e-15 -1.60023e-15 0 0 0 0 0 0 0 0
720 1 -0.00570698 -0.00160494 0.00991098 0.0008 3.43146e-06 1.57504e-12 3.39861e-13 -3.24707e-12 1.85903e-09 2.58823e-09 3.8937e-09 -6.72149e-16 -6.99401e-16 7.18878e-15 0 0 0 0 0 0 0 0
721 1 0.00392748 -0.00603509 0.0113101 0.0008 3.43146e-06 -6.12138e-14 -1.726e-12 -1.39478e-12 -2.4509e-09 5.81828e-10 1.28426e-09 -1.77668e-16 -2.0082e-16 -1.64321e-15 1 -0.000411844 0.000669358 0.000171021 0.00436355 -0.00670518 0.0113101 0.0008
722 1 -0.00250656 -0.00675016 0.0106986 0.0008 3.43146e-06 1.04824e-12 1.91723e-12 -5.03817e-13 -7.64494e-10 -1.78906e-10 -3.77131e-10 1.59566e-15 -2.79795e-16 1.80934e-15 1 0.000215767 0.000787088 0.000160592 -0.00278487 -0.00749963 0.0106986 0.0008
723 1 0.0064039 0.00313982 0.0139552 0.0008 3.43146e-06 -1.98564e-12 9.21988e-14 3.33569e-12 5.09486e-10 -7.86524e-11 9.75462e-10 6.4677e-16 1.01368e-15 -4.81315e-16 0 0 0 0 0 0 0 0
724 1 0.0041744 -0.000251235 0.0136508 0.0008 3.43146e-06 8.63745e-13 1.35767e-13 -3.11788e-14 -1.95303e-10 -5.42118e-10 1.8447e-10 -1.98205e-15 -2.12157e-16 1.92845e-15 0 0 0 0 0 0 0 0
725 1 -0.0038267 -0.00420497 0.014767 0.0008 3.43146e-06 -1.08764e-12 -1.96726e-12 -1.63776e-12 3.17301e-09 -5.97738e-09 -1.9745e-09 -3.8428e-16 1.80522e-15 3.14244e-15 0 0 0 0 0 0 0 0
726 1 -0.00139625 0.00341011 0.0135927 0.0008 3.43146e-06 -3.77273e-13 -1.13166e-12 -4.33669e-12 1.74902e-09 1.58258e-09 -1.39425e-09 3.01621e-15 1.14105e-15 -8.72484e-16 0 0 0 0 0 0 0 0
727 1 -0.000327062 0.000865871 0.0113677 0.0008 3.43146e-06 1.36686e-13 2.79424e-13 -7.75938e-13 -5.19744e-09 -1.00825e-09 6.28978e-10 -1.04244e-16 9.99676e-16 -1.43172e-15 0 0 0 0 0 0 0 0
728 1 0.00277298 -0.00241314 0.0151177 0.0008 3.43146e-06 -6.11563e-13 -5.62844e-13 -2.64724e-13 3.72606e-11 1.22384e-09 -2.07507e-09 1.70554e-15 -1.61626e-15 9.75783e-16 0 0 0 0 0 0 0 0
729 1 0.00424479 0.00133144 0.0134281 0.0008 3.43146e-06 2.02592e-12 -2.25545e-13 6.31268e-13 1.0196e-09 3.85787e-09 -2.18139e-09 2.45391e-16 4.05783e-15 2.51295e-15 0 0 0 0 0 0 0 0
730 1 -0.00372634 -0.00132825 0.0141887 0.0008 3.43146e-06 3.4863e-14 5.42104e-13 -2.92817e-13 -5.56768e-10 -2.29989e-10 1.8956e-09 -2.37465e-15 7.46336e-16 -4.19562e-15 0 0 0 0 0 0 0 0
731 1 0.00315067 -0.00518559 0.0148699 0.0008 3.43146e-06 -3.59206e-14 -1.51038e-12 -1.99143e-12 -3.86552e-10 1.15577e-10 -1.4372e-09 5.18862e-16 -1.94693e-15 -3.11476e-16 0 0 0 0 0 0 0 0
732 1 -0.00133434 -0.000455409 0.0145425 0.0008 3.43146e-06 -1.91727e-14 -2.45146e-13 -1.54201e-12 -1.36148e-09 -8.33788e-10 2.52525e-10 8.88633e-15 -5.6266e-15 -4.17469e-15 0 0 0 0 0 0 0 0
733 1 0.00565776 0.00171062 0.0140754 0.0008 3.43146e-06 -1.18703e-12 -4.49742e-13 -1.85406e-13 1.41241e-09 -3.87279e-09 4.1715e-09 -2.79958e-16 2.75263e-15 2.27963e-15 0 0 0 0 0 0 0 0
734 1 0.00416506 0.00179296 0.0115448 0.0008 3.43146e-06 2.10109e-12 -5.415e-13 1.14114e-14 -2.25971e-09 3.39341e-09 -1.78209e-10 -5.0828e-16 -1.26501e-16 3.28866e-16 0 0 0 0 0 0 0 0
735 1 0.00551538 0.00278705 0.0161364 0.0008 3.43146e-06 2.16101e-12 -9.44735e-13 1.62694e-12 -4.90534e-09 -1.6671e-10 -1.1303e-09 -2.7491e-16 -1.19314e-15 -4.41374e-16 0 0 0 0 0 0 0 0
736 1 0.00427386 0.0057944 0.0125586 0.0008 3.43146e-06 -1.08679e-12 -1.13987e-13 1.32215e-12 -1.99416e-09 -7.44508e-11 -9.89038e-10 6.38803e-16 -6.69614e-17 3.94578e-16 1 -1.96568e-05 -2.5547e-05 9.23305e-06 0.00474869 0.00643816 0.0125586 0.0008
737 1 0.0053393 -0.0022522 0.0139774 0.0008 3.43146e-06 5.17968e-13 -6.65907e-14 -3.68889e-12 2.7757e-09 1.60901e-09 5.53197e-10 2.1177e-15 4.18889e-15 3.94477e-15 0 0 0 0 0 0 0 0
738 1 0.00318134 0.000218864 0.0148932 0.0008 3.43146e-06 -8.50719e-14 3.01369e-13 -9.17034e-13 -2.19785e-09 -2.15612e-09 -4.51816e-10 -4.12043e-16 5.28985e-16 1.55988e-15 0 0 0 0 0 0 0 0
739 1 -0.00584417 0.000610312 0.0138135 0.0008 3.43146e-06 -2.16775e-12 2.17687e-13 -3.72363e-14 1.25623e-09 1.0392e-09 4.66729e-11 -7.36879e-16 1.49447e-15 3.08676e-16 0 0 0 0 0 0 0 0
740 1 0.00362241 0.00271753 0.0129269 0.0008 3.43146e-06 1.08416e-12 1.0841e-12 6.64326e-13 -2.67479e-09 1.64691e-09 6.6071e-10 7.66426e-17 -2.79854e-16 5.01053e-15 0 0 0 0 0 0 0 0
741 1 0.000549493 -0.000965618 0.0168986 0.0008 3.43146e-06 2.69638e-13 -2.70521e-13 6.1794e-13 5.32759e-10 -4.9078e-10 -2.09398e-09 1.57936e-16 5.25871e-16 1.73896e-15 0 0 0 0 0 0 0 0
742 1 -0.00466312 -0.00289036 0.0144036 0.0008 3.43146e-06 5.7048e-13 -8.30312e-13 -9.96968e-13 4.98373e-10 1.59764e-09 8.07129e-10 2.42583e-15 1.75091e-15 -2.70602e-16 0 0 0 0 0 0 0 0
743 1 0.00577239 -0.000431571 0.0116575 0.0008 3.43146e-06 1.16539e-12 -1.35348e-13 -3.69162e-12 -1.76326e-09 -1.20846e-09 -1.38505e-09 -4.94132e-16 5.79232e-17 -1.03006e-15 0 0 0 0 0 0 0 0
744 1 0.00259911 0.0039757 0.0161839 0.0008 3.43146e-06 2.8732e-13 1.47936e-12 1.66831e-12 1.64469e-09 -2.86703e-09 -9.52897e-11 1.02918e-15 2.5942e-15 -2.59611e-15 0 0 0 0 0 0 0 0
745 1 -0.00322999 0.00643488 0.0128314 0.0008 3.43146e-06 3.86624e-13 -2.16487e-12 -1.41639e-12 1.86464e-09 1.58758e-10 -7.4459e-10 -4.8162e-16 -6.11585e-16 -5.54095e-16 1 8.29866e-06 -1.21363e-05 -1.65221e-06 -0.00358886 0.00714983 0.0128314 0.0008
746 1 -0.00396028 0.000243026 0.0143729 0.0008 3.43146e-06 -1.47053e-12 6.6949e-14 -9.24036e-13 -6.78033e-11 -7.30595e-10 -1.52145e-11 9.74873e-16 6.10474e-16 -1.3335e-15 0 0 0 0 0 0 0 0
747 1 -0.00271475 -0.000156177 0.0152932 0.0008 3.43146e-06 5.15365e-13 3.01793e-13 -7.56823e-13 -1.41519e-09 2.48504e-09 1.91967e-10 4.1251e-15 -8.69208e-16 -1.766e-15 0 0 0 0 0 0 0 0
748 1 0.00297199 0.0008196 0.012605 0.0008 3.43146e-06 -1.07582e-12 -1.79151e-13 1.22474e-12 -5.54885e-10 -1.02932e-09 1.15334e-09 5.85409e-16 3.06217e-15 1.0088e-15 0 0 0 0 0 0 0 0
749 1 -0.00464335 0.00333789 0.0133872 0.0008 3.43146e-06 -8.05906e-13 -1.084e-12 -4.33585e-12 4.35352e-09 -3.00124e-09 -2.69555e-09 9.76835e-16 -5.76694e-16 -1.29049e-15 0 0 0 0 0 0 0 0
750 1 -0.000929033 0.00259053 0.014884 0.0008 3.43146e-06 -2.70894e-13 -1.08382e-12 -2.53888e-12 -3.4663e-09 -1.31236e-09 4.80205e-10 -7.87643e-16 1.33999e-15 1.72918e-15 0 0 0 0 0 0 0 0
751 1 0.00272482 -0.00666506 0.0135903 0.0008 3.43146e-06 -7.92245e-13 -1.22116e-12 -6.589e-13 -7.79857e-10 -3.44115e-10 1.47611e-09 6.04259e-15 -2.20444e-15 7.61071e-16 1 -0.000302586 0.000773038 5.93452e-05 0.00302735 -0.00740507 0.0135903 0.0008
752 1 0.00263764 -0.00381159 0.0142315 0.0008 3.43146e-06 -7.74803e-13 -7.3303e-13 -1.24013e-12 1.16336e-09 1.34681e-09 1.46215e-09 -2.42171e-15 -1.01727e-15 -5.42899e-16 0 0 0 0 0 0 0 0
753 1 -0.00644244 0.00321546 0.013968 0.0008 3.43146e-06 -7.57213e-14 1.09891e-13 1.21472e-12 -1.91861e-11 -1.61204e-09 1.64595e-10 -1.24735e-15 -1.03449e-15 -2.20358e-15 1 0.000284236 -0.000171086 5.34558e-05 -0.00715798 0.00357259 0.013968 0.0008
754 1 0.00583949 0.000535351 0.0129303 0.0008 3.43146e-06 2.1682e-12 -2.73642e-13 1.6967e-12 6.05992e-09 3.43372e-09 2.4817e-09 1.33646e-15 1.80501e-16 8.45264e-16 0 0 0 0 0 0 0 0
755 1 0.00228434 -0.00103572 0.014468 0.0008 3.43146e-06 7.42449e-13 1.17909e-13 -8.84761e-13 -4.53164e-10 -1.83354e-09 1.53109e-10 2.24026e-15 -5.80784e-16 -1.98243e-15 0 0 0 0 0 0 0 0
756 1 0.00719632 -0.000242034 0.0105827 0.0008 3.43146e-06 1.96971e-12 4.79559e-14 2.04641e-12 -2.49345e-09 2.66468e-09 -1.69383e-10 -8.34584e-16 5.6141e-16 1.13751e-15 1 -0.000506115 0.000186894 -2.0956e-05 0.00799548 -0.000268912 0.0105827 0.0008
757 1 -0.00235427 0.00655524 0.01417 0.0008 3.43146e-06 1.05891e-12 -1.73554e-12 4.23427e-12 3.1869e-09 5.29276e-09 -5.08199e-10 5.89124e-16 1.73041e-15 1.29283e-15 0 0 0 0 0 0 0 0
758 1 -0.00709518 -0.00122423 0.0136082 0.0008 3.43146e-06 4.3315e-13 5.40944e-13 8.36039e-13 2.50734e-09 -5.04471e-10 5.82481e-10 -3.6807e-15 1.7062e-16 3.07119e-15 1 7.59579e-06 -3.47146e-07 1.8128e-06 -0.00788351 -0.00136025 0.0136082 0.0008
759 1 -0.00245869 -0.00540966 0.0115694 0.0008 3.43146e-06 6.79663e-13 2.09754e-12 -1.39804e-12 -2.40498e-10 1.32514e-09 1.64738e-09 1.88105e-15 1.10746e-15 7.43289e-16 0 0 0 0 0 0 0 0
760 1 0.00161036 0.0059957 0.0137078 0.0008 3.43146e-06 -5.32015e-13 -4.33485e-13 8.04366e-13 2.21753e-09 -3.4306e-10 2.37824e-09 3.22501e-16 7.53585e-16 2.59132e-15 0 0 0 0 0 0 0 0
761 1 0.00170337 -0.00506165 0.0155393 0.0008 3.43146e-06 -3.26411e-13 -1.32997e-12 -1.46165e-12 9.42968e-10 2.30964e-10 1.04483e-09 5.64682e-16 -3.32895e-15 4.09163e-18 0 0 0 0 0 0 0 0
762 1 -0.00435531 0.00418031 0.011609 0.0008 3.43146e-06 3.58623e-13 -2.16777e-12 -9.21495e-13 5.80048e-09 2.16628e-09 2.76239e-09 -9.73436e-16 -3.79139e-16 1.12698e-16 0 0 0 0 0 0 0 0
763 1 -0.00079555 0.00536597 0.0143852 0.0008 3.43146e-06 -2.70929e-13 1.41926e-13 3.04935e-12 3.17649e-09 3.16419e-11 1.41628e-09 -1.58457e-15 9.93639e-16 2.41509e-16 0 0 0 0 0 0 0 0
764 1 0.000746093 0.00513576 0.0147434 0.0008 3.43146e-06 -2.71027e-13 -3.02818e-13 2.03009e-12 -3.37499e-09 1.30246e-09 -2.10508e-09 9.21655e-16 2.37589e-15 -3.58433e-16 0 0 0 0 0 0 0 0
765 1 -0.00481146 -0.00535663 0.0124275 0.0008 3.43146e-06 1.26294e-12 7.73459e-14 -6.07881e-13 -9.55622e-10 1.06254e-10 -1.12828e-09 6.22003e-16 8.12534e-16 3.22385e-16 1 0.000141581 0.000237384 4.36463e-05 -0.00534588 -0.0059516 0.0124275 0.0008
766 1 0.000780304 -0.00286991 0.0139914 0.0008 3.43146e-06 2.7004e-13 1.08423e-12 -8.01705e-13 6.88377e-10 -4.49381e-10 3.02261e-10 -4.47433e-16 3.93717e-16 -9.39347e-15 0 0 0 0 0 0 0 0
767 1 0.00455613 -0.000906032 0.0150623 0.0008 3.43146e-06 2.15644e-12 -2.70535e-13 -9.67408e-13 -5.30568e-10 9.77861e-10 2.58046e-10 -1.45754e-16 4.86034e-16 4.10747e-15 0 0 0 0 0 0 0 0
768 1 -0.000317082 -0.0043731 0.0122076 0.0008 3.43146e-06 -4.08961e-13 2.16819e-12 7.29905e-13 -3.88101e-10 7.05995e-10 -3.48758e-09 1.32712e-15 -8.2074e-16 -7.94371e-16 0 0 0 0 0 0 0 0
769 1 0.00525223 0.00492575 0.0141221 0.0008 3.43146e-06 -4.16918e-13 6.6427e-13 2.11304e-12 -4.80936e-09 -8.956e-10 -9.32607e-10 5.66463e-16 1.84487e-16 -3.03427e-16 1 -0.000743853 -0.000729592 0.000162683 0.00583531 0.00547258 0.0141221 0.0008
770 1 -0.00353918 -0.00124757 0.0126025 0.0008 3.43146e-06 4.29247e-15 -4.77134e-13 -6.00493e-13 -1.22908e-09 1.66623e-10 1.38951e-09 1.32945e-16 2.0777e-15 -3.47719e-15 0 0 0 0 0 0 0 0
771 1 0.00114421 -0.00432897 0.0128557 0.0008 3.43146e-06 -5.42329e-13 4.231e-13 -1.64873e-12 -7.88922e-10 1.75794e-09 5.91558e-10 -2.86034e-15 5.25824e-15 -4.68085e-15 0 0 0 0 0 0 0 0
772 1 0.00703903 -0.00151535 0.0146452 0.0008 3.43146e-06 2.15883e-13 1.91386e-13 2.98697e-12 -7.01976e-10 3.92221e-09 -2.77738e-10 -7.83616e-16 1.29436e-15 1.84484e-15 1 -0.000333708 4.76832e-05 6.71025e-05 0.00782083 -0.00168365 0.0146452 0.0008
773 1 0.00142659 0.00634083 0.0155455 0.0008 3.43146e-06 1.97452e-13 1.38716e-12 -1.81055e-13 -5.2095e-10 -1.23527e-09 1.60131e-09 6.49048e-16 -1.88723e-16 -7.53057e-16 0 0 0 0 0 0 0 0
774 1 0.000732934 0.00716287 0.0143614 0.0008 3.43146e-06 -2.70961e-13 -2.16727e-12 1.80982e-12 -1.95981e-09 3.27033e-09 -1.34007e-10 6.26765e-17 6.12496e-16 -1.76122e-15 1 4.49046e-06 -0.000296076 7.59477e-05 0.000814341 0.00795845 0.0143614 0.0008
775 1 -0.00219114 -0.00685392 0.0152124 0.0008 3.43146e-06 -1.08375e-12 6.57996e-13 7.20001e-13 -1.24693e-09 -2.49813e-10 -5.85612e-10 -3.7963e-16 -1.25649e-15 2.57088e-15 0 0 0 0 0 0 0 0
776 1 0.000883015 0.00133698 0.0131242 0.0008 3.43146e-06 -1.72048e-13 3.30176e-13 2.43168e-12 1.47407e-09 1.01946e-09 -1.41956e-09 2.5072e-15 -2.71529e-15 -2.03239e-15 0 0 0 0 0 0 0 0
777 1 -0.00541431 0.000599041 0.0153538 0.0008 3.43146e-06 1.02345e-14 2.42692e-13 -1.79401e-12 -1.13513e-09 2.23797e-09 5.27178e-10 4.44868e-15 4.55138e-15 1.66639e-15 0 0 0 0 0 0 0 0
778 1 -0.00699019 0.00172577 0.0137667 0.0008 3.43146e-06 -2.56877e-13 -3.95453e-13 6.72657e-13 -2.6643e-10 -5.78009e-10 -6.82083e-10 -2.05046e-15 5.42591e-16 -2.38127e-16 1 3.86922e-05 -8.66844e-06 -5.43193e-07 -0.0077668 0.0019175 0.0137667 0.0008
779 1 0.000315654 0.00208791 0.0157529 0.0008 3.43146e-06 1.359e-13 -1.00423e-12 1.48295e-12 9.82961e-10 -1.98259e-09 -7.45592e-10 1.15069e-15 1.31835e-15 5.94266e-15 0 0 0 0 0 0 0 0
780 1 0.00127177 -0.00178139 0.0111986 0.0008 3.43146e-06 2.28678e-13 5.41398e-13 1.30243e-12 1.41166e-09 -1.49334e-10 3.55722e-10 3.51167e-15 2.28603e-16 -5.63542e-15 0 0 0 0 0 0 0 0
781 1 0.00585073 0.00419679 0.0110844 0.0008 3.43146e-06 3.06526e-13 -4.43845e-13 -1.24775e-12 3.49878e-09 4.96429e-10 7.99671e-10 4.99708e-17 2.14096e-15 -4.21233e-16 1 -0.000244033 -0.000204943 6.28024e-05 0.00650056 0.00466291 0.0110844 0.0008
782 1 0.0045641 0.00262707 0.0147992 0.0008 3.43146e-06 1.60176e-12 5.94271e-14 3.83034e-12 -6.0204e-10 1.03865e-08 -5.41586e-09 1.48148e-15 2.28871e-15 -1.89218e-15 0 0 0 0 0 0 0 0
783 1 0.0030022 -0.00101358 0.0158976 0.0008 3.43146e-06 -1.06837e-12 7.01456e-13 1.71707e-12 -6.94731e-11 -1.49447e-09 1.47474e-09 2.91345e-16 1.45536e-15 -2.99127e-15 0 0 0 0 0 0 0 0
784 1 -0.000613639 -0.00717406 0.012904 0.0008 3.43146e-06 2.70991e-13 -5.77744e-13 -2.15961e-13 -3.85187e-10 -1.05219e-09 -4.48506e-10 -2.9734e-16 5.85544e-15 -1.91829e-16 1 6.96657e-05 0.000277506 2.19937e-05 -0.000681796 -0.00797089 0.012904 0.0008
785 1 -0.00135201 -0.00547942 0.012722 0.0008 3.43146e-06 -5.19644e-13 2.16524e-12 -2.39531e-12 4.58999e-09 -1.79069e-09 2.91169e-09 2.7653e-15 -5.68622e-18 -7.54877e-16 0 0 0 0 0 0 0 0
786 1 -0.00403183 0.00229126 0.0165498 0.0008 3.43146e-06 2.16756e-12 4.55036e-13 -2.71371e-12 -1.25649e-10 3.78518e-09 -2.634e-09 1.82708e-15 -5.03339e-16 -4.48497e-15 0 0 0 0 0 0 0 0
787 1 -0.00457071 -0.000786106 0.0154344 0.0008 3.43146e-06 -2.16828e-12 2.70461e-13 -1.56151e-12 -6.07298e-10 -1.91038e-09 9.40033e-10 4.82084e-16 -1.02081e-16 1.17381e-15 0 0 0 0 0 0 0 0
788 1 -6.83437e-05 0.00336129 0.0166412 0.0008 3.43146e-06 7.74367e-14 -1.0841e-12 1.89271e-12 7.46652e-11 -2.50975e-10 -6.11652e-10 -1.54191e-15 -2.04638e-16 5.91017e-15 0 0 0 0 0 0 0 0
789 1 -0.00070316 -0.00411259 0.0137378 0.0008 3.43146e-06 2.70994e-13 2.16765e-12 2.70363e-12 1.6896e-09 2.80981e-10 -2.36861e-10 1.52318e-16 1.76464e-17 1.8788e-15 0 0 0 0 0 0 0 0
790 1 -0.00246415 0.000418163 0.0138218 0.0008 3.43146e-06 -1.77463e-13 -5.28216e-13 -4.31618e-12 -1.08196e-09 -1.0987e-09 -8.59446e-11 2.39526e-15 -3.04594e-15 -7.5225e-15 0 0 0 0 0 0 0 0
791 1 -0.0042191 -0.00193935 0.0113308 0.0008 3.43146e-06 1.10727e-12 -1.34168e-13 7.13958e-13 1.44342e-09 -9.93248e-11 6.18937e-11 -1.49131e-15 3.01573e-15 3.16129e-15 0 0 0 0 0 0 0 0
792 1 0.00272101 0.00500409 0.012803 0.0008 3.43146e-06 -1.81053e-13 -1.66094e-12 1.31799e-13 7.11158e-10 1.19436e-09 1.57558e-09 1.68653e-15 8.63482e-16 8.51058e-18 0 0 0 0 0 0 0 0
793 1 -0.00357616 0.00624912 0.0151564 0.0008 3.43146e-06 7.29411e-13 -2.16819e-12 2.89596e-12 -5.87985e-10 -6.37343e-09 -6.03806e-10 -9.05378e-17 -3.18609e-16 -1.78339e-17 1 5.85332e-06 -9.11003e-06 -8.10598e-07 -0.00397349 0.00694344 0.0151564 0.0008
794 1 -0.00321053 0.000305892 0.0124119 0.0008 3.43146e-06 6.59518e-13 1.36083e-13 -1.53479e-12 6.08539e-10 1.59683e-09 -2.23505e-09 2.79827e-15 -8.36273e-16 -1.12125e-15 0 0 0 0 0 0 0 0
795 1 0.000101992 -0.00544985 0.0133882 0.0008 3.43146e-06 -1.37222e-13 1.4692e-12 9.08823e-13 1.5137e-09 -1.65675e-09 -1.28459e-09 3.02374e-15 -6.01757e-15 -5.86678e-16 0 0 0 0 0 0 0 0
796 1 -4.79149e-05 -0.00470964 0.0161157 0.0008 3.43146e-06 -5.83901e-14 -1.33557e-12 3.42458e-13 -1.68234e-09 4.893e-09 -2.8085e-09 1.73562e-15 -4.99685e-15 1.21545e-15 0 0 0 0 0 0 0 0
797 1 -0.000974941 0.00713382 0.0159627 0.0008 3.43146e-06 -1.13805e-13 -2.1664e-12 3.86797e-13 -6.6843e-10 1.24479e-09 -4.12769e-10 -1.55635e-16 -7.62304e-16 1.0822e-15 1 1.16299e-05 -9.82859e-05 1.78894e-05 -0.00108325 0.00792632 0.0159627 0.0008
798 1 -0.00644896 -0.00320236 0.0161053 0.0008 3.43146e-06 -6.18458e-13 9.92906e-13 -3.73331e-13 1.14544e-09 1.0772e-09 1.447e-09 -2.97057e-16 -1.25768e-15 -9.14681e-16 1 0.00032061 0.000112672 7.84934e-06 -0.00716522 -0.00355804 0.0161053 0.0008
799 1 -0.00257661 -0.00529173 0.0152943 0.0008 3.43146e-06 -3.69996e-13 2.16745e-12 -3.51188e-12 -7.45125e-09 -3.71597e-09 -2.16241e-09 8.92495e-15 7.32585e-16 2.78491e-15 0 0 0 0 0 0 0 0
800 1 -0.00533433 0.00403299 0.0147824 0.0008 3.43146e-06 6.37527e-13 3.74914e-13 1.91995e-13 -1.80062e-09 2.30514e-09 -1.11786e-09 8.51982e-16 -1.36903e-15 -1.62676e-15 0 0 0 0 0 0 0 0
801 1 0.00394811 0.00308271 0.0162631 0.0008 3.43146e-06 2.07396e-12 1.43854e-13 8.23071e-13 1.89072e-09 -2.9417e-10 1.95802e-11 1.25426e-15 1.00025e-15 -1.87886e-15 0 0 0 0 0 0 0 0
802 1 0.00145312 -0.000428298 0.0156926 0.0008 3.43146e-06 2.93496e-13 -5.34259e-14 -6.35691e-13 2.73122e-10 2.00835e-09 9.43292e-10 1.26553e-15 -1.53538e-15 -1.02724e-15 0 0 0 0 0 0 0 0
803 1 0.00208459 -0.00689163 0.0166586 0.0008 3.43146e-06 -8.64494e-13 1.24127e-13 9.53441e-13 1.39438e-09 -6.85674e-10 1.02351e-09 1.01611e-15 -1.6382e-15 -9.64307e-16 1 -2.95286e-07 1.79767e-06 3.32421e-08 0.00231621 -0.00765736 0.0166586 0.0008
804 1 -0.000705572 -0.00152746 0.0135351 0.0008 3.43146e-06 2.70958e-13 -5.42313e-13 -4.05114e-13 -1.10425e-10 -3.01448e-10 -2.20624e-10 -9.36325e-16 1.42719e-16 6.61872e-15 0 0 0 0 0 0 0 0
805 1 0.00160208 -0.00347129 0.0154023 0.0008 3.43146e-06 -4.38451e-14 -1.08408e-12 -1.09022e-12 -5.22488e-10 -4.6824e-10 -1.57594e-09 1.60147e-15 -2.3074e-15 6.32665e-15 0 0 0 0 0 0 0 0
806 1 -0.00627295 -0.0035349 0.0133471 0.0008 3.43146e-06 -1.46128e-13 -8.89238e-13 -1.37285e-12 -2.75435e-09 4.40554e-10 -9.01571e-10 3.13903e-15 1.16475e-15 8.45597e-16 1 0.000414289 0.000249139 -3.982e-05 -0.00696958 -0.00392746 0.0133471 0.0008
807 1 0.00567261 -0.000406471 0.0160927 0.0008 3.43146e-06 -1.58535e-12 -1.27698e-13 -2.6027e-12 1.57494e-09 -1.76114e-09 2.97084e-09 -1.76529e-15 -2.1418e-15 -1.18489e-16 0 0 0 0 0 0 0 0
808 1 0.00615222 -0.00374042 0.0131489 0.0008 3.43146e-06 -2.16612e-12 -1.08218e-12 -3.57297e-12 1.12674e-11 -5.1977e-09 2.58146e-09 -9.91871e-17 9.94292e-17 -2.66468e-16 1 -1.28804e-05 6.63984e-06 -1.14969e-06 0.00683576 -0.004156 0.0131489 0.0008
809 1 -0.00420149 -0.00584751 0.0110327 0.0008 3.43146e-06 1.67612e-13 1.08663e-12 1.06951e-12 1.67351e-09 3.96543e-11 6.09995e-10 1.38702e-15 -1.12309e-15 3.24725e-16 1 0.000296892 0.000463003 0.000158938 -0.00466806 -0.00649686 0.0110327 0.0008
810 1 0.00718501 -0.000471467 0.0134421 0.0008 3.43146e-06 -1.77073e-12 4.23709e-14 -1.33042e-13 -1.77934e-09 -6.43967e-11 7.07546e-11 -1.17972e-15 1.06834e-15 -6.98431e-16 1 -0.000666238 4.12229e-05 -6.80781e-05 0.00798283 -0.000523818 0.0134421 0.0008
811 1 0.00261915 -0.00199663 0.0120334 0.0008 3.43146e-06 -4.29974e-13 1.08351e-12 5.97734e-13 -2.78683e-10 2.74202e-10 9.4334e-10 3.52782e-15 5.022e-17 -2.63903e-15 0 0 0 0 0 0 0 0
812 1 0.00381124 -0.00178056 0.0139496 0.0008 3.43146e-06 4.9555e-13 -4.48402e-13 -1.48899e-13 6.63204e-10 1.94301e-09 -5.70538e-11 1.30556e-15 -1.1136e-15 2.48559e-15 0 0 0 0 0 0 0 0
813 1 -0.00494898 0.00523048 0.0105589 0.0008 3.43146e-06 -1.24367e-12 5.73048e-13 1.31556e-12 -5.01613e-10 -1.84332e-09 -6.73337e-10 -3.23263e-16 -5.40336e-16 1.08264e-15 1 0.000945561 -0.000885011 0.00017444 -0.00549832 0.00581107 0.0105589 0.0008
814 1 -0.00236098 0.00460704 0.0146663 0.0008 3.43146e-06 -1.0837e-12 -1.62357e-12 -2.14591e-12 4.48282e-09 -1.02356e-09 -1.35599e-09 2.21032e-16 4.10535e-15 -3.61678e-15 0 0 0 0 0 0 0 0
815 1 -0.00515676 -0.00267312 0.0123988 0.0008 3.43146e-06 1.70535e-12 5.87733e-13 -8.87068e-13 -4.30798e-10 -1.42422e-10 -8.86614e-10 -3.21081e-15 3.70367e-15 2.92785e-15 0 0 0 0 0 0 0 0
816 1 -0.00228003 -0.0043247 0.0139059 0.0008 3.43146e-06 1.02111e-12 9.7518e-13 3.10796e-13 -3.26475e-09 -3.15655e-09 2.3928e-09 -3.92337e-15 3.8939e-15 3.59671e-15 0 0 0 0 0 0 0 0
817 1 -0.00187275 -0.00695289 0.0167768 0.0008 3.43146e-06 7.53152e-14 4.17794e-13 7.64304e-13 1.49285e-09 1.76014e-09 9.36369e-11 2.8248e-16 -2.14398e-15 -3.07145e-16 1 0.000234997 0.00118536 0.000222913 -0.00208064 -0.0077247 0.0167768 0.0008
818 1 -0.00597605 -0.000734019 0.0146714 0.0008 3.43146e-06 8.00668e-14 2.70764e-13 -2.20987e-12 2.49603e-09 -4.26835e-10 6.48752e-10 -5.2577e-16 6.41384e-17 4.73736e-15 0 0 0 0 0 0 0 0
819 1 -0.000324954 -0.00719267 0.0160227 0.0008 3.43146e-06 1.35291e-13 1.42554e-13 -7.80445e-13 -8.81e-10 6.6215e-10 -1.48622e-10 9.05548e-17 2.42063e-15 2.98851e-16 1 1.17619e-07 1.86407e-06 -3.02222e-08 -0.000361059 -0.00799185 0.0160227 0.0008
820 1 0.00384369 0.0056837 0.0140955 0.0008 3.43146e-06 -4.28308e-13 2.02799e-12 -2.89132e-14 -3.22742e-10 6.19866e-10 -6.39961e-10 -9.38949e-17 6.41245e-16 5.55724e-16 0 0 0 0 0 0 0 0
821 1 -0.00203409 -0.00690593 0.0122188 0.0008 3.43146e-06 5.13208e-13 8.24872e-13 -1.13342e-12 1.96113e-09 -2.31539e-10 -6.43014e-10 3.98951e-15 -1.06132e-15 5.86918e-15 0 0 0 0 0 0 0 0
822 1 0.00636996 0.000397677 0.0148989 0.0008 3.43146e-06 -1.09042e-12 1.35664e-13 1.3545e-12 -7.5686e-10 -3.10945e-09 2.02282e-10 -2.89075e-15 -1.42498e-16 3.99286e-15 0 0 0 0 0 0 0 0
823 1 0.000672655 -0.007169 0.0138551 0.0008 3.43146e-06 -2.26153e-13 -2.08298e-13 -3.55702e-13 -4.74187e-10 8.5388e-10 2.91654e-10 3.3535e-15 2.50197e-15 -5.16113e-16 1 0.000118861 0.000747949 7.20024e-05 0.000747343 -0.00796502 0.0138551 0.0008
824 1 -0.00492835 -0.00513342 0.0158474 0.0008 3.43146e-06 -1.29557e-12 -1.49617e-12 -8.65815e-12 1.72554e-09 -5.19794e-09 8.42581e-09 -6.596e-15 1.12739e-15 3.97693e-16 0 0 0 0 0 0 0 0
825 1 0.00148511 -0.00582343 0.0141501 0.0008 3.43146e-06 -4.36443e-13 -1.65908e-12 -1.97106e-12 -1.00065e-09 -5.70385e-11 -8.77568e-10 3.26043e-15 2.39491e-16 1.02284e-15 0 0 0 0 0 0 0 0
826 1 -0.00194874 0.00528934 0.0132796 0.0008 3.43146e-06 -1.92821e-13 -3.77334e-14 1.73896e-12 -6.05099e-10 -1.11462e-09 1.29743e-09 1.60871e-15 1.53027e-15 -8.2262e-17 0 0 0 0 0 0 0 0
827 1 0.00415674 -0.00369726 0.0130873 0.0008 3.43146e-06 9.95249e-13 4.82941e-13 4.33037e-12 -1.40896e-09 2.14895e-10 2.99674e-09 6.92335e-16 -7.62098e-16 7.23898e-16 0 0 0 0 0 0 0 0
828 1 -0.0050927 0.00509109 0.0179967 0.0008 3.43146e-06 -2.16395e-12 1.42547e-12 3.62337e-12 -4.36091e-09 -1.9729e-09 -5.0549e-10 -1.83865e-15 -1.05231e-15 -2.29363e-15 1 0.00146007 -0.00167062 0.000308425 -0.00565774 0.00565596 0.0179967 0.0008
829 1 0.0042126 0.00583952 0.0176711 0.0008 3.43146e-06 7.4775e-13 1.28623e-12 -4.15973e-13 -3.74926e-10 -1.37315e-09 -1.99721e-10 -8.55239e-19 4.25096e-16 -2.20625e-15 1 -0.000342768 -0.000467799 0.000148582 0.00468039 0.00648798 0.0176711 0.0008
830 1 -0.000268516 0.000257972 0.0128461 0.0008 3.43146e-06 3.13794e-13 1.40358e-12 4.3319e-12 1.50497e-09 2.60967e-09 -4.48592e-09 6.22482e-16 -1.96841e-15 3.76105e-16 0 0 0 0 0 0 0 0
831 1 -0.003608 0.00453136 0.0136513 0.0008 3.43146e-06 -6.05351e-13 -1.96092e-12 -1.20139e-12 1.12016e-10 -1.04321e-09 -5.99853e-12 4.29636e-16 1.44753e-15 1.01587e-15 0 0 0 0 0 0 0 0
832 1 0.000635719 0.00717221 0.011037 0.0008 3.43146e-06 -9.03157e-14 1.02112e-13 6.45146e-13 -8.95853e-10 -7.06568e-10 -1.50103e-10 6.72867e-16 7.10488e-16 1.8312e-15 1 -1.7384e-05 -0.000404613 0.000112258 0.000706322 0.00796876 0.011037 0.0008
833 1 -0.00558983 -0.00116662 0.0120785 0.0008 3.43146e-06 7.71933e-13 5.42041e-13 -1.82086e-12 -1.07889e-09 1.31959e-09 1.68629e-09 1.40757e-15 -5.15312e-16 3.2819e-15 0 0 0 0 0 0 0 0
834 1 0.004715 0.000670284 0.0148415 0.0008 3.43146e-06 2.16451e-12 -1.86559e-13 -2.36965e-12 -8.80885e-10 3.06045e-09 -7.97457e-10 1.49752e-16 3.05196e-15 3.79911e-15 0 0 0 0 0 0 0 0
835 1 0.00284893 -0.00509676 0.0133016 0.0008 3.43146e-06 -1.08403e-12 -1.57829e-12 -1.37629e-12 -8.88458e-11 1.54924e-09 -1.25541e-09 1.29529e-16 -6.70941e-15 2.06674e-15 0 0 0 0 0 0 0 0
836 1 0.00101911 0.00349787 0.0154762 0.0008 3.43146e-06 4.82424e-13 -7.76938e-13 3.98625e-12 6.87627e-10 -1.72064e-09 6.56744e-10 -2.51533e-15 2.50727e-15 4.59198e-15 0 0 0 0 0 0 0 0
837 1 -0.00091705 0.00714177 0.01142 0.0008 3.43146e-06 2.5005e-14 2.21463e-13 -3.51941e-13 5.21444e-10 -5.03968e-10 9.0209e-11 1.30549e-15 -1.91505e-16 1.64204e-15 1 -5.53814e-05 -0.000569769 8.59371e-05 -0.00101889 0.00793485 0.01142 0.0008
838 1 0.00711707 -0.00108969 0.0161854 0.0008 3.43146e-06 2.16819e-12 -2.87458e-13 -6.84291e-13 1.15018e-10 -1.09183e-09 -4.07943e-11 -3.85504e-16 -2.3887e-15 -1.42918e-15 1 -1.99384e-06 2.73731e-07 -1.44543e-07 0.00790785 -0.00121076 0.0161854 0.0008
839 1 0.0049116 0.00349263 0.0134993 0.0008 3.43146e-06 -1.06788e-12 1.08295e-12 2.90809e-12 3.39022e-09 -1.59608e-09 -1.26676e-09 7.21376e-16 6.42262e-16 1.51217e-16 0 0 0 0 0 0 0 0
840 1 0.000981444 0.000854604 0.0165234 0.0008 3.43146e-06 -5.42078e-13 -4.09223e-13 6.7365e-13 4.88086e-10 2.83089e-10 1.49384e-09 5.41444e-17 5.19929e-15 2.60476e-15 0 0 0 0 0 0 0 0
841 1 0.0051717 -0.00374645 0.0118503 0.0008 3.43146e-06 -1.8502e-12 -1.08365e-12 -5.24249e-13 -3.83737e-10 6.60768e-10 -2.72268e-11 1.85713e-15 -2.60998e-16 -1.28534e-16 0 0 0 0 0 0 0 0
842 1 -0.00245028 -0.000732173 0.0194568 0.0008 3.43146e-06 -3.86533e-13 2.7075e-13 -5.5168e-13 1.14511e-09 3.25448e-13 1.03196e-10 9.8594e-16 -1.19031e-16 -6.14905e-15 0 0 0 0 0 0 0 0
843 1 0.00090772 0.00714273 0.0183005 0.0008 3.43146e-06 1.41806e-13 -1.24153e-12 1.33779e-12 -1.61235e-09 -3.16018e-11 3.04802e-10 -9.7382e-16 -1.41889e-15 -3.18917e-15 1 1.19513e-05 -0.000155224 2.69821e-05 0.00100855 0.00793617 0.0183005 0.0008
844 1 -0.00143397 0.00598646 0.0170573 0.0008 3.43146e-06 -5.42041e-13 -2.16801e-12 -5.07112e-13 1.32383e-09 1.80614e-09 6.18858e-10 -2.42024e-16 -9.75112e-16 2.17444e-15 0 0 0 0 0 0 0 0
845 1 0.00243015 -0.00534088 0.0194775 0.0008 3.43146e-06 -7.41653e-13 4.12221e-13 1.69436e-13 9.10438e-10 2.52232e-09 -1.0999e-09 2.46923e-15 -3.02234e-15 2.77764e-16 0 0 0 0 0 0 0 0
846 1 -0.00500687 -0.003076 0.0194346 0.0008 3.43146e-06 1.24442e-12 5.75519e-13 -1.10987e-12 -2.64349e-09 -1.20391e-09 4.18822e-09 -2.90936e-15 1.97409e-15 1.26189e-15 0 0 0 0 0 0 0 0
847 1 -0.00205487 -0.00541461 0.0171752 0.0008 3.43146e-06 -1.08413e-12 -5.15719e-13 2.26395e-12 3.73352e-10 5.33925e-10 2.01765e-09 -9.65003e-16 -3.79244e-17 -4.51659e-16 0 0 0 0 0 0 0 0
848 1 0.00085041 -0.0057672 0.0201257 0.0008 3.43146e-06 -3.0896e-13 1.10156e-12 -2.92802e-12 3.14262e-09 9.22726e-10 -2.12183e-09 3.48829e-15 3.13019e-15 4.44677e-16 0 0 0 0 0 0 0 0
849 1 0.00450306 -0.00335239 0.0194625 0.0008 3.43146e-06 -1.85554e-12 -3.49108e-13 6.61144e-13 -2.9403e-09 -3.54209e-09 4.38917e-09 6.7497e-16 -1.64917e-15 -4.96462e-16 0 0 0 0 0 0 0 0
850 1 0.000571338 0.00465313 0.0207767 0.0008 3.43146e-06 2.70013e-13 -1.01287e-12 -7.63439e-13 2.54911e-09 -1.15318e-09 -1.08832e-09 1.17139e-15 3.43879e-15 -8.41437e-15 0 0 0 0 0 0 0 0
851 1 0.00118344 0.00141938 0.0199214 0.0008 3.43146e-06 5.40817e-13 -5.68848e-14 -7.18676e-13 2.42936e-10 -1.84096e-09 5.92976e-10 2.63119e-16 3.58337e-15 -9.09781e-16 0 0 0 0 0 0 0 0
852 1 -0.00384587 0.0044139 0.0152288 0.0008 3.43146e-06 -9.04178e-13 -1.10391e-12 -3.11647e-12 -9.66362e-10 3.61125e-10 -5.32894e-10 1.36336e-15 1.26834e-15 -1.06105e-15 0 0 0 0 0 0 0 0
853 1 -0.000880063 -0.00714637 0.0180158 0.0008 3.43146e-06 2.49793e-13 -3.14522e-14 -6.62935e-13 -9.38433e-10 -5.78883e-10 -4.44022e-10 -6.68986e-17 -3.40543e-16 -6.47954e-16 1 -4.46659e-05 0.000462442 8.71373e-05 -0.000977799 -0.00794002 0.0180158 0.0008
854 1 -0.000638588 0.00511551 0.0197425 0.0008 3.43146e-06 1.41657e-12 -1.89381e-12 1.13489e-12 1.77639e-09 6.40374e-09 2.00471e-09 1.35142e-14 -4.16242e-15 6.65065e-15 0 0 0 0 0 0 0 0
855 1 -0.00183595 0.00211891 0.0192122 0.0008 3.43146e-06 -5.41933e-13 5.08086e-13 1.17017e-13 6.39298e-10 8.95093e-10 -1.04291e-09 2.33561e-16 -4.10547e-16 1.17947e-15 0 0 0 0 0 0 0 0
856 1 8.73045e-05 -0.00589279 0.0149255 0.0008 3.43146e-06 8.83252e-14 -1.92669e-12 6.21428e-13 2.81192e-09 2.76746e-09 -2.29382e-10 -1.84299e-15 5.97704e-15 -6.32513e-15 0 0 0 0 0 0 0 0
857 1 -0.000462871 0.00718585 0.017477 0.0008 3.43146e-06 -1.34005e-13 -1.84688e-12 8.9769e-14 -6.53786e-11 -1.10927e-09 -3.45086e-10 8.62062e-16 -1.04934e-17 1.20496e-15 1 6.71827e-05 -0.00136059 0.000174007 -0.000514248 0.00798345 0.017477 0.0008
858 1 0.00463365 0.00551128 0.0154759 0.0008 3.43146e-06 1.55067e-12 1.67306e-13 -1.07716e-12 3.38716e-09 1.93166e-09 1.35427e-09 3.29794e-16 -1.26479e-16 -1.52305e-16 1 -0.000274884 -0.000323525 2.79785e-05 0.00514825 0.00612336 0.0154759 0.0008
859 1 0.00561149 0.00119182 0.0160622 0.0008 3.43146e-06 -1.38456e-12 -5.41588e-13 2.13257e-12 4.28405e-09 8.39979e-10 -3.22012e-09 -4.0272e-15 4.30334e-16 3.28427e-15 0 0 0 0 0 0 0 0
860 1 0.00133909 -0.000818924 0.0188575 0.0008 3.43146e-06 -5.4079e-13 2.71171e-13 -4.40076e-13 1.87235e-09 -9.7018e-10 -5.18176e-10 1.63171e-16 -2.4528e-16 -2.46785e-15 0 0 0 0 0 0 0 0
861 1 -0.00469443 0.00159862 0.018072 0.0008 3.43146e-06 -2.41756e-13 3.91711e-13 -2.11188e-12 1.29382e-09 4.58073e-10 -1.28359e-09 -1.19575e-15 2.44266e-15 1.16444e-15 0 0 0 0 0 0 0 0
862 1 -0.00571702 -0.000468732 0.0165058 0.0008 3.43146e-06 2.7124e-13 1.35633e-13 1.43328e-12 -1.61428e-09 -1.99084e-09 4.01182e-10 2.66304e-15 -2.8997e-16 4.58284e-15 0 0 0 0 0 0 0 0
863 1 0.00103369 0.00232534 0.0171622 0.0008 3.43146e-06 -4.8697e-13 -1.0831e-12 2.12664e-12 -1.30358e-09 7.62029e-10 -3.55464e-10 -1.73936e-15 -8.12729e-16 1.78621e-15 0 0 0 0 0 0 0 0
864 1 0.00583891 -0.00047781 0.018803 0.0008 3.43146e-06 -3.2838e-13 -1.12456e-13 -1.69358e-12 9.15284e-10 3.61895e-09 -1.04161e-09 1.62442e-15 4.25399e-16 -6.74288e-18 0 0 0 0 0 0 0 0
865 1 0.00244452 -0.00139251 0.0178534 0.0008 3.43146e-06 -9.46468e-13 5.42097e-13 -5.0382e-13 -1.57619e-10 5.5919e-10 -6.9456e-10 -2.17565e-16 -2.36259e-16 5.36486e-16 0 0 0 0 0 0 0 0
866 1 0.00574187 0.00129567 0.0192277 0.0008 3.43146e-06 1.98634e-12 -5.4198e-13 2.30003e-12 -1.51632e-09 -2.93665e-11 -7.27116e-10 -6.02994e-16 7.02707e-16 -2.49347e-15 0 0 0 0 0 0 0 0
867 1 0.00500657 -0.00517503 0.0178126 0.0008 3.43146e-06 -1.153e-12 -2.86342e-13 -1.43189e-12 -3.11099e-09 6.21644e-10 1.28892e-09 1.64448e-16 -4.21191e-17 1.88435e-16 1 -0.000397619 0.000555162 0.000139116 0.00556249 -0.00574967 0.0178126 0.0008
868 1 0.0035317 0.00249487 0.0185068 0.0008 3.43146e-06 7.10157e-13 -1.08365e-12 -2.15516e-13 2.32078e-09 2.94365e-09 2.02025e-09 -3.55824e-16 1.01464e-15 7.39719e-16 0 0 0 0 0 0 0 0
869 1 -0.00118619 -0.00581088 0.0158917 0.0008 3.43146e-06 -2.80811e-13 1.66413e-12 2.64878e-12 1.49699e-09 -1.58833e-09 1.68305e-10 3.96037e-15 -8.09955e-15 -4.23492e-15 0 0 0 0 0 0 0 0
870 1 -0.000866753 0.00714751 0.0143669 0.0008 3.43146e-06 -2.69219e-13 -1.21982e-12 3.29104e-12 1.9965e-09 -1.36393e-09 -1.04438e-09 -1.87941e-16 1.59167e-15 -3.053e-15 0 0 0 0 0 0 0 0
871 1 -0.00564164 -0.00277867 0.0174196 0.0008 3.43146e-06 9.58862e-13 7.6336e-13 3.56668e-12 2.07548e-09 -9.977e-10 7.03388e-10 1.08809e-15 -1.42067e-15 4.50964e-16 0 0 0 0 0 0 0 0
872 1 0.00436489 -0.00448924 0.0165181 0.0008 3.43146e-06 -6.06887e-13 -2.61182e-13 -3.92747e-13 2.56184e-09 5.68908e-10 -3.86962e-09 -8.79855e-16 -1.22482e-15 1.0925e-15 0 0 0 0 0 0 0 0
873 1 0.00402615 -0.00597 0.0187953 0.0008 3.43146e-06 -2.13256e-13 -5.22894e-13 9.36233e-13 7.38719e-10 1.01128e-09 5.80666e-10 6.52199e-16 2.78577e-16 7.98157e-16 1 -0.000604982 0.00125506 8.75753e-05 0.00447304 -0.00663264 0.0187953 0.0008
874 1 -0.00141229 -0.00185591 0.0189895 0.0008 3.43146e-06 -5.41733e-13 -5.41943e-13 3.18702e-15 -4.54643e-09 2.25053e-09 2.33631e-10 1.37387e-16 -3.4263e-18 -2.13173e-15 0 0 0 0 0 0 0 0
875 1 -0.000255687 0.00570894 0.0158516 0.0008 3.43146e-06 5.67779e-14 -5.28681e-13 8.83124e-13 -1.66138e-09 2.11291e-09 1.85024e-09 2.59169e-15 -5.27571e-16 -7.49116e-16 0 0 0 0 0 0 0 0
876 1 -0.00173412 0.00544748 0.0186248 0.0008 3.43146e-06 5.47909e-13 -2.16835e-12 -1.54453e-13 1.73835e-10 -7.22268e-09 1.41105e-09 1.31993e-15 -2.32414e-16 1.38651e-14 0 0 0 0 0 0 0 0
877 1 0.00291629 0.00658306 0.0182422 0.0008 3.43146e-06 4.85526e-13 8.54321e-13 -1.39507e-12 1.6117e-09 -5.91138e-10 6.67789e-11 -3.25942e-16 -9.76681e-16 -1.23226e-15 1 -4.39834e-05 -5.04845e-05 3.23049e-06 0.00324027 0.00731441 0.0182422 0.0008
878 1 0.000574708 -0.00717776 0.0173521 0.0008 3.43146e-06 1.31007e-13 -9.98659e-13 -4.5881e-13 -5.81998e-10 4.84268e-10 -9.15447e-11 -2.17276e-15 1.58093e-15 3.02392e-15 1 -0.000295448 0.0013173 0.0001426 0.0006385 -0.00797448 0.0173521 0.0008
879 1 -0.00503445 -0.00425292 0.0172709 0.0008 3.43146e-06 -2.04217e-12 -6.62156e-13 -9.72357e-13 -2.90558e-09 8.08477e-09 -1.031e-09 -2.48651e-15 -3.05756e-15 4.98393e-15 0 0 0 0 0 0 0 0
880 1 0.00246928 0.00238841 0.0196988 0.0008 3.43146e-06 5.338e-13 -3.48591e-14 1.22738e-12 9.81316e-10 -1.50763e-10 8.14727e-10 1.39552e-15 1.42781e-15 -4.42595e-15 0 0 0 0 0 0 0 0
881 1 -0.00287931 -0.00295057 0.014469 0.0008 3.43146e-06 9.60976e-13 -1.08403e-12 3.09074e-12 -9.21056e-11 1.36169e-10 8.06502e-10 3.09171e-15 -7.06444e-16 4.4312e-15 0 0 0 0 0 0 0 0
882 1 0.00444846 -0.00367812 0.017897 0.0008 3.43146e-06 -2.12124e-12 1.32291e-13 5.5053e-13 3.7234e-09 4.72165e-09 -1.09901e-10 -9.6936e-16 9.42894e-17 -9.31395e-17 0 0 0 0 0 0 0 0
883 1 -0.00061827 -0.00415994 0.0196782 0.0008 3.43146e-06 -2.70893e-13 -1.71483e-12 -1.64464e-14 4.59464e-10 -1.3714e-10 -1.08717e-09 2.6857e-18 3.6729e-16 2.3948e-15 0 0 0 0 0 0 0 0
884 1 -0.00256186 0.00172706 0.016268 0.0008 3.43146e-06 1.08351e-12 2.03674e-13 -2.24077e-12 -2.55567e-09 -3.06137e-09 2.17583e-09 -1.02082e-16 -2.65752e-15 -3.25162e-15 0 0 0 0 0 0 0 0
885 1 -0.00175621 0.00383668 0.0183615 0.0008 3.43146e-06 -3.5683e-13 -3.04228e-13 1.61734e-12 -2.35993e-09 3.43397e-09 -1.8793e-09 -6.75532e-15 9.84182e-16 -1.84712e-16 0 0 0 0 0 0 0 0
886 1 -0.00444125 -0.00213662 0.0182702 0.0008 3.43146e-06 1.22924e-12 8.92029e-13 1.23855e-13 1.7137e-09 -2.96854e-09 3.8354e-10 4.06019e-15 4.7201e-15 -3.62695e-15 0 0 0 0 0 0 0 0
887 1 -0.00376921 0.00182245 0.0196882 0.0008 3.43146e-06 -1.08337e-12 -1.21111e-13 1.51095e-12 4.61641e-10 1.63486e-09 2.93056e-10 -1.1604e-15 7.30105e-16 2.12203e-15 0 0 0 0 0 0 0 0
888 1 -0.00335883 -0.00449186 0.0170939 0.0008 3.43146e-06 -1.08365e-12 -2.1072e-12 -4.88801e-13 -4.81406e-09 -1.56358e-09 -5.11585e-10 8.91303e-17 1.04498e-15 -2.1117e-15 0 0 0 0 0 0 0 0
889 1 0.006344 0.0034058 0.0173626 0.0008 3.43146e-06 3.07449e-13 -6.74218e-13 3.3688e-12 -6.63645e-09 1.20463e-09 9.15506e-10 -9.17653e-16 9.35534e-16 2.6364e-15 1 -0.000524742 -0.000170289 5.62277e-05 0.00704849 0.00378401 0.0173626 0.0008
890 1 -0.000236264 0.00575509 0.0181554 0.0008 3.43146e-06 3.92792e-13 -2.16817e-12 2.47478e-12 -2.70724e-09 3.49984e-09 -3.68981e-10 4.35696e-15 1.67497e-15 6.69483e-15 0 0 0 0 0 0 0 0
891 1 0.00360971 -0.0003113 0.0176729 0.0008 3.43146e-06 3.1296e-13 1.35098e-13 -1.69826e-12 7.83432e-10 1.89312e-09 -1.04191e-09 4.45333e-16 -4.02598e-16 9.77479e-16 0 0 0 0 0 0 0 0
892 1 0.00271687 -0.00500457 0.0167752 0.0008 3.43146e-06 9.93162e-14 -3.26242e-13 2.07905e-12 -1.25229e-09 -2.58047e-09 3.45633e-10 4.82902e-16 -4.10488e-15 3.02642e-16 0 0 0 0 0 0 0 0
893 1 -0.000185239 -0.00287053 0.0188362 0.0008 3.43146e-06 1.21643e-14 1.04282e-14 2.90921e-13 1.13918e-09 1.32268e-10 1.15891e-09 -7.31283e-16 -1.56762e-15 3.12544e-15 0 0 0 0 0 0 0 0
894 1 -0.0060408 -0.00391818 0.0184688 0.0008 3.43146e-06 9.00302e-13 2.01832e-12 1.05463e-12 -1.85495e-09 -2.74773e-09 1.56146e-09 -1.14336e-15 -2.62478e-15 -7.56242e-17 1 0.000194097 0.000142597 5.47958e-05 -0.00671178 -0.00435339 0.0184688 0.0008
895 1 -0.00405268 0.0028383 0.0150467 0.0008 3.43146e-06 -1.48765e-12 -1.08252e-12 -1.22849e-12 -1.09565e-09 1.99034e-09 -6.0077e-11 5.40589e-16 -5.95527e-16 7.19121e-16 0 0 0 0 0 0 0 0
896 1 0.00403075 0.00596624 0.019255 0.0008 3.43146e-06 -2.75139e-13 2.16462e-13 -1.22605e-12 1.71865e-09 -1.33447e-10 -3.76519e-10 -5.5716e-16 -2.14104e-16 -2.13922e-16 1 -0.000144639 -0.000150512 -1.3336e-05 0.00447848 0.00662897 0.019255 0.0008
897 1 0.00282903 0.00526664 0.0171079 0.0008 3.43146e-06 -7.86719e-13 -2.59141e-13 -6.11742e-13 -2.37276e-09 1.05061e-09 3.10844e-10 -1.59732e-15 -3.18962e-15 2.8281e-15 0 0 0 0 0 0 0 0
898 1 -0.00296396 -0.00227946 0.0189262 0.0008 3.43146e-06 -7.75497e-13 1.08385e-12 -7.68272e-14 1.35158e-10 3.19563e-09 -3.27621e-09 3.71197e-15 9.58547e-17 -4.59771e-15 0 0 0 0 0 0 0 0
899 1 -0.00699472 0.00170783 0.0153665 0.0008 3.43146e-06 -1.87748e-12 5.1032e-13 1.772e-12 -7.49797e-10 -1.94962e-09 1.21368e-10 -2.42627e-15 -8.20212e-16 8.0391e-16 1 0.000188698 -2.07589e-05 5.16229e-05 -0.0077717 0.00189754 0.0153665 0.0008
900 1 0.00281757 0.000241906 0.0189625 0.0008 3.43146e-06 2.35214e-15 -2.7306e-14 2.46772e-14 -1.29214e-10 -1.45548e-09 -1.08788e-09 -6.35421e-16 -8.60078e-16 -8.92785e-16 0 0 0 0 0 0 0 0
901 1 -0.00259498 -0.00328864 0.0213141 0.0008 3.43146e-06 -1.08389e-12 -4.47008e-13 1.41143e-12 -2.21767e-09 1.06686e-10 1.57654e-09 1.67965e-16 2.11354e-16 -1.21556e-15 0 0 0 0 0 0 0 0
902 1 0.00710941 0.00114135 0.0136914 0.0008 3.43146e-06 1.4244e-12 -3.54448e-13 9.35788e-14 -2.12808e-09 -1.82858e-10 6.90329e-10 2.46341e-16 3.03479e-16 9.15609e-16 1 -0.000620815 -0.000126753 4.53688e-05 0.00789886 0.00126809 0.0136914 0.0008
903 1 -0.00314677 -0.00647685 0.0193829 0.0008 3.43146e-06 3.7096e-13 1.4106e-12 7.58479e-14 4.91108e-10 6.7983e-10 3.29225e-10 -9.94512e-16 -1.41003e-15 -9.73936e-16 1 0.000526658 0.00148943 0.000370266 -0.00349601 -0.00719569 0.0193829 0.0008
904 1 -0.0012272 -0.00456651 0.0182561 0.0008 3.43146e-06 -4.21943e-13 6.76924e-13 -4.66155e-13 2.19292e-09 -4.21369e-11 -2.86481e-10 -6.82519e-16 -4.85974e-16 -1.20511e-15 0 0 0 0 0 0 0 0
905 1 0.00119689 -0.00193496 0.0152212 0.0008 3.43146e-06 5.41347e-13 -5.42067e-13 -9.76177e-13 5.11658e-10 1.27352e-09 5.96219e-10 8.23428e-17 1.18914e-15 6.4973e-15 0 0 0 0 0 0 0 0
906 1 -0.00705625 -0.00143254 0.0156224 0.0008 3.43146e-06 5.07589e-13 -1.09904e-13 -1.53036e-12 -2.41759e-09 1.46791e-09 -2.58991e-10 1.20142e-15 1.19839e-15 4.41483e-16 1 0.000180414 3.22607e-05 4.47255e-05 -0.00784006 -0.00159167 0.0156224 0.0008
907 1 -0.00675423 -0.00249449 0.0186204 0.0008 3.43146e-06 -1.33277e-12 6.81746e-13 -3.14112e-13 9.98084e-10 6.13141e-10 1.46816e-09 -1.91097e-16 -9.36886e-16 -5.78447e-16 1 0.000108239 3.47937e-05 2.07198e-05 -0.00750455 -0.0027716 0.0186204 0.0008
908 1 -0.00461143 -6.34376e-05 0.0175884 0.0008 3.43146e-06 -1.79033e-12 -2.21137e-14 -6.98634e-13 2.39079e-10 1.87691e-09 -6.36644e-10 1.33909e-15 7.45188e-18 4.16661e-15 0 0 0 0 0 0 0 0
909 1 0.00265317 -0.00116789 0.0197 0.0008 3.43146e-06 -1.08226e-12 -4.47736e-13 5.32514e-14 1.4915e-10 -3.3104e-10 6.49521e-10 -5.66059e-16 1.32291e-15 -3.86879e-15 0 0 0 0 0 0 0 0
910 1 0.00597512 0.00401738 0.015223 0.0008 3.43146e-06 1.07625e-12 2.50076e-13 3.39864e-13 5.57484e-09 4.24783e-09 4.84392e-10 7.99943e-16 -9.98078e-16 -2.17909e-15 1 -5.28594e-05 -3.46971e-05 1.24342e-05 0.00663893 0.0044637 0.015223 0.0008
911 1 0.00438185 0.00170418 0.0169479 0.0008 3.43146e-06 8.9501e-13 -4.60562e-13 7.91906e-13 -9.82654e-10 -2.17213e-09 -5.92829e-10 -2.98969e-16 1.66316e-15 6.60961e-16 0 0 0 0 0 0 0 0
912 1 -0.00391686 0.000728653 0.0159011 0.0008 3.43146e-06 1.59786e-12 2.60848e-13 -1.43929e-12 -9.60568e-12 -2.06967e-09 -1.08518e-09 3.83625e-15 -8.69379e-16 -2.27806e-15 0 0 0 0 0 0 0 0
913 1 -0.00604008 0.00391944 0.0174608 0.0008 3.43146e-06 -2.1666e-12 6.88202e-13 1.07957e-12 3.32253e-09 -3.76884e-09 -8.13398e-10 1.24989e-15 2.49879e-16 1.46605e-16 1 0.000363623 -0.000143094 2.4983e-05 -0.00671091 0.00435474 0.0174608 0.0008
914 1 0.00147405 -0.000204555 0.0203283 0.0008 3.43146e-06 -5.42096e-13 3.57907e-13 1.36405e-12 -1.19354e-09 2.26133e-10 -7.20753e-10 1.5243e-16 -9.36132e-17 -2.97264e-15 0 0 0 0 0 0 0 0
915 1 0.00282052 0.00176545 0.0140127 0.0008 3.43146e-06 6.85957e-13 5.42086e-13 1.26208e-12 4.86885e-10 -4.30035e-09 1.15716e-09 -4.2505e-15 -4.08682e-16 1.47674e-15 0 0 0 0 0 0 0 0
916 1 0.00572269 0.00197101 0.0177778 0.0008 3.43146e-06 1.90561e-12 -1.03853e-12 2.58357e-12 1.10059e-09 7.95612e-10 -5.98474e-10 -3.11742e-16 1.59886e-15 2.47119e-17 0 0 0 0 0 0 0 0
917 1 -0.00596019 -0.00403939 0.0148327 0.0008 3.43146e-06 3.07046e-13 2.15118e-12 -2.89061e-13 -1.0799e-09 -3.23229e-10 2.17415e-09 -3.43878e-16 4.55735e-16 2.25408e-15 1 1.39138e-05 9.43507e-06 5.6438e-06 -0.0066224 -0.00448819 0.0148327 0.0008
918 1 0.00327035 0.00380394 0.0176256 0.0008 3.43146e-06 -1.07411e-12 -4.34896e-13 2.12041e-12 5.19192e-11 1.18389e-09 -1.94818e-09 1.18986e-15 1.88374e-16 4.46655e-16 0 0 0 0 0 0 0 0
919 1 -0.00125705 -0.00274424 0.0144281 0.0008 3.43146e-06 2.66828e-13 6.47393e-13 1.52163e-12 -3.63577e-10 8.4828e-10 4.33525e-10 2.29472e-15 -1.62911e-15 2.24484e-15 0 0 0 0 0 0 0 0
920 1 -0.000144275 -0.00719886 0.0194352 0.0008 3.43146e-06 -8.12569e-14 -5.43485e-13 1.21808e-12 1.43102e-09 -8.55259e-10 1.52364e-10 8.13895e-16 3.71197e-15 -7.08779e-16 1 3.20706e-05 0.000360091 7.83914e-05 -0.000160298 -0.00799839 0.0194352 0.0008
921 1 -0.00483627 0.00293184 0.0192538 0.0008 3.43146e-06 -4.62973e-13 4.61033e-13 -9.57096e-13 -5.69032e-10 -5.80112e-09 -5.93831e-10 -8.28865e-15 2.61847e-16 -3.54785e-15 0 0 0 0 0 0 0 0
922 1 -0.00549298 0.00465322 0.0194822 0.0008 3.43146e-06 -2.96544e-12 2.16856e-12 -2.33713e-12 3.81958e-09 -2.6377e-09 6.25481e-09 2.23574e-15 -5.47615e-16 -8.12751e-15 0 0 0 0 0 0 0 0
923 1 0.00696382 -0.00183197 0.0183638 0.0008 3.43146e-06 -1.26326e-12 -1.72806e-13 -6.17302e-13 -5.48747e-10 -6.45212e-10 6.13913e-10 -7.41838e-17 -5.77129e-16 1.46171e-15 1 -0.00135264 0.00030401 0.000221359 0.00773677 -0.00203531 0.0183638 0.0008
924 1 -0.00391447 0.00604333 0.0174835 0.0008 3.43146e-06 -7.39317e-13 6.43538e-13 -5.42782e-14 -1.44651e-09 2.50634e-09 -2.69336e-10 -9.36615e-16 -1.73101e-15 -1.84013e-15 1 0.000155903 -0.000399659 4.98157e-05 -0.0043492 0.0067145 0.0174835 0.0008
925 1 0.00262512 -0.00670472 0.0185588 0.0008 3.43146e-06 7.15044e-15 -8.21935e-13 1.20565e-12 1.40858e-09 4.82418e-10 2.96883e-10 -5.9371e-17 2.21546e-15 -1.10644e-15 1 -4.49723e-05 0.000387255 6.16346e-05 0.00291668 -0.00744936 0.0185588 0.0008
926 1 0.00352574 -0.00627797 0.0173073 0.0008 3.43146e-06 -1.06979e-12 1.4264e-12 1.67443e-12 1.97734e-09 6.96868e-10 2.9053e-10 -1.02997e-16 2.361e-16 -1.85331e-16 1 -0.000141024 0.000233294 6.84103e-05 0.00391735 -0.00697527 0.0173073 0.0008
927 1 0.00104175 0.00443402 0.0192633 0.0008 3.43146e-06 -4.67003e-13 -2.167e-12 -7.25956e-13 -3.16787e-09 1.71996e-09 -1.40753e-09 -2.50785e-15 1.28264e-15 -1.48447e-15 0 0 0 0 0 0 0 0
928 1 -0.000329299 0.000248526 0.0156065 0.0008 3.43146e-06 -8.91393e-14 4.12854e-13 1.32163e-12 -1.19525e-10 7.21874e-10 -2.60324e-10 3.14973e-15 3.26053e-16 3.40441e-15 0 0 0 0 0 0 0 0
929 1 0.00600269 -0.00345297 0.0200108 0.0008 3.43146e-06 -1.8321e-12 8.01119e-13 4.74921e-13 -1.97169e-10 3.96543e-09 -4.01133e-09 2.93729e-15 -8.32919e-16 -6.28227e-16 0 0 0 0 0 0 0 0
930 1 0.00271494 0.00666878 0.0146565 0.0008 3.43146e-06 7.63416e-13 2.16634e-12 9.48657e-14 4.32772e-12 2.70017e-10 -1.69293e-10 -2.52579e-16 5.16272e-16 -1.17166e-15 1 -0.000123445 -0.000225731 5.08879e-05 0.0030165 0.0074095 0.0146565 0.0008
931 1 -0.00285999 0.0033322 0.0194037 0.0008 3.43146e-06 2.06699e-13 2.95158e-13 1.84481e-12 3.34508e-09 -2.07028e-09 1.18682e-10 -6.2952e-15 -2.71979e-15 3.5688e-16 0 0 0 0 0 0 0 0
932 1 -0.00553912 -0.00205951 0.0154532 0.0008 3.43146e-06 -7.97678e-13 1.08119e-12 -1.27018e-12 -3.24882e-09 -2.17189e-09 -1.86728e-10 -9.77678e-16 -3.53407e-16 5.38889e-16 0 0 0 0 0 0 0 0
933 1 -0.000501013 -0.00571437 0.0174088 0.0008 3.43146e-06 -2.69247e-13 6.7255e-13 8.72855e-13 -5.09073e-09 2.2276e-09 -1.11344e-09 9.97879e-16 2.51829e-15 5.08702e-15 0 0 0 0 0 0 0 0
934 1 0.00325305 -0.00468178 0.0182469 0.0008 3.43146e-06 -1.07733e-12 4.02185e-13 1.96261e-12 2.3083e-11 1.05534e-09 -7.48548e-10 4.42874e-16 -2.20554e-16 -2.46997e-16 0 0 0 0 0 0 0 0
935 1 -0.00184909 -0.000923289 0.0177654 0.0008 3.43146e-06 -1.43572e-12 -4.28701e-13 -4.52439e-12 2.33653e-09 -4.64218e-09 2.74637e-09 2.10429e-15 -2.19967e-15 -5.63388e-15 0 0 0 0 0 0 0 0
936 1 -0.000751184 -0.00221302 0.017492 0.0008 3.43146e-06 2.58308e-13 3.81322e-13 -1.13133e-12 -2.00612e-09 -2.25171e-10 -3.04686e-09 -8.92846e-16 -1.75488e-15 6.94898e-15 0 0 0 0 0 0 0 0
937 1 -0.00404466 0.0042714 0.0188831 0.0008 3.43146e-06 -1.30425e-12 1.505e-12 4.65024e-12 5.45487e-09 3.18576e-10 2.65833e-09 -5.57261e-15 -3.58216e-15 -4.18309e-15 0 0 0 0 0 0 0 0
938 1 0.00172128 -0.00510555 0.0180634 0.0008 3.43146e-06 -4.17056e-13 2.67561e-13 1.41531e-12 -8.77731e-10 -2.16146e-09 1.04514e-09 2.70636e-15 -3.01785e-15 -9.6909e-16 0 0 0 0 0 0 0 0
939 1 0.00357585 0.00162109 0.0155549 0.0008 3.43146e-06 -2.99769e-13 5.41767e-13 4.33633e-12 6.46723e-09 -4.44605e-09 -1.50605e-09 -1.66848e-15 -1.19455e-16 1.40313e-16 0 0 0 0 0 0 0 0
940 1 0.000736142 0.00624847 0.0169851 0.0008 3.43146e-06 -1.20452e-13 -1.21409e-12 -1.10922e-12 3.42972e-09 3.43492e-10 -5.31247e-11 3.02536e-15 -5.16082e-16 -6.25729e-16 0 0 0 0 0 0 0 0
941 1 0.00135308 -0.0041691 0.0168199 0.0008 3.43146e-06 -3.76382e-13 -7.7647e-13 4.34736e-13 -5.00148e-10 1.01358e-09 2.72294e-10 2.34062e-15 -2.11945e-15 -5.48206e-16 0 0 0 0 0 0 0 0
942 1 0.00675186 -0.0025008 0.0168454 0.0008 3.43146e-06 -2.16734e-12 -1.08465e-12 -1.73191e-12 -1.10514e-08 1.83035e-09 2.28075e-09 -2.48589e-15 8.48322e-16 1.32266e-15 1 -8.06363e-05 2.57462e-05 -1.43064e-05 0.00750195 -0.00277863 0.0168454 0.0008
943 1 0.00515354 0.00146167 0.020706 0.0008 3.43146e-06 1.37871e-12 1.82514e-13 -3.02632e-13 8.90632e-11 -1.90253e-09 1.03673e-09 1.76596e-15 -2.78025e-16 -3.07594e-15 0 0 0 0 0 0 0 0
944 1 0.00702424 0.00158384 0.0201394 0.0008 3.43146e-06 -1.52429e-13 -5.41242e-13 2.57479e-13 2.89548e-10 3.9383e-10 6.3504e-10 -3.03256e-16 2.66755e-17 -1.11292e-15 1 -0.000915944 -0.000276483 0.000136537 0.00780407 0.00175968 0.0201394 0.0008
945 1 0.00196468 0.00692696 0.0194814 0.0008 3.43146e-06 1.76917e-13 2.57304e-14 1.5559e-13 8.15284e-11 1.15378e-09 2.21823e-10 1.85642e-15 -2.37843e-15 3.15838e-16 1 -7.73746e-05 -0.000164913 3.14733e-05 0.00218292 0.00769642 0.0194814 0.0008
946 1 -0.00446035 0.00565208 0.020187 0.0008 3.43146e-06 -2.1684e-12 -7.3459e-13 -2.97499e-12 3.9388e-09 9.26394e-10 -2.79542e-09 -7.80816e-17 4.27746e-15 5.86321e-16 1 1.09678e-05 -2.13042e-05 2.7052e-06 -0.00495591 0.00628005 0.020187 0.0008
947 1 0.00589615 0.00410468 0.0193035 0.0008 3.43146e-06 -4.88885e-13 -9.44025e-13 5.96131e-13 -2.99964e-10 -1.92526e-09 4.04113e-10 9.76631e-16 -7.12831e-16 -3.51266e-16 0 0 0 0 0 0 0 0
948 1 0.00356256 -0.00260467 0.0169566 0.0008 3.43146e-06 -9.11905e-13 1.00638e-12 -7.59506e-13 6.59934e-11 2.73374e-09 -3.33712e-10 -3.45734e-16 1.71797e-15 4.80331e-15 0 0 0 0 0 0 0 0
949 1 0.000968444 0.000887298 0.0149224 0.0008 3.43146e-06 2.71207e-13 2.45453e-13 1.36524e-12 1.8381e-09 -1.52428e-09 -9.09791e-10 -7.8729e-16 -8.03497e-16 1.63663e-15 0 0 0 0 0 0 0 0
950 1 0.00710399 0.00117518 0.0179086 0.0008 3.43146e-06 1.93274e-12 -5.41937e-13 7.55371e-13 3.15857e-10 1.02906e-09 1.12516e-09 -4.37603e-16 2.58365e-16 -4.68725e-16 1 -0.000841528 -5.17468e-05 -0.000129477 0.00789274 0.00130565 0.0179086 0.0008
951 1 -0.00562053 0.000462249 0.0187124 0.0008 3.43146e-06 6.98217e-13 1.35385e-13 -1.69884e-13 -2.50614e-09 1.91964e-09 2.02302e-09 -1.27429e-15 -4.39758e-17 4.91022e-15 0 0 0 0 0 0 0 0
952 1 -4.30774e-05 -0.00334794 0.0152765 0.0008 3.43146e-06 1.90397e-13 4.67026e-14 -6.49278e-13 1.55407e-09 1.17084e-09 -1.32208e-09 -6.43046e-16 2.18127e-15 4.28537e-15 0 0 0 0 0 0 0 0
953 1 -0.00470679 -0.000194117 0.0130277 0.0008 3.43146e-06 -3.2631e-13 3.51276e-13 -2.26894e-12 1.11698e-09 -9.93136e-10 6.53192e-10 3.15479e-15 2.46906e-15 -2.16136e-15 0 0 0 0 0 0 0 0
954 1 0.00497774 -0.00223143 0.0184245 0.0008 3.43146e-06 -2.16702e-12 2.10046e-13 -2.34578e-12 -1.66576e-10 2.71415e-09 -1.88143e-09 -2.27436e-17 2.82689e-15 -1.75942e-15 0 0 0 0 0 0 0 0
955 1 -0.00179379 0.00240906 0.0176395 0.0008 3.43146e-06 2.22278e-13 -2.56448e-13 -2.2683e-12 -2.03022e-09 -1.68932e-09 -6.63599e-10 -1.17582e-17 9.03605e-16 -2.89951e-15 0 0 0 0 0 0 0 0
956 1 0.00382935 0.00314425 0.0200697 0.0008 3.43146e-06 8.65078e-13 1.08358e-12 2.98572e-12 6.04814e-10 -1.01652e-09 4.27732e-10 4.19887e-15 -6.78039e-17 -4.12137e-15 0 0 0 0 0 0 0 0
957 1 -0.00478677 -0.00353977 0.0158604 0.0008 3.43146e-06 -2.16805e-12 -7.17218e-13 -5.22894e-12 1.89157e-09 -2.92727e-09 -7.28127e-09 7.35611e-16 2.65368e-15 -4.22225e-15 0 0 0 0 0 0 0 0
958 1 0.0012938 0.00489983 0.016228 0.0008 3.43146e-06 5.41838e-13 2.16829e-12 7.2941e-13 -8.75671e-10 8.76209e-10 -9.27959e-10 1.69806e-16 -1.4806e-16 -3.7161e-15 0 0 0 0 0 0 0 0
959 1 0.00181882 0.000191733 0.0177141 0.0008 3.43146e-06 2.31851e-13 1.62857e-13 6.72805e-15 -1.28921e-09 1.13762e-09 -1.3176e-09 -2.27825e-16 1.63469e-15 -2.29746e-15 0 0 0 0 0 0 0 0
960 1 -0.00246069 0.00117967 0.0203473 0.0008 3.43146e-06 -1.08411e-12 8.76072e-14 1.30757e-12 -4.88307e-10 -1.80981e-09 3.49057e-10 1.38812e-16 -2.38679e-15 -1.40178e-15 0 0 0 0 0 0 0 0
961 1 -0.00348247 -0.000637024 0.0166114 0.0008 3.43146e-06 -2.16064e-13 2.70187e-13 -3.14868e-13 2.0877e-10 -3.5936e-09 1.29402e-09 2.68866e-15 -1.5938e-16 -1.21958e-15 0 0 0 0 0 0 0 0
962 1 0.00340055 -0.00244836 0.0185819 0.0008 3.43146e-06 -1.0837e-12 1.08268e-12 -7.01428e-13 2.01319e-11 -5.0564e-10 9.93687e-10 3.05103e-16 4.22923e-16 4.24718e-16 0 0 0 0 0 0 0 0
963 1 0.00429864 -0.00377299 0.014679 0.0008 3.43146e-06 4.36821e-13 1.01317e-12 1.51744e-12 9.8649e-10 -6.42358e-10 -2.05357e-09 -1.0025e-15 -2.09478e-15 9.91825e-16 0 0 0 0 0 0 0 0
964 1 -0.00299667 0.00338237 0.0170946 0.0008 3.43146e-06 1.02554e-12 -9.73719e-14 -5.02322e-12 -3.83262e-09 -4.8921e-09 2.13477e-09 -6.96632e-16 2.0988e-15 -8.42045e-15 0 0 0 0 0 0 0 0
965 1 -0.0045041 0.0032678 0.0177254 0.0008 3.43146e-06 2.06161e-12 1.01242e-12 3.44151e-13 1.4067e-10 9.60187e-10 6.94614e-09 -1.02786e-15 -2.41192e-15 -3.53502e-15 0 0 0 0 0 0 0 0
966 1 0.00213338 0.00434105 0.0146979 0.0008 3.43146e-06 -1.08307e-12 -3.06531e-13 1.07957e-12 -3.72951e-09 4.08938e-09 1.85793e-09 -1.16777e-17 1.16783e-15 -2.9527e-15 0 0 0 0 0 0 0 0
967 1 0.00256633 0.000521506 0.0163385 0.0008 3.43146e-06 -6.09414e-13 2.71085e-13 -2.17132e-12 1.32223e-09 1.24137e-09 1.533e-09 -3.0442e-15 -3.72658e-16 -4.35575e-15 0 0 0 0 0 0 0 0
968 1 0.00586699 -0.00206009 0.0155875 0.0008 3.43146e-06 3.51385e-14 -1.08346e-12 3.81569e-12 1.06969e-08 1.01385e-09 -6.20727e-09 -6.26511e-16 -6.35864e-16 3.866e-15 0 0 0 0 0 0 0 0
969 1 0.00142818 0.00510456 0.0178633 0.0008 3.43146e-06 4.05903e-13 -2.16826e-12 -2.90782e-12 1.3771e-09 -3.16705e-09 3.23855e-09 -5.55236e-16 8.16164e-16 9.35371e-16 0 0 0 0 0 0 0 0
970 1 -0.00469379 -0.00167122 0.016761 0.0008 3.43146e-06 -1.36461e-13 5.41167e-13 1.64041e-12 -1.77742e-09 5.41388e-09 -1.26e-09 3.40801e-15 -2.40063e-16 8.08606e-16 0 0 0 0 0 0 0 0
971 1 0.00596461 -0.00403289 0.0170698 0.0008 3.43146e-06 1.07598e-12 -1.16966e-12 -1.86697e-12 -1.80568e-09 -1.58123e-09 4.53476e-10 1.95332e-16 1.87007e-15 -1.2707e-15 1 -1.96765e-05 1.36754e-05 -3.60691e-06 0.0066273 -0.00448096 0.0170698 0.0008
972 1 -0.0072003 5.12115e-05 0.0162104 0.0008 3.43146e-06 -4.59274e-13 -1.47926e-13 -6.06311e-13 -1.90073e-09 7.21864e-10 -2.40644e-10 -1.77896e-15 -1.14762e-16 1.99486e-16 1 0.000715863 5.12771e-05 0.000179088 -0.0079998 5.68979e-05 0.0162104 0.0008
973 1 -0.00374703 -0.00294759 0.0169428 0.0008 3.43146e-06 -9.05544e-13 2.93524e-13 -2.2494e-12 3.04932e-09 7.98176e-10 -3.93764e-10 -1.61266e-16 2.35341e-15 1.4797e-15 0 0 0 0 0 0 0 0
974 1 0.000318875 0.0011506 0.0179796 0.0008 3.43146e-06 -8.82141e-14 -2.13155e-13 2.08589e-12 1.42032e-09 5.23035e-10 -3.29587e-10 -2.24592e-15 2.60873e-15 1.8853e-15 0 0 0 0 0 0 0 0
975 1 -2.55944e-05 -0.00379179 0.0175381 0.0008 3.43146e-06 9.03509e-14 2.32675e-13 3.93174e-13 -9.50422e-10 -4.78498e-10 -1.0829e-09 3.08789e-16 -1.40989e-15 4.60745e-16 0 0 0 0 0 0 0 0
976 1 -0.00620515 0.00181108 0.0193435 0.0008 3.43146e-06 8.82061e-13 2.56404e-13 -1.28132e-12 3.63029e-10 -2.36959e-10 -1.35888e-09 -1.69981e-15 1.15487e-15 3.0769e-15 0 0 0 0 0 0 0 0
977 1 0.00233475 -0.00328583 0.0177232 0.0008 3.43146e-06 -1.0842e-12 -1.91045e-13 5.6996e-13 5.81744e-10 -1.22317e-09 9.94252e-10 1.40445e-15 3.28532e-15 2.69517e-15 0 0 0 0 0 0 0 0
978 1 -0.00255179 -0.00406311 0.0189985 0.0008 3.43146e-06 -1.08373e-12 1.13348e-12 4.27341e-13 -1.56455e-09 4.77461e-10 -2.42605e-10 -5.05094e-16 2.16263e-15 -1.15315e-15 0 0 0 0 0 0 0 0
979 1 0.00262055 0.000908912 0.020403 0.0008 3.43146e-06 4.80105e-13 2.34018e-13 -3.98704e-13 -2.16711e-10 1.40848e-09 -1.71594e-10 4.86038e-16 -1.56263e-15 2.41246e-15 0 0 0 0 0 0 0 0
980 1 -0.00124119 0.00440212 0.0169565 0.0008 3.43146e-06 5.41645e-13 -2.04631e-12 -8.89551e-13 -6.36227e-10 -3.42717e-09 6.67566e-10 -1.06484e-16 -3.19816e-15 2.86399e-15 0 0 0 0 0 0 0 0
981 1 -0.00238933 0.00679233 0.0180556 0.0008 3.43146e-06 -3.92944e-13 -7.10965e-13 1.51218e-12 -2.22447e-09 6.84634e-10 -7.32591e-10 1.26677e-15 -1.55065e-15 5.77583e-16 1 0.00012299 -0.000366662 -3.99885e-05 -0.00265469 0.00754669 0.0180556 0.0008
982 1 -0.00278994 0.00663806 0.0165139 0.0008 3.43146e-06 -9.99712e-13 -7.44576e-13 -1.30878e-13 9.40039e-10 -1.84799e-09 -1.45385e-09 5.88706e-16 -3.30817e-16 -5.24523e-16 1 0.000267351 -0.00077362 5.5021e-05 -0.00309971 0.00737508 0.0165139 0.0008
983 1 0.000234522 -0.00506627 0.018673 0.0008 3.43146e-06 6.78195e-14 8.52507e-13 -1.93579e-12 3.90201e-09 9.08666e-11 1.80188e-09 3.51565e-16 1.34787e-15 4.89058e-15 0 0 0 0 0 0 0 0
984 1 -0.00510229 0.00344632 0.0162526 0.0008 3.43146e-06 1.83226e-12 -1.3072e-13 2.84327e-12 7.34152e-10 -9.2451e-11 -1.84838e-09 2.94173e-15 -3.62845e-15 -2.47892e-15 0 0 0 0 0 0 0 0
985 1 0.00193434 -0.00693538 0.0199832 0.0008 3.43146e-06 -5.41243e-13 -3.74044e-13 -2.30637e-12 -1.97591e-09 -3.2365e-09 7.86666e-10 7.20738e-17 2.48749e-15 1.26083e-15 1 -2.75371e-05 4.07317e-05 4.50885e-06 0.00214924 -0.00770589 0.0199832 0.0008
986 1 -0.00296184 0.00480467 0.0178258 0.0008 3.43146e-06 -9.52779e-14 -1.47996e-12 -5.01627e-12 4.66731e-09 3.94747e-09 -1.208e-09 -8.33249e-15 -2.56809e-15 -9.64431e-15 0 0 0 0 0 0 0 0
987 1 -0.00327041 0.00230643 0.0182466 0.0008 3.43146e-06 3.88111e-13 1.72847e-13 -2.64266e-12 5.29939e-10 1.27104e-09 9.08726e-10 -3.62889e-15 1.86113e-15 -5.6516e-15 0 0 0 0 0 0 0 0
988 1 -0.00220144 -0.00166287 0.0151333 0.0008 3.43146e-06 6.43168e-13 4.6984e-13 1.00513e-12 -2.24003e-09 1.45584e-09 7.09076e-10 2.29167e-15 -3.45192e-15 2.88922e-17 0 0 0 0 0 0 0 0
989 1 -0.00235759 -0.00312978 0.0177143 0.0008 3.43146e-06 -9.21166e-13 8.80408e-13 -7.78607e-13 -2.51593e-11 -2.73479e-09 3.08163e-09 1.59431e-15 1.27278e-15 2.45566e-15 0 0 0 0 0 0 0 0
990 1 0.000965376 -0.00212452 0.0180124 0.0008 3.43146e-06 -2.71121e-13 7.54741e-13 -2.39782e-13 -1.895e-09 1.25163e-10 2.11733e-10 4.68998e-17 5.21701e-17 1.08465e-15 0 0 0 0 0 0 0 0
991 1 0.00431196 -0.00243343 0.0155535 0.0008 3.43146e-06 -1.98035e-12 8.43997e-13 7.23535e-13 -1.68581e-09 -2.80775e-09 3.42329e-09 1.59852e-15 -3.19311e-15 7.68866e-16 0 0 0 0 0 0 0 0
992 1 0.00449868 0.000847977 0.0183252 0.0008 3.43146e-06 2.07513e-12 -1.12432e-14 -1.22043e-13 1.42332e-09 -9.2813e-10 1.38709e-10 -1.52939e-15 1.15112e-16 8.00671e-16 0 0 0 0 0 0 0 0
993 1 0.00535883 -0.00480721 0.0140389 0.0008 3.43146e-06 -2.16732e-12 -1.34649e-12 -4.09422e-12 -1.30282e-09 2.31961e-09 -2.72556e-10 1.47662e-16 1.44607e-15 -1.8292e-15 0 0 0 0 0 0 0 0
994 1 0.00104813 0.00238287 0.0143236 0.0008 3.43146e-06 5.41932e-13 -1.08378e-12 1.08147e-12 -1.63703e-09 -1.75665e-09 -1.01997e-09 4.39787e-16 -9.61033e-16 2.79696e-16 0 0 0 0 0 0 0 0
995 1 -0.00717748 0.00057179 0.0190633 0.0008 3.43146e-06 -3.82289e-14 -5.12577e-14 7.35437e-13 -4.4819e-09 -5.60808e-10 -5.59358e-11 -3.59773e-15 8.7818e-17 -2.59604e-15 1 0.000214637 -4.50027e-06 -2.19118e-06 -0.00797473 0.000635303 0.0190633 0.0008
996 1 -0.00212414 0.0002568 0.0167208 0.0008 3.43146e-06 1.05782e-12 -1.3659e-13 -5.57173e-13 2.11028e-09 -2.01052e-09 -7.24296e-10 2.15065e-15 1.64689e-15 -2.16969e-16 0 0 0 0 0 0 0 0
997 1 -0.00284897 0.0049811 0.0196729 0.0008 3.43146e-06 -1.08368e-12 -3.2107e-13 4.5349e-13 -3.38566e-09 5.73138e-09 -2.32047e-09 6.16488e-16 -1.58172e-15 3.61722e-15 0 0 0 0 0 0 0 0
998 1 0.00577426 0.000402381 0.0174688 0.0008 3.43146e-06 -1.58513e-12 -1.27285e-13 1.13517e-12 7.80643e-10 1.24306e-09 -3.34263e-09 -1.4468e-15 2.99111e-16 7.25088e-16 0 0 0 0 0 0 0 0
999 1 -0.0025427 -0.00192974 0.016673 0.0008 3.43146e-06 1.70532e-13 5.41916e-13 9.61479e-13 2.01389e-09 -2.0296e-09 -5.4984e-10 3.23695e-15 1.30485e-17 2.73697e-19 0 0 0 0 0 0 0 0
1000 1 9.77188e-05 0.00419926 0.0179933 0.0008 3.43146e-06 3.0438e-14 -2.16793e-12 2.6909e-12 1.57541e-09 1.42274e-11 2.54301e-10 1.66846e-16 -1.60236e-15 7.9739e-15 0 0 0 0 0 0 0 0
1001 1 0.00268255 -0.0066817 0.0151895 0.0008 3.43146e-06 -3.96331e-13 6.56997e-13 -7.81301e-13 -1.4596e-09 8.29096e-10 1.1869e-10 3.26753e-15 -2.95243e-15 -4.86252e-16 1 -1.0621e-05 4.95708e-05 2.82458e-07 0.00298058 -0.00742403 0.0151895 0.0008
1002 1 0.000976146 -0.00573352 0.0167951 0.0008 3.43146e-06 -6.8895e-14 -2.03736e-12 -1.12859e-12 -5.59216e-10 4.85624e-11 -1.84834e-10 5.43101e-16 -3.45125e-17 2.66942e-15 0 0 0 0 0 0 0 0
1003 1 0.0057914 -0.00128591 0.0174231 0.0008 3.43146e-06 -2.16731e-12 -5.41434e-13 -3.24848e-12 -3.64782e-10 -1.33123e-09 4.93223e-10 -1.9836e-16 2.43016e-16 7.26615e-16 0 0 0 0 0 0 0 0
1004 1 -0.000597952 0.000113699 0.0171778 0.0008 3.43146e-06 2.70953e-13 -1.17183e-13 8.72923e-13 7.11571e-10 -3.44386e-10 1.58133e-09 2.96666e-16 2.40754e-15 8.7856e-16 0 0 0 0 0 0 0 0
1005 1 0.00516026 -0.00265676 0.0168926 0.0008 3.43146e-06 -2.12932e-12 -1.01071e-12 -8.55078e-13 -4.65969e-09 -2.40227e-09 -2.05361e-09 -2.10842e-15 -7.06456e-16 3.14623e-15 0 0 0 0 0 0 0 0
1006 1 0.00597187 -0.00184782 0.019618 0.0008 3.43146e-06 8.84375e-13 -4.14718e-13 -3.04376e-12 3.51359e-10 8.56774e-10 1.79693e-10 -2.17843e-15 1.82911e-15 -1.23196e-15 0 0 0 0 0 0 0 0
1007 1 0.00477353 0.00324942 0.0176226 0.0008 3.43146e-06 1.85621e-12 -1.08316e-12 3.41095e-12 7.05519e-10 -1.42169e-09 7.95855e-10 -7.33381e-16 6.49389e-17 8.91116e-16 0 0 0 0 0 0 0 0
1008 1 0.00717808 0.000562632 0.0162698 0.0008 3.43146e-06 6.27518e-16 2.7149e-13 2.65425e-12 6.64781e-10 3.4158e-09 -3.7233e-10 -2.30966e-15 -1.32786e-15 2.83206e-15 1 -6.30576e-05 -6.63707e-06 -2.40988e-05 0.00797554 0.000625139 0.0162698 0.0008
1009 1 -0.00339442 0.00095678 0.0173958 0.0008 3.43146e-06 -1.03007e-12 2.51239e-13 -1.55715e-12 -6.00783e-10 -1.10795e-09 2.60054e-10 1.85168e-16 1.0536e-15 -3.51272e-15 0 0 0 0 0 0 0 0
1010 1 0.00719537 0.000261847 0.0192186 0.0008 3.43146e-06 1.89916e-12 -1.33757e-13 -1.52702e-12 9.83355e-10 -1.91788e-09 2.73117e-10 -1.64102e-16 -8.60892e-18 -4.23021e-16 1 -9.99154e-05 -1.99614e-05 5.70623e-06 0.00799471 0.000290935 0.0192186 0.0008
1011 1 -0.00560621 0.00245681 0.0151011 0.0008 3.43146e-06 -7.0854e-13 -1.66021e-13 1.87329e-12 -5.61026e-10 1.01879e-09 -1.28066e-09 -2.1541e-16 -1.5561e-15 1.37534e-15 0 0 0 0 0 0 0 0
1012 1 -0.00132391 0.000403244 0.0195324 0.0008 3.43146e-06 -5.41742e-13 -4.66514e-14 5.94115e-13 1.10017e-09 2.00077e-09 -2.75648e-10 -2.06486e-16 1.25864e-15 1.09528e-15 0 0 0 0 0 0 0 0
1013 1 0.00540138 -0.00475605 0.0193046 0.0008 3.43146e-06 -1.51759e-12 1.98094e-12 4.86708e-13 2.83899e-09 2.19561e-10 6.1347e-09 1.88664e-15 -5.72409e-17 4.33656e-16 0 0 0 0 0 0 0 0
1014 1 0.000593761 0.00610098 0.0194782 0.0008 3.43146e-06 4.57574e-13 -1.25627e-12 -2.077e-12 -1.11515e-09 -1.18638e-09 -1.57014e-09 1.08879e-14 2.48483e-15 -6.08717e-15 0 0 0 0 0 0 0 0
1015 1 -0.00532911 -0.00484225 0.0195632 0.0008 3.43146e-06 1.778e-12 1.92632e-12 1.30159e-13 3.40276e-09 2.9106e-09 2.56139e-10 -2.48397e-15 -2.2751e-15 1.12652e-15 1 0.000499372 0.000479608 6.05522e-05 -0.00592085 -0.00537992 0.0195632 0.0008
1016 1 0.000254454 0.000265903 0.0193108 0.0008 3.43146e-06 -3.92565e-13 -1.00517e-13 -4.64584e-13 1.6453e-10 -8.66505e-10 -2.48455e-11 2.13385e-15 3.8504e-15 1.09381e-15 0 0 0 0 0 0 0 0
1017 1 0.0026027 0.00250047 0.0169035 0.0008 3.43146e-06 9.88405e-13 -1.08397e-12 8.71979e-13 3.27391e-11 3.14852e-10 2.10331e-10 7.73943e-16 1.86978e-16 -4.45857e-17 0 0 0 0 0 0 0 0
1018 1 -0.00705307 0.00144808 0.0169755 0.0008 3.43146e-06 1.72063e-13 -5.41846e-13 2.15146e-14 2.81745e-09 -6.06264e-10 -6.1445e-10 -4.88162e-16 -4.05839e-16 6.26598e-16 1 0.000169931 -2.5099e-05 2.6569e-05 -0.00783654 0.00160894 0.0169755 0.0008
1019 1 -0.000717001 -0.00575156 0.0198045 0.0008 3.43146e-06 2.69488e-13 2.12995e-12 3.00664e-12 -3.9171e-09 1.11256e-08 6.34796e-10 -3.26472e-16 2.58246e-15 -7.07525e-15 0 0 0 0 0 0 0 0
1020 1 -0.00438208 -0.0057133 0.0172349 0.0008 3.43146e-06 -2.05374e-12 -2.16798e-12 7.89433e-13 -1.5362e-09 -3.61966e-09 3.7474e-10 -4.62446e-16 -1.10876e-15 -5.3271e-15 1 0.000195546 0.000292749 -3.4638e-06 -0.00486877 -0.00634784 0.0172349 0.0008
1021 1 -0.00124622 -0.0026031 0.0160216 0.0008 3.43146e-06 5.41528e-13 8.10912e-13 1.38889e-12 5.8532e-10 -7.55966e-11 -3.60851e-10 -3.15867e-16 2.77012e-15 1.91063e-15 0 0 0 0 0 0 0 0
1022 1 0.00274588 0.00386034 0.0191358 0.0008 3.43146e-06 -2.63261e-13 9.77152e-13 1.46483e-13 -1.63019e-09 -1.06461e-09 8.39997e-10 5.98264e-15 -2.25901e-16 -1.70125e-15 0 0 0 0 0 0 0 0
1023 1 0.00490337 -0.00284035 0.02216 0.0008 3.43146e-06 -2.11991e-12 7.20844e-13 -1.77169e-12 1.01457e-11 1.12824e-09 1.86228e-09 4.62584e-16 -7.99673e-16 -4.32143e-15 0 0 0 0 0 0 0 0
1024 1 0.00272981 0.0050601 0.0215904 0.0008 3.43146e-06 2.80436e-13 -2.40967e-14 5.96204e-13 4.7365e-09 1.6856e-09 -1.32572e-09 -1.64715e-15 -3.45074e-15 -1.79839e-15 0 0 0 0 0 0 0 0
1025 1 0.00261933 -0.00365027 0.0192921 0.0008 3.43146e-06 -9.05252e-13 9.64812e-13 2.29492e-14 -2.2618e-09 -1.46953e-09 6.96717e-10 3.60631e-16 -2.71792e-15 -8.00707e-17 0 0 0 0 0 0 0 0
1026 1 -0.000512613 0.00357398 0.0193332 0.0008 3.43146e-06 2.51997e-13 -1.0841e-12 5.13407e-15 -7.25438e-10 -4.85709e-10 -1.81917e-09 -7.91916e-16 8.56931e-16 3.28894e-15 0 0 0 0 0 0 0 0
1027 1 0.000608688 -0.00717475 0.0208462 0.0008 3.43146e-06 -2.71144e-13 9.22648e-13 -2.30102e-12 -3.14977e-09 2.70709e-09 3.77394e-10 -1.7039e-16 1.16151e-15 1.38909e-15 1 -9.67979e-05 0.000788755 0.000117722 0.000676271 -0.00797136 0.0208462 0.0008
1028 1 -0.00189122 0.00562569 0.0207797 0.0008 3.43146e-06 -3.71263e-13 -2.16676e-12 -4.20434e-12 3.49891e-09 -1.10054e-09 1.46162e-09 -5.66768e-15 -6.31338e-16 -1.87552e-15 0 0 0 0 0 0 0 0
1029 1 0.00285782 0.00148879 0.0238791 0.0008 3.43146e-06 4.2272e-13 5.41762e-13 -2.2775e-12 5.5155e-09 -3.07985e-10 -1.96769e-09 1.30002e-15 1.90759e-16 1.35114e-15 0 0 0 0 0 0 0 0
1030 1 0.00353431 0.00199433 0.0211421 0.0008 3.43146e-06 8.82371e-13 2.44221e-13 4.89713e-13 2.06128e-09 -4.70061e-10 6.33095e-10 1.29374e-15 -1.47098e-15 -4.41097e-17 0 0 0 0 0 0 0 0
1031 1 0.00012764 -0.00457654 0.0210302 0.0008 3.43146e-06 -6.43846e-14 -5.27704e-13 1.39507e-12 -3.41969e-09 2.73151e-10 -4.02734e-10 -1.02467e-15 7.26427e-17 2.50118e-16 0 0 0 0 0 0 0 0
1032 1 -0.00585889 0.000903834 0.0215371 0.0008 3.43146e-06 -2.16808e-12 1.60863e-13 1.76674e-12 -2.36512e-09 2.03953e-09 -1.07585e-10 -4.72109e-17 4.10526e-16 -6.0981e-15 0 0 0 0 0 0 0 0
1033 1 -0.001709 -0.00580758 0.0217065 0.0008 3.43146e-06 -5.05493e-13 2.15199e-12 -2.14054e-12 2.29271e-10 1.86494e-10 -6.34788e-11 -1.21093e-15 -6.5802e-16 -8.57312e-16 0 0 0 0 0 0 0 0
1034 1 0.00042803 -0.00306481 0.020301 0.0008 3.43146e-06 -2.22284e-13 -1.08392e-12 1.26235e-12 3.52038e-11 -8.20349e-10 -1.44644e-09 -2.81793e-16 2.98304e-19 -3.34146e-15 0 0 0 0 0 0 0 0
1035 1 -0.00192743 0.00398944 0.0205249 0.0008 3.43146e-06 2.04162e-13 -7.59548e-13 1.90929e-12 -3.8753e-09 9.32514e-10 -2.80704e-09 -1.09001e-15 1.91618e-15 -3.44014e-15 0 0 0 0 0 0 0 0
1036 1 0.00601059 -0.00396398 0.0215269 0.0008 3.43146e-06 1.26854e-12 -2.55433e-13 1.5222e-12 9.97294e-10 1.63713e-09 -5.76453e-10 -1.61709e-16 -4.61394e-16 4.47439e-16 1 -7.21861e-06 4.5951e-06 -1.43576e-06 0.00667841 -0.00440441 0.0215269 0.0008
1037 1 -0.00567951 0.00021499 0.0229801 0.0008 3.43146e-06 -1.3133e-12 6.65467e-14 -3.96368e-12 -3.89171e-09 5.82555e-09 -5.22103e-10 -8.19499e-16 -3.80923e-16 -2.8417e-15 0 0 0 0 0 0 0 0
1038 1 -0.000925054 -0.00224652 0.023317 0.0008 3.43146e-06 -1.35721e-13 6.66512e-13 1.75772e-12 -4.01412e-09 1.00355e-09 -6.67462e-10 4.0609e-15 5.2924e-15 -5.54502e-15 0 0 0 0 0 0 0 0
1039 1 -0.000538015 0.00544593 0.0216134 0.0008 3.43146e-06 -6.09365e-14 -1.9645e-12 -1.93121e-12 -7.89169e-10 -1.5434e-09 7.14398e-10 -2.16965e-15 2.05204e-16 -2.81199e-15 0 0 0 0 0 0 0 0
1040 1 -0.00354612 -0.00128577 0.0230816 0.0008 3.43146e-06 -9.65155e-13 4.1936e-13 7.72087e-13 6.96114e-10 2.6905e-10 -1.12688e-10 3.38263e-15 1.04303e-15 -4.94918e-16 0 0 0 0 0 0 0 0
1041 1 -0.00383969 0.00118365 0.0211585 0.0008 3.43146e-06 -1.08409e-12 -5.40269e-13 -6.98611e-13 -6.68783e-10 -3.61705e-10 9.73301e-10 4.60795e-16 -5.68008e-16 4.99056e-15 0 0 0 0 0 0 0 0
1042 1 -0.00694679 -0.0018935 0.0171504 0.0008 3.43146e-06 -7.04814e-14 5.41958e-13 2.15855e-12 3.80712e-10 -2.70135e-09 7.39284e-10 4.15769e-16 -7.50706e-17 8.96083e-16 1 0.000212481 5.8626e-05 6.51929e-05 -0.00771842 -0.00210382 0.0171504 0.0008
1043 1 -0.00375161 -0.000910962 0.02037 0.0008 3.43146e-06 -4.07838e-13 -2.47059e-13 4.25084e-12 4.39556e-10 5.14769e-09 -8.41385e-10 -7.41234e-18 3.49743e-15 -8.47575e-15 0 0 0 0 0 0 0 0
1044 1 0.00717752 0.000574109 0.0227465 0.0008 3.43146e-06 -5.09227e-13 -2.39114e-13 -2.94583e-12 6.75823e-11 -3.66716e-09 2.39211e-10 4.36976e-16 1.10804e-15 6.78742e-16 1 -0.00062472 -4.09334e-05 9.74911e-05 0.00797453 0.000637859 0.0227465 0.0008
1045 1 0.003239 -0.00643037 0.0230548 0.0008 3.43146e-06 -9.98944e-13 1.92487e-12 -8.12899e-13 -1.04244e-09 -1.39742e-10 5.54655e-11 8.33634e-17 7.78896e-16 -1.38858e-15 1 -1.24595e-05 2.32575e-05 3.38647e-06 0.00359887 -0.0071448 0.0230548 0.0008
1046 1 0.00161615 0.0036564 0.0220403 0.0008 3.43146e-06 2.57748e-13 1.08407e-12 -1.93913e-12 -1.73753e-09 1.1662e-10 2.28652e-09 2.73223e-15 4.47301e-16 1.58763e-15 0 0 0 0 0 0 0 0
1047 1 -0.0054089 -0.00191643 0.0204609 0.0008 3.43146e-06 -1.62751e-12 5.4192e-13 7.33107e-14 2.96077e-09 1.30393e-09 8.46449e-11 2.78729e-16 -7.85108e-16 -3.71616e-15 0 0 0 0 0 0 0 0
1048 1 -0.00642973 -0.00324038 0.0216522 0.0008 3.43146e-06 -2.30988e-13 -9.45365e-13 7.01691e-13 -1.27113e-09 -1.52456e-09 -9.23367e-10 2.94177e-15 -4.22448e-16 -2.07839e-16 1 6.39566e-05 3.42321e-05 1.30012e-05 -0.00714404 -0.00360036 0.0216522 0.0008
1049 1 0.00339716 -0.00634844 0.0202577 0.0008 3.43146e-06 -8.00275e-13 1.05362e-12 -1.203e-12 -1.84762e-09 2.24251e-10 2.31384e-10 1.02513e-15 -2.37113e-16 6.61977e-17 1 -0.000132276 0.000200781 -8.71415e-08 0.0037745 -0.00705359 0.0202577 0.0008
1050 1 -0.00315127 -0.00478713 0.0212321 0.0008 3.43146e-06 4.27581e-13 2.16518e-12 3.33921e-12 5.32169e-10 1.72557e-09 -1.6393e-09 -3.10013e-15 -2.64683e-16 -2.78353e-15 0 0 0 0 0 0 0 0
1051 1 -0.00538233 0.0031824 0.0214561 0.0008 3.43146e-06 -1.9421e-12 -1.19482e-13 -3.48531e-13 -8.19815e-10 2.18363e-09 2.43988e-10 -6.60864e-16 2.3484e-16 -1.86789e-15 0 0 0 0 0 0 0 0
1052 1 0.00119594 0.000912787 0.0214389 0.0008 3.43146e-06 -5.42051e-13 2.71053e-13 -7.04468e-13 -6.43682e-10 -4.09556e-10 8.75978e-10 5.73653e-16 6.40762e-16 4.41757e-15 0 0 0 0 0 0 0 0
1053 1 0.0060927 0.00287335 0.0203068 0.0008 3.43146e-06 1.81098e-12 -7.81117e-13 -1.13462e-13 3.85798e-10 -1.87193e-09 -2.64204e-09 3.19739e-15 -9.41384e-16 -1.00765e-15 0 0 0 0 0 0 0 0
1054 1 -0.00106272 0.00264178 0.0205109 0.0008 3.43146e-06 -4.76331e-13 -1.9058e-13 -2.47975e-13 4.80815e-11 -3.64985e-10 8.24255e-10 1.14217e-15 -1.41668e-15 1.8041e-15 0 0 0 0 0 0 0 0
1055 1 -0.000928455 -0.00714 0.0212883 0.0008 3.43146e-06 -5.90655e-14 1.53308e-12 -1.0641e-12 -1.50846e-09 -1.05418e-09 2.17311e-10 -8.38961e-16 4.68026e-17 -7.21719e-16 1 1.63967e-05 7.60739e-05 1.21022e-05 -0.0010316 -0.00793321 0.0212883 0.0008
1056 1 -0.00394704 -0.000343197 0.0218527 0.0008 3.43146e-06 2.1683e-12 2.53984e-13 -3.29445e-12 -4.03346e-09 -4.15153e-09 -2.66615e-09 9.06866e-16 6.39733e-15 -5.45963e-15 0 0 0 0 0 0 0 0
1057 1 0.00105281 -0.00644073 0.0186889 0.0008 3.43146e-06 -5.42026e-13 1.11797e-12 -1.0424e-12 -3.40468e-09 -3.0559e-09 -2.40523e-09 -4.25926e-17 4.61901e-16 3.06836e-15 0 0 0 0 0 0 0 0
1058 1 0.00196414 -0.00294979 0.0208982 0.0008 3.43146e-06 -1.08396e-12 1.07508e-12 -1.34182e-13 -2.54177e-09 -6.59999e-10 -2.47855e-10 2.05205e-16 4.10811e-16 2.70174e-15 0 0 0 0 0 0 0 0
1059 1 0.00219005 -0.00358937 0.0230969 0.0008 3.43146e-06 -4.65816e-13 -1.01364e-12 -1.45323e-12 -1.36196e-09 5.15964e-10 -9.82078e-10 3.6917e-15 -4.60465e-16 4.40464e-15 0 0 0 0 0 0 0 0
1060 1 -0.00169916 0.006997 0.0215804 0.0008 3.43146e-06 -3.10778e-13 -1.24863e-12 -4.05262e-13 1.12144e-10 1.62022e-09 -7.3401e-10 -2.08455e-15 4.15111e-15 -2.81239e-15 1 2.2427e-05 -0.000463005 -5.68605e-05 -0.00188786 0.00777406 0.0215804 0.0008
1061 1 -0.000586014 0.00656474 0.0204714 0.0008 3.43146e-06 -3.17343e-13 -1.43555e-12 -3.64136e-12 -2.79035e-10 -3.83389e-10 1.685e-09 -2.28829e-15 -8.31874e-16 5.87219e-15 0 0 0 0 0 0 0 0
1062 1 0.00174627 0.00169832 0.01845 0.0008 3.43146e-06 5.40916e-13 5.40129e-14 1.39056e-12 -7.22779e-11 1.04964e-09 7.37534e-10 4.83561e-16 2.48744e-15 1.56594e-15 0 0 0 0 0 0 0 0
1063 1 -0.00675696 -0.00248777 0.0230252 0.0008 3.43146e-06 -1.49937e-12 -2.13707e-13 6.0015e-13 6.66845e-10 -5.53559e-10 3.49874e-10 1.40151e-15 8.17385e-16 1.52269e-15 1 0.000484369 0.000124764 2.59119e-05 -0.00750734 -0.00276404 0.0230252 0.0008
1064 1 0.00431618 -0.00576333 0.0242537 0.0008 3.43146e-06 3.90102e-13 -8.14529e-13 9.36808e-13 7.43486e-10 9.61457e-10 2.33964e-10 7.42621e-16 2.85529e-17 1.18897e-15 1 -0.000274013 0.000405351 9.65772e-05 0.00479551 -0.00640336 0.0242537 0.0008
1065 1 -0.0021072 -0.000623175 0.0228568 0.0008 3.43146e-06 7.87033e-13 -2.69583e-13 1.60655e-12 1.08156e-11 3.23812e-09 1.61282e-09 -3.82188e-15 -8.06662e-16 -5.53015e-15 0 0 0 0 0 0 0 0
1066 1 -0.00450682 0.00509111 0.0238768 0.0008 3.43146e-06 -8.2378e-13 5.3672e-13 -5.89115e-13 -8.37039e-10 -1.99332e-09 -1.98924e-09 1.09509e-15 1.52659e-15 -1.03812e-15 0 0 0 0 0 0 0 0
1067 1 -0.00112119 -0.000978928 0.020312 0.0008 3.43146e-06 1.27214e-13 3.73429e-13 -8.30349e-14 -8.13921e-10 -2.39946e-10 4.25736e-10 1.73728e-15 -2.43406e-15 -4.02321e-16 0 0 0 0 0 0 0 0
1068 1 0.00378541 0.00520833 0.0228702 0.0008 3.43146e-06 -2.36713e-15 1.28802e-12 -7.15866e-13 -3.20301e-09 -8.10034e-11 3.30212e-09 -1.23717e-15 2.48893e-15 -2.73916e-15 0 0 0 0 0 0 0 0
1069 1 -0.00184424 0.0018527 0.021662 0.0008 3.43146e-06 -5.41822e-13 -5.42091e-13 2.12186e-13 -6.19333e-10 -1.57578e-10 3.57249e-10 -4.54056e-16 3.20648e-16 8.59531e-17 0 0 0 0 0 0 0 0
1070 1 0.00306429 -0.0043625 0.0218679 0.0008 3.43146e-06 -9.1653e-13 5.34208e-13 -8.3173e-13 1.81057e-09 -2.74155e-10 -9.92996e-10 9.68978e-16 -1.01045e-16 1.74447e-16 0 0 0 0 0 0 0 0
1071 1 0.00550174 0.00275722 0.0227598 0.0008 3.43146e-06 1.99308e-12 3.65312e-13 9.11822e-13 1.21306e-09 2.74942e-09 -4.75835e-13 2.58588e-15 2.21301e-15 -3.18321e-15 0 0 0 0 0 0 0 0
1072 1 -0.00689963 0.00205909 0.0219141 0.0008 3.43146e-06 -4.32364e-13 -4.25484e-13 7.7094e-13 7.22261e-10 -1.21714e-09 -6.13985e-10 1.16762e-15 3.34151e-17 1.81561e-16 1 0.000383388 -0.000135022 8.00749e-05 -0.00766591 0.00228777 0.0219141 0.0008
1073 1 0.00114281 -0.00374934 0.0186843 0.0008 3.43146e-06 -5.41271e-13 4.36745e-13 -3.38642e-13 -8.55455e-10 7.20215e-10 -1.24833e-09 -1.37914e-15 -4.33527e-15 2.41848e-15 0 0 0 0 0 0 0 0
1074 1 -0.00221647 0.00365538 0.0239223 0.0008 3.43146e-06 1.08162e-12 5.20213e-13 -2.81249e-12 -4.83885e-09 2.76055e-09 4.87549e-09 1.53975e-16 2.26816e-15 9.06405e-16 0 0 0 0 0 0 0 0
1075 1 0.00232905 0.00540467 0.019151 0.0008 3.43146e-06 1.19456e-13 -1.57049e-12 -8.65665e-13 1.67691e-10 2.07313e-09 -3.40249e-10 4.90417e-15 -3.79307e-15 2.02419e-16 0 0 0 0 0 0 0 0
1076 1 0.00170474 0.00576487 0.0205792 0.0008 3.43146e-06 5.4518e-13 -7.0356e-13 8.6449e-13 -1.28192e-09 -6.41402e-10 1.12478e-09 6.47132e-16 -2.20371e-15 -1.75778e-15 0 0 0 0 0 0 0 0
1077 1 0.00387974 -0.00477458 0.0198474 0.0008 3.43146e-06 -1.03947e-12 -1.57261e-12 7.4855e-13 1.23449e-10 -3.18801e-09 -9.77352e-10 6.7055e-16 -7.7549e-16 9.78626e-16 0 0 0 0 0 0 0 0
1078 1 -0.00386216 -0.00429269 0.0198868 0.0008 3.43146e-06 -1.08242e-12 2.16625e-12 -6.51249e-13 -2.40597e-09 -2.19231e-09 1.58682e-09 -5.82156e-17 4.41724e-16 1.13118e-15 0 0 0 0 0 0 0 0
1079 1 0.00189031 -0.00222254 0.0223211 0.0008 3.43146e-06 -4.11119e-13 1.06494e-12 -1.76025e-12 1.58405e-09 1.16294e-09 -4.3444e-10 -5.04843e-16 1.38146e-15 2.15504e-15 0 0 0 0 0 0 0 0
1080 1 -0.000266795 0.00264199 0.0180562 0.0008 3.43146e-06 -2.77791e-13 -1.07935e-12 -7.10145e-13 1.51788e-09 -3.07502e-10 -4.65514e-10 -1.46073e-15 6.43869e-16 2.45981e-16 0 0 0 0 0 0 0 0
1081 1 0.00392735 0.00148071 0.0196789 0.0008 3.43146e-06 2.16726e-12 -4.74252e-13 -2.27903e-12 -1.46694e-09 -5.53735e-10 -1.14908e-09 3.43911e-16 -4.0638e-15 3.14533e-15 0 0 0 0 0 0 0 0
1082 1 0.0025194 -0.00116938 0.0212942 0.0008 3.43146e-06 -1.08419e-12 2.11289e-13 -1.03817e-12 -9.91497e-10 1.00858e-10 -3.15277e-10 -1.00195e-16 -8.76953e-16 9.76829e-16 0 0 0 0 0 0 0 0
1083 1 0.000365499 0.00451121 0.0225543 0.0008 3.43146e-06 -1.35471e-13 9.60086e-13 -1.12792e-12 -2.20296e-10 2.21757e-09 -8.0459e-10 4.42327e-16 5.4865e-15 -1.01127e-15 0 0 0 0 0 0 0 0
1084 1 0.0048339 0.00291514 0.0212934 0.0008 3.43146e-06 7.71341e-13 2.28945e-13 1.02058e-12 1.34087e-09 2.23332e-09 -2.10298e-10 1.02231e-15 -1.27387e-15 -2.30647e-15 0 0 0 0 0 0 0 0
1085 1 0.00306663 0.00119337 0.0177012 0.0008 3.43146e-06 9.75994e-13 4.20695e-13 -3.54035e-13 2.53962e-10 8.04764e-10 1.52849e-10 -8.79069e-16 3.53031e-15 3.79119e-16 0 0 0 0 0 0 0 0
1086 1 -0.0022718 -0.00528481 0.0199922 0.0008 3.43146e-06 3.99581e-14 2.16588e-12 3.54246e-13 7.2552e-10 6.77125e-10 1.36323e-09 -1.04292e-15 -4.69713e-16 -1.71698e-15 0 0 0 0 0 0 0 0
1087 1 0.00145363 -0.00428685 0.0201834 0.0008 3.43146e-06 -5.31134e-13 -3.58913e-13 1.12934e-13 1.73559e-09 1.0261e-09 1.7366e-09 2.04015e-16 -5.06813e-15 -3.0612e-15 0 0 0 0 0 0 0 0
1088 1 -0.00713645 -0.000956668 0.022759 0.0008 3.43146e-06 -1.7624e-12 -4.65604e-14 3.39633e-13 -6.59455e-10 -4.6694e-10 1.73657e-10 -7.9091e-16 2.61913e-16 1.82447e-16 1 0.000322502 5.42126e-06 2.12655e-05 -0.00792907 -0.00106292 0.022759 0.0008
1089 1 0.000649363 0.00577222 0.0236614 0.0008 3.43146e-06 1.98985e-13 -1.16629e-13 2.05459e-12 -3.11146e-09 1.85864e-09 -2.1442e-10 -3.07849e-16 -2.93009e-15 2.16154e-15 0 0 0 0 0 0 0 0
1090 1 -0.00399762 -0.00367155 0.0183466 0.0008 3.43146e-06 -9.06441e-14 -9.58579e-13 1.16245e-12 -2.94516e-09 2.5517e-09 -2.49803e-09 -2.49453e-15 5.4059e-15 -3.05651e-15 0 0 0 0 0 0 0 0
1091 1 -0.000176357 0.000252182 0.0208513 0.0008 3.43146e-06 -2.48708e-13 1.08679e-13 -2.79581e-13 -7.70904e-10 1.09867e-09 1.3405e-09 1.61585e-15 5.07321e-15 8.58919e-17 0 0 0 0 0 0 0 0
1092 1 0.0022186 -0.00107841 0.02339 0.0008 3.43146e-06 -1.07547e-12 -3.81607e-13 -1.31019e-12 4.14361e-10 -9.98366e-10 1.1441e-09 -4.11039e-15 9.02494e-16 1.45706e-17 0 0 0 0 0 0 0 0
1093 1 0.00418627 0.00445056 0.0187669 0.0008 3.43146e-06 -6.44934e-13 4.74649e-14 2.80109e-13 -3.46934e-09 -9.65529e-10 -4.76761e-10 8.52045e-16 -6.2495e-16 -1.56194e-15 0 0 0 0 0 0 0 0
1094 1 -0.00718762 -0.000424769 0.0177374 0.0008 3.43146e-06 -2.05787e-12 -1.35329e-13 2.28176e-12 8.41847e-10 -2.75432e-09 -4.24287e-11 5.76848e-16 -2.65655e-16 9.30997e-17 1 0.000141403 2.73004e-06 5.11258e-06 -0.00798607 -0.000471955 0.0177374 0.0008
1095 1 0.00656522 0.00032914 0.0210186 0.0008 3.43146e-06 2.16676e-12 -1.33959e-13 -1.90772e-13 1.70914e-09 6.03622e-09 -1.9945e-09 1.05502e-16 -6.72176e-17 2.4569e-16 0 0 0 0 0 0 0 0
1096 1 -0.00292893 0.00657792 0.0225139 0.0008 3.43146e-06 6.53716e-13 -1.99373e-12 -2.25604e-12 3.86947e-09 -1.79961e-09 -2.73499e-10 2.17442e-15 -1.1272e-15 -3.80303e-15 1 0.000223613 -0.000811668 7.87474e-05 -0.00325413 0.00730826 0.0225139 0.0008
1097 1 -0.00334019 0.000485053 0.0189232 0.0008 3.43146e-06 -1.08361e-12 3.56597e-14 5.16577e-13 7.55395e-12 7.12571e-10 7.99915e-10 3.65516e-16 2.07606e-15 -1.45993e-15 0 0 0 0 0 0 0 0
1098 1 0.00677975 -0.00242438 0.0225829 0.0008 3.43146e-06 -1.38146e-13 -1.54222e-13 -1.19955e-12 -2.16348e-09 -8.18034e-10 2.3845e-10 1.25695e-16 4.11804e-16 4.73892e-16 1 -0.000151369 4.89818e-05 1.71744e-06 0.00753286 -0.00269369 0.0225829 0.0008
1099 1 0.00484156 -0.00228774 0.0206602 0.0008 3.43146e-06 -1.52564e-12 -5.00643e-13 -2.36895e-12 -1.55502e-09 -2.63065e-09 5.42838e-11 -4.57823e-15 2.84059e-15 -1.48136e-16 0 0 0 0 0 0 0 0
1100 1 -0.00647838 -0.00314356 0.0200564 0.0008 3.43146e-06 7.99053e-14 -1.08284e-12 -5.24894e-13 9.55596e-10 1.18608e-09 -1.26605e-09 2.16358e-15 5.8403e-16 -1.04175e-15 1 0.00129695 0.000753721 0.000102084 -0.00719741 -0.00349246 0.0200564 0.0008
1101 1 -0.00306798 -0.00651409 0.017745 0.0008 3.43146e-06 1.89885e-13 -3.55739e-13 8.51465e-13 2.51538e-10 -2.01274e-09 -3.94421e-10 -8.8435e-16 -1.91518e-16 2.57064e-16 1 0.000123645 0.000546421 6.58968e-05 -0.00340867 -0.00723747 0.017745 0.0008
1102 1 0.00313552 0.0064817 0.020476 0.0008 3.43146e-06 -1.0831e-12 -4.31616e-13 -8.62956e-13 6.43695e-10 -1.2634e-09 -9.97549e-10 1.79628e-17 -7.76129e-16 -2.52823e-16 1 -0.000143076 -0.000255546 8.99383e-05 0.00348378 0.00720162 0.020476 0.0008
1103 1 -0.000209666 -0.000948675 0.0183092 0.0008 3.43146e-06 -4.95197e-14 -6.78756e-14 -5.83057e-13 1.65456e-09 -2.70947e-09 1.57411e-09 1.05654e-15 -3.47999e-15 2.82998e-15 0 0 0 0 0 0 0 0
1104 1 -0.0028777 -0.00660002 0.0209546 0.0008 3.43146e-06 5.52839e-13 2.16766e-12 -1.07629e-12 -1.34096e-09 -1.81701e-10 3.87301e-10 -2.142e-15 1.48969e-16 8.68141e-16 1 3.82422e-05 5.34705e-05 1.46367e-05 -0.0031974 -0.00733326 0.0209546 0.0008
1105 1 0.00385185 0.00608323 0.0242077 0.0008 3.43146e-06 1.08372e-12 1.11204e-12 -7.9463e-13 3.57944e-09 4.16603e-09 4.58788e-10 5.62102e-16 1.06963e-15 -3.78682e-16 1 -9.73949e-05 -0.000111355 1.77581e-05 0.00427973 0.00675898 0.0242077 0.0008
1106 1 -0.00607904 0.00236816 0.017849 0.0008 3.43146e-06 -1.0535e-12 -7.96945e-13 -4.42414e-13 -1.17199e-09 1.82347e-09 2.9416e-09 -3.7384e-15 -3.72063e-15 1.92463e-15 0 0 0 0 0 0 0 0
1107 1 -0.0017549 -0.00307297 0.0199697 0.0008 3.43146e-06 -4.55844e-13 2.44845e-13 1.44076e-12 2.77221e-09 -9.19132e-10 -1.13084e-09 -1.74977e-15 -5.52037e-16 2.43988e-15 0 0 0 0 0 0 0 0
1108 1 0.00571373 -0.0031963 0.0234925 0.0008 3.43146e-06 -2.16787e-12 9.77303e-13 -1.19126e-12 -9.99785e-11 -1.68352e-09 -1.18886e-09 -4.59754e-16 -1.01921e-15 -2.08486e-15 0 0 0 0 0 0 0 0
1109 1 -0.00571027 -0.00122596 0.0179149 0.0008 3.43146e-06 1.15758e-12 5.21981e-13 2.54838e-12 5.43381e-10 3.49148e-09 -9.32777e-10 1.151e-14 -1.08607e-15 -8.28133e-15 0 0 0 0 0 0 0 0
1110 1 -0.00611186 8.37853e-05 0.0201868 0.0008 3.43146e-06 -1.24334e-12 -5.05771e-14 2.85179e-12 1.21934e-09 -3.5149e-09 -4.52768e-10 -4.26732e-15 -1.23493e-15 -1.17985e-15 0 0 0 0 0 0 0 0
1111 1 -0.000676851 -0.00425825 0.0240181 0.0008 3.43146e-06 -2.66546e-14 1.144e-12 2.24295e-12 1.77894e-09 2.82342e-09 8.21998e-10 2.48787e-15 -3.06197e-15 1.28183e-16 0 0 0 0 0 0 0 0
1112 1 0.00172402 0.00353471 0.0179492 0.0008 3.43146e-06 5.4178e-13 -1.08403e-12 -8.64193e-13 -3.18157e-09 -1.49651e-09 -2.58842e-09 3.7047e-16 4.12157e-16 -1.1205e-15 0 0 0 0 0 0 0 0
1113 1 -0.00333911 -0.00478399 0.0228206 0.0008 3.43146e-06 6.02743e-13 6.21287e-13 2.7136e-12 1.12328e-09 -1.60421e-09 4.02872e-09 -2.39239e-15 -4.98666e-16 -4.41272e-15 0 0 0 0 0 0 0 0
1114 1 -0.00201759 -0.00206203 0.0221634 0.0008 3.43146e-06 -5.81407e-13 5.10487e-13 1.14823e-12 8.42643e-10 -6.13132e-10 -2.25646e-09 -2.38283e-15 1.46747e-15 -3.1904e-15 0 0 0 0 0 0 0 0
1115 1 -0.00513037 0.00190606 0.0205248 0.0008 3.43146e-06 -1.30077e-12 -5.41605e-13 3.61611e-13 -1.44072e-10 -3.09105e-09 1.3163e-10 -2.13141e-15 2.13536e-16 -1.65863e-15 0 0 0 0 0 0 0 0
1116 1 -0.000719396 -0.005843 0.0242334 0.0008 3.43146e-06 1.2968e-14 1.78441e-12 2.06646e-12 -1.56899e-09 -5.37116e-11 -1.20291e-09 3.52785e-15 -3.08887e-15 2.59492e-15 0 0 0 0 0 0 0 0
1117 1 -0.000531191 -0.000987418 0.0217986 0.0008 3.43146e-06 2.71096e-13 -4.17869e-13 -1.96795e-13 1.55538e-09 4.57642e-10 -1.22146e-09 3.11035e-16 2.57889e-15 -8.48511e-16 0 0 0 0 0 0 0 0
1118 1 -0.00331076 0.00390899 0.0217078 0.0008 3.43146e-06 -1.08342e-12 -1.33758e-12 -3.01101e-12 -1.46159e-09 7.79362e-10 1.60003e-09 -1.01758e-15 -1.47858e-15 -3.36827e-15 0 0 0 0 0 0 0 0
1119 1 0.00423218 0.00370671 0.0225469 0.0008 3.43146e-06 2.05494e-12 8.82851e-13 2.51969e-12 -1.1123e-09 -2.62462e-10 -7.39479e-10 2.02636e-15 -9.77848e-16 -6.89844e-16 0 0 0 0 0 0 0 0
1120 1 -0.00226483 0.00683457 0.0197925 0.0008 3.43146e-06 -1.07806e-12 -7.18878e-13 8.42444e-13 -1.3671e-09 8.81639e-10 -1.54604e-09 -2.52219e-16 7.97531e-16 1.52775e-15 1 1.64786e-05 -2.74477e-05 -6.18311e-06 -0.00251646 0.00759391 0.0197925 0.0008
1121 1 -0.00457895 0.000465115 0.0199352 0.0008 3.43146e-06 -4.74262e-13 -1.31984e-13 3.48805e-12 -7.21453e-10 2.68458e-09 -5.7058e-11 -1.72737e-15 2.38675e-16 -3.64985e-15 0 0 0 0 0 0 0 0
1122 1 -0.00330246 0.00505412 0.0228244 0.0008 3.43146e-06 1.00311e-12 -1.38668e-12 -4.85036e-12 -1.29996e-10 4.53645e-09 -1.77691e-10 2.99955e-15 4.12194e-16 -5.45298e-15 0 0 0 0 0 0 0 0
1123 1 -0.00321775 -0.00294394 0.0227468 0.0008 3.43146e-06 -9.90891e-13 6.15921e-13 1.37068e-12 -5.81788e-10 9.05161e-10 1.6548e-09 9.32162e-16 -1.21626e-15 1.28391e-15 0 0 0 0 0 0 0 0
1124 1 0.00504033 0.00272861 0.019111 0.0008 3.43146e-06 2.16517e-12 2.70214e-13 9.9328e-13 -1.28025e-09 2.19863e-09 -1.73296e-10 -1.28398e-15 2.00031e-15 -2.57616e-15 0 0 0 0 0 0 0 0
1125 1 0.000269756 0.00177239 0.0240459 0.0008 3.43146e-06 -1.35034e-13 -1.63907e-13 -2.1137e-12 -9.30619e-10 2.82495e-09 -1.88245e-09 1.48764e-16 -7.55945e-16 -7.80457e-16 0 0 0 0 0 0 0 0
1126 1 -0.000829327 0.00589463 0.0242593 0.0008 3.43146e-06 -2.70658e-13 4.65517e-13 -1.27858e-12 2.87452e-09 -5.73464e-09 -5.72462e-10 -3.76847e-16 1.73671e-15 2.58953e-15 0 0 0 0 0 0 0 0
1127 1 -0.00582441 0.00423277 0.0241739 0.0008 3.43146e-06 6.06194e-13 7.8906e-13 1.52736e-12 -1.60931e-09 -1.13725e-09 1.23761e-09 -1.00748e-15 1.59703e-15 7.78016e-16 1 2.00972e-06 -1.07431e-06 -4.18994e-07 -0.00647156 0.00470307 0.0241739 0.0008
1128 1 -0.00545433 0.00204423 0.0225998 0.0008 3.43146e-06 8.10954e-13 -7.12603e-13 -7.01874e-13 1.98533e-09 3.50559e-09 1.51163e-09 1.51562e-15 -5.11711e-16 4.83122e-16 0 0 0 0 0 0 0 0
1129 1 0.000452913 -0.00295778 0.0218969 0.0008 3.43146e-06 -1.35521e-13 -3.70348e-14 1.88339e-12 -1.31841e-09 7.72038e-10 -1.37826e-09 -3.98491e-16 1.33265e-15 -6.30646e-15 0 0 0 0 0 0 0 0
1130 1 -0.00103661 -0.00342714 0.0222439 0.0008 3.43146e-06 -4.74805e-13 -8.93741e-13 3.81145e-12 9.98016e-10 1.36677e-09 2.23316e-09 7.16037e-16 2.37634e-15 -4.70193e-15 0 0 0 0 0 0 0 0
1131 1 -0.00427222 -0.00579563 0.0202929 0.0008 3.43146e-06 2.06514e-12 1.82151e-12 -1.68799e-12 -2.84711e-09 -4.17835e-10 -7.32138e-10 -1.83885e-15 -7.92558e-16 -2.12755e-15 1 2.2709e-05 4.51234e-05 1.40865e-05 -0.00474685 -0.00643952 0.0202929 0.0008
1132 1 -0.00172407 -0.00699067 0.019904 0.0008 3.43146e-06 -1.4024e-13 2.37256e-13 4.63695e-12 3.97782e-09 -8.04765e-09 2.79328e-10 -1.87422e-15 2.28356e-15 -1.01372e-14 1 1.54138e-05 9.5009e-05 3.0072e-06 -0.0019156 -0.00776727 0.019904 0.0008
1133 1 0.00480734 0.000155571 0.0198488 0.0008 3.43146e-06 -1.15518e-12 -6.83311e-14 -6.10904e-13 2.52652e-09 -5.23504e-09 -1.47809e-09 6.96826e-16 -6.14106e-16 3.7597e-15 0 0 0 0 0 0 0 0
1134 1 0.00235648 0.000685584 0.0225692 0.0008 3.43146e-06 1.08413e-12 2.70911e-13 -1.46028e-12 -7.30623e-10 1.76438e-09 -6.95096e-10 7.88954e-16 -9.87551e-17 -5.98853e-17 0 0 0 0 0 0 0 0
1135 1 0.00718904 -0.000397313 0.017626 0.0008 3.43146e-06 2.16806e-12 -3.35258e-14 4.2218e-13 1.45717e-10 7.22645e-10 -3.63944e-10 -2.16692e-16 4.54172e-16 2.44321e-15 1 -2.90027e-06 2.29844e-07 3.67935e-09 0.00798781 -0.000441458 0.017626 0.0008
1136 1 0.00334004 -0.00486268 0.0233623 0.0008 3.43146e-06 -8.65317e-13 1.34752e-13 2.64218e-13 -2.2225e-09 9.42592e-10 -1.58586e-09 1.02866e-15 -1.65133e-15 1.83918e-15 0 0 0 0 0 0 0 0
1137 1 -0.00297643 0.0026154 0.0208287 0.0008 3.43146e-06 -1.08222e-12 -7.83251e-13 -6.91447e-13 -8.74159e-10 1.34241e-10 -3.12529e-10 7.12954e-16 -1.03797e-15 2.02968e-16 0 0 0 0 0 0 0 0
1138 1 0.0034801 0.00480024 0.0202018 0.0008 3.43146e-06 -9.42583e-13 1.13007e-12 -2.04261e-12 -1.07542e-09 5.49643e-10 -1.68715e-09 1.89978e-15 -1.92479e-15 -1.54712e-15 0 0 0 0 0 0 0 0
1139 1 0.00621671 -0.00324474 0.018439 0.0008 3.43146e-06 -1.72862e-12 2.72875e-13 -1.57904e-12 -7.52524e-11 -3.07279e-09 -1.2213e-09 1.98122e-15 -6.98668e-16 1.45425e-16 0 0 0 0 0 0 0 0
1140 1 -0.002035 0.00690679 0.0239739 0.0008 3.43146e-06 7.03628e-13 6.54841e-13 -1.76336e-12 2.1137e-09 5.85836e-10 1.05151e-09 -2.15936e-16 2.42992e-15 -6.79106e-16 1 0.000147069 -0.000409271 -0.000131741 -0.00226101 0.00767384 0.0239739 0.0008
1141 1 0.00395104 -0.000959843 0.0206113 0.0008 3.43146e-06 -2.16695e-12 -1.46462e-13 -3.26588e-12 -2.78894e-11 3.05169e-09 4.25029e-10 1.39031e-15 -1.56291e-15 5.41641e-15 0 0 0 0 0 0 0 0
1142 1 0.00664222 0.00277945 0.0188072 0.0008 3.43146e-06 1.80231e-12 -1.07794e-12 1.15393e-12 -6.61212e-10 1.29706e-09 2.10846e-09 1.18409e-15 3.40587e-16 -2.70852e-18 1 -0.000348418 -9.14574e-05 -4.42601e-06 0.00737993 0.00308814 0.0188072 0.0008
1143 1 -0.00461495 -0.00356152 0.0222713 0.0008 3.43146e-06 -4.70631e-14 -6.97777e-13 1.84312e-12 3.01481e-10 -3.71001e-10 4.70202e-10 3.11635e-16 9.0007e-16 1.98334e-15 0 0 0 0 0 0 0 0
1144 1 -0.000286241 0.00176921 0.0193966 0.0008 3.43146e-06 6.59174e-14 -5.34573e-13 -1.43955e-12 -1.56721e-09 1.39051e-09 -2.60161e-10 7.7796e-16 1.66756e-15 -2.77494e-16 0 0 0 0 0 0 0 0
1145 1 0.000226389 -0.00159307 0.019707 0.0008 3.43146e-06 -5.70578e-14 2.33512e-13 -3.85552e-13 -1.4356e-09 1.74825e-09 4.14572e-10 8.05756e-16 -2.80838e-15 1.26748e-15 0 0 0 0 0 0 0 0
1146 1 -0.0071723 0.000633254 0.0225857 0.0008 3.43146e-06 -1.42754e-12 -2.02938e-13 -1.15908e-13 7.29925e-11 1.04574e-10 -4.30447e-10 -4.18867e-16 -8.74062e-16 1.34994e-16 1 0.000188696 -1.66385e-05 1.8106e-05 -0.007969 0.000703596 0.0225857 0.0008
1147 1 -0.00699321 -0.00171117 0.0205476 0.0008 3.43146e-06 -3.43802e-13 -5.41822e-13 -1.91117e-13 -4.55286e-10 -2.08052e-09 1.15113e-09 -4.95859e-16 4.51803e-17 -1.70562e-17 0 0 0 0 0 0 0 0
1148 1 0.0030924 0.00350345 0.0214432 0.0008 3.43146e-06 6.48126e-13 9.16597e-13 -5.10828e-13 -5.59585e-10 -1.61506e-09 -1.70131e-09 -1.25275e-16 -1.42211e-15 3.5968e-15 0 0 0 0 0 0 0 0
1149 1 -0.00424096 0.00227493 0.023626 0.0008 3.43146e-06 -8.75072e-13 4.11186e-13 9.0383e-13 -1.08658e-09 1.31649e-09 2.19104e-11 1.11083e-15 -1.61541e-15 -9.02232e-16 0 0 0 0 0 0 0 0
1150 1 -0.00180987 -0.00600556 0.0186414 0.0008 3.43146e-06 -2.58013e-14 1.55653e-12 -1.27398e-12 -1.03611e-09 8.82039e-10 2.58631e-11 -2.85205e-15 1.63796e-16 6.58385e-16 0 0 0 0 0 0 0 0
1151 1 -0.00145968 -0.00437929 0.0210305 0.0008 3.43146e-06 -5.41825e-13 2.90281e-13 1.30579e-12 2.7381e-09 -3.50125e-10 -5.10895e-10 9.72934e-16 2.45922e-15 6.74529e-16 0 0 0 0 0 0 0 0
1152 1 0.00129986 0.00325395 0.0235561 0.0008 3.43146e-06 -5.48902e-14 6.22255e-13 3.12912e-12 2.7372e-10 1.44081e-10 -2.76192e-10 -4.96978e-15 9.96824e-15 -4.24907e-15 0 0 0 0 0 0 0 0
1153 1 -0.00245176 -0.00180201 0.020646 0.0008 3.43146e-06 5.31805e-14 -1.71774e-13 1.2939e-12 -2.18369e-09 2.56093e-10 5.0212e-10 -3.99449e-15 -1.66271e-15 -2.76207e-15 0 0 0 0 0 0 0 0
1154 1 -0.00208744 -0.00389908 0.0233542 0.0008 3.43146e-06 9.53045e-13 5.48562e-13 4.18894e-12 -3.76287e-09 -5.11927e-10 -1.49911e-09 9.15912e-16 -3.8618e-15 -8.9565e-16 0 0 0 0 0 0 0 0
1155 1 -0.000567082 -0.00494613 0.0224232 0.0008 3.43146e-06 -1.92481e-13 2.76511e-14 2.35279e-15 3.76987e-09 -9.09422e-10 -1.23243e-09 9.15851e-17 9.16926e-15 7.34055e-16 0 0 0 0 0 0 0 0
1156 1 0.00713666 -0.000955117 0.020255 0.0008 3.43146e-06 -1.0935e-13 -2.70671e-13 -2.15322e-12 -3.79142e-10 -2.65283e-09 3.30303e-10 2.41104e-16 -1.53076e-16 7.21453e-16 1 -0.000324709 1.20477e-05 3.31115e-05 0.0079293 -0.0010612 0.020255 0.0008
1157 1 -0.0054775 0.00467366 0.0226756 0.0008 3.43146e-06 1.11132e-12 7.75507e-13 -2.29039e-13 2.62218e-10 1.26246e-10 1.63686e-09 7.79807e-16 -1.00065e-15 1.17712e-15 1 0.000450032 -0.000381605 -2.10363e-07 -0.00608575 0.00519265 0.0226756 0.0008
1158 1 0.00715371 -0.00082025 0.0219626 0.0008 3.43146e-06 2.16485e-12 -2.70993e-13 -2.25973e-12 -9.26375e-10 -2.73447e-09 2.23079e-11 3.82006e-16 -1.15781e-16 -1.87922e-16 1 -0.000944955 0.000100319 0.000161314 0.00794792 -0.000911315 0.0219626 0.0008
1159 1 0.00409301 -0.00103618 0.0190148 0.0008 3.43146e-06 1.77071e-12 -2.15149e-13 -2.17796e-12 -9.23237e-10 1.11099e-09 -5.28896e-10 1.24848e-15 -7.1793e-17 8.55542e-16 0 0 0 0 0 0 0 0
1160 1 0.00164994 -0.00238553 0.0194345 0.0008 3.43146e-06 -5.2227e-13 7.79974e-13 -1.02491e-12 1.669e-09 1.46642e-10 -9.41673e-10 -9.89397e-16 2.27914e-15 -1.50751e-15 0 0 0 0 0 0 0 0
1161 1 0.00548738 0.00466182 0.0178605 0.0008 3.43146e-06 1.28629e-13 -8.7502e-13 -6.09116e-14 5.85808e-10 4.02742e-10 9.54365e-10 6.57087e-16 1.1343e-15 -1.40964e-15 1 -0.000239374 -0.000179268 1.92142e-05 0.00609686 0.00517961 0.0178605 0.0008
1162 1 -0.000805124 -0.00237521 0.0210515 0.0008 3.43146e-06 -2.70285e-13 1.34645e-13 1.17244e-12 -2.45824e-09 1.57764e-09 1.31723e-09 2.31379e-16 1.16897e-15 3.49353e-15 0 0 0 0 0 0 0 0
1163 1 -0.00635956 0.00337749 0.0190574 0.0008 3.43146e-06 1.15683e-12 -1.14045e-13 -2.37791e-12 -2.27052e-09 4.50712e-09 4.92512e-10 -1.82785e-15 -1.56581e-15 -3.05228e-15 1 0.0012062 -0.000923165 0.000197899 -0.0070654 0.00375235 0.0190574 0.0008
1164 1 -0.00339435 -0.000930782 0.018181 0.0008 3.43146e-06 -8.99694e-13 2.70919e-13 1.3446e-12 -5.6134e-10 2.15674e-09 1.04486e-09 1.16534e-15 1.64372e-17 -6.16554e-15 0 0 0 0 0 0 0 0
1165 1 -0.005423 0.00473637 0.0210781 0.0008 3.43146e-06 -2.09412e-12 1.49314e-13 -1.87561e-12 -1.09722e-09 3.97045e-09 -1.6122e-09 1.52925e-15 -1.1592e-15 -5.67426e-16 1 8.15408e-05 -9.44082e-05 1.86478e-05 -0.00602543 0.00526252 0.0210781 0.0008
1166 1 0.00101506 -0.00167707 0.0210965 0.0008 3.43146e-06 -5.40029e-13 5.25122e-13 -1.93545e-12 1.3291e-09 -1.29622e-09 3.58409e-11 8.34789e-16 -9.67919e-16 4.13168e-15 0 0 0 0 0 0 0 0
1167 1 -0.00602465 -0.00394257 0.0230314 0.0008 3.43146e-06 -1.59231e-12 -4.05076e-13 2.6459e-13 9.73858e-10 1.4455e-10 5.46128e-10 2.52358e-15 -1.76128e-15 -5.97709e-16 1 5.14946e-06 3.396e-06 -7.1648e-07 -0.00669404 -0.00438062 0.0230314 0.0008
1168 1 -0.00193624 -0.00548863 0.0232575 0.0008 3.43146e-06 5.40984e-13 1.48795e-12 5.33724e-12 2.17951e-09 2.75561e-09 1.2841e-09 2.26696e-16 -1.32229e-15 -4.71656e-15 0 0 0 0 0 0 0 0
1169 1 -0.000386565 0.00323006 0.023992 0.0008 3.43146e-06 -1.35918e-13 4.62923e-13 -2.43089e-12 -2.31269e-09 3.35163e-09 1.52031e-09 -3.92651e-16 2.97711e-15 9.01587e-17 0 0 0 0 0 0 0 0
1170 1 0.00200344 -0.00691586 0.0215861 0.0008 3.43146e-06 -2.11937e-13 1.61507e-12 6.089e-14 1.7114e-09 -5.37049e-09 -3.05086e-10 1.27615e-15 -1.18742e-16 2.84084e-15 1 -2.85273e-05 0.000187048 -6.81843e-06 0.00222599 -0.00768407 0.0215861 0.0008
1171 1 0.000902291 0.00284214 0.0191841 0.0008 3.43146e-06 -3.39606e-13 -1.08429e-12 1.41848e-12 4.35454e-10 -1.1123e-09 1.32969e-09 -3.29358e-15 -9.2792e-16 1.8417e-15 0 0 0 0 0 0 0 0
1172 1 0.0037673 -0.00333267 0.023173 0.0008 3.43146e-06 -7.53452e-13 -8.01836e-13 -1.61477e-12 -2.12548e-10 -4.93582e-10 1.17502e-09 8.53477e-16 1.49748e-15 -1.98278e-15 0 0 0 0 0 0 0 0
1173 1 -0.00356485 -0.00520193 0.0185126 0.0008 3.43146e-06 -1.08429e-12 3.45607e-13 1.97888e-12 5.57661e-10 1.40404e-09 1.22287e-09 3.81252e-16 -6.43776e-15 -4.50889e-15 0 0 0 0 0 0 0 0
1174 1 0.00712248 -0.00104677 0.0235457 0.0008 3.43146e-06 -1.37683e-12 5.38797e-13 -3.87963e-13 -4.94182e-10 -2.11129e-09 2.84803e-09 8.50687e-17 -2.68748e-16 -1.16666e-15 0 0 0 0 0 0 0 0
1175 1 0.00089658 0.0071442 0.0206524 0.0008 3.43146e-06 -2.69504e-13 -3.73287e-13 -6.85222e-13 6.85334e-10 -2.32656e-09 -4.12635e-10 -2.83189e-17 -1.71472e-15 1.09676e-15 1 -3.70108e-05 -0.000246502 4.06642e-05 0.000996166 0.00793774 0.0206524 0.0008
1176 1 0.00597823 0.00139225 0.0220749 0.0008 3.43146e-06 5.28906e-13 -2.75839e-13 -2.72748e-12 1.22726e-09 2.52468e-09 -2.23247e-10 3.29981e-15 3.29395e-15 -2.08347e-15 0 0 0 0 0 0 0 0
1177 1 0.00508111 -0.000121134 0.0214093 0.0008 3.43146e-06 2.10831e-12 -1.49671e-14 4.99948e-14 4.41932e-09 -3.88739e-09 1.82828e-10 2.07827e-15 1.15549e-15 -2.66615e-15 0 0 0 0 0 0 0 0
1178 1 0.00425528 -0.00373561 0.0210035 0.0008 3.43146e-06 -2.1658e-12 -9.00865e-13 -1.22031e-13 -2.09579e-09 5.84272e-10 3.29507e-11 1.01503e-15 2.00995e-15 2.46231e-16 0 0 0 0 0 0 0 0
1179 1 -0.000636586 0.00385702 0.0214598 0.0008 3.43146e-06 1.56001e-13 -9.82546e-13 -1.18596e-12 1.57219e-10 2.57626e-09 -4.66991e-10 -1.53853e-15 2.71129e-15 -5.55506e-15 0 0 0 0 0 0 0 0
1180 1 0.00128428 0.00185269 0.022784 0.0008 3.43146e-06 5.41819e-13 5.40646e-13 4.22515e-13 2.75749e-09 -6.60121e-10 8.94264e-10 3.73833e-17 5.44347e-16 -5.0656e-16 0 0 0 0 0 0 0 0
1181 1 -0.00199434 0.000914065 0.0181727 0.0008 3.43146e-06 -1.08146e-12 -2.0103e-13 4.43653e-13 -1.66148e-09 -1.24749e-09 -4.55878e-11 5.57109e-17 6.80159e-17 -1.63313e-15 0 0 0 0 0 0 0 0
1182 1 -0.0066967 -0.000986931 0.0191522 0.0008 3.43146e-06 -1.9111e-12 -5.40924e-13 4.48336e-13 6.15927e-10 3.32772e-09 5.68221e-10 -1.29803e-15 8.35453e-16 2.40981e-15 0 0 0 0 0 0 0 0
1183 1 0.00504338 0.00513883 0.0201767 0.0008 3.43146e-06 -1.78537e-12 -1.04561e-12 -1.19318e-12 2.71557e-10 -1.81522e-09 -6.86708e-10 -3.02296e-16 7.20915e-16 4.01305e-16 1 -0.000165289 -0.000166761 -4.43563e-05 0.00560358 0.00570963 0.0201767 0.0008
1184 1 -0.00234682 -0.000256143 0.0210435 0.0008 3.43146e-06 -7.89021e-13 -1.35245e-13 6.40473e-13 1.43264e-09 4.30956e-10 7.1521e-10 -2.13428e-15 9.17067e-19 -2.66831e-15 0 0 0 0 0 0 0 0
1185 1 0.00527376 0.00490218 0.0222527 0.0008 3.43146e-06 4.80696e-13 -2.0205e-12 -7.04096e-14 1.92203e-09 1.63388e-09 2.24287e-09 -3.83273e-16 -2.45329e-15 -2.65555e-15 1 -0.000197274 -0.000217942 -2.72231e-05 0.00585951 0.00544666 0.0222527 0.0008
1186 1 -0.00492154 -0.000953625 0.0192798 0.0008 3.43146e-06 2.40779e-13 2.68483e-13 4.16303e-12 -6.45475e-10 -5.73426e-09 -3.01646e-10 1.21903e-14 1.54799e-15 -1.08577e-14 0 0 0 0 0 0 0 0
1187 1 0.00540521 -0.00475721 0.023654 0.0008 3.43146e-06 -1.92279e-12 -3.72453e-13 -6.80088e-14 -1.28965e-09 1.01986e-09 1.92688e-09 1.34531e-15 1.29577e-16 -6.2388e-17 1 -0.000638057 0.000433177 4.19816e-05 0.00600536 -0.00528542 0.023654 0.0008
1188 1 -0.00327883 0.00641012 0.020955 0.0008 3.43146e-06 -6.33561e-13 -1.62226e-13 -1.78582e-12 3.47415e-09 -1.83153e-09 -7.72845e-10 1.61885e-15 2.26887e-15 1.52631e-15 1 3.25059e-06 -5.60056e-06 8.32299e-07 -0.00364313 0.00712233 0.020955 0.0008
1189 1 -0.00191895 0.00462871 0.0220305 0.0008 3.43146e-06 1.29018e-13 1.09434e-12 -6.41214e-12 -5.04289e-09 1.18971e-09 -5.59478e-10 -2.63071e-15 5.19809e-15 6.32587e-16 0 0 0 0 0 0 0 0
1190 1 -0.00404069 0.00251727 0.0220191 0.0008 3.43146e-06 -2.02127e-12 -6.17862e-14 -9.68397e-13 3.293e-10 -1.18241e-09 -5.52969e-10 -1.02449e-15 -6.6198e-16 3.09686e-15 0 0 0 0 0 0 0 0
1191 1 0.00294896 0.00656858 0.0229797 0.0008 3.43146e-06 1.08321e-12 -2.7696e-13 1.71359e-12 -3.24562e-09 -2.59725e-09 1.3834e-09 7.06569e-17 1.36276e-15 3.59835e-15 1 -8.17176e-05 -0.000141519 -1.12152e-05 0.00327654 0.00729824 0.0229797 0.0008
1192 1 0.000489234 0.00296399 0.0207277 0.0008 3.43146e-06 -2.074e-13 -9.42487e-13 -5.52337e-13 8.84521e-10 1.04714e-09 -1.55958e-09 2.61704e-15 1.23646e-15 1.20385e-15 0 0 0 0 0 0 0 0
1193 1 -0.000901713 0.00714363 0.0190144 0.0008 3.43146e-06 -2.70385e-13 -2.16817e-12 -8.73463e-13 9.03332e-10 6.66411e-10 -6.8411e-10 -4.5151e-17 -4.65891e-16 4.10249e-17 1 6.83043e-05 -0.000376409 5.53032e-05 -0.00100186 0.00793702 0.0190144 0.0008
1194 1 -0.00662984 0.00280816 0.0205271 0.0008 3.43146e-06 2.14707e-12 -8.43434e-14 2.0538e-12 7.6651e-11 -2.80706e-09 9.1732e-10 9.61319e-16 1.05738e-15 3.64336e-16 1 1.35129e-05 -3.62032e-06 3.66649e-06 -0.00736645 0.00312016 0.0205271 0.0008
1195 1 0.00333383 -0.00253182 0.0201849 0.0008 3.43146e-06 -1.08414e-12 6.08513e-14 -2.02853e-12 1.26961e-09 2.74299e-09 -8.09852e-10 3.17563e-16 1.14699e-15 2.32171e-15 0 0 0 0 0 0 0 0
1196 1 0.00419207 -0.00140458 0.0221287 0.0008 3.43146e-06 -2.49895e-13 3.11016e-13 -2.0341e-12 -6.04056e-10 -1.66572e-09 2.47495e-09 -4.54147e-15 1.38011e-15 1.06538e-15 0 0 0 0 0 0 0 0
1197 1 -0.00368499 -0.0027507 0.0202742 0.0008 3.43146e-06 -1.08359e-12 1.08376e-12 -1.34585e-14 3.09303e-09 -1.4064e-09 -2.69793e-09 1.22448e-15 7.93126e-17 4.89721e-16 0 0 0 0 0 0 0 0
1198 1 -0.0071938 -0.000311963 0.021296 0.0008 3.43146e-06 -1.88269e-12 -1.35144e-13 -3.33754e-13 1.71505e-10 3.93807e-10 1.48285e-11 -3.98076e-16 -6.85352e-16 1.10494e-15 1 0.000882456 7.3354e-05 0.000129386 -0.00799249 -0.000346599 0.021296 0.0008
1199 1 0.00189569 0.00232983 0.021191 0.0008 3.43146e-06 5.42174e-13 -1.45241e-13 -8.83641e-13 -1.93383e-10 -7.47379e-10 -2.27385e-09 -3.51171e-17 6.25915e-15 2.53285e-15 0 0 0 0 0 0 0 0
1200 1 0.00185519 0.00375258 0.0204604 0.0008 3.43146e-06 5.4204e-13 5.26921e-13 -1.51532e-12 1.69938e-10 5.75307e-10 2.34733e-09 7.39211e-16 -5.03056e-16 3.6034e-15 0 0 0 0 0 0 0 0
1201 1 -0.0028064 -0.0066308 0.0225521 0.0008 3.43146e-06 -1.35977e-13 9.81798e-13 2.42444e-12 2.8184e-09 -9.18392e-10 5.72675e-10 4.31372e-16 -8.31854e-16 -2.38851e-15 1 7.67418e-05 0.000223717 5.10927e-05 -0.00311812 -0.00736732 0.0225521 0.0008
1202 1 -0.0035479 0.0062656 0.0190249 0.0008 3.43146e-06 -7.21274e-13 6.60248e-13 -4.24268e-14 1.42169e-09 -2.52026e-09 -3.66656e-10 -2.59002e-15 -5.33846e-16 4.75119e-15 1 0.000299516 -0.000387676 0.000127308 -0.00394191 0.00696142 0.0190249 0.0008
1203 1 0.00509832 -0.00508484 0.0208404 0.0008 3.43146e-06 -3.24439e-14 -1.91998e-12 4.01037e-13 5.80448e-10 1.32677e-10 1.72417e-09 6.78937e-18 2.07282e-15 7.99637e-16 1 -0.000560491 0.000796936 -9.55961e-05 0.00566434 -0.00564936 0.0208404 0.0008
1204 1 -0.00425284 0.00386371 0.0204158 0.0008 3.43146e-06 -5.64035e-13 -7.4634e-13 -8.81978e-14 -6.90196e-10 7.26674e-10 -5.65344e-09 -6.2799e-15 9.97078e-16 -9.27139e-15 0 0 0 0 0 0 0 0
1205 1 0.00616909 0.00371374 0.0216655 0.0008 3.43146e-06 9.33364e-13 3.08002e-13 1.02354e-14 -1.63363e-09 -9.45896e-10 2.73017e-10 5.25688e-16 -1.36003e-16 -8.48336e-16 1 -0.000919839 -0.000678501 0.000100928 0.00685391 0.004126 0.0216655 0.0008
1206 1 0.00418224 0.00570399 0.0214019 0.0008 3.43146e-06 -1.25491e-12 -2.06293e-12 8.72674e-13 -8.74837e-10 -2.00962e-11 -7.47049e-10 -1.1811e-15 -5.58732e-16 -1.19552e-15 0 0 0 0 0 0 0 0
1207 1 -0.0017083 0.00064581 0.0237456 0.0008 3.43146e-06 4.76443e-14 3.51357e-14 3.73197e-13 -8.41992e-10 -1.34206e-09 6.25103e-10 9.41789e-16 -3.11328e-15 -5.69159e-16 0 0 0 0 0 0 0 0
1208 1 0.00480867 -0.000766886 0.0245073 0.0008 3.43146e-06 3.49333e-13 -1.77892e-13 -8.32703e-13 -2.52739e-09 -9.22467e-10 -5.97477e-10 2.26284e-15 3.08091e-15 -8.80396e-17 0 0 0 0 0 0 0 0
1209 1 -0.00277923 0.000697177 0.0222531 0.0008 3.43146e-06 -1.06446e-12 2.23964e-13 1.01031e-12 -1.37946e-09 -7.15297e-10 -8.30206e-10 -2.17582e-15 6.73275e-16 -2.47348e-15 0 0 0 0 0 0 0 0
1210 1 -0.000584875 -0.00058715 0.0233473 0.0008 3.43146e-06 -2.63058e-13 2.70382e-13 -1.59917e-12 2.37838e-10 1.52288e-10 -7.40023e-10 5.36113e-16 -1.17451e-16 -2.9553e-15 0 0 0 0 0 0 0 0
1211 1 -0.00583087 -0.000575758 0.0264181 0.0008 3.43146e-06 -9.29619e-13 -5.22119e-13 -7.18671e-13 7.29473e-10 -2.09013e-09 1.06342e-09 -1.58314e-15 3.70911e-15 3.66665e-15 0 0 0 0 0 0 0 0
1212 1 0.00416559 0.00250698 0.0236032 0.0008 3.43146e-06 -1.96753e-12 -1.28315e-13 1.79911e-12 2.52199e-09 -3.76475e-09 -2.48088e-09 4.46625e-16 2.23187e-15 -3.23892e-16 0 0 0 0 0 0 0 0
1213 1 0.00430758 0.000188817 0.025688 0.0008 3.43146e-06 1.48237e-12 8.42298e-14 -3.76591e-12 -2.0733e-09 5.0539e-09 4.90077e-09 -4.29518e-16 -2.311e-16 -5.60901e-15 0 0 0 0 0 0 0 0
1214 1 0.00134077 0.000349762 0.0265347 0.0008 3.43146e-06 5.37676e-13 -4.45599e-14 -1.61742e-12 1.39013e-09 -1.14618e-10 4.19436e-10 -1.26122e-15 2.93426e-15 -8.3062e-16 0 0 0 0 0 0 0 0
1215 1 -0.00657992 0.00292372 0.0246986 0.0008 3.43146e-06 3.13903e-13 -2.78049e-13 3.97687e-13 2.14332e-09 -1.49982e-09 -1.5088e-10 -1.04621e-15 8.69235e-16 2.09067e-16 1 0.000223655 -0.000105326 4.07453e-05 -0.00731078 0.00324847 0.0246986 0.0008
1216 1 -0.000703677 0.00315144 0.0276052 0.0008 3.43146e-06 -2.71024e-13 1.08309e-12 3.47469e-12 8.281e-10 2.77802e-09 2.59643e-09 -1.61044e-15 3.08658e-16 6.12283e-15 0 0 0 0 0 0 0 0
1217 1 -0.000348478 0.00719175 0.0234561 0.0008 3.43146e-06 6.75618e-13 -2.1655e-12 2.04354e-12 -2.58178e-09 5.12819e-10 7.15519e-10 3.88029e-16 7.07672e-16 -2.72554e-15 1 7.39093e-06 -0.000166632 2.93155e-05 -0.000387188 0.00799062 0.0234561 0.0008
1218 1 0.000904381 0.00594435 0.0220917 0.0008 3.43146e-06 -2.7103e-13 -2.07715e-12 -3.68756e-13 5.75934e-10 -6.34777e-10 -1.02212e-09 -1.25669e-16 -1.42672e-15 -4.5049e-16 0 0 0 0 0 0 0 0
1219 1 0.00459351 -0.00128865 0.0280606 0.0008 3.43146e-06 1.11019e-12 -5.41884e-13 -8.15473e-13 6.503e-10 2.17252e-09 8.68205e-10 -1.05722e-16 1.12077e-17 -1.2397e-15 0 0 0 0 0 0 0 0
1220 1 -0.000182929 0.00172296 0.021481 0.0008 3.43146e-06 -3.38644e-13 2.47903e-13 -7.70664e-13 -1.192e-10 9.51213e-10 -6.53863e-10 2.56716e-16 1.34285e-15 4.67791e-15 0 0 0 0 0 0 0 0
1221 1 -0.00401767 -0.00397766 0.0253524 0.0008 3.43146e-06 -1.83006e-12 -2.16711e-12 7.35564e-12 -3.13835e-09 1.11633e-09 -6.89811e-09 4.65259e-15 2.69509e-16 3.01283e-15 0 0 0 0 0 0 0 0
1222 1 0.00527538 -0.00167342 0.0232749 0.0008 3.43146e-06 1.72412e-13 -2.58407e-13 2.31041e-13 2.19776e-09 -2.69078e-10 -9.38001e-10 6.13497e-16 3.69913e-15 -6.056e-16 0 0 0 0 0 0 0 0
1223 1 -0.00690824 0.00202988 0.025984 0.0008 3.43146e-06 -1.20256e-13 2.96177e-13 1.57848e-13 -2.68773e-09 5.84231e-10 3.01701e-10 1.38638e-15 -7.47367e-16 -3.84919e-15 1 0.000327909 -8.92667e-05 6.16888e-06 -0.00767551 0.00225533 0.025984 0.0008
1224 1 0.0020373 -0.0054556 0.0226481 0.0008 3.43146e-06 -6.01029e-13 5.91438e-13 -8.33435e-14 3.46025e-09 -1.09961e-09 1.67043e-09 4.19722e-15 -3.8457e-16 1.3627e-15 0 0 0 0 0 0 0 0
1225 1 0.000580203 0.00136657 0.0255618 0.0008 3.43146e-06 2.70467e-13 5.41924e-13 -2.24419e-12 -8.17254e-11 -2.02314e-09 1.35839e-09 6.83122e-16 -2.10735e-16 7.32887e-16 0 0 0 0 0 0 0 0
1226 1 -0.00310354 -0.00314734 0.0243351 0.0008 3.43146e-06 -9.41634e-13 -1.08401e-12 6.98994e-12 6.7374e-09 1.09239e-09 3.77465e-09 -1.04387e-15 -7.94161e-18 -4.24409e-15 0 0 0 0 0 0 0 0
1227 1 0.00629309 -0.00103365 0.025041 0.0008 3.43146e-06 -8.80812e-14 5.42121e-13 -3.7677e-13 4.32221e-10 5.01965e-10 8.04904e-10 4.1763e-16 -1.25615e-16 -5.10512e-16 0 0 0 0 0 0 0 0
1228 1 0.00135985 -0.000500516 0.0221702 0.0008 3.43146e-06 -5.41823e-13 2.70949e-13 -1.17884e-12 1.26718e-09 -1.25699e-10 -4.92245e-10 -1.43961e-17 1.10938e-16 3.41794e-15 0 0 0 0 0 0 0 0
1229 1 -0.00013889 0.00719889 0.0218703 0.0008 3.43146e-06 -5.73889e-14 -2.16648e-12 -2.24287e-12 2.5631e-09 1.1114e-09 -3.73429e-11 4.0021e-16 2.27182e-16 1.32053e-16 1 -4.74825e-05 -0.000228271 -6.49573e-06 -0.000154317 0.00799851 0.0218703 0.0008
1230 1 -0.000839118 -0.00607953 0.0263317 0.0008 3.43146e-06 2.70244e-13 1.07829e-12 2.40975e-12 -5.68802e-10 -6.4261e-10 -1.83357e-09 5.81642e-17 2.06729e-15 -1.4042e-15 0 0 0 0 0 0 0 0
1231 1 0.00217695 -0.00541686 0.021055 0.0008 3.43146e-06 7.92648e-13 1.60247e-12 1.87815e-14 -2.41666e-09 -7.07167e-10 1.11129e-09 2.21967e-15 8.35177e-16 1.13925e-15 0 0 0 0 0 0 0 0
1232 1 0.00022838 -0.00719644 0.0223999 0.0008 3.43146e-06 -9.87009e-14 2.00321e-12 1.33724e-12 1.6411e-09 -1.50028e-09 -1.59517e-11 2.71568e-16 4.82433e-16 -7.13153e-16 1 -5.52335e-07 3.05018e-05 9.08816e-07 0.000253753 -0.00799597 0.0223999 0.0008
1233 1 -0.00299139 0.0016896 0.0244354 0.0008 3.43146e-06 -4.40117e-13 1.21985e-13 -2.49008e-13 1.46894e-09 2.35991e-10 -4.17382e-10 4.8034e-15 -2.28875e-15 2.30229e-15 0 0 0 0 0 0 0 0
1234 1 0.00299507 0.00476014 0.0244817 0.0008 3.43146e-06 1.08403e-12 2.16778e-12 -1.2727e-12 -1.3061e-09 -1.42138e-09 -1.71957e-09 3.03474e-16 1.0829e-16 -3.77372e-15 0 0 0 0 0 0 0 0
1235 1 0.00331715 -0.00269629 0.0217761 0.0008 3.43146e-06 1.71663e-13 -6.70427e-13 -2.73736e-12 -2.91944e-10 -8.75453e-10 -1.93034e-09 -3.85858e-16 8.94228e-16 3.93163e-15 0 0 0 0 0 0 0 0
1236 1 -0.00130134 -0.00708149 0.0228538 0.0008 3.43146e-06 -2.22782e-13 1.00844e-12 1.2262e-12 1.75167e-09 1.07967e-09 3.54348e-10 -1.46494e-15 1.368e-15 -2.27948e-15 1 -1.35485e-07 3.63853e-05 -4.14229e-06 -0.00144592 -0.00786825 0.0228538 0.0008
1237 1 0.00608102 0.00275128 0.0242523 0.0008 3.43146e-06 2.16719e-12 -2.33044e-13 1.09237e-12 1.28808e-09 -1.50769e-09 9.17579e-10 9.56474e-18 1.36108e-15 2.8791e-15 0 0 0 0 0 0 0 0
1238 1 -0.00421442 0.00375432 0.0230186 0.0008 3.43146e-06 2.13833e-13 7.94875e-13 -1.20866e-12 -1.1342e-09 1.76989e-09 -2.70841e-09 -2.786e-16 2.41204e-17 -1.67355e-15 0 0 0 0 0 0 0 0
1239 1 0.00301938 -0.00653661 0.0247814 0.0008 3.43146e-06 8.77433e-13 -2.079e-13 -1.87543e-13 4.3152e-10 -1.46931e-09 -8.70063e-10 4.23753e-16 -6.27127e-16 -1.02373e-15 1 -8.06846e-05 0.000300082 -2.40802e-06 0.00335473 -0.00726263 0.0247814 0.0008
1240 1 0.000666199 -0.00407274 0.0231688 0.0008 3.43146e-06 -7.17402e-14 -7.08349e-13 6.24127e-13 1.12382e-09 -5.24435e-10 -5.44434e-09 3.18093e-16 -8.17083e-16 -2.91204e-15 0 0 0 0 0 0 0 0
1241 1 -0.00431802 -0.000850406 0.0259762 0.0008 3.43146e-06 6.84899e-13 2.71032e-13 -5.60818e-13 2.35774e-09 9.09577e-10 -3.82539e-10 -2.62122e-15 2.83887e-16 -4.33986e-15 0 0 0 0 0 0 0 0
1242 1 0.00380457 0.00611289 0.0258064 0.0008 3.43146e-06 8.22744e-13 1.75929e-12 7.90629e-13 -4.4052e-09 -4.72784e-09 -3.96037e-11 -2.17693e-16 3.50856e-16 -1.74432e-15 1 -7.24863e-05 -0.000109264 -4.51701e-06 0.00422721 0.00679196 0.0258064 0.0008
1243 1 -0.00428677 0.000957471 0.0227199 0.0008 3.43146e-06 2.94307e-13 2.82276e-14 -3.86354e-12 5.64551e-09 -5.37366e-09 -8.0065e-10 -1.17135e-16 6.31474e-16 -4.72426e-15 0 0 0 0 0 0 0 0
1244 1 -0.00317873 0.00450746 0.0265897 0.0008 3.43146e-06 1.06321e-12 -1.38423e-12 8.23923e-12 7.52876e-09 -6.81714e-09 -2.302e-09 5.40349e-15 1.08895e-14 -1.08498e-14 0 0 0 0 0 0 0 0
1245 1 0.00157037 -0.00702672 0.0265772 0.0008 3.43146e-06 -1.50348e-13 -1.00988e-12 1.33006e-13 3.0794e-10 -5.09243e-10 4.80193e-10 1.60398e-16 -5.97349e-16 2.66427e-15 1 -3.22471e-06 3.04807e-05 4.50813e-06 0.00174484 -0.0078074 0.0265772 0.0008
1246 1 0.00363864 -0.00179062 0.0235792 0.0008 3.43146e-06 -1.084e-12 -1.4406e-13 -1.43459e-12 2.87909e-10 4.46215e-10 -7.28855e-10 3.36726e-16 2.98475e-15 -1.67331e-15 0 0 0 0 0 0 0 0
1247 1 -0.0023018 -0.00407648 0.025502 0.0008 3.43146e-06 -4.58353e-13 -9.46543e-13 6.37054e-12 4.58543e-10 -3.16039e-10 8.64268e-10 1.03185e-15 1.76009e-15 -2.80149e-15 0 0 0 0 0 0 0 0
1248 1 0.00493209 0.00434218 0.0263394 0.0008 3.43146e-06 -2.16598e-12 2.16771e-12 2.98888e-12 7.22252e-10 -2.88175e-09 5.36495e-10 1.66551e-15 -2.73575e-16 -3.17866e-15 0 0 0 0 0 0 0 0
1249 1 0.00223516 0.000799415 0.0252868 0.0008 3.43146e-06 -1.08328e-12 2.70957e-13 2.9433e-12 6.91806e-10 -1.41822e-09 1.80319e-10 -9.94458e-16 7.37602e-16 7.86127e-16 0 0 0 0 0 0 0 0
1250 1 -0.00154803 0.00314139 0.0225627 0.0008 3.43146e-06 -3.44679e-13 -6.38034e-13 1.32281e-13 1.50482e-10 -1.01483e-09 -1.68325e-09 -2.2087e-15 4.17085e-15 -9.69112e-16 0 0 0 0 0 0 0 0
1251 1 0.0031056 0.00649592 0.0271934 0.0008 3.43146e-06 -1.01781e-12 -2.12419e-12 -6.71287e-12 8.15622e-09 -1.89624e-09 -1.47878e-10 1.15079e-15 -6.0154e-15 -5.42066e-15 1 -3.9494e-05 -7.69263e-05 -3.6013e-06 0.00345061 0.00721757 0.0271934 0.0008
1252 1 -0.00107808 -0.00323579 0.0260993 0.0008 3.43146e-06 3.81531e-13 8.32223e-13 3.69817e-12 -2.61305e-11 1.18378e-09 5.88789e-10 1.73291e-15 4.90594e-15 5.03368e-15 0 0 0 0 0 0 0 0
1253 1 -0.0031809 0.0064597 0.027544 0.0008 3.43146e-06 6.39673e-13 -1.28862e-12 2.39335e-12 9.65897e-10 -8.11996e-09 1.89126e-10 -5.71488e-15 -5.74661e-16 5.56579e-15 1 0.000197892 -0.000513648 2.56942e-05 -0.00353414 0.00717704 0.027544 0.0008
1254 1 -0.000277167 0.000371316 0.0245907 0.0008 3.43146e-06 -2.81772e-13 -1.35454e-13 -1.04679e-12 6.77321e-10 -1.4405e-10 7.72823e-10 -1.51198e-15 5.83835e-16 4.2623e-16 0 0 0 0 0 0 0 0
1255 1 0.00176112 0.0069818 0.0255946 0.0008 3.43146e-06 -5.41551e-13 1.18178e-12 -1.18916e-12 6.29312e-10 -3.5105e-09 -9.80738e-10 -7.04925e-16 -2.09403e-15 5.20093e-15 1 -0.00012894 -0.000716446 -5.39193e-05 0.00195667 0.00775702 0.0255946 0.0008
1256 1 0.00203533 0.00503524 0.027239 0.0008 3.43146e-06 -1.08392e-12 -2.16838e-12 -2.27673e-12 3.00879e-09 1.03835e-09 -1.83413e-09 -7.79002e-16 -1.36134e-15 1.48575e-15 0 0 0 0 0 0 0 0
1257 1 0.00352561 0.00315397 0.0260659 0.0008 3.43146e-06 7.39677e-13 -1.30952e-13 -3.96087e-12 -1.38737e-09 -1.59547e-09 1.60291e-10 -2.15866e-15 1.60386e-15 2.74136e-15 0 0 0 0 0 0 0 0
1258 1 -0.0069397 0.00191975 0.0235069 0.0008 3.43146e-06 -1.98436e-13 -1.37523e-13 -1.01165e-12 -8.94089e-10 1.57026e-09 -2.75418e-10 4.85313e-17 -1.04602e-16 4.73379e-16 1 0.000397339 -0.000127544 2.79947e-05 -0.00771041 0.00213296 0.0235069 0.0008
1259 1 0.00420444 0.000674616 0.024167 0.0008 3.43146e-06 -5.98319e-13 1.64306e-13 -2.45355e-12 2.92012e-09 -4.68978e-09 2.68558e-09 1.99755e-15 1.82539e-15 2.02509e-16 0 0 0 0 0 0 0 0
1260 1 -0.0034556 0.00496651 0.0250825 0.0008 3.43146e-06 9.40085e-13 2.06784e-12 -7.16133e-12 -8.67783e-09 2.82109e-09 3.64189e-09 1.92507e-16 -2.33754e-15 -1.08654e-14 0 0 0 0 0 0 0 0
1261 1 -0.00521189 -0.00385524 0.0208166 0.0008 3.43146e-06 1.75039e-12 -4.95703e-13 2.17724e-12 8.44324e-10 -1.06202e-09 2.26571e-09 -1.59825e-15 -8.75985e-16 4.48395e-17 0 0 0 0 0 0 0 0
1262 1 -0.00434273 -0.00399729 0.0237863 0.0008 3.43146e-06 -2.16627e-12 -2.16724e-12 1.62885e-12 1.53793e-09 -2.24777e-09 -1.25684e-09 2.62123e-16 3.97036e-16 1.99173e-15 0 0 0 0 0 0 0 0
1263 1 0.000633784 -0.00296137 0.027736 0.0008 3.43146e-06 2.70954e-13 -1.08358e-12 1.59766e-12 -2.86368e-09 -7.52333e-10 6.84557e-10 5.6118e-16 2.27955e-16 -4.27627e-16 0 0 0 0 0 0 0 0
1264 1 -0.00391271 -0.00526182 0.0263222 0.0008 3.43146e-06 9.87635e-13 1.22883e-12 7.73005e-13 4.90269e-11 -5.55254e-10 3.62543e-10 -1.65954e-15 2.28235e-15 -2.94586e-15 0 0 0 0 0 0 0 0
1265 1 -0.00550777 -0.00149008 0.0251191 0.0008 3.43146e-06 -9.97355e-13 2.48008e-13 9.06732e-13 -1.59358e-09 2.28273e-09 5.98582e-10 5.18701e-16 -2.42441e-15 -1.4527e-15 0 0 0 0 0 0 0 0
1266 1 0.000244882 0.000612346 0.0226898 0.0008 3.43146e-06 -9.56157e-14 -2.44531e-13 -7.13218e-13 1.44722e-09 9.58511e-10 -7.54341e-10 -2.02966e-15 -1.04051e-15 6.71488e-15 0 0 0 0 0 0 0 0
1267 1 0.00574023 -0.00153797 0.0217504 0.0008 3.43146e-06 -3.95547e-13 2.15959e-13 -2.31817e-12 -7.96652e-10 2.15178e-09 -2.28626e-09 -1.65326e-16 2.919e-15 -1.648e-16 0 0 0 0 0 0 0 0
1268 1 0.00140291 0.00460592 0.0244559 0.0008 3.43146e-06 5.41578e-13 2.16683e-12 -1.85766e-12 5.03789e-09 1.06088e-09 1.7116e-09 -1.87061e-16 1.28928e-16 8.78924e-16 0 0 0 0 0 0 0 0
1269 1 0.00719709 0.000209718 0.0256228 0.0008 3.43146e-06 2.09602e-13 6.78216e-14 -1.14658e-12 -3.25648e-10 -1.56195e-09 -2.75993e-10 1.25345e-15 5.93e-16 -1.24055e-15 1 -0.000119134 -3.0135e-06 -8.35875e-06 0.00799661 0.000233016 0.0256228 0.0008
1270 1 -0.00080385 0.00576551 0.0258537 0.0008 3.43146e-06 -2.69206e-13 -1.57693e-12 -2.54142e-12 -1.56608e-10 5.56821e-09 4.15271e-09 -2.33106e-15 7.78382e-16 1.49494e-14 0 0 0 0 0 0 0 0
1271 1 -0.00569902 0.000993928 0.0261376 0.0008 3.43146e-06 -2.05284e-13 -5.41873e-13 9.74872e-13 5.17449e-10 7.65914e-13 -1.44112e-09 8.43972e-16 1.56472e-16 -5.64013e-15 0 0 0 0 0 0 0 0
1272 1 -0.00369581 0.00349252 0.0245089 0.0008 3.43146e-06 1.08258e-12 1.11112e-13 -1.94926e-13 -4.36569e-11 -2.57947e-10 -2.50543e-09 3.07394e-16 -1.68639e-15 5.24239e-16 0 0 0 0 0 0 0 0
1273 1 0.00356177 -0.00293562 0.0274282 0.0008 3.43146e-06 9.61607e-13 3.06469e-13 -2.21043e-12 -1.13833e-09 2.99319e-09 5.91838e-10 5.53281e-16 -1.8698e-15 4.89763e-16 0 0 0 0 0 0 0 0
1274 1 0.00036217 0.00261283 0.0265409 0.0008 3.43146e-06 -1.54165e-13 1.08085e-12 -2.34025e-12 -6.23969e-10 3.09246e-09 -1.84889e-10 -3.71444e-15 -5.2762e-16 -7.98101e-16 0 0 0 0 0 0 0 0
1275 1 -0.00586405 -0.00282258 0.0243092 0.0008 3.43146e-06 -1.26269e-12 -1.08221e-12 7.17181e-13 1.54038e-09 2.24645e-10 9.65906e-10 9.17112e-16 -1.67584e-16 1.22465e-15 0 0 0 0 0 0 0 0
1276 1 0.00622646 0.0036158 0.0269362 0.0008 3.43146e-06 -1.16682e-12 6.84747e-13 2.2187e-12 9.38323e-10 3.71739e-09 -1.26639e-09 -1.38862e-15 -1.72292e-15 -3.14163e-16 1 -0.000182157 -6.12225e-05 -3.06487e-05 0.0069181 0.00401744 0.0269362 0.0008
1277 1 -0.00570085 -0.00439837 0.0245304 0.0008 3.43146e-06 -7.23011e-13 -1.01355e-12 -6.92331e-13 9.27832e-11 1.14689e-09 -4.22348e-10 3.14668e-16 2.52529e-16 5.83829e-16 1 0.000382373 0.000285041 -4.68205e-05 -0.00633395 -0.00488683 0.0245304 0.0008
1278 1 -0.0014444 0.0020928 0.024375 0.0008 3.43146e-06 -5.00515e-13 -1.02675e-12 3.56034e-13 1.0762e-09 -4.23992e-10 -8.75512e-10 7.68316e-16 -7.23506e-17 4.50162e-15 0 0 0 0 0 0 0 0
1279 1 0.00246866 -6.8346e-05 0.0275894 0.0008 3.43146e-06 1.08396e-12 -3.20728e-13 -2.15365e-12 1.07038e-10 5.75741e-10 2.21898e-10 5.80172e-16 3.31593e-15 -3.19036e-15 0 0 0 0 0 0 0 0
1280 1 0.00181491 -0.00255417 0.0261062 0.0008 3.43146e-06 -5.41359e-13 -4.9506e-13 -9.63493e-13 -1.71988e-09 -4.61012e-10 1.67966e-10 -3.72026e-16 -1.50472e-15 8.73774e-16 0 0 0 0 0 0 0 0
1281 1 0.00209442 0.00615387 0.0242669 0.0008 3.43146e-06 4.27363e-13 1.92065e-12 9.07423e-13 -6.62734e-10 4.18956e-10 -3.9374e-10 -6.33211e-15 -7.43507e-16 5.19503e-15 0 0 0 0 0 0 0 0
1282 1 0.00355182 -0.000263244 0.0230478 0.0008 3.43146e-06 4.99633e-13 1.35455e-13 -3.70536e-12 -1.76976e-09 3.30288e-09 -1.55627e-09 -2.44253e-15 9.59839e-16 -2.30867e-15 0 0 0 0 0 0 0 0
1283 1 -0.00422074 0.00160159 0.0262032 0.0008 3.43146e-06 1.02335e-12 -3.91756e-13 4.28132e-13 -1.66748e-09 3.2064e-10 1.06876e-09 -2.05558e-15 -4.53912e-16 1.22796e-15 0 0 0 0 0 0 0 0
1284 1 -0.00152724 -0.00302436 0.0245785 0.0008 3.43146e-06 -5.21971e-13 1.08417e-12 6.12309e-12 9.98673e-10 7.07798e-10 1.88074e-10 -7.76975e-16 -8.57001e-16 -1.43297e-16 0 0 0 0 0 0 0 0
1285 1 -0.00533717 -0.00213902 0.0220437 0.0008 3.43146e-06 -1.87788e-12 7.78463e-13 -1.05765e-13 -3.17551e-09 -1.84746e-09 2.57898e-09 9.18672e-15 -3.02565e-15 -1.11942e-15 0 0 0 0 0 0 0 0
1286 1 0.00586829 -0.000688821 0.0273031 0.0008 3.43146e-06 -2.07229e-12 4.43118e-14 -1.49269e-12 3.56532e-10 8.02198e-10 7.13341e-10 1.84842e-15 1.30922e-15 -1.6481e-16 0 0 0 0 0 0 0 0
1287 1 -0.0033401 -0.00637874 0.0253305 0.0008 3.43146e-06 1.07985e-12 5.69295e-13 2.02477e-14 2.71164e-10 4.50978e-10 -8.64549e-10 -2.00435e-16 1.40481e-15 -1.11316e-15 1 0.000184997 0.000343997 -5.83616e-05 -0.00371106 -0.00708717 0.0253305 0.0008
1288 1 -0.00326294 -0.00169139 0.0268358 0.0008 3.43146e-06 9.43161e-13 5.42066e-13 -5.8256e-13 -3.02496e-09 -3.9222e-10 4.60567e-10 -1.74214e-15 -8.03626e-17 -3.91932e-15 0 0 0 0 0 0 0 0
1289 1 0.000133953 0.00292906 0.0225097 0.0008 3.43146e-06 2.10992e-14 -5.25748e-13 -7.27959e-13 -4.08534e-10 -3.57364e-09 1.30706e-09 -1.85152e-15 3.33897e-15 9.92905e-16 0 0 0 0 0 0 0 0
1290 1 0.00305262 -0.00037021 0.0245637 0.0008 3.43146e-06 1.67955e-13 1.57185e-13 1.92383e-12 2.02588e-09 -1.36353e-09 -7.59607e-10 3.18939e-16 -1.16927e-15 2.27333e-15 0 0 0 0 0 0 0 0
1291 1 0.00523752 -0.00494089 0.0252706 0.0008 3.43146e-06 -8.01253e-13 -8.6016e-13 -4.88087e-13 -7.33341e-10 -1.01264e-10 1.476e-09 5.77596e-16 -1.36327e-15 9.48958e-16 1 -0.000220125 0.000235431 6.43003e-05 0.00581924 -0.00548966 0.0252706 0.0008
1292 1 -0.00461698 -0.00551277 0.0249077 0.0008 3.43146e-06 1.18672e-12 -8.27534e-13 -1.02893e-13 -2.0306e-09 2.45214e-10 1.7305e-09 -2.84989e-15 2.28105e-15 -8.83273e-17 0 0 0 0 0 0 0 0
1293 1 0.000789752 -0.00585371 0.0217295 0.0008 3.43146e-06 2.70646e-13 2.04138e-12 -1.06811e-12 4.24078e-09 1.53869e-09 1.88168e-09 -4.55718e-16 6.83256e-16 1.11874e-15 0 0 0 0 0 0 0 0
1294 1 0.00384639 -0.00570189 0.0278968 0.0008 3.43146e-06 1.08369e-12 -4.1885e-14 3.16171e-12 2.65462e-09 2.06155e-09 9.05051e-10 1.31302e-16 1.88965e-15 1.83512e-15 0 0 0 0 0 0 0 0
1295 1 0.000424759 -0.000610121 0.025641 0.0008 3.43146e-06 -7.5763e-14 8.2355e-14 -3.01515e-12 1.08914e-09 6.77859e-10 3.46825e-10 -3.40966e-16 -4.86107e-16 -3.16156e-15 0 0 0 0 0 0 0 0
1296 1 -0.00637407 0.00334902 0.0227015 0.0008 3.43146e-06 5.91072e-13 -1.08177e-12 8.5446e-13 -1.90842e-09 -2.07158e-10 -8.53821e-10 4.85577e-16 -6.09572e-17 2.9494e-15 1 0.000371208 -0.000157131 1.85167e-06 -0.00708198 0.00372096 0.0227015 0.0008
1297 1 0.00179809 -0.00478901 0.0240824 0.0008 3.43146e-06 -3.01769e-13 -8.29971e-14 3.02256e-13 -2.83305e-09 2.31648e-09 4.02618e-11 1.94668e-15 -2.90322e-15 -9.41789e-16 0 0 0 0 0 0 0 0
1298 1 -0.00241009 -0.00678476 0.024094 0.0008 3.43146e-06 -2.78616e-13 -7.25282e-14 -1.06016e-12 -8.12579e-10 1.71307e-09 3.02252e-10 1.65713e-15 -5.92207e-16 -4.98294e-16 1 1.91933e-05 7.1583e-05 1.11021e-05 -0.00267784 -0.00753851 0.024094 0.0008
1299 1 -0.00501592 0.00270765 0.0249571 0.0008 3.43146e-06 4.86175e-13 6.68885e-13 7.14579e-13 -6.6196e-10 8.70193e-10 1.62824e-09 3.66118e-15 1.50306e-16 -1.02461e-15 0 0 0 0 0 0 0 0
1300 1 0.00488871 -0.00322142 0.0260003 0.0008 3.43146e-06 -5.62861e-14 -1.08315e-12 5.07219e-13 2.81942e-10 -2.67692e-10 -7.92343e-10 5.10566e-16 -1.14608e-17 2.58818e-16 0 0 0 0 0 0 0 0
1301 1 -0.00583621 -0.00371475 0.0272118 0.0008 3.43146e-06 -2.16823e-12 -1.08413e-12 -1.4058e-12 1.54509e-09 -2.7919e-09 -1.39506e-10 -3.7628e-17 -2.67589e-16 1.03484e-15 0 0 0 0 0 0 0 0
1302 1 -0.00087075 0.00173467 0.0229254 0.0008 3.43146e-06 -2.71247e-13 1.23687e-13 8.29264e-13 3.29908e-10 -1.11228e-10 7.13122e-10 -3.55181e-16 3.72948e-16 3.48614e-15 0 0 0 0 0 0 0 0
1303 1 0.00458385 -0.00463541 0.0222869 0.0008 3.43146e-06 -1.15085e-12 -1.82976e-12 4.62194e-13 -5.74178e-10 -1.459e-09 -1.64655e-09 1.41576e-15 2.38283e-16 5.24497e-16 0 0 0 0 0 0 0 0
1304 1 6.88347e-06 -0.00720015 0.0272875 0.0008 3.43146e-06 2.13306e-13 -9.69754e-13 -4.93792e-13 -6.96305e-10 -1.39926e-09 -3.85594e-10 -5.76084e-16 6.29022e-16 9.47853e-16 1 1.21624e-05 0.000127303 7.46308e-06 7.64814e-06 -0.008 0.0272875 0.0008
1305 1 -0.00253504 -0.00217749 0.0254966 0.0008 3.43146e-06 1.0587e-12 -6.20517e-13 1.48721e-12 5.97747e-10 -5.29555e-10 -3.05633e-10 -1.62664e-15 5.27122e-15 -2.13419e-15 0 0 0 0 0 0 0 0
1306 1 -0.00177058 0.00696718 0.0281035 0.0008 3.43146e-06 -5.41966e-13 -1.51564e-12 8.66982e-12 -9.89503e-11 -3.46117e-10 -7.38615e-10 7.11999e-16 1.94348e-15 1.49955e-15 0 0 0 0 0 0 0 0
1307 1 0.000427163 -0.00273766 0.0240174 0.0008 3.43146e-06 3.96493e-13 -3.64334e-13 1.38056e-12 1.36594e-10 -3.01512e-09 2.30802e-09 -8.41202e-16 -1.5729e-15 -3.01673e-15 0 0 0 0 0 0 0 0
1308 1 0.00213928 0.00383705 0.0256534 0.0008 3.43146e-06 1.07643e-12 -7.37184e-13 -4.59091e-12 3.56458e-10 8.84946e-10 2.18995e-10 -3.67113e-16 7.50304e-16 6.69234e-15 0 0 0 0 0 0 0 0
1309 1 0.000639604 -0.00405239 0.0249036 0.0008 3.43146e-06 2.71083e-13 6.32667e-13 5.24385e-13 6.75153e-10 -5.3714e-10 1.98993e-10 -3.39106e-16 9.32669e-16 -5.60376e-15 0 0 0 0 0 0 0 0
1310 1 5.98941e-05 -0.00443788 0.0279584 0.0008 3.43146e-06 7.3705e-14 2.51023e-13 3.92019e-12 -8.67644e-10 -5.40085e-10 -1.13887e-09 -1.79657e-15 -2.77776e-15 -5.20684e-16 0 0 0 0 0 0 0 0
1311 1 -0.00571587 -0.00133012 0.0233926 0.0008 3.43146e-06 -8.07413e-13 -1.20881e-13 1.1674e-13 -8.15019e-10 1.5892e-09 -7.5675e-10 3.75924e-16 3.40255e-16 8.80827e-16 0 0 0 0 0 0 0 0
1312 1 -0.00230381 -0.0017639 0.0239687 0.0008 3.43146e-06 1.08224e-12 5.19282e-13 1.17713e-12 4.55229e-10 1.75193e-10 1.97792e-09 -5.74445e-16 6.62575e-15 -2.93997e-15 0 0 0 0 0 0 0 0
1313 1 0.00147666 -0.00418271 0.0217939 0.0008 3.43146e-06 -4.68717e-13 3.13146e-13 1.23555e-13 2.71222e-09 9.20996e-10 1.42837e-09 1.55587e-15 -1.03262e-15 -1.46585e-15 0 0 0 0 0 0 0 0
1314 1 -0.00440097 0.0056984 0.021846 0.0008 3.43146e-06 1.52165e-12 -2.11507e-12 -4.57837e-12 4.19927e-09 3.90455e-09 -9.49238e-11 1.55434e-15 9.42277e-17 2.5189e-17 1 5.2703e-06 -6.98052e-06 -1.67862e-06 -0.00488995 0.00633154 0.021846 0.0008
1315 1 -0.00253679 0.000652992 0.0275162 0.0008 3.43146e-06 -2.42269e-13 2.69733e-13 -1.50841e-12 2.84892e-10 1.61409e-09 -1.60886e-09 4.29176e-15 -8.92368e-16 -1.79837e-15 0 0 0 0 0 0 0 0
1316 1 0.00492585 0.00312881 0.0252927 0.0008 3.43146e-06 9.55598e-13 -1.01609e-12 -1.24347e-12 -1.70775e-09 -1.58396e-09 2.51139e-10 2.36074e-16 -2.56559e-15 -4.21845e-15 0 0 0 0 0 0 0 0
1317 1 -0.00276909 0.00217414 0.0229272 0.0008 3.43146e-06 -1.06585e-12 1.43092e-13 4.93256e-13 -1.2222e-09 4.11009e-10 7.38894e-10 1.0304e-15 -5.01541e-16 2.59456e-15 0 0 0 0 0 0 0 0
1318 1 0.000678215 0.00585342 0.0252587 0.0008 3.43146e-06 -2.70943e-13 1.6328e-12 -5.19538e-12 4.81912e-10 -2.46253e-09 -2.90319e-11 3.26449e-16 -1.98288e-15 1.55008e-14 0 0 0 0 0 0 0 0
1319 1 -0.00552618 0.00143806 0.0240802 0.0008 3.43146e-06 -9.53989e-13 5.06647e-13 2.96127e-13 -4.21815e-10 -3.15819e-09 4.68319e-10 9.93332e-16 -2.00485e-15 3.22297e-16 0 0 0 0 0 0 0 0
1320 1 0.00679306 -0.00238804 0.0243526 0.0008 3.43146e-06 -7.18987e-13 1.04396e-12 4.75959e-14 -8.3964e-10 3.81457e-10 -9.32236e-10 -1.79796e-15 1.31043e-15 -3.22719e-16 1 -0.000862301 0.000394898 -0.000108223 0.00754723 -0.00265316 0.0243526 0.0008
1321 1 0.00312104 -0.00432608 0.0248535 0.0008 3.43146e-06 3.69862e-13 7.23481e-13 -1.70905e-12 7.99286e-10 -1.28111e-10 1.09573e-10 1.51804e-15 1.07034e-15 -7.20572e-16 0 0 0 0 0 0 0 0
1322 1 0.00163479 -0.00701196 0.02314 0.0008 3.43146e-06 -5.42091e-13 2.16737e-12 -1.35544e-12 -2.39603e-09 4.38664e-09 1.29165e-10 1.21456e-16 2.04974e-16 -4.05249e-16 1 -1.28095e-07 9.63916e-07 -9.45709e-08 0.00181643 -0.00779106 0.02314 0.0008
1323 1 0.00190649 -0.00413489 0.0258771 0.0008 3.43146e-06 -5.41e-13 -8.7229e-14 -2.91568e-13 1.04666e-09 6.02793e-10 -9.96552e-11 4.88246e-17 9.74117e-16 -2.97708e-15 0 0 0 0 0 0 0 0
1324 1 0.000724699 -0.00565286 0.0248954 0.0008 3.43146e-06 7.60667e-14 -5.87117e-13 1.74889e-12 4.21079e-09 6.65035e-10 -7.85173e-10 1.44772e-15 -3.5132e-15 -8.06702e-16 0 0 0 0 0 0 0 0
1325 1 0.00357819 0.000398649 0.0215779 0.0008 3.43146e-06 1.37781e-13 7.01487e-15 -1.83371e-12 1.0141e-09 -7.17281e-10 -1.00046e-10 2.22731e-15 -1.66709e-15 -2.3879e-15 0 0 0 0 0 0 0 0
1326 1 -0.00450737 -0.000653197 0.0241928 0.0008 3.43146e-06 -1.26588e-12 -1.61709e-14 -7.09036e-13 -8.08977e-10 -1.75927e-09 3.81634e-10 1.27847e-15 -5.13965e-15 5.84555e-15 0 0 0 0 0 0 0 0
1327 1 0.00551491 0.00140105 0.0236073 0.0008 3.43146e-06 1.18384e-12 5.42072e-13 9.25154e-13 -1.39662e-09 2.19613e-10 -3.07965e-09 2.69443e-15 2.00355e-16 5.53029e-16 0 0 0 0 0 0 0 0
1328 1 -0.00349751 0.00629353 0.024185 0.0008 3.43146e-06 1.77474e-13 -6.87424e-13 -7.75484e-13 2.55326e-10 1.49368e-09 -1.6558e-10 2.86139e-16 9.97445e-16 -5.24621e-16 1 1.66945e-05 -3.9114e-05 2.59309e-06 -0.00388608 0.00699274 0.024185 0.0008
1329 1 -0.00407715 -0.00593452 0.0218745 0.0008 3.43146e-06 5.45593e-13 1.84312e-12 2.4384e-12 2.37229e-09 -2.06486e-09 7.45995e-10 1.06699e-15 -6.30941e-16 -2.10646e-16 1 3.84699e-05 7.84771e-05 2.01742e-05 -0.00453009 -0.0065938 0.0218745 0.0008
1330 1 -0.00326078 0.00022269 0.0237031 0.0008 3.43146e-06 -1.08422e-12 2.82304e-14 -1.78028e-12 5.191e-10 -2.54652e-09 7.05992e-09 4.01672e-16 2.46106e-15 -3.72479e-15 0 0 0 0 0 0 0 0
1331 1 0.00256501 -0.000571042 0.0260738 0.0008 3.43146e-06 1.62872e-13 -2.70871e-13 -2.33329e-12 -5.05071e-12 1.53847e-10 -1.35391e-09 -9.68774e-16 -1.69388e-16 -2.19459e-15 0 0 0 0 0 0 0 0
1332 1 -0.00380501 -0.00192208 0.0216371 0.0008 3.43146e-06 -9.33728e-13 5.41402e-13 1.40983e-12 -1.22e-09 -9.93128e-10 -1.80307e-09 3.0316e-15 5.55639e-16 -1.06041e-14 0 0 0 0 0 0 0 0
1333 1 0.00455653 -0.0037076 0.0245129 0.0008 3.43146e-06 -8.74509e-13 -9.21799e-13 -1.04614e-12 1.77542e-11 1.11998e-10 -1.53498e-09 8.35888e-16 1.71188e-15 -2.65429e-16 0 0 0 0 0 0 0 0
1334 1 0.00212172 0.00688096 0.0216467 0.0008 3.43146e-06 -1.94127e-14 -1.63136e-12 -5.2974e-13 1.48048e-09 2.17104e-09 5.01033e-10 -4.48586e-16 -1.08037e-15 8.22807e-16 1 -0.000440937 -0.00102509 -3.50807e-05 0.00235726 0.00764482 0.0216467 0.0008
1335 1 0.00492909 -0.00524856 0.0268098 0.0008 3.43146e-06 4.98689e-13 9.17719e-13 -1.70529e-14 -1.63612e-09 1.67213e-09 -1.21036e-09 7.48203e-16 4.28045e-16 -1.86783e-15 1 -0.000169328 0.000162724 1.55645e-05 0.00547659 -0.00583155 0.0268098 0.0008
1336 1 0.00494393 0.00523463 0.0250119 0.0008 3.43146e-06 1.99102e-12 1.45105e-12 -1.90058e-13 -3.75111e-09 -4.18255e-09 5.09715e-10 1.52732e-15 -1.15121e-15 -1.74685e-15 1 -0.000187016 -0.000212464 5.78266e-05 0.00549305 0.00581604 0.0250119 0.0008
1337 1 0.0015025 -0.00704169 0.0247345 0.0008 3.43146e-06 -3.12472e-13 -2.97894e-13 -8.17384e-13 -1.15814e-09 4.4408e-10 4.74074e-10 7.77267e-16 -1.29478e-15 -1.17941e-15 1 -4.40339e-05 0.000189632 3.29234e-06 0.0016694 -0.00782388 0.0247345 0.0008
1338 1 0.006608 0.00167528 0.0273953 0.0008 3.43146e-06 -1.89086e-12 5.33301e-13 1.62227e-13 7.70536e-10 3.53769e-09 1.21289e-10 -1.33802e-15 -7.25966e-16 1.27913e-15 0 0 0 0 0 0 0 0
1339 1 0.00651822 0.000293169 0.0241766 0.0008 3.43146e-06 -1.52372e-12 1.24903e-13 -7.34639e-13 -5.1883e-10 3.82603e-09 -1.57512e-09 7.26953e-16 6.04495e-16 -2.95528e-16 0 0 0 0 0 0 0 0
1340 1 0.00143116 0.00705646 0.0231141 0.0008 3.43146e-06 4.48043e-13 -2.05612e-12 1.50819e-13 1.50347e-10 1.62682e-09 1.07977e-09 1.78255e-16 1.58373e-15 8.35314e-16 1 -1.95073e-05 -0.000100165 -2.07431e-05 0.00159015 0.00784037 0.0231141 0.0008
1341 1 0.00579436 -0.000224659 0.0228376 0.0008 3.43146e-06 3.12893e-13 -4.82235e-14 -1.95943e-12 -3.9152e-09 2.95585e-09 2.89827e-10 2.1738e-15 1.35814e-15 1.33831e-15 0 0 0 0 0 0 0 0
1342 1 -0.00121338 0.000436359 0.0220555 0.0008 3.43146e-06 4.62894e-13 -1.17464e-13 1.01511e-12 -6.04506e-10 8.17012e-10 9.03011e-10 -1.3629e-15 -2.57523e-16 -1.70923e-15 0 0 0 0 0 0 0 0
1343 1 -0.00501167 0.00516975 0.0253929 0.0008 3.43146e-06 1.08606e-12 -2.67687e-13 -3.01024e-12 2.09789e-09 3.25196e-09 7.27539e-10 2.63128e-16 9.14089e-16 -8.94179e-16 1 0.000101929 -0.00020651 5.32821e-06 -0.00556836 0.00574399 0.0253929 0.0008
1344 1 0.00437608 0.00404665 0.0241033 0.0008 3.43146e-06 2.16817e-12 -7.64569e-13 -1.41717e-12 1.90333e-09 5.39364e-10 -1.29857e-09 -1.92099e-16 -2.13168e-15 -3.86987e-15 0 0 0 0 0 0 0 0
1345 1 -0.000391942 0.00451617 0.0249434 0.0008 3.43146e-06 -1.37009e-13 1.22543e-12 -3.74889e-12 5.992e-10 2.77034e-09 2.81926e-09 3.85441e-16 2.1939e-15 2.70254e-15 0 0 0 0 0 0 0 0
1346 1 0.00300515 0.00306046 0.0245551 0.0008 3.43146e-06 -6.71305e-13 -2.30445e-13 -2.29221e-12 -2.20619e-09 8.01161e-11 4.03488e-10 1.41728e-15 6.15553e-15 1.45638e-15 0 0 0 0 0 0 0 0
1347 1 -0.00546237 -0.000657604 0.021447 0.0008 3.43146e-06 2.16826e-12 3.06186e-13 1.34461e-12 -1.58538e-09 8.51347e-09 1.34725e-09 -9.38096e-16 3.44624e-15 -8.32006e-15 0 0 0 0 0 0 0 0
1348 1 -0.000475884 -0.000603327 0.0273157 0.0008 3.43146e-06 1.66232e-13 2.70993e-13 -1.26002e-12 3.94239e-10 3.24119e-10 -1.65498e-09 1.81982e-15 -1.22072e-15 -3.89785e-16 0 0 0 0 0 0 0 0
1349 1 0.0020613 -0.00572377 0.0257718 0.0008 3.43146e-06 1.08417e-12 -7.92608e-13 -4.73972e-13 -1.21839e-09 2.28442e-09 2.28269e-09 2.72091e-16 -7.65143e-16 -3.57041e-15 0 0 0 0 0 0 0 0
1350 1 0.000823778 -0.000741684 0.0240975 0.0008 3.43146e-06 -1.44847e-13 2.70578e-13 -3.07296e-12 -2.69379e-10 -7.18681e-10 -2.47681e-09 5.83381e-16 -9.75207e-16 -4.82213e-15 0 0 0 0 0 0 0 0
1351 1 -0.00414697 -0.00311886 0.0266956 0.0008 3.43146e-06 1.72411e-12 5.305e-13 4.19021e-12 -1.38158e-09 -5.54487e-10 -2.28297e-10 -2.09027e-15 -1.72903e-16 -1.73319e-15 0 0 0 0 0 0 0 0
1352 1 -0.00147941 0.00704684 0.0265324 0.0008 3.43146e-06 -3.96019e-13 -1.66674e-12 1.82187e-13 -3.72368e-10 1.96854e-09 -8.58575e-10 3.9521e-15 -1.12329e-15 6.68699e-15 1 8.02859e-05 -0.000665594 2.33224e-05 -0.00164368 0.00782932 0.0265324 0.0008
1353 1 0.00441237 0.00149989 0.0223848 0.0008 3.43146e-06 -2.29496e-13 -3.20932e-13 -7.41951e-13 4.58432e-11 -3.82202e-10 1.28215e-10 -1.42743e-16 2.37992e-15 -1.7094e-15 0 0 0 0 0 0 0 0
1354 1 -0.0038702 -0.0060715 0.0236079 0.0008 3.43146e-06 1.00299e-12 -1.21589e-12 9.97314e-13 1.0049e-09 -6.51623e-10 -1.83264e-09 -1.31143e-16 1.09871e-15 -1.1746e-15 1 4.42533e-05 6.10594e-05 1.54517e-05 -0.00430016 -0.00674601 0.0236079 0.0008
1355 1 -0.0022805 0.0052594 0.0240376 0.0008 3.43146e-06 -4.27482e-14 -3.13661e-13 -8.19748e-12 -1.30293e-09 -2.90655e-09 1.35326e-09 -5.64338e-15 -3.34432e-15 -4.64289e-15 0 0 0 0 0 0 0 0
1356 1 -0.00205102 -0.000652473 0.0267295 0.0008 3.43146e-06 -7.7037e-13 2.70839e-13 -1.09517e-12 -5.6635e-10 -1.77362e-09 9.22908e-10 8.5399e-15 -1.19265e-16 -2.48069e-15 0 0 0 0 0 0 0 0
1357 1 0.00666922 -0.00271331 0.0262895 0.0008 3.43146e-06 -1.66443e-12 7.78964e-13 -2.30286e-13 -1.67422e-09 3.91606e-10 -1.37771e-10 6.46309e-16 1.04958e-15 6.42302e-16 1 -1.44553e-05 5.21222e-06 1.08819e-06 0.0074102 -0.00301478 0.0262895 0.0008
1358 1 -0.00458053 -0.00245637 0.0234276 0.0008 3.43146e-06 -1.16281e-12 -1.69077e-13 9.24728e-13 -1.4807e-09 -6.98727e-10 3.63257e-10 4.68933e-17 4.09068e-18 1.58577e-15 0 0 0 0 0 0 0 0
1359 1 0.00048334 -0.00166215 0.0228346 0.0008 3.43146e-06 1.35616e-13 1.94082e-13 -9.92657e-13 -1.71934e-09 1.37636e-10 1.47573e-09 -1.19558e-15 5.2934e-15 -1.99676e-15 0 0 0 0 0 0 0 0
1360 1 -0.00540855 -0.00475285 0.0260719 0.0008 3.43146e-06 -5.02056e-13 5.08757e-13 -1.72679e-13 -6.93826e-10 -2.59273e-10 9.00735e-10 -7.36436e-16 -7.02669e-16 1.96203e-16 1 8.49551e-05 7.72551e-05 -8.48745e-06 -0.00600938 -0.00528084 0.0260719 0.0008
1361 1 0.00710338 -0.00117842 0.0264125 0.0008 3.43146e-06 -1.47015e-12 5.10832e-13 -1.21864e-12 8.58392e-11 -1.55179e-09 -2.95302e-10 1.33854e-15 -7.26367e-16 1.29349e-16 1 -0.000659814 0.000118925 0.000131168 0.00789214 -0.00130927 0.0264125 0.0008
1362 1 0.00159456 0.00702131 0.0271856 0.0008 3.43146e-06 -5.01211e-13 -1.52924e-12 -8.67355e-12 9.62115e-09 -7.08231e-09 -5.92595e-10 3.26961e-16 -1.23793e-14 2.04412e-16 1 -3.49042e-05 -6.01906e-05 -4.10393e-06 0.00177171 0.00780135 0.0271856 0.0008
1363 1 0.00215949 0.00233415 0.0262111 0.0008 3.43146e-06 -4.0602e-13 2.62123e-13 -2.74221e-12 -4.65542e-10 2.26594e-09 -1.212e-09 -2.21013e-15 1.13232e-15 3.19036e-15 0 0 0 0 0 0 0 0
1364 1 9.35041e-05 -0.00719966 0.0239939 0.0008 3.43146e-06 1.7018e-14 -4.3528e-13 1.1804e-12 1.44508e-09 1.64217e-09 -2.03991e-12 1.20286e-15 -6.47608e-16 2.13048e-15 1 6.00537e-05 0.000295649 3.21327e-05 0.00010389 -0.00799933 0.0239939 0.0008
1365 1 0.00446867 0.00564546 0.0271848 0.0008 3.43146e-06 1.62652e-12 2.167e-12 6.89501e-13 3.6572e-09 5.92372e-09 -1.07674e-10 -5.63123e-16 -5.34592e-16 7.64713e-16 1 -2.8581e-06 -2.59347e-06 -3.85141e-07 0.00496518 0.00627272 0.0271848 0.0008
1366 1 -0.00224536 -0.00684093 0.0264018 0.0008 3.43146e-06 7.54218e-13 7.93653e-13 -1.49478e-12 -1.27496e-09 1.25086e-09 -3.85019e-10 1.14246e-15 8.1488e-16 -1.03248e-15 1 9.86571e-09 3.07187e-08 2.42537e-10 -0.00249484 -0.00760104 0.0264018 0.0008
1367 1 0.00524785 -0.00228523 0.0247537 0.0008 3.43146e-06 3.88079e-13 7.54734e-13 1.70943e-13 1.29872e-09 5.07106e-11 1.06269e-09 3.4315e-16 2.34039e-15 -3.64423e-16 0 0 0 0 0 0 0 0
1368 1 -0.00261363 0.00670888 0.0254524 0.0008 3.43146e-06 6.14305e-13 -2.16784e-12 -1.19522e-12 1.47236e-09 -4.2011e-10 -3.86662e-10 1.00264e-15 -3.27357e-16 7.82144e-17 1 2.38135e-07 -1.18121e-06 -1.32305e-07 -0.00290404 0.0074543 0.0254524 0.0008
1369 1 0.000692078 0.00336088 0.0251659 0.0008 3.43146e-06 6.35387e-14 1.08359e-12 -5.06468e-12 -1.32378e-10 -1.10107e-09 -2.82379e-09 -6.22061e-15 3.34498e-18 3.34542e-15 0 0 0 0 0 0 0 0
1370 1 -0.00500775 -0.00517349 0.0229299 0.0008 3.43146e-06 -6.76542e-13 -4.55702e-13 4.72283e-13 -4.44704e-10 -1.33756e-09 2.47203e-10 -5.83708e-16 3.20957e-16 3.95474e-16 1 9.97809e-05 0.000126208 2.1721e-05 -0.00556403 -0.00574818 0.0229299 0.0008
1371 1 0.00553752 0.00107266 0.0251728 0.0008 3.43146e-06 -2.05591e-12 5.08172e-13 -3.79518e-12 2.6375e-09 -3.25238e-09 -2.27173e-09 1.92239e-15 5.71151e-16 -2.38866e-16 0 0 0 0 0 0 0 0
1372 1 -0.000450409 -0.00152559 0.0246635 0.0008 3.43146e-06 -1.35476e-13 5.42148e-13 -3.26336e-12 1.64165e-09 1.3873e-09 1.6174e-09 1.63961e-16 3.7471e-16 -8.31714e-15 0 0 0 0 0 0 0 0
1373 1 0.00679557 -0.00238108 0.0208943 0.0008 3.43146e-06 -5.76384e-13 -1.03943e-12 -1.79974e-12 -7.6181e-10 -2.13258e-09 1.45371e-09 1.63942e-16 8.41399e-16 -9.67408e-18 1 -0.000998074 0.000482589 9.36045e-05 0.00754996 -0.00264541 0.0208943 0.0008
1374 1 -0.00720018 5.46843e-05 0.0240764 0.0008 3.43146e-06 -2.05789e-12 2.74452e-15 6.49229e-13 -6.67253e-10 -7.61965e-10 -1.67368e-11 9.07513e-16 5.02714e-16 -2.27911e-15 1 0.000503994 3.20407e-05 -3.01236e-06 -0.00799977 6.07571e-05 0.0240764 0.0008
1375 1 0.00391569 0.00189341 0.0251617 0.0008 3.43146e-06 -1.71761e-12 -4.09272e-13 -1.47091e-12 -1.03244e-09 2.02071e-09 -3.1405e-09 -3.21835e-15 6.91145e-16 3.33262e-15 0 0 0 0 0 0 0 0
1376 1 0.00337649 0.00470408 0.026432 0.0008 3.43146e-06 -1.0835e-12 4.79515e-13 -1.19392e-12 5.18623e-09 -3.58361e-09 8.40089e-10 1.89166e-16 1.41154e-15 -2.94567e-16 0 0 0 0 0 0 0 0
1377 1 -0.00311095 -0.00490666 0.0243994 0.0008 3.43146e-06 2.08642e-13 -1.87191e-12 3.54014e-12 2.93742e-09 3.82258e-10 3.35303e-09 6.14197e-16 2.42754e-15 -1.92127e-15 0 0 0 0 0 0 0 0
1378 1 0.00278902 0.00232674 0.0225181 0.0008 3.43146e-06 1.08414e-12 1.08406e-12 1.5005e-13 -3.50354e-09 6.79845e-10 -2.46509e-10 -3.68309e-16 3.7137e-16 1.65565e-15 0 0 0 0 0 0 0 0
1379 1 0.000296169 -0.00258344 0.0256042 0.0008 3.43146e-06 -7.12535e-14 2.77864e-14 8.08876e-13 -8.47186e-10 2.42412e-09 -1.59582e-09 -1.2907e-16 -1.24621e-15 9.52122e-16 0 0 0 0 0 0 0 0
1380 1 -0.00147133 0.00598237 0.0227965 0.0008 3.43146e-06 5.41673e-13 -5.73287e-13 -3.19459e-12 -3.94561e-09 2.99552e-09 1.74305e-09 -2.6711e-16 -1.95836e-15 -1.87258e-15 0 0 0 0 0 0 0 0
1381 1 0.0027186 -0.0028154 0.0243934 0.0008 3.43146e-06 -2.15583e-13 4.41881e-13 -1.99219e-12 -5.89422e-10 -3.9277e-10 1.00733e-09 1.32748e-15 -2.81218e-15 -9.35831e-18 0 0 0 0 0 0 0 0
1382 1 0.000570435 -0.00566923 0.0233032 0.0008 3.43146e-06 1.30267e-13 6.19791e-13 2.27709e-12 -2.55713e-09 -6.71485e-10 2.40034e-09 3.57036e-15 -6.52595e-16 2.10075e-16 0 0 0 0 0 0 0 0
1383 1 0.00275516 0.00379372 0.0231554 0.0008 3.43146e-06 1.08377e-12 5.60067e-13 1.28828e-12 5.20974e-09 -1.91964e-09 -4.15349e-10 3.63877e-17 -4.88824e-16 2.71782e-15 0 0 0 0 0 0 0 0
1384 1 0.000119939 0.00718803 0.0265882 0.0008 3.43146e-06 -2.73727e-12 -1.2485e-12 -8.65192e-12 9.23959e-09 6.08812e-09 8.23265e-09 7.27443e-15 -2.89704e-15 8.22836e-15 0 0 0 0 0 0 0 0
1385 1 0.00198169 0.00518523 0.0229987 0.0008 3.43146e-06 9.68515e-13 -1.2988e-12 2.13939e-12 -3.20125e-09 -2.49909e-11 2.01882e-09 -4.97539e-16 -2.76719e-15 5.53416e-17 0 0 0 0 0 0 0 0
1386 1 -0.00102051 0.00455162 0.0233518 0.0008 3.43146e-06 -3.45968e-13 1.57548e-12 -2.76982e-12 2.76135e-09 -4.16239e-09 -1.58691e-09 -2.85355e-15 4.72732e-15 -3.76954e-16 0 0 0 0 0 0 0 0
1387 1 -0.00206847 0.00337525 0.0268013 0.0008 3.43146e-06 -5.80918e-13 -9.8969e-13 5.83015e-12 4.00071e-09 -1.02759e-09 3.01772e-09 -5.99151e-15 3.77397e-15 -1.41613e-15 0 0 0 0 0 0 0 0
1388 1 0.00398196 -0.00599879 0.0217052 0.0008 3.43146e-06 -6.74025e-13 1.74365e-12 4.38353e-13 1.29908e-09 -9.31071e-10 -4.61031e-10 1.5919e-15 -7.25233e-16 -5.59894e-16 1 -3.6749e-05 5.82232e-05 1.33355e-06 0.00442433 -0.00666523 0.0217052 0.0008
1389 1 0.00586985 0.00416983 0.0235439 0.0008 3.43146e-06 1.61161e-12 -5.23976e-13 -1.59668e-13 -2.25034e-09 -1.88553e-09 1.65653e-09 2.51343e-15 -2.97613e-15 5.15805e-16 1 -0.000123582 -0.000104274 -2.48437e-07 0.00652189 0.00463303 0.0235439 0.0008
1390 1 0.00447512 -0.0010882 0.0322377 0.0008 3.43146e-06 -4.09554e-13 -4.9763e-13 -1.17989e-12 1.19084e-09 1.64962e-09 -9.5925e-10 -4.58327e-15 1.80507e-15 1.19472e-14 0 0 0 0 0 0 0 0
1391 1 0.00159698 -0.00457602 0.0302164 0.0008 3.43146e-06 -1.6637e-13 -2.16543e-12 6.72578e-12 3.38968e-09 -6.57957e-10 -8.44527e-10 -1.8904e-15 8.41251e-16 -5.32714e-15 0 0 0 0 0 0 0 0
1392 1 -0.0024913 0.00675527 0.029516 0.0008 3.43146e-06 -1.33551e-12 -2.1672e-12 -1.77555e-12 4.66232e-09 -5.57455e-09 -3.25837e-09 -4.75938e-15 7.47181e-16 7.71977e-16 1 6.06332e-07 -3.94986e-06 -5.42504e-07 -0.00276811 0.00750584 0.029516 0.0008
1393 1 0.00220254 -0.00162769 0.0273515 0.0008 3.43146e-06 2.95984e-13 -5.4194e-13 -2.4431e-12 6.03509e-10 1.50792e-09 -9.55198e-10 -4.39032e-16 4.38039e-16 -1.27344e-15 0 0 0 0 0 0 0 0
1394 1 0.00518432 0.002199 0.0280779 0.0008 3.43146e-06 -1.7993e-12 7.86715e-13 -2.84747e-12 2.474e-09 -3.73085e-09 -2.04031e-10 1.43589e-15 4.82193e-15 -1.41473e-15 0 0 0 0 0 0 0 0
1395 1 0.0044447 -0.00418323 0.0279003 0.0008 3.43146e-06 2.16781e-12 5.72024e-13 -2.29865e-12 -2.87484e-11 -8.92247e-10 2.08205e-10 -2.05458e-16 1.31072e-15 1.35904e-15 0 0 0 0 0 0 0 0
1396 1 -0.00644425 -0.00185363 0.030706 0.0008 3.43146e-06 -2.36332e-13 5.42001e-13 -3.3856e-12 7.33984e-10 -4.11669e-09 1.39934e-09 -1.70783e-15 5.82436e-16 -1.4634e-15 0 0 0 0 0 0 0 0
1397 1 -0.00193477 0.00442243 0.0253565 0.0008 3.43146e-06 -3.55802e-13 -7.51056e-13 -1.86952e-12 -1.86204e-09 -4.85027e-10 1.54404e-10 -9.66792e-15 -4.63246e-15 2.05563e-15 0 0 0 0 0 0 0 0
1398 1 -0.000637669 0.00327495 0.0307446 0.0008 3.43146e-06 -3.03014e-13 2.65017e-13 -7.65864e-12 -5.97791e-10 3.43169e-09 1.14323e-09 -3.60482e-15 -2.30903e-14 3.65836e-16 0 0 0 0 0 0 0 0
1399 1 -0.00572298 0.000463212 0.0276465 0.0008 3.43146e-06 -1.98568e-12 -1.53713e-13 -2.29385e-13 -3.35435e-10 -1.90129e-09 -3.9403e-11 3.14517e-15 1.0285e-15 -6.11471e-15 0 0 0 0 0 0 0 0
1400 1 -0.00225404 0.00386822 0.0291614 0.0008 3.43146e-06 4.85297e-13 -3.24079e-13 -7.51075e-12 1.54384e-09 -2.7354e-09 2.18935e-09 -2.59064e-15 -1.85081e-14 1.1056e-14 0 0 0 0 0 0 0 0
1401 1 -0.00380349 0.00611344 0.0305558 0.0008 3.43146e-06 1.08418e-12 2.03397e-12 -2.51597e-15 -2.32074e-09 3.54295e-09 2.301e-09 -1.34458e-15 7.98041e-15 -1.23221e-15 1 7.91536e-06 -2.22292e-05 -5.26528e-07 -0.00422607 0.00679267 0.0305558 0.0008
1402 1 -0.0070368 -0.00152459 0.0242741 0.0008 3.43146e-06 -1.8532e-12 6.408e-14 1.10799e-12 3.05279e-10 -1.34458e-09 5.63631e-10 -4.05947e-16 1.63132e-15 9.05572e-16 1 3.46716e-05 9.9052e-06 4.78563e-06 -0.0078186 -0.00169398 0.0242741 0.0008
1403 1 -0.00551989 -0.00232616 0.0264826 0.0008 3.43146e-06 -8.59007e-13 8.757e-13 9.27685e-13 9.15739e-10 -3.40099e-09 1.68807e-09 1.41964e-15 -1.13612e-15 8.81589e-17 0 0 0 0 0 0 0 0
1404 1 -0.00698439 0.00174935 0.0318013 0.0008 3.43146e-06 -1.26257e-12 -2.89749e-13 -2.52617e-12 2.21692e-09 2.59623e-09 -7.25663e-10 7.60055e-15 9.92117e-15 -7.16147e-16 1 9.51629e-05 -4.59487e-05 1.265e-05 -0.00776029 0.00194369 0.0318013 0.0008
1405 1 -0.00241017 -0.000789954 0.0314241 0.0008 3.43146e-06 1.08421e-12 -8.10376e-13 -4.84383e-12 3.29274e-09 9.56252e-10 3.28441e-10 8.24748e-16 8.89913e-15 -7.20349e-15 0 0 0 0 0 0 0 0
1406 1 0.00316155 0.00440078 0.0295905 0.0008 3.43146e-06 -1.08401e-12 1.38606e-12 -2.42329e-12 2.20765e-09 -4.23224e-10 1.85242e-09 1.91407e-16 5.00432e-15 -7.66996e-15 0 0 0 0 0 0 0 0
1407 1 -0.00164185 -0.00294359 0.0299678 0.0008 3.43146e-06 5.42119e-13 -1.08375e-12 3.45698e-12 3.51001e-12 3.52179e-09 2.01897e-10 3.60693e-16 1.77984e-15 5.37992e-16 0 0 0 0 0 0 0 0
1408 1 -0.00384136 0.00314939 0.0260646 0.0008 3.43146e-06 3.03329e-13 -4.2112e-13 -2.91953e-13 8.01888e-10 3.52341e-11 -2.25407e-10 -3.05946e-16 5.91111e-15 6.09426e-16 0 0 0 0 0 0 0 0
1409 1 0.00212515 0.00612896 0.0284032 0.0008 3.43146e-06 -5.3192e-14 -2.16799e-12 -8.66636e-12 -8.43501e-09 9.39076e-10 1.56566e-09 -5.87162e-15 -8.89884e-17 -2.41079e-15 0 0 0 0 0 0 0 0
1410 1 -0.00565142 0.00446131 0.0313191 0.0008 3.43146e-06 7.17384e-13 -1.13637e-12 4.44671e-13 -2.33912e-09 1.10683e-09 -4.71277e-10 -1.43542e-15 -2.95692e-15 9.92225e-15 1 6.10261e-05 -7.11096e-05 -1.49142e-05 -0.00627924 0.00495692 0.0313191 0.0008
1411 1 -0.00631429 -2.02916e-05 0.0292537 0.0008 3.43146e-06 -1.91167e-12 1.14869e-13 1.49066e-12 -2.32142e-10 -3.36659e-09 -9.68723e-10 4.37117e-15 1.99371e-15 -7.39908e-15 0 0 0 0 0 0 0 0
1412 1 -0.00630345 -0.00348017 0.0256997 0.0008 3.43146e-06 -7.47177e-14 -7.1867e-13 -8.66774e-13 -1.06221e-09 6.47988e-10 -7.58484e-10 9.60684e-17 -3.42903e-16 8.5008e-16 1 0.000384087 0.000214483 -2.26491e-05 -0.00700349 -0.00386667 0.0256997 0.0008
1413 1 0.00131642 0.00405191 0.03062 0.0008 3.43146e-06 5.41756e-13 -1.8479e-12 -5.1202e-12 2.06579e-09 1.43827e-09 -3.70596e-10 -6.8277e-16 -6.43783e-15 -1.90158e-14 0 0 0 0 0 0 0 0
1414 1 0.00719752 -0.000196549 0.0298916 0.0008 3.43146e-06 8.26593e-13 -3.07343e-14 -1.35875e-12 -5.20956e-10 -1.72608e-09 8.19869e-11 -9.08695e-16 -1.17927e-15 -7.81306e-17 1 -0.000190189 1.93795e-06 -7.61897e-06 0.00799702 -0.000218381 0.0298916 0.0008
1415 1 0.000820049 -0.000803338 0.0300228 0.0008 3.43146e-06 -1.68092e-13 2.57521e-13 -6.43048e-13 -6.53189e-11 -1.37463e-09 6.14019e-10 5.11881e-15 3.1933e-16 4.01634e-15 0 0 0 0 0 0 0 0
1416 1 -0.00324974 0.000335528 0.0260848 0.0008 3.43146e-06 1.08377e-12 1.20367e-13 5.03432e-15 1.06957e-09 1.85862e-09 -1.14311e-10 -4.51671e-16 4.88599e-16 -2.23915e-15 0 0 0 0 0 0 0 0
1417 1 -0.00193832 -0.005613 0.0252433 0.0008 3.43146e-06 5.42014e-13 1.888e-13 1.98779e-12 5.40775e-09 -6.83836e-11 4.94229e-10 5.30164e-16 1.45175e-15 1.08016e-15 0 0 0 0 0 0 0 0
1418 1 0.00162417 0.00532765 0.0296942 0.0008 3.43146e-06 3.47799e-13 -2.1586e-12 -5.29454e-13 4.62576e-09 4.71403e-09 -4.72767e-09 -7.2593e-15 4.47394e-17 -7.46991e-15 0 0 0 0 0 0 0 0
1419 1 0.00165224 -0.00700815 0.0295977 0.0008 3.43146e-06 -5.42139e-13 -5.60877e-13 1.35977e-12 2.55397e-09 -3.15921e-09 9.43313e-10 -5.43908e-17 -1.18298e-18 -1.49315e-15 1 -2.79642e-05 0.00031611 -5.53126e-05 0.00183575 -0.00778653 0.0295977 0.0008
1420 1 -0.00340021 -0.00429178 0.0274865 0.0008 3.43146e-06 5.08678e-13 1.40452e-12 3.54365e-12 2.06084e-09 -7.91897e-10 3.43816e-10 3.28696e-16 2.70152e-15 -2.00823e-15 0 0 0 0 0 0 0 0
1421 1 0.00358162 -0.00438557 0.0319684 0.0008 3.43146e-06 -1.08452e-12 -2.16826e-12 -7.46699e-13 -2.83108e-09 7.19687e-09 -1.06117e-09 -7.03944e-17 1.26568e-15 -6.76973e-17 0 0 0 0 0 0 0 0
1422 1 0.00512281 -0.00138787 0.0260723 0.0008 3.43146e-06 -8.11891e-13 1.30173e-14 -2.74835e-13 -8.80308e-10 -1.20257e-09 2.16837e-10 5.05821e-16 2.03703e-15 -1.52901e-15 0 0 0 0 0 0 0 0
1423 1 -0.00113078 -0.00711079 0.0298136 0.0008 3.43146e-06 -5.0449e-14 -2.07523e-12 4.62228e-14 -3.4046e-10 -2.51693e-09 -2.42157e-10 -1.52151e-15 -3.92449e-16 2.58351e-15 1 1.19449e-05 0.000108604 1.26459e-05 -0.0012564 -0.00790072 0.0298136 0.0008
1424 1 0.00549408 0.00465355 0.027909 0.0008 3.43146e-06 8.47083e-13 2.16739e-12 -5.16424e-13 -4.08848e-09 -4.08318e-09 -1.48017e-09 -1.75315e-15 7.90459e-16 -4.71307e-16 1 -7.44042e-06 -4.85674e-06 1.14221e-06 0.00610451 0.00517059 0.027909 0.0008
1425 1 -0.000838581 0.00303833 0.0255145 0.0008 3.43146e-06 1.88991e-13 6.23297e-13 4.21313e-12 3.34112e-10 -9.00928e-10 1.06979e-09 3.36623e-15 9.31544e-15 -1.88351e-15 0 0 0 0 0 0 0 0
1426 1 -0.0025493 -0.00313918 0.0267749 0.0008 3.43146e-06 2.43289e-13 -6.36287e-13 4.1095e-12 -2.58164e-09 6.35221e-10 -1.48718e-09 -3.23298e-15 4.80796e-15 -3.28291e-15 0 0 0 0 0 0 0 0
1427 1 -0.00289696 -0.00372043 0.0305843 0.0008 3.43146e-06 1.08413e-12 -1.08124e-12 5.64151e-12 2.2698e-09 1.04896e-09 -1.67279e-09 -1.11409e-15 4.65256e-16 9.80842e-16 0 0 0 0 0 0 0 0
1428 1 0.0018665 -0.0055498 0.0289763 0.0008 3.43146e-06 5.41153e-13 -3.76154e-13 4.60588e-12 6.77328e-10 -1.64482e-09 -7.19792e-10 4.26267e-16 -7.89274e-18 -4.6089e-16 0 0 0 0 0 0 0 0
1429 1 -0.0054918 0.0018861 0.0283406 0.0008 3.43146e-06 -2.16585e-12 -5.41174e-13 -1.68711e-12 -1.71053e-09 -2.20166e-09 -1.63091e-09 4.49293e-16 -1.5231e-15 2.69576e-15 0 0 0 0 0 0 0 0
1430 1 0.00368886 0.00165992 0.027903 0.0008 3.43146e-06 1.07899e-12 -5.38696e-13 -5.37876e-12 -3.25098e-09 -2.38881e-10 2.79102e-09 -2.93487e-16 3.04727e-16 -1.60229e-15 0 0 0 0 0 0 0 0
1431 1 0.00461111 0.00210075 0.0265874 0.0008 3.43146e-06 1.24885e-12 1.08415e-12 -1.60426e-12 -2.0755e-09 9.47189e-10 6.88953e-10 -4.08941e-15 9.82477e-16 7.30444e-16 0 0 0 0 0 0 0 0
1432 1 0.00070071 0.00579382 0.0276896 0.0008 3.43146e-06 1.2488e-12 2.16886e-12 -1.3037e-12 -2.04757e-08 1.0065e-08 1.41603e-09 3.7987e-16 -8.53501e-17 -6.98324e-15 0 0 0 0 0 0 0 0
1433 1 0.0016719 0.00218734 0.0246945 0.0008 3.43146e-06 -1.51883e-13 -5.5452e-13 -2.67805e-12 -9.3454e-10 -2.72966e-09 5.63151e-10 -3.86792e-17 2.00503e-15 2.67397e-15 0 0 0 0 0 0 0 0
1434 1 -0.000338133 0.00719226 0.0250556 0.0008 3.43146e-06 -1.62308e-12 2.16294e-12 2.19916e-12 -2.81497e-09 -3.4425e-09 -1.79899e-09 2.48808e-15 1.94448e-16 -7.25537e-15 1 1.53255e-05 -0.000194224 -1.86307e-05 -0.000375692 0.00799117 0.0250556 0.0008
1435 1 -0.000578475 -0.00303937 0.0287767 0.0008 3.43146e-06 2.70959e-13 -6.15507e-13 3.22825e-13 -5.33276e-10 -6.99709e-10 1.52365e-09 6.03418e-16 -8.60393e-16 1.44235e-15 0 0 0 0 0 0 0 0
1436 1 -0.00600577 0.00397188 0.0257613 0.0008 3.43146e-06 6.05091e-13 -1.43487e-12 -2.3501e-13 -1.98788e-09 1.58077e-09 -1.11675e-09 -1.46286e-15 -2.48398e-16 4.68685e-16 1 0.000363326 -0.000243004 -4.54257e-05 -0.00667275 0.00441298 0.0257613 0.0008
1437 1 -0.00312497 0.00332403 0.0321343 0.0008 3.43146e-06 1.08416e-12 2.23474e-13 -6.84465e-13 -2.60426e-09 1.56737e-09 9.05878e-10 -9.1584e-16 -4.38329e-15 9.5846e-15 0 0 0 0 0 0 0 0
1438 1 -0.00553205 0.00258023 0.0299634 0.0008 3.43146e-06 8.2404e-13 -9.99023e-14 2.85716e-14 2.56453e-10 -2.18474e-10 9.47629e-10 1.58229e-15 1.13617e-14 1.23451e-15 0 0 0 0 0 0 0 0
1439 1 -0.000968701 0.000838915 0.0278021 0.0008 3.43146e-06 2.70989e-13 2.71391e-13 -1.36222e-12 -9.00649e-10 -7.41307e-11 1.55514e-09 2.67598e-16 -5.37882e-16 -4.38393e-15 0 0 0 0 0 0 0 0
1440 1 0.00417244 0.00586797 0.0316936 0.0008 3.43146e-06 -1.47369e-12 -2.16824e-12 -8.59461e-12 8.53702e-09 -6.74471e-09 5.41712e-11 -3.15834e-15 -7.28598e-16 1.43723e-15 1 -0.000104888 -9.77743e-05 1.72816e-05 0.00463594 0.00651982 0.0316936 0.0008
1441 1 -0.00579656 5.86907e-05 0.0248435 0.0008 3.43146e-06 -1.73136e-12 -5.34248e-14 4.19766e-13 3.20834e-10 1.15536e-09 -2.63322e-10 1.70529e-15 1.5681e-16 -4.64237e-15 0 0 0 0 0 0 0 0
1442 1 0.000636139 -0.00592864 0.0280268 0.0008 3.43146e-06 2.49917e-13 6.55339e-13 2.45963e-12 2.89789e-09 4.20441e-10 1.40907e-09 -1.68491e-15 -1.41561e-15 -3.57732e-16 0 0 0 0 0 0 0 0
1443 1 0.00330745 -0.00439011 0.0267944 0.0008 3.43146e-06 1.08374e-12 -1.06585e-13 -1.65305e-12 -2.66339e-10 2.5232e-09 5.46395e-10 -7.38776e-16 -4.11687e-17 6.95478e-16 0 0 0 0 0 0 0 0
1444 1 0.00609233 0.00231084 0.0260206 0.0008 3.43146e-06 -2.16624e-12 7.28879e-13 1.09573e-12 1.89392e-10 -2.8983e-09 1.04396e-10 5.03831e-16 -3.79502e-15 1.14342e-15 0 0 0 0 0 0 0 0
1445 1 0.00369531 -0.00170136 0.0251755 0.0008 3.43146e-06 -3.75206e-13 2.23435e-13 7.13968e-13 -3.88148e-10 5.56513e-10 6.11865e-10 -4.29738e-16 1.81767e-15 -1.16018e-15 0 0 0 0 0 0 0 0
1446 1 -0.00277609 0.00664356 0.0316616 0.0008 3.43146e-06 -1.20222e-14 1.57881e-12 -2.82345e-12 3.96208e-09 -1.26364e-09 4.36261e-10 -6.25477e-15 8.3743e-15 -5.0106e-15 1 0.000142659 -0.00021809 -1.46737e-05 -0.00308444 0.00738148 0.0316616 0.0008
1447 1 0.00377132 -0.00549346 0.0257332 0.0008 3.43146e-06 9.63153e-14 -5.67831e-14 2.74212e-13 -1.7778e-09 -1.56128e-09 -4.41757e-10 2.06671e-15 -1.51586e-16 1.26563e-15 0 0 0 0 0 0 0 0
1448 1 0.00197223 -0.00149942 0.0249137 0.0008 3.43146e-06 -9.31721e-13 -5.42025e-13 -2.82173e-12 -4.95276e-11 4.63359e-10 6.72844e-10 -2.55856e-15 -8.66525e-17 -4.46846e-16 0 0 0 0 0 0 0 0
1449 1 -0.00309876 -0.000775043 0.0249431 0.0008 3.43146e-06 1.30758e-13 1.37528e-13 1.30021e-13 -1.36565e-09 -9.62963e-10 -5.0004e-10 4.55119e-16 5.54695e-15 -6.37785e-15 0 0 0 0 0 0 0 0
1450 1 0.00596588 -0.00403121 0.0268624 0.0008 3.43146e-06 -1.39525e-12 -6.81247e-13 -1.75085e-13 1.66636e-09 -1.42111e-09 1.71385e-09 -8.74022e-16 2.35659e-16 -1.74862e-15 1 -0.000107816 9.18139e-05 2.55016e-05 0.0066286 -0.00447902 0.0268624 0.0008
1451 1 0.00307105 0.00345901 0.0309785 0.0008 3.43146e-06 -5.73301e-13 -1.08405e-12 -4.95682e-12 1.01627e-09 1.08292e-09 -2.71276e-10 -6.06725e-15 1.46867e-15 -6.31555e-15 0 0 0 0 0 0 0 0
1452 1 0.00650975 -0.00307644 0.0308418 0.0008 3.43146e-06 -3.59928e-13 -4.39931e-13 -1.24246e-12 -1.29826e-09 -1.20332e-09 7.25294e-10 -2.95839e-15 -1.07192e-16 -7.65221e-16 1 -5.72381e-05 3.2016e-05 1.02236e-05 0.00723296 -0.00341822 0.0308418 0.0008
1453 1 0.00207817 -0.00352866 0.0273476 0.0008 3.43146e-06 1.08204e-12 -7.35337e-13 1.39665e-12 6.7194e-10 1.72281e-09 8.07455e-10 3.05208e-16 -2.32041e-15 -2.15644e-15 0 0 0 0 0 0 0 0
1454 1 7.56895e-05 0.00110124 0.0299215 0.0008 3.43146e-06 5.43778e-14 -4.61926e-13 -2.75004e-12 -9.76529e-10 8.78774e-10 1.50571e-09 6.8238e-15 -6.83196e-15 -1.53779e-16 0 0 0 0 0 0 0 0
1455 1 -0.00466531 -0.00389768 0.0283826 0.0008 3.43146e-06 -3.47681e-13 9.61313e-13 3.5618e-12 8.72188e-10 -7.03013e-10 -1.49897e-09 -1.42438e-15 7.63438e-16 3.47207e-16 0 0 0 0 0 0 0 0
1456 1 0.00619432 -0.00367032 0.0250987 0.0008 3.43146e-06 -1.42865e-12 5.8935e-13 6.86225e-14 1.20508e-09 -5.88977e-10 2.8466e-10 -1.24931e-15 -4.6956e-16 8.62276e-16 1 -2.26263e-05 1.62193e-05 5.24656e-06 0.00688252 -0.0040781 0.0250987 0.0008
1457 1 -0.00332322 -0.00638748 0.0315042 0.0008 3.43146e-06 -6.57313e-13 -9.74722e-13 1.62478e-12 2.82937e-09 9.45389e-10 1.93839e-10 2.14067e-15 -4.00817e-16 -6.44595e-17 1 0.000102704 0.000250817 1.39505e-05 -0.00369234 -0.00709695 0.0315042 0.0008
1458 1 0.00712702 -0.00102314 0.031706 0.0008 3.43146e-06 -2.08174e-12 6.5407e-13 2.51223e-12 4.63945e-09 2.27979e-09 -3.49598e-10 1.9536e-15 1.66548e-15 -1.16155e-15 1 -5.65133e-05 4.76098e-06 2.01032e-05 0.00791882 -0.00113681 0.031706 0.0008
1459 1 -0.00424485 -0.00581576 0.0303282 0.0008 3.43146e-06 7.76222e-13 1.76805e-13 8.76126e-13 -1.18154e-09 -3.31048e-09 -6.20136e-10 3.00777e-16 1.11433e-15 -2.94246e-15 1 4.88013e-05 7.46237e-05 -9.36453e-07 -0.00471642 -0.00646184 0.0303282 0.0008
1460 1 0.00701391 0.00162799 0.0249055 0.0008 3.43146e-06 1.25428e-12 3.2566e-13 -3.66282e-13 1.57277e-09 -1.49358e-10 -6.14818e-11 2.84241e-16 -1.68781e-15 3.63389e-15 1 -0.000474641 -6.5263e-05 1.03583e-05 0.00779284 0.00180878 0.0249055 0.0008
1461 1 -0.000618299 0.000488372 0.026155 0.0008 3.43146e-06 2.71197e-13 2.71187e-13 -1.70838e-12 -9.92255e-10 1.53584e-09 -5.0457e-10 -2.82684e-16 2.88275e-16 3.80045e-15 0 0 0 0 0 0 0 0
1462 1 0.00163532 -0.00220426 0.0287316 0.0008 3.43146e-06 -5.41965e-13 -8.30495e-13 5.20605e-14 -1.10806e-09 -8.9531e-10 -2.99721e-10 7.29888e-16 5.42161e-15 4.74421e-15 0 0 0 0 0 0 0 0
1463 1 0.0044277 -0.00567769 0.0304229 0.0008 3.43146e-06 -2.16831e-12 1.20881e-12 1.05491e-13 1.34901e-09 -2.12444e-09 1.04368e-09 -1.50644e-16 -1.63246e-15 -3.59679e-15 1 -1.42357e-05 1.51517e-05 6.95337e-07 0.00491964 -0.0063085 0.0304229 0.0008
1464 1 0.00129319 0.00708322 0.0310993 0.0008 3.43146e-06 5.42192e-13 2.16846e-12 5.34621e-12 -7.63368e-09 -5.64697e-09 2.59392e-10 1.42424e-15 2.42035e-15 -5.2579e-15 1 -4.77801e-05 -0.000345499 4.92956e-05 0.00143681 0.00786992 0.0310993 0.0008
1465 1 -0.002027 0.00558188 0.0268681 0.0008 3.43146e-06 1.08377e-12 -1.44528e-12 8.66795e-12 -8.68726e-09 4.90828e-09 1.89214e-09 4.48125e-15 -6.67412e-15 -3.05233e-15 0 0 0 0 0 0 0 0
1466 1 0.00328435 0.00116343 0.0264376 0.0008 3.43146e-06 5.51006e-13 -5.37189e-13 1.95207e-12 1.28495e-09 4.25712e-09 3.49472e-10 -2.48538e-15 -2.604e-15 3.02815e-16 0 0 0 0 0 0 0 0
1467 1 -0.00581017 -3.06554e-05 0.0312747 0.0008 3.43146e-06 -1.35835e-12 2.92747e-13 1.78312e-12 -3.13432e-09 -2.25608e-09 -4.85038e-10 9.52736e-15 -7.16623e-16 -8.68369e-15 0 0 0 0 0 0 0 0
1468 1 0.00274182 0.00166079 0.0291918 0.0008 3.43146e-06 6.68682e-13 -5.06004e-13 -3.25336e-12 -2.63946e-10 1.4381e-09 1.64015e-09 -5.75443e-15 1.05646e-15 -4.10573e-15 0 0 0 0 0 0 0 0
1469 1 0.00379609 0.0061147 0.0285852 0.0008 3.43146e-06 -3.25253e-12 -2.5439e-12 -4.02523e-12 -4.45915e-09 -4.45268e-09 7.56824e-09 1.20204e-16 2.47199e-16 -5.52787e-15 0 0 0 0 0 0 0 0
1470 1 -0.001691 -0.000479899 0.0283489 0.0008 3.43146e-06 5.39131e-13 1.49492e-13 -2.49136e-12 1.64732e-09 -1.29111e-09 5.63446e-12 -8.09363e-16 -2.2931e-15 -2.36261e-15 0 0 0 0 0 0 0 0
1471 1 0.00075747 0.00457037 0.0262112 0.0008 3.43146e-06 -2.90296e-13 -2.16786e-12 -5.20851e-12 2.60756e-09 -4.16215e-10 1.96751e-09 8.48565e-15 6.37436e-16 1.44418e-14 0 0 0 0 0 0 0 0
1472 1 0.00360618 -0.00243154 0.0322323 0.0008 3.43146e-06 -7.29453e-13 4.10914e-13 4.6433e-12 -5.2462e-09 5.32008e-09 -2.84275e-11 4.82041e-15 5.69563e-15 6.38848e-15 0 0 0 0 0 0 0 0
1473 1 0.00309655 -0.00650015 0.0307562 0.0008 3.43146e-06 -9.88921e-13 -7.76889e-13 -3.31124e-13 -7.70235e-10 1.46446e-09 1.87861e-09 2.4745e-16 -1.50524e-15 1.18273e-15 1 -8.8041e-06 1.69231e-05 -1.69558e-06 0.00344059 -0.00722235 0.0307562 0.0008
1474 1 0.00433458 -0.000142103 0.0309551 0.0008 3.43146e-06 -1.61825e-12 -2.17473e-13 4.23307e-13 -3.73446e-11 2.63959e-10 1.10543e-09 6.77444e-17 4.34499e-15 4.72707e-15 0 0 0 0 0 0 0 0
1475 1 -0.000852655 -0.00161598 0.0303849 0.0008 3.43146e-06 -2.22661e-13 4.87173e-13 -6.80226e-13 -3.65755e-09 7.00642e-10 2.32339e-09 3.15111e-15 6.24875e-15 2.33406e-15 0 0 0 0 0 0 0 0
1476 1 0.00270384 -0.00163106 0.0301159 0.0008 3.43146e-06 1.08403e-12 -5.41596e-13 1.15243e-12 -4.6967e-09 3.29088e-09 -3.52624e-09 -1.56114e-16 -4.48653e-16 8.03656e-15 0 0 0 0 0 0 0 0
1477 1 6.84445e-05 -0.00428097 0.0295506 0.0008 3.43146e-06 3.35145e-14 1.45672e-12 8.49658e-13 -1.19494e-09 2.46643e-10 -6.72421e-10 7.30008e-15 1.0954e-16 7.88973e-15 0 0 0 0 0 0 0 0
1478 1 0.000390339 -0.00392007 0.0264785 0.0008 3.43146e-06 4.66965e-13 -2.16777e-12 3.27708e-13 2.70199e-09 7.20645e-10 2.59384e-10 8.96732e-16 -3.08181e-16 -9.07434e-16 0 0 0 0 0 0 0 0
1479 1 -0.00373228 0.00452054 0.0292808 0.0008 3.43146e-06 -1.08387e-12 -1.49744e-12 8.6711e-12 6.69862e-09 -1.47789e-08 7.7117e-09 3.86946e-15 -7.53294e-16 3.61854e-15 0 0 0 0 0 0 0 0
1480 1 -0.00663477 -0.000824875 0.0279085 0.0008 3.43146e-06 -6.5166e-14 -2.63463e-13 -1.88286e-12 1.73469e-09 5.11635e-10 2.14125e-09 5.72631e-16 2.88263e-16 2.23008e-15 0 0 0 0 0 0 0 0
1481 1 -0.00487405 0.00401285 0.0282821 0.0008 3.43146e-06 -3.28871e-13 -1.89036e-12 -3.51981e-12 7.44614e-10 4.68176e-09 -4.4458e-09 -1.21592e-15 8.913e-15 8.94357e-15 0 0 0 0 0 0 0 0
1482 1 -0.000315771 0.0023596 0.0326377 0.0008 3.43146e-06 9.95384e-14 1.08426e-12 -1.11556e-11 1.47946e-09 1.56912e-09 2.44755e-10 -1.4923e-15 -2.10914e-16 6.00269e-15 0 0 0 0 0 0 0 0
1483 1 -0.00109622 0.00193477 0.0266436 0.0008 3.43146e-06 1.72498e-13 5.42088e-13 7.7627e-14 2.90707e-09 -1.37223e-09 3.37972e-10 7.08214e-16 8.44287e-17 7.59978e-15 0 0 0 0 0 0 0 0
1484 1 -0.00717941 -0.00054688 0.0255582 0.0008 3.43146e-06 -1.35731e-12 -1.6163e-13 -1.3093e-12 1.78675e-09 1.76818e-09 -9.26447e-11 2.63323e-16 1.29942e-15 4.05755e-15 1 0.000204875 4.54335e-05 2.88557e-05 -0.00797689 -0.000607626 0.0255582 0.0008
1485 1 0.00297902 0.00303318 0.0283146 0.0008 3.43146e-06 1.08312e-12 -1.08228e-12 -5.57954e-12 2.91406e-09 1.03154e-09 -2.18242e-09 6.25448e-16 -5.75628e-16 -2.64964e-15 0 0 0 0 0 0 0 0
1486 1 -0.00250764 0.00516538 0.0300828 0.0008 3.43146e-06 -2.1375e-12 2.16698e-12 8.67312e-12 6.09887e-10 1.8933e-08 2.53352e-09 1.42254e-14 -3.8666e-15 -3.74108e-15 0 0 0 0 0 0 0 0
1487 1 -0.0071744 0.000607351 0.0266659 0.0008 3.43146e-06 -1.12709e-12 -1.1378e-13 1.73491e-12 8.39996e-10 -2.17173e-09 -5.06137e-10 3.27472e-16 1.89475e-15 -3.42009e-15 1 3.52539e-05 -6.30542e-06 -1.52536e-06 -0.00797149 0.000674828 0.0266659 0.0008
1488 1 0.00199629 -0.0053704 0.0273308 0.0008 3.43146e-06 1.04369e-12 2.7291e-13 4.40211e-12 1.21584e-09 -1.81733e-09 -9.47119e-10 2.77054e-15 -4.02151e-15 -3.08116e-15 0 0 0 0 0 0 0 0
1489 1 -0.00128682 -0.00708432 0.0282216 0.0008 3.43146e-06 -1.22603e-14 -9.06231e-13 1.1889e-12 1.97748e-09 2.77041e-09 -2.11681e-10 -8.15221e-16 1.34514e-15 -1.56414e-15 1 8.12588e-05 0.000240186 2.83029e-05 -0.00142975 -0.0078712 0.0282216 0.0008
1490 1 -0.00452785 0.00559834 0.0276012 0.0008 3.43146e-06 -1.14344e-12 -1.13171e-12 -1.11913e-12 -1.39632e-09 3.3168e-09 -1.65786e-09 -7.2572e-15 6.93611e-15 -1.9064e-15 1 9.91442e-05 -0.0001543 2.24597e-06 -0.0050308 0.00622021 0.0276012 0.0008
1491 1 0.00108925 0.00711724 0.0291171 0.0008 3.43146e-06 4.72414e-13 4.40551e-13 -2.85042e-12 4.99125e-09 1.03278e-08 4.19931e-10 -2.59726e-15 -1.4002e-15 -6.30989e-15 1 -1.54192e-05 -7.94506e-05 -4.65467e-06 0.00121025 0.00790793 0.0291171 0.0008
1492 1 0.0024432 0.000648343 0.0315605 0.0008 3.43146e-06 -8.22353e-13 3.37124e-13 -3.152e-12 -2.89683e-09 6.80578e-10 1.27863e-10 4.76352e-15 3.06677e-15 -7.40458e-15 0 0 0 0 0 0 0 0
1493 1 -0.00319517 -0.00389304 0.0290221 0.0008 3.43146e-06 -2.64386e-13 1.41172e-13 2.50384e-12 -1.17654e-09 -4.35694e-10 -2.70718e-09 1.81047e-15 -2.52402e-15 -3.4508e-15 0 0 0 0 0 0 0 0
1494 1 -0.00410653 -0.00225694 0.0252072 0.0008 3.43146e-06 1.55923e-12 -1.08419e-12 3.70025e-12 -1.37903e-08 2.37304e-09 -1.40873e-09 2.15124e-15 -8.07355e-17 -4.55505e-15 0 0 0 0 0 0 0 0
1495 1 0.00427742 0.003402 0.0274559 0.0008 3.43146e-06 -2.16805e-12 1.08381e-12 -1.74169e-12 1.72102e-09 -2.35243e-09 3.58956e-09 -1.82089e-15 2.37039e-16 -6.70207e-16 0 0 0 0 0 0 0 0
1496 1 0.000643954 -0.00549973 0.0264857 0.0008 3.43146e-06 1.82931e-13 -4.13695e-13 1.78158e-12 -4.43335e-09 -6.21902e-10 -3.18905e-10 7.95071e-16 -3.77189e-15 -1.07625e-15 0 0 0 0 0 0 0 0
1497 1 0.00167882 -0.00700168 0.031302 0.0008 3.43146e-06 1.53948e-13 -2.16784e-12 -4.09434e-13 1.74942e-10 -1.56168e-09 3.59395e-10 -1.14094e-15 2.84686e-16 -1.12839e-16 1 -3.42893e-05 9.45439e-05 2.03509e-05 0.00186532 -0.0077795 0.031302 0.0008
1498 1 0.00204914 -0.000683207 0.0290056 0.0008 3.43146e-06 1.08402e-12 -4.36617e-13 -8.84637e-13 -1.89113e-10 6.25135e-10 -1.75978e-09 1.45333e-16 5.19847e-16 4.86452e-15 0 0 0 0 0 0 0 0
1499 1 -0.00244677 0.00290713 0.025319 0.0008 3.43146e-06 -2.62951e-13 -7.69173e-13 -3.79508e-15 -8.61649e-10 -1.336e-10 -7.75597e-11 -5.62387e-16 -1.34782e-15 2.45911e-15 0 0 0 0 0 0 0 0
1500 1 -0.00108276 -0.00554908 0.0278211 0.0008 3.43146e-06 -2.61248e-13 1.14628e-12 3.1478e-12 1.17449e-09 -4.99548e-10 1.30398e-10 -2.81922e-16 1.28322e-16 -8.23274e-16 0 0 0 0 0 0 0 0
1501 1 0.00318506 -0.00182348 0.0285988 0.0008 3.43146e-06 -1.08394e-12 2.03874e-14 -5.58402e-13 -3.53088e-09 -3.86154e-09 -1.51268e-09 2.23242e-16 2.00959e-15 -2.73989e-15 0 0 0 0 0 0 0 0
1502 1 -0.00228148 -0.00515554 0.0267373 0.0008 3.43146e-06 -4.87653e-13 -2.52784e-13 5.442e-12 -2.89151e-09 -1.30155e-09 -3.44171e-09 -2.64855e-15 4.11042e-15 -5.43116e-15 0 0 0 0 0 0 0 0
1503 1 0.00520677 0.0028629 0.0316422 0.0008 3.43146e-06 -1.36925e-12 -1.08418e-12 5.9581e-12 3.33427e-09 1.7017e-10 4.43809e-09 -1.6705e-15 -1.18199e-15 9.49714e-15 0 0 0 0 0 0 0 0
1504 1 -0.000936927 0.00713907 0.0295703 0.0008 3.43146e-06 4.75068e-13 2.12771e-12 -2.25688e-12 3.67578e-09 -6.01672e-09 1.00017e-09 -2.22165e-16 2.0652e-15 -6.28008e-15 1 3.49341e-05 -0.000331504 7.41506e-05 -0.00104099 0.00793198 0.0295703 0.0008
1505 1 -0.00197322 0.00224028 0.0279483 0.0008 3.43146e-06 1.08428e-12 -1.0843e-12 2.24312e-12 3.14518e-09 -1.14033e-09 6.1498e-11 2.03507e-16 6.39744e-16 -7.7853e-16 0 0 0 0 0 0 0 0
1506 1 -0.000667653 -0.00543378 0.0316066 0.0008 3.43146e-06 8.28554e-14 -2.16842e-12 -2.92039e-13 -1.92306e-09 -6.72945e-10 -8.70442e-10 1.69756e-15 -1.35841e-16 -1.62982e-15 0 0 0 0 0 0 0 0
1507 1 -0.00202778 0.00102435 0.0289867 0.0008 3.43146e-06 1.00804e-12 -9.04387e-13 -2.20169e-12 9.32748e-10 -5.5139e-11 4.03355e-10 -7.56518e-15 -9.8859e-15 -7.47198e-15 0 0 0 0 0 0 0 0
1508 1 -0.00325491 -0.000665785 0.0280684 0.0008 3.43146e-06 1.08387e-12 8.29559e-14 -9.83144e-14 1.19033e-09 4.54719e-09 8.11279e-10 -4.92523e-16 -3.31888e-15 -5.37853e-15 0 0 0 0 0 0 0 0
1509 1 -0.00154677 -0.000501376 0.0252187 0.0008 3.43146e-06 -5.42085e-13 -2.19221e-13 -6.95772e-13 -2.16927e-10 1.44275e-09 -1.82232e-10 2.69232e-16 1.6549e-15 -4.61457e-16 0 0 0 0 0 0 0 0
1510 1 -0.00475871 0.00428958 0.0267109 0.0008 3.43146e-06 -1.4053e-12 -1.21605e-12 -4.74888e-13 9.07253e-10 -3.0834e-09 1.21899e-09 -1.40497e-15 8.0533e-15 -3.80123e-15 0 0 0 0 0 0 0 0
1511 1 -0.00028869 0.00203984 0.0286783 0.0008 3.43146e-06 3.96183e-13 4.30749e-13 -1.02496e-12 3.76603e-09 -1.77071e-09 -1.24872e-09 -4.61503e-15 -6.67212e-16 1.4575e-15 0 0 0 0 0 0 0 0
1512 1 0.000688397 -0.00164041 0.0268357 0.0008 3.43146e-06 2.70192e-13 -5.41855e-13 -2.30483e-12 -8.82928e-10 -1.35244e-09 8.5824e-10 2.8281e-16 3.77396e-16 -2.95913e-15 0 0 0 0 0 0 0 0
1513 1 0.00663006 0.00064002 0.0286516 0.0008 3.43146e-06 -9.18647e-13 -8.1125e-14 -4.04833e-12 -1.14465e-09 1.81978e-09 1.43432e-09 4.73987e-16 -1.94289e-15 -1.80189e-15 0 0 0 0 0 0 0 0
1514 1 -0.00283965 -0.00517234 0.0299146 0.0008 3.43146e-06 -7.82746e-13 -8.62877e-13 2.44712e-12 1.454e-09 1.96382e-09 3.61432e-10 1.04951e-15 -1.22997e-15 -7.15279e-15 0 0 0 0 0 0 0 0
1515 1 -0.00348335 0.00150902 0.0284808 0.0008 3.43146e-06 3.8824e-14 2.75596e-13 -8.49071e-15 -1.01627e-09 1.37357e-09 3.05297e-09 -8.62532e-15 1.60647e-15 1.74352e-15 0 0 0 0 0 0 0 0
1516 1 -0.00224615 -0.00202515 0.0288055 0.0008 3.43146e-06 8.03031e-13 -1.0833e-12 2.18351e-12 -2.57108e-09 -1.87318e-09 -3.04883e-09 5.42174e-16 -2.17818e-16 -7.10083e-15 0 0 0 0 0 0 0 0
1517 1 0.00309329 -0.00500488 0.0298465 0.0008 3.43146e-06 7.10323e-13 2.58571e-13 1.35739e-13 7.01355e-11 7.73583e-09 3.61748e-09 -9.49602e-16 1.95807e-15 -4.77838e-15 0 0 0 0 0 0 0 0
1518 1 -0.00445474 -0.00363878 0.0299752 0.0008 3.43146e-06 -1.93724e-12 -5.70561e-13 3.01347e-12 3.49127e-09 -6.94418e-10 2.50997e-09 5.54503e-15 1.17972e-15 -4.63042e-15 0 0 0 0 0 0 0 0
1519 1 0.00690485 -0.00204063 0.0277453 0.0008 3.43146e-06 -2.03237e-12 4.62509e-13 3.82875e-13 -1.14611e-09 9.72419e-10 1.76473e-10 1.0618e-15 4.46521e-16 2.12657e-15 1 -4.50392e-05 8.64e-06 7.86387e-06 0.00767197 -0.00226734 0.0277453 0.0008
1520 1 0.000191098 -0.00406384 0.0323144 0.0008 3.43146e-06 6.64234e-14 2.11964e-12 9.377e-12 3.68987e-09 1.12389e-09 -1.03162e-09 -2.34995e-16 4.4328e-16 -1.16358e-15 0 0 0 0 0 0 0 0
1521 1 -0.000920703 -0.00164621 0.0261874 0.0008 3.43146e-06 -2.4669e-13 5.40062e-13 1.5821e-12 -2.6703e-09 1.49282e-10 2.72429e-10 6.49779e-16 1.34702e-16 2.08462e-15 0 0 0 0 0 0 0 0
1522 1 -0.00414466 0.000537353 0.0273954 0.0008 3.43146e-06 1.28401e-12 -2.49961e-13 1.68486e-12 9.61537e-11 -6.4532e-10 -4.88677e-10 -2.32124e-15 8.59914e-16 -6.42193e-15 0 0 0 0 0 0 0 0
1523 1 0.0033004 -0.00309353 0.0258575 0.0008 3.43146e-06 -1.07289e-13 -3.8311e-13 -1.08623e-13 1.61539e-09 -6.79145e-10 1.16318e-11 2.22126e-16 -1.23026e-16 -4.38736e-16 0 0 0 0 0 0 0 0
1524 1 -0.00671924 -0.00258703 0.0279464 0.0008 3.43146e-06 2.40263e-13 6.64185e-14 1.5616e-13 3.28844e-10 -2.38729e-10 6.17896e-11 3.37693e-16 -3.25327e-16 1.54246e-15 1 3.52089e-05 9.07016e-06 7.22983e-06 -0.00746576 -0.00287445 0.0279464 0.0008
1525 1 -0.00360571 0.00454104 0.031068 0.0008 3.43146e-06 -7.14956e-13 -1.45268e-12 -1.30381e-12 -7.922e-09 1.65707e-08 2.46387e-09 1.16034e-14 -7.05403e-16 2.18074e-15 0 0 0 0 0 0 0 0
1526 1 -0.000188368 0.00719764 0.0281578 0.0008 3.43146e-06 -2.09728e-13 -2.13135e-12 7.52224e-12 -9.51714e-09 7.71445e-10 -3.42416e-10 -4.28326e-16 2.66146e-15 -6.57948e-15 1 6.30552e-06 -6.65447e-05 9.36368e-06 -0.000209294 0.00799726 0.0281578 0.0008
1527 1 0.00501532 -0.00516629 0.0290258 0.0008 3.43146e-06 6.40416e-13 1.31772e-12 -1.18946e-12 -1.79637e-09 -3.60191e-10 -1.79734e-09 8.1712e-16 -2.3342e-15 -1.62656e-15 1 -0.000197831 0.000234795 4.35017e-05 0.00557237 -0.0057401 0.0290258 0.0008
1528 1 -0.00274102 0.00240307 0.0295803 0.0008 3.43146e-06 -1.0809e-12 6.00411e-13 -6.08555e-12 -4.55924e-09 1.18154e-11 -3.59749e-09 7.73151e-16 -6.55062e-15 -2.75736e-15 0 0 0 0 0 0 0 0
1529 1 0.00118085 0.00258273 0.0283534 0.0008 3.43146e-06 5.41969e-13 -1.08417e-12 -2.69568e-12 -1.36648e-09 5.21156e-09 -6.98345e-10 3.30546e-16 4.64965e-16 2.48182e-15 0 0 0 0 0 0 0 0
1530 1 0.000443572 -0.00234084 0.0297901 0.0008 3.43146e-06 -5.30394e-14 5.6594e-13 -1.04669e-13 -6.76683e-10 9.53882e-10 -4.5389e-10 2.46393e-15 4.11329e-15 2.74683e-15 0 0 0 0 0 0 0 0
1531 1 0.00128694 0.00107452 0.0288767 0.0008 3.43146e-06 5.26524e-13 -5.42275e-13 -2.44811e-12 3.84531e-10 -8.11377e-10 -1.3902e-09 -1.62926e-15 3.2884e-17 -3.1376e-15 0 0 0 0 0 0 0 0
1532 1 -0.00626473 0.00354926 0.0289223 0.0008 3.43146e-06 -3.4803e-13 4.83911e-13 -1.14855e-13 1.99015e-10 1.94709e-10 2.95749e-10 9.10794e-18 2.93123e-15 1.26319e-15 1 0.000254239 -0.000187482 -9.52027e-06 -0.00696054 0.00394346 0.0289223 0.0008
1533 1 -0.000796566 0.00430064 0.0264963 0.0008 3.43146e-06 5.11825e-13 5.42323e-13 3.3033e-13 -4.21021e-09 -2.59343e-09 -4.38215e-09 -2.39163e-15 9.03766e-15 -8.4576e-15 0 0 0 0 0 0 0 0
1534 1 0.000471284 0.00352247 0.0318709 0.0008 3.43146e-06 4.83651e-13 -1.08373e-12 -8.07697e-12 8.00739e-10 -2.21587e-09 -3.34329e-09 -2.60596e-15 -4.19959e-16 -8.90564e-15 0 0 0 0 0 0 0 0
1535 1 0.00647677 0.000406522 0.0311862 0.0008 3.43146e-06 -1.21675e-12 -1.21076e-13 1.02223e-12 3.11328e-09 -1.00801e-10 -1.53049e-09 -3.71151e-17 -2.17858e-15 1.19621e-15 0 0 0 0 0 0 0 0
1536 1 0.000256249 0.00627222 0.0301903 0.0008 3.43146e-06 4.78645e-13 -2.16681e-12 4.19112e-12 -3.24982e-09 -1.78347e-09 -3.82431e-09 -1.05813e-15 8.52932e-16 -5.23889e-15 0 0 0 0 0 0 0 0
1537 1 0.00398546 0.00112644 0.0300447 0.0008 3.43146e-06 -8.48094e-13 5.42211e-13 -3.34784e-12 -2.42315e-09 -1.56336e-09 -2.44315e-09 -2.17898e-15 -1.30213e-16 1.76104e-15 0 0 0 0 0 0 0 0
1538 1 0.000886015 0.000581446 0.0311992 0.0008 3.43146e-06 -2.70377e-13 2.70789e-13 -3.23878e-12 8.40441e-10 -1.30169e-09 -3.14738e-10 4.3077e-16 9.22267e-17 -6.01213e-15 0 0 0 0 0 0 0 0
1539 1 0.00200591 0.00396241 0.032061 0.0008 3.43146e-06 1.08419e-12 -2.16843e-12 -6.70345e-12 -1.42439e-09 -5.60479e-11 1.56579e-09 -5.17259e-16 -6.90971e-16 -1.84555e-14 0 0 0 0 0 0 0 0
1540 1 -0.000986996 0.00121495 0.03151 0.0008 3.43146e-06 -5.27142e-13 1.10187e-13 -5.97121e-12 -4.57138e-09 -1.25355e-09 2.58309e-09 1.1669e-15 -8.57378e-15 4.88314e-15 0 0 0 0 0 0 0 0
1541 1 0.00511555 0.000182887 0.0284134 0.0008 3.43146e-06 2.69642e-13 -1.1763e-13 4.38735e-13 6.96424e-11 3.51506e-09 -8.03581e-10 4.84307e-15 4.81654e-16 -4.00943e-15 0 0 0 0 0 0 0 0
1542 1 -0.0049572 -0.00522184 0.0275334 0.0008 3.43146e-06 -6.08038e-13 1.44188e-13 1.0117e-12 1.04194e-09 -7.68527e-10 6.35346e-10 2.55663e-16 7.40895e-16 -1.66066e-15 1 5.16985e-05 4.30543e-05 -6.80498e-06 -0.00550793 -0.00580196 0.0275334 0.0008
1543 1 -0.000786349 0.00521598 0.0278094 0.0008 3.43146e-06 1.21418e-12 2.16687e-12 8.51191e-12 3.4172e-09 -3.7534e-09 -6.52175e-10 -8.02295e-15 -1.27876e-16 1.74578e-15 0 0 0 0 0 0 0 0
1544 1 0.00544025 0.00137668 0.0294277 0.0008 3.43146e-06 7.59649e-13 -5.42089e-13 -2.9142e-12 -2.1446e-09 -1.49788e-10 2.07378e-09 5.29324e-15 2.84746e-16 -1.36594e-15 0 0 0 0 0 0 0 0
1545 1 -0.00340506 -0.00634403 0.0273856 0.0008 3.43146e-06 8.27202e-13 1.78058e-12 -1.04911e-14 2.81903e-10 4.47569e-10 1.10222e-10 2.06762e-15 2.82755e-15 -5.75013e-16 1 1.58826e-05 4.699e-05 -5.75158e-06 -0.00378336 -0.00704884 0.0273856 0.0008
1546 1 -0.00135166 -0.00239705 0.0275324 0.0008 3.43146e-06 5.41935e-13 -1.0842e-12 3.23231e-12 3.24907e-09 8.70959e-10 1.41058e-09 3.36728e-16 4.97921e-16 -2.15199e-15 0 0 0 0 0 0 0 0
1547 1 0.00693397 0.00193979 0.0295334 0.0008 3.43146e-06 -1.00188e-12 1.12337e-13 -1.64736e-12 3.75071e-09 -1.09829e-09 -4.49791e-10 -6.42841e-16 -2.15743e-15 -3.30898e-16 1 -0.000161273 -6.1738e-05 -3.23479e-05 0.00770421 0.00215527 0.0295334 0.0008
1548 1 0.00160193 0.00170446 0.0303131 0.0008 3.43146e-06 5.38474e-13 -4.31445e-13 -2.12363e-12 -8.82003e-10 -4.00079e-10 -4.8977e-10 -7.3539e-16 2.50954e-15 -7.12166e-15 0 0 0 0 0 0 0 0
1549 1 0.00463573 -0.00277858 0.0286417 0.0008 3.43146e-06 3.35019e-13 -1.08229e-12 -1.7954e-12 8.43569e-10 -4.89489e-09 -8.82251e-10 -2.33133e-15 2.56922e-16 7.65591e-16 0 0 0 0 0 0 0 0
1550 1 -0.00699221 -0.00171872 0.0266309 0.0008 3.43146e-06 -1.93864e-13 -4.60109e-13 -1.22067e-12 -1.92664e-09 1.02902e-09 -4.98151e-10 -1.07016e-15 6.87398e-16 3.28752e-15 1 0.000419313 0.000146047 1.41003e-05 -0.00776875 -0.0019096 0.0266309 0.0008
1551 1 -0.00140256 -0.00402569 0.027452 0.0008 3.43146e-06 2.17928e-13 -1.40956e-12 5.41966e-12 1.26949e-09 -1.19179e-09 3.61857e-10 1.99423e-15 3.92737e-15 3.80881e-15 0 0 0 0 0 0 0 0
1552 1 -0.0037732 -0.000857156 0.030589 0.0008 3.43146e-06 1.08426e-12 -3.92149e-13 2.11107e-12 -3.68763e-09 6.17303e-09 -5.1296e-10 -5.83189e-16 3.87616e-15 -2.80954e-15 0 0 0 0 0 0 0 0
1553 1 -0.00330829 0.00370729 0.0279689 0.0008 3.43146e-06 1.08408e-12 -1.01427e-12 -6.35055e-13 -2.27228e-09 7.8756e-09 -7.39829e-10 4.13984e-17 1.19986e-15 -7.96306e-15 0 0 0 0 0 0 0 0
1554 1 0.00417036 -0.000891795 0.0295514 0.0008 3.43146e-06 3.4964e-13 -2.71011e-13 2.24832e-12 -8.22903e-10 -1.19073e-09 2.07444e-09 1.74681e-15 -4.40369e-16 1.71849e-16 0 0 0 0 0 0 0 0
1555 1 0.00192217 0.00420009 0.0285989 0.0008 3.43146e-06 -5.42241e-13 -2.16828e-12 -4.87117e-12 -1.20317e-09 -1.94277e-09 4.52652e-09 -7.71475e-16 1.51179e-15 1.88013e-15 0 0 0 0 0 0 0 0
1556 1 0.00288701 -0.00449853 0.028334 0.0008 3.43146e-06 1.08413e-12 -9.34113e-13 6.3556e-12 6.69429e-10 1.23553e-10 -3.39416e-10 1.69076e-16 -1.75306e-16 -2.73362e-15 0 0 0 0 0 0 0 0
1557 1 -0.00649201 0.00311379 0.0311266 0.0008 3.43146e-06 -6.97561e-13 -8.02153e-13 5.33909e-13 1.77739e-09 -1.53737e-09 -1.30303e-09 -9.08704e-16 5.85797e-15 6.20939e-16 1 8.8487e-05 -5.45329e-05 1.26663e-06 -0.00721321 0.0034597 0.0311266 0.0008
1558 1 0.00342653 0.00462961 0.0280294 0.0008 3.43146e-06 -1.97682e-12 -2.96152e-13 -4.99076e-12 -4.48323e-09 2.27823e-09 -2.19128e-09 3.15148e-15 -2.43991e-15 -7.62215e-15 0 0 0 0 0 0 0 0
1559 1 0.00633076 -0.000988287 0.0288048 0.0008 3.43146e-06 6.10414e-13 -2.89605e-13 -8.95723e-13 -1.35887e-10 2.23348e-09 -2.35851e-10 2.54422e-15 -5.88138e-16 3.67375e-15 0 0 0 0 0 0 0 0
1560 1 0.00215967 0.00543596 0.0256952 0.0008 3.43146e-06 -5.06612e-13 2.16682e-12 -2.34236e-12 2.26847e-09 -1.98993e-09 1.68172e-09 -1.78009e-15 -8.07698e-16 5.83228e-15 0 0 0 0 0 0 0 0
1561 1 -0.00195203 0.00102803 0.0254558 0.0008 3.43146e-06 -3.03973e-13 -7.60414e-14 -9.90997e-13 -7.35457e-10 3.70064e-10 2.38725e-10 1.50492e-15 6.24174e-16 5.13187e-15 0 0 0 0 0 0 0 0
1562 1 -0.00525984 0.00446305 0.029768 0.0008 3.43146e-06 1.24947e-12 -1.32907e-12 4.03368e-12 3.15789e-09 -2.88114e-09 -3.62862e-09 7.32238e-16 -3.53761e-15 7.16262e-15 0 0 0 0 0 0 0 0
1563 1 0.00140758 -0.00402216 0.0287138 0.0008 3.43146e-06 4.87921e-13 1.11151e-12 4.53567e-12 -4.51915e-09 -1.35283e-09 -9.35087e-10 -1.72839e-15 1.04215e-15 -1.68682e-15 0 0 0 0 0 0 0 0
1564 1 0.00115353 -0.00521248 0.031754 0.0008 3.43146e-06 -3.01217e-13 1.2466e-12 1.22148e-11 -4.60581e-09 -5.5041e-09 -1.25911e-09 7.9717e-15 -2.00033e-15 -8.58546e-15 0 0 0 0 0 0 0 0
1565 1 0.00307446 -0.00651071 0.0267525 0.0008 3.43146e-06 -7.15457e-13 -1.19017e-13 6.63498e-13 8.23356e-10 1.25033e-10 8.85674e-10 1.1678e-15 -1.04621e-15 2.45751e-15 1 -4.24395e-05 7.74047e-05 -1.25588e-05 0.00341601 -0.00723401 0.0267525 0.0008
1566 1 0.00545205 0.000748264 0.0267371 0.0008 3.43146e-06 -1.19688e-12 2.69277e-13 -1.54715e-12 -2.4343e-09 5.98192e-09 -4.61735e-09 1.65312e-15 -1.04624e-15 -3.50769e-16 0 0 0 0 0 0 0 0
1567 1 0.0014576 0.000712299 0.023892 0.0008 3.43146e-06 2.60406e-13 -1.21316e-13 -1.85175e-12 3.49717e-10 -2.8396e-09 2.23364e-09 2.89239e-15 9.29971e-16 -3.88287e-15 0 0 0 0 0 0 0 0
1568 1 -0.00423082 -0.00151616 0.0290094 0.0008 3.43146e-06 2.16807e-12 4.93152e-13 1.61118e-12 -1.93508e-09 1.39475e-10 -1.01792e-09 2.94173e-16 2.27924e-15 2.04437e-15 0 0 0 0 0 0 0 0
1569 1 -0.0003353 0.0057481 0.0317042 0.0008 3.43146e-06 2.31243e-13 -1.16199e-12 -3.32503e-12 4.48274e-09 -4.71232e-09 -4.73049e-09 -3.59467e-15 1.00833e-14 3.70803e-15 0 0 0 0 0 0 0 0
1570 1 -0.00546154 -0.00245467 0.029596 0.0008 3.43146e-06 6.80341e-13 1.08337e-12 3.07817e-12 4.37438e-10 -3.9977e-09 -4.86926e-09 -1.80115e-16 -1.61033e-15 -4.06579e-15 0 0 0 0 0 0 0 0
1571 1 -0.0061615 -0.00372553 0.0289222 0.0008 3.43146e-06 -2.09019e-13 1.08242e-12 1.04058e-12 -1.20472e-09 -2.0744e-09 1.23781e-09 2.24464e-15 -1.62634e-16 5.14599e-16 1 0.000207138 0.000185168 3.57478e-05 -0.00684587 -0.00413933 0.0289222 0.0008
1572 1 0.00349502 0.000319123 0.0287536 0.0008 3.43146e-06 6.11951e-13 -1.10035e-13 -1.2486e-12 -1.62587e-09 -2.32399e-09 -1.51504e-09 1.81531e-15 2.40381e-15 4.08362e-16 0 0 0 0 0 0 0 0
1573 1 -0.00134004 0.00467682 0.0310612 0.0008 3.43146e-06 -4.46676e-13 2.16635e-12 -5.53731e-12 3.8821e-09 -4.19186e-09 -2.51136e-09 7.37888e-15 6.0877e-15 8.85819e-15 0 0 0 0 0 0 0 0
1574 1 0.00389186 0.00433137 0.0320392 0.0008 3.43146e-06 -1.08285e-12 -1.28586e-12 -1.14079e-11 -5.61947e-09 2.06526e-09 9.51106e-10 -2.11214e-15 5.91361e-15 -3.25875e-15 0 0 0 0 0 0 0 0
1575 1 0.00555257 -0.00014227 0.0299177 0.0008 3.43146e-06 1.577e-12 6.05578e-14 -9.75341e-13 -4.24948e-10 -1.25766e-09 -2.882e-10 1.19753e-15 2.62808e-15 3.78069e-15 0 0 0 0 0 0 0 0
1576 1 0.00211038 0.00149076 0.0275697 0.0008 3.43146e-06 1.02422e-12 -5.42085e-13 -1.50469e-12 5.89717e-10 5.34736e-10 -6.26501e-11 -2.89008e-15 6.71759e-16 -2.68232e-15 0 0 0 0 0 0 0 0
1577 1 -0.00265306 0.00513766 0.0282736 0.0008 3.43146e-06 -2.15097e-12 -2.16837e-12 -1.95756e-12 -4.4968e-09 2.94531e-08 -1.51813e-08 -3.85341e-15 -3.24832e-16 1.6138e-14 0 0 0 0 0 0 0 0
1578 1 -0.00413839 -0.00589173 0.0287337 0.0008 3.43146e-06 1.93622e-12 -7.60189e-14 8.22813e-13 7.52383e-10 1.97829e-09 2.80769e-09 -1.71355e-15 3.07992e-15 -1.11761e-15 0 0 0 0 0 0 0 0
1579 1 0.000519976 0.00133538 0.027491 0.0008 3.43146e-06 2.71035e-13 5.41999e-13 -1.19457e-12 -7.02365e-10 -4.18111e-10 -1.26812e-09 -5.60085e-16 -2.52712e-16 -1.3491e-15 0 0 0 0 0 0 0 0
1580 1 0.00411735 -0.00184667 0.0308337 0.0008 3.43146e-06 -1.154e-12 -5.34376e-13 9.80841e-13 1.85827e-09 -4.06517e-09 1.73459e-09 9.04859e-15 7.24315e-16 6.35566e-15 0 0 0 0 0 0 0 0
1581 1 -0.00389048 0.00605862 0.0261675 0.0008 3.43146e-06 1.08413e-12 1.8603e-12 -6.42582e-12 7.13037e-09 3.80263e-09 2.37248e-09 -1.10172e-15 2.15654e-15 -6.37857e-15 1 0.000104491 -0.00013494 6.90917e-06 -0.00432264 0.00673163 0.0261675 0.0008
1582 1 0.000432439 0.00420043 0.0280157 0.0008 3.43146e-06 2.45696e-13 -1.87734e-12 7.24504e-13 6.6049e-09 8.10148e-09 -2.99648e-09 1.07566e-15 -4.5052e-15 8.29186e-15 0 0 0 0 0 0 0 0
1583 1 0.000206906 -0.00156729 0.0283947 0.0008 3.43146e-06 -2.23673e-13 -5.42071e-13 -1.09799e-12 -5.5116e-10 1.19503e-10 -2.8391e-10 8.18245e-16 3.59622e-16 2.15733e-15 0 0 0 0 0 0 0 0
1584 1 0.00438405 -0.00408507 0.0300632 0.0008 3.43146e-06 2.1662e-12 1.30048e-12 -1.86402e-12 7.24846e-09 8.12938e-10 -2.17927e-09 -2.07368e-17 4.95706e-16 -2.18447e-15 0 0 0 0 0 0 0 0
1585 1 -0.00126159 -0.00708888 0.0251648 0.0008 3.43146e-06 3.72323e-13 -5.65536e-14 4.35477e-13 1.26057e-10 -2.40487e-09 -4.42667e-10 -3.38858e-16 -5.3605e-16 -1.41149e-15 1 4.8871e-05 0.000286519 2.57603e-05 -0.00140171 -0.00787624 0.0251648 0.0008
1586 1 -0.00513029 -0.00240778 0.0280318 0.0008 3.43146e-06 5.75113e-13 4.34994e-13 5.12457e-12 -1.64688e-10 3.75241e-09 6.94438e-12 6.21425e-16 -5.40047e-16 -3.69771e-16 0 0 0 0 0 0 0 0
1587 1 -0.00718619 -0.000447809 0.0305255 0.0008 3.43146e-06 -1.01355e-12 -3.37235e-15 -2.91452e-12 1.87075e-10 3.64892e-09 -5.98025e-11 3.1277e-15 4.51921e-15 -1.37654e-15 1 0.000101898 4.03252e-05 7.88813e-06 -0.00798451 -0.000497556 0.0305255 0.0008
1588 1 0.0027979 0.0066342 0.0314055 0.0008 3.43146e-06 -9.16853e-13 1.45785e-12 4.66255e-13 4.87526e-09 1.23807e-08 -2.40516e-09 -4.97352e-15 8.16626e-16 -6.34296e-15 1 -9.46753e-06 -3.23802e-05 4.61331e-06 0.00310876 0.00737127 0.0314055 0.0008
1589 1 -0.000983426 -0.00182631 0.0320089 0.0008 3.43146e-06 -2.19174e-13 5.42071e-13 1.87926e-12 3.86394e-10 3.81686e-09 -4.14265e-09 1.90401e-15 3.08431e-16 -1.02525e-14 0 0 0 0 0 0 0 0
1590 1 0.00211935 -0.00688105 0.0280728 0.0008 3.43146e-06 1.084e-12 7.13006e-15 -1.23105e-12 -2.13941e-09 2.42863e-09 -1.39605e-09 2.22188e-16 -1.96139e-15 -1.31266e-15 1 -2.44963e-06 1.3191e-05 8.85211e-07 0.00235482 -0.00764557 0.0280728 0.0008
1591 1 0.000922456 -0.000197989 0.0279784 0.0008 3.43146e-06 2.71401e-13 -4.84484e-13 -1.61103e-12 -1.2934e-09 -1.9797e-10 3.32198e-10 5.80754e-16 1.65906e-15 9.54816e-16 0 0 0 0 0 0 0 0
1592 1 -0.00630743 -0.00347234 0.0304952 0.0008 3.43146e-06 -2.16788e-12 1.08467e-12 4.5974e-13 1.10476e-09 2.33784e-11 2.65361e-09 1.59662e-15 1.00662e-15 9.67713e-16 1 2.40222e-05 1.70165e-05 -4.81664e-06 -0.0070082 -0.00385813 0.0304952 0.0008
1593 1 -0.00548864 0.00257593 0.0264798 0.0008 3.43146e-06 6.88074e-13 9.75988e-13 -3.08116e-14 4.63656e-11 -9.77646e-10 -7.22611e-10 -6.99818e-16 -3.62743e-15 -6.01417e-16 0 0 0 0 0 0 0 0
1594 1 -0.0011601 0.00557415 0.0293232 0.0008 3.43146e-06 -1.94855e-12 4.97184e-13 -4.22674e-12 -3.29357e-09 -5.19867e-09 -5.39647e-09 7.34168e-15 1.45217e-14 -6.42825e-15 0 0 0 0 0 0 0 0
1595 1 -0.00459141 0.00554642 0.0318274 0.0008 3.43146e-06 3.76987e-13 1.08381e-12 1.94303e-12 4.9907e-10 -4.83274e-09 1.23816e-09 1.21452e-15 -3.7931e-15 -1.60771e-15 1 0.000153779 -0.000243591 -4.62795e-05 -0.00510138 0.00616246 0.0318274 0.0008
1596 1 -0.00426157 0.000796979 0.0248214 0.0008 3.43146e-06 -8.47845e-13 -2.71025e-13 1.59042e-13 2.05504e-09 2.69503e-09 -5.44941e-10 4.39492e-15 -6.95474e-16 5.21939e-15 0 0 0 0 0 0 0 0
1597 1 -0.00474331 -1.27693e-05 0.0288181 0.0008 3.43146e-06 1.31003e-12 9.61256e-14 9.46141e-13 -1.72471e-10 3.64018e-09 1.94553e-09 -2.76899e-15 1.88919e-15 -4.03838e-15 0 0 0 0 0 0 0 0
1598 1 -0.00163187 -0.00423356 0.0290216 0.0008 3.43146e-06 -5.42004e-13 -2.16692e-12 2.92754e-12 -5.12129e-11 -2.42245e-10 1.30926e-10 1.50641e-16 -4.87526e-16 1.02302e-15 0 0 0 0 0 0 0 0
1599 1 0.00320816 -0.00644591 0.0291612 0.0008 3.43146e-06 1.0836e-12 -5.41977e-13 -9.41874e-13 5.84134e-10 -3.7579e-09 -1.1285e-09 -3.09131e-16 -7.45072e-16 1.74645e-15 1 -5.17307e-05 0.000106466 1.1245e-05 0.00356455 -0.00716198 0.0291612 0.0008
1600 1 0.000240205 -0.00719613 0.0257048 0.0008 3.43146e-06 -5.53494e-14 -6.83189e-13 9.63105e-13 1.13049e-09 1.49537e-09 5.73979e-11 5.33708e-16 4.45068e-16 -2.88591e-16 1 -5.33997e-07 0.000109418 2.05324e-05 0.000266889 -0.00799555 0.0257048 0.0008
1601 1 -0.00421058 0.00280129 0.0290891 0.0008 3.43146e-06 5.34133e-13 -5.90858e-13 -4.30331e-12 -4.85965e-09 3.97496e-09 1.04369e-09 3.24561e-15 9.65548e-15 -1.60383e-15 0 0 0 0 0 0 0 0
1602 1 -0.00258214 -0.00536356 0.0283472 0.0008 3.43146e-06 -1.08386e-12 8.89713e-13 2.10505e-12 8.97582e-10 -1.38385e-09 -4.51734e-10 -4.35832e-16 2.18282e-15 -9.99528e-16 0 0 0 0 0 0 0 0
1603 1 -0.0068156 0.00232123 0.0275544 0.0008 3.43146e-06 7.66235e-13 1.89122e-14 -1.26825e-12 2.75082e-09 6.99484e-10 2.14946e-10 1.22178e-15 -2.87579e-15 2.54187e-15 1 1.49866e-05 -7.29557e-06 -5.84768e-08 -0.00757285 0.00257914 0.0275544 0.0008
1604 1 -0.00354371 -0.00263575 0.0280963 0.0008 3.43146e-06 1.08396e-12 3.75448e-13 2.33792e-12 8.67281e-10 7.02263e-10 3.70515e-10 -4.60094e-16 7.27692e-17 -6.64643e-15 0 0 0 0 0 0 0 0
1605 1 -0.004272 0.00251315 0.0275168 0.0008 3.43146e-06 -6.73504e-13 -9.16575e-13 1.73867e-12 3.14708e-09 -1.88305e-09 3.71331e-10 -3.14528e-15 4.26019e-15 -2.64815e-15 0 0 0 0 0 0 0 0
1606 1 0.00155715 0.00351405 0.0271082 0.0008 3.43146e-06 -5.40877e-13 -1.08434e-12 -5.23605e-12 -5.29551e-10 -3.66699e-09 1.73701e-09 5.05081e-17 8.12643e-16 5.58295e-15 0 0 0 0 0 0 0 0
1607 1 -0.00614222 0.0037568 0.0273407 0.0008 3.43146e-06 4.90723e-13 4.29901e-13 8.57313e-13 -3.54048e-10 -1.44089e-09 7.79301e-10 8.77418e-16 1.95541e-15 2.12141e-15 1 8.47131e-06 -4.89927e-06 -1.41574e-06 -0.00682466 0.0041742 0.0273407 0.0008
1608 1 -0.000673136 -0.00468713 0.0255616 0.0008 3.43146e-06 2.71188e-13 -3.50339e-13 2.45593e-12 -6.60237e-11 3.03243e-09 3.23988e-10 2.01238e-16 -3.77587e-17 1.13221e-15 0 0 0 0 0 0 0 0
1609 1 0.00697802 -0.00177453 0.0300386 0.0008 3.43146e-06 5.89969e-13 -2.47179e-13 -1.41946e-12 2.72071e-10 -1.90081e-09 4.70645e-11 -8.10238e-16 2.30408e-15 4.32575e-16 1 -9.27887e-05 1.08265e-05 3.38292e-07 0.00775323 -0.00197167 0.0300386 0.0008
1610 1 0.00449192 0.0037309 0.0290064 0.0008 3.43146e-06 -1.69682e-12 1.08386e-12 -4.20684e-12 -2.22621e-09 3.58308e-09 -2.41505e-09 6.55051e-16 1.77188e-16 -6.86057e-15 0 0 0 0 0 0 0 0
1611 1 0.00633169 -0.00342802 0.0282982 0.0008 3.43146e-06 -3.94387e-13 -6.66838e-13 2.41963e-12 4.10246e-10 3.19724e-09 1.04664e-09 -1.30145e-15 -1.04192e-15 1.9982e-15 1 -6.95031e-05 2.98409e-05 1.50709e-05 0.0070351 -0.00380885 0.0282982 0.0008
1612 1 0.00368233 -0.00148684 0.0267607 0.0008 3.43146e-06 -7.61941e-13 -5.42092e-13 -2.28608e-12 7.26607e-10 -1.03741e-09 6.7881e-10 -4.12977e-16 3.86514e-16 -2.61147e-15 0 0 0 0 0 0 0 0
1613 1 0.00403092 -1.30909e-06 0.0272521 0.0008 3.43146e-06 1.7429e-12 3.15353e-13 9.19927e-13 1.62949e-10 -4.44705e-09 5.35267e-10 4.34822e-16 2.54432e-15 -9.78149e-15 0 0 0 0 0 0 0 0
1614 1 -0.00324913 -0.0022614 0.0300294 0.0008 3.43146e-06 -8.89401e-13 -1.08369e-12 -8.41368e-13 5.79623e-09 -1.61001e-09 -7.32547e-10 3.12734e-15 4.26847e-16 -1.00879e-14 0 0 0 0 0 0 0 0
1615 1 0.00719742 0.000198035 0.0272225 0.0008 3.43146e-06 -2.15282e-12 2.03105e-13 -1.11802e-12 1.80142e-11 -1.33731e-09 -4.05986e-10 7.87811e-16 3.87417e-17 2.86646e-16 1 -0.000112909 4.68343e-06 1.09564e-05 0.00799697 0.000220035 0.0272225 0.0008
1616 1 0.00656597 0.00295575 0.0283536 0.0008 3.43146e-06 5.51495e-13 1.08371e-12 5.34407e-13 -1.08638e-09 2.69891e-10 -9.91411e-10 1.50235e-16 1.09344e-15 -1.6591e-15 1 -0.000835799 -0.000441593 -5.62077e-05 0.00729493 0.0032839 0.0283536 0.0008
1617 1 -0.00269361 0.00192258 0.0265556 0.0008 3.43146e-06 6.65702e-14 5.13276e-13 -7.10482e-13 1.65509e-10 5.48676e-10 -1.86496e-10 1.64936e-15 8.10176e-16 3.41333e-15 0 0 0 0 0 0 0 0
1618 1 0.0054216 -0.00240616 0.0272697 0.0008 3.43146e-06 -2.47329e-13 -6.25072e-13 1.72556e-12 2.63859e-10 -8.41149e-11 1.60121e-09 -2.07455e-15 1.21134e-15 1.13994e-15 0 0 0 0 0 0 0 0
1619 1 -0.00473089 -0.000946141 0.0275189 0.0008 3.43146e-06 1.22388e-13 -2.71038e-13 3.06492e-12 -1.87676e-09 -4.32125e-10 -5.0045e-10 3.89697e-15 2.31091e-16 1.06657e-15 0 0 0 0 0 0 0 0
1620 1 0.00493698 0.00524123 0.0292889 0.0008 3.43146e-06 7.01634e-13 3.41225e-13 -2.41008e-12 6.13845e-09 2.14658e-09 3.41975e-10 -1.84403e-15 4.70149e-15 -1.59604e-15 1 -0.000272322 -0.000205275 4.2028e-05 0.00548531 0.00582335 0.0292889 0.0008
1621 1 0.000324921 -0.00719302 0.0304716 0.0008 3.43146e-06 1.15619e-13 -2.16838e-12 1.38234e-13 3.86085e-11 2.40584e-09 -6.47231e-11 1.88779e-16 1.74398e-15 5.32669e-16 1 -0.000117315 0.000447742 -1.10101e-05 0.000361006 -0.00799185 0.0304716 0.0008
1622 1 -0.000694577 0.00351207 0.0291635 0.0008 3.43146e-06 -2.64453e-13 -7.7397e-13 -3.2256e-12 -2.55908e-10 -2.95116e-09 -2.81777e-09 -2.71476e-16 -7.93912e-15 1.72544e-14 0 0 0 0 0 0 0 0
1623 1 0.00109578 -3.40524e-05 0.0329143 0.0008 3.43146e-06 1.14746e-13 -5.21394e-14 -3.93184e-12 2.29659e-09 -2.66809e-09 2.40859e-10 5.80753e-15 -4.81278e-15 -6.98011e-15 0 0 0 0 0 0 0 0
1624 1 0.000828817 0.00484048 0.0327041 0.0008 3.43146e-06 -1.35658e-12 2.16771e-12 -1.04302e-11 -6.5331e-09 -1.54838e-09 4.34223e-09 9.05579e-16 -1.6635e-15 -9.63281e-15 0 0 0 0 0 0 0 0
1625 1 -0.00235696 -0.00229594 0.0329116 0.0008 3.43146e-06 -6.41935e-13 -3.37661e-14 1.65636e-13 1.42875e-09 1.54593e-09 -1.71165e-09 7.60505e-15 -5.03428e-15 7.39515e-16 0 0 0 0 0 0 0 0
1626 1 -0.00374863 -0.0042554 0.0342116 0.0008 3.43146e-06 1.08139e-12 1.65522e-12 6.01606e-13 4.26993e-10 -4.89067e-09 4.49428e-10 -2.63109e-16 1.62577e-15 -6.74675e-15 0 0 0 0 0 0 0 0
1627 1 0.00183274 0.00277823 0.0331228 0.0008 3.43146e-06 -5.41758e-13 -1.08304e-12 -7.82861e-12 4.45758e-10 -4.97806e-09 -9.74209e-10 1.94921e-16 -1.13932e-15 -8.3037e-15 0 0 0 0 0 0 0 0
1628 1 0.00492106 -0.0031639 0.031256 0.0008 3.43146e-06 1.74246e-12 -8.54851e-13 3.52315e-12 -8.41123e-10 -2.40553e-09 2.89246e-09 7.44979e-16 7.27273e-16 3.28419e-15 0 0 0 0 0 0 0 0
1629 1 -0.00662146 0.00104462 0.0304115 0.0008 3.43146e-06 -1.30762e-12 5.41937e-13 -3.65132e-12 -5.84027e-10 -2.07086e-09 6.56651e-10 1.6022e-15 -2.71451e-17 -2.2109e-15 0 0 0 0 0 0 0 0
1630 1 0.00593144 0.0040817 0.0339987 0.0008 3.43146e-06 -2.16824e-12 2.1682e-12 3.98218e-12 -3.97206e-09 3.28873e-09 -3.76653e-09 1.07881e-15 3.78624e-16 -4.34186e-15 1 -9.97666e-05 -8.32556e-05 -1.67956e-05 0.00659035 0.00453512 0.0339987 0.0008
1631 1 -0.0019691 -0.00692561 0.0321647 0.0008 3.43146e-06 -9.6388e-14 -1.9155e-12 -3.31746e-13 -3.4297e-10 7.77124e-10 -4.45939e-10 -3.00708e-15 -1.96612e-15 6.24862e-15 1 1.5071e-05 6.88371e-05 -5.66007e-06 -0.00218786 -0.00769502 0.0321647 0.0008
1632 1 0.00450035 0.00283817 0.0348351 0.0008 3.43146e-06 -2.16639e-12 -1.4e-12 2.70796e-12 -3.02386e-09 -7.87178e-09 -1.98189e-09 -3.74435e-16 -5.12872e-15 -6.35361e-15 0 0 0 0 0 0 0 0
1633 1 0.00038087 -0.0025996 0.0341537 0.0008 3.43146e-06 -7.10731e-13 7.1081e-14 6.60779e-12 3.63535e-11 5.6663e-09 -1.03772e-09 -3.86597e-15 -4.81793e-15 -1.1323e-15 0 0 0 0 0 0 0 0
1634 1 0.00270572 -0.00351711 0.0329873 0.0008 3.43146e-06 -3.49244e-13 1.08285e-12 7.22515e-12 5.21533e-09 -6.81768e-10 -1.78702e-09 5.83801e-15 -7.98893e-16 -3.88245e-15 0 0 0 0 0 0 0 0
1635 1 0.00362535 -0.00160213 0.0339048 0.0008 3.43146e-06 6.27479e-13 -3.7357e-13 2.78419e-12 -2.22417e-10 4.44378e-09 2.05851e-09 3.2047e-15 1.39358e-15 1.80092e-14 0 0 0 0 0 0 0 0
1636 1 0.0044301 0.00418052 0.0305403 0.0008 3.43146e-06 -2.1677e-12 3.29333e-13 7.68023e-14 4.87118e-09 -4.48284e-09 2.13064e-09 -1.42971e-15 -1.82603e-16 -1.21183e-14 0 0 0 0 0 0 0 0
1637 1 0.00379987 0.00207601 0.0313189 0.0008 3.43146e-06 4.68884e-13 -1.07862e-12 -7.23928e-12 1.30341e-09 1.60863e-09 8.55336e-10 -6.92368e-16 1.12503e-15 -9.02734e-15 0 0 0 0 0 0 0 0
1638 1 -0.00574956 -0.00019053 0.0346449 0.0008 3.43146e-06 -4.5624e-13 3.65892e-13 3.25519e-12 4.34041e-09 -1.27961e-10 2.71966e-09 -1.95054e-14 -1.09346e-14 -5.9817e-14 0 0 0 0 0 0 0 0
1639 1 -0.00624051 0.00359141 0.0327577 0.0008 3.43146e-06 1.47432e-12 3.23719e-13 3.61269e-12 -1.04065e-08 8.71061e-10 1.04915e-09 1.83963e-14 1.02514e-14 6.1711e-15 1 0.00012575 -4.75885e-05 3.66141e-05 -0.00693375 0.00399037 0.0327577 0.0008
1640 1 -0.0053086 -0.00372029 0.0322744 0.0008 3.43146e-06 2.51047e-14 -3.77889e-13 1.02356e-12 8.70728e-11 -7.70079e-10 9.73614e-10 -7.38331e-16 4.76094e-15 -8.28356e-15 0 0 0 0 0 0 0 0
1641 1 -0.00115099 -0.00462014 0.0329842 0.0008 3.43146e-06 2.49803e-13 -1.79917e-12 7.32205e-12 3.44513e-09 -1.48454e-09 2.87468e-09 -7.84639e-15 -1.86928e-15 -3.45649e-16 0 0 0 0 0 0 0 0
1642 1 0.00335628 0.00293067 0.0325965 0.0008 3.43146e-06 2.33553e-13 -1.08376e-12 -6.14508e-12 -1.17209e-09 -1.10575e-09 7.93465e-10 1.68352e-15 2.36088e-15 -6.05771e-15 0 0 0 0 0 0 0 0
1643 1 0.0019758 -0.00272495 0.0341703 0.0008 3.43146e-06 -1.08378e-12 -1.08431e-12 5.31693e-12 -1.83781e-09 -3.82213e-09 -5.91645e-10 -7.19373e-16 4.55822e-16 4.76037e-16 0 0 0 0 0 0 0 0
1644 1 0.00107767 -0.00275377 0.0325538 0.0008 3.43146e-06 5.39762e-13 1.07594e-12 8.49602e-12 -8.59698e-10 4.65951e-09 8.2765e-10 -1.90451e-15 -1.82613e-15 6.13745e-15 0 0 0 0 0 0 0 0
1645 1 -0.00559396 0.0021531 0.0324882 0.0008 3.43146e-06 1.71857e-12 1.08417e-12 7.07248e-12 4.92284e-09 9.94934e-10 1.8057e-10 1.9452e-14 7.41509e-16 -1.9723e-14 0 0 0 0 0 0 0 0
1646 1 0.00138746 0.00155861 0.0340578 0.0008 3.43146e-06 2.22915e-12 -7.4179e-13 -1.17629e-11 1.95142e-09 2.5197e-09 5.92231e-09 1.39402e-14 5.99298e-15 -2.13077e-14 0 0 0 0 0 0 0 0
1647 1 -0.00410264 0.00160013 0.0322179 0.0008 3.43146e-06 2.16686e-12 -6.49748e-13 -3.08043e-14 1.29127e-10 -3.02649e-11 -9.25276e-10 -3.64241e-16 -6.09408e-15 -1.03629e-14 0 0 0 0 0 0 0 0
1648 1 -0.000921342 -0.00328513 0.0313549 0.0008 3.43146e-06 -2.71101e-13 1.08065e-12 2.51346e-12 -6.37455e-10 -4.50464e-09 3.41529e-09 1.65824e-16 -1.66081e-16 -1.87131e-15 0 0 0 0 0 0 0 0
1649 1 -0.0021413 -0.00687433 0.0344156 0.0008 3.43146e-06 -2.99305e-13 1.44062e-12 4.45493e-12 3.55349e-09 -7.27222e-09 9.62805e-10 -6.56643e-15 2.02707e-15 7.27179e-15 1 3.02373e-05 6.78579e-05 5.32388e-06 -0.00237918 -0.00763803 0.0344156 0.0008
1650 1 -0.00531512 0.00485692 0.0330766 0.0008 3.43146e-06 8.87393e-13 6.39905e-13 -3.23736e-12 2.51541e-09 2.64972e-09 2.02137e-11 5.11901e-15 1.66133e-14 2.56739e-14 1 3.04781e-06 -2.93094e-06 3.89136e-07 -0.00590568 0.00539657 0.0330766 0.0008
1651 1 -0.000868738 -0.00558604 0.0294062 0.0008 3.43146e-06 -2.71082e-13 -8.24836e-13 1.15645e-12 1.72209e-09 7.92338e-10 1.13273e-09 -1.70451e-16 1.73202e-15 4.2421e-15 0 0 0 0 0 0 0 0
1652 1 0.00609442 -0.00383392 0.0337105 0.0008 3.43146e-06 -4.18912e-13 4.25701e-15 -2.08943e-12 4.76358e-09 -6.09255e-09 2.70932e-10 3.11598e-15 4.45511e-15 2.37286e-15 1 -2.55715e-05 1.76812e-05 4.38965e-06 0.00677152 -0.00425988 0.0337105 0.0008
1653 1 0.00534805 0.000952756 0.0340233 0.0008 3.43146e-06 2.16842e-12 1.37382e-13 2.24564e-12 -2.42682e-09 -1.83438e-08 7.46389e-10 2.29358e-15 -1.06172e-14 -1.11773e-14 0 0 0 0 0 0 0 0
1654 1 0.00131884 0.00576024 0.0339179 0.0008 3.43146e-06 1.10686e-12 7.07058e-13 -1.07122e-11 6.34016e-09 1.12807e-09 -1.01741e-08 2.01727e-16 -5.91529e-15 6.22105e-15 0 0 0 0 0 0 0 0
1655 1 -0.00417872 -0.00035415 0.034389 0.0008 3.43146e-06 -8.89508e-13 1.61348e-12 1.72171e-12 -3.29746e-09 2.36809e-09 -1.1089e-09 -3.38978e-15 -1.73688e-14 1.85441e-14 0 0 0 0 0 0 0 0
1656 1 -0.00149278 -0.000309307 0.0326435 0.0008 3.43146e-06 5.42258e-13 -1.04769e-12 -3.63777e-12 -1.36695e-09 -1.96865e-09 1.10372e-09 -8.68441e-16 4.16491e-15 -9.21343e-15 0 0 0 0 0 0 0 0
1657 1 -0.00661127 -0.00285184 0.031945 0.0008 3.43146e-06 -2.06127e-12 -4.85395e-13 -7.92031e-13 -2.22707e-09 1.71364e-10 4.16169e-10 6.09259e-16 2.52752e-15 -7.59956e-15 1 8.88445e-05 3.67203e-05 1.89864e-05 -0.00734572 -0.00316865 0.031945 0.0008
1658 1 -0.000756572 0.00716033 0.0340251 0.0008 3.43146e-06 1.4043e-12 2.17071e-12 -7.40946e-12 6.99955e-09 2.22261e-08 2.15743e-09 1.57029e-14 -5.73788e-15 1.60515e-14 1 7.60466e-06 -0.000181258 -1.07685e-05 -0.000840613 0.00795571 0.0340251 0.0008
1659 1 -0.003834 0.00608896 0.0289566 0.0008 3.43146e-06 -1.23234e-12 -5.6911e-13 -7.05035e-12 -8.54834e-10 -1.42769e-10 2.40472e-09 -1.62218e-15 8.56844e-15 6.3228e-15 0 0 0 0 0 0 0 0
1660 1 -0.00463076 -0.00216358 0.0309316 0.0008 3.43146e-06 2.16728e-12 -1.08241e-12 7.45603e-12 1.41779e-09 2.3113e-09 9.00178e-10 5.36132e-16 -1.53831e-16 -9.82329e-15 0 0 0 0 0 0 0 0
1661 1 0.00251844 -0.0013885 0.0327695 0.0008 3.43146e-06 1.08424e-12 2.63342e-13 2.68767e-12 2.23562e-09 -5.08821e-09 -1.12404e-09 -4.59326e-16 4.18553e-15 -2.7024e-15 0 0 0 0 0 0 0 0
1662 1 0.00372774 0.00582647 0.0301574 0.0008 3.43146e-06 1.08113e-12 1.81059e-12 8.67207e-12 -4.00193e-09 9.4074e-09 -4.89488e-10 1.63157e-15 1.19151e-15 -3.77547e-15 0 0 0 0 0 0 0 0
1663 1 -0.00254508 -0.000712719 0.0341956 0.0008 3.43146e-06 1.08382e-12 5.656e-13 -5.48408e-12 -1.43096e-09 -4.79551e-09 -2.01473e-09 5.53702e-16 -4.2744e-15 1.06707e-14 0 0 0 0 0 0 0 0
1664 1 0.00160628 -0.000789576 0.0315996 0.0008 3.43146e-06 8.95187e-13 8.12671e-13 -1.93864e-12 -2.92765e-09 1.52148e-09 1.72849e-09 -2.07836e-15 3.70279e-16 -7.39862e-15 0 0 0 0 0 0 0 0
1665 1 0.00565148 0.00162092 0.0325476 0.0008 3.43146e-06 -1.57745e-12 5.14174e-13 3.30086e-12 -2.24939e-09 -2.53994e-09 -1.87014e-10 5.54758e-15 -1.1559e-15 4.19992e-15 0 0 0 0 0 0 0 0
1666 1 0.00366557 -0.00576962 0.0335052 0.0008 3.43146e-06 -2.02161e-13 2.16791e-12 4.87872e-13 -3.38997e-09 1.09132e-09 1.01705e-08 -1.58243e-15 -3.2414e-16 -5.28643e-15 0 0 0 0 0 0 0 0
1667 1 0.00649892 0.00309915 0.0325556 0.0008 3.43146e-06 2.13455e-12 5.41346e-13 3.75834e-12 5.97315e-10 5.46857e-09 5.63357e-10 1.97043e-15 5.27618e-16 7.77182e-15 1 -2.01147e-05 -1.29584e-05 4.25779e-06 0.00722098 0.00344347 0.0325556 0.0008
1668 1 -0.00356209 -0.00625727 0.0340152 0.0008 3.43146e-06 8.65917e-13 2.16788e-12 3.89894e-12 6.64204e-09 1.79557e-09 3.82091e-10 -1.51875e-15 -1.63244e-15 6.69388e-15 1 6.72761e-05 8.5964e-05 1.71753e-05 -0.00395781 -0.00695239 0.0340152 0.0008
1669 1 0.000582266 -0.00352073 0.0308614 0.0008 3.43146e-06 -5.26853e-14 9.6646e-13 6.28464e-12 -5.75092e-09 7.70144e-10 -1.54839e-09 -3.52697e-15 -2.48811e-15 -3.25883e-15 0 0 0 0 0 0 0 0
1670 1 0.00594514 -0.00406192 0.0297152 0.0008 3.43146e-06 1.49881e-12 7.63053e-14 -8.84326e-13 6.67854e-10 -1.7368e-09 -1.17393e-09 1.10315e-16 1.01556e-15 7.35749e-18 1 -0.000260166 0.000151884 -3.111e-06 0.00660546 -0.00451308 0.0297152 0.0008
1671 1 -0.00210879 0.002792 0.0345235 0.0008 3.43146e-06 -6.55483e-13 5.12305e-14 -8.26856e-12 -1.15526e-10 -1.82048e-09 -4.54316e-10 5.15762e-15 1.78907e-15 7.43383e-15 0 0 0 0 0 0 0 0
1672 1 -0.00356323 -0.00171533 0.0320356 0.0008 3.43146e-06 -1.08362e-12 -7.09774e-14 -9.45064e-13 -8.11167e-09 4.72929e-10 -2.0857e-09 -8.05908e-16 -2.80009e-15 3.79961e-16 0 0 0 0 0 0 0 0
1673 1 0.00701712 0.00161293 0.0334999 0.0008 3.43146e-06 2.16847e-12 1.62163e-12 -1.31142e-12 2.73985e-09 -9.85086e-10 -1.62177e-09 9.64621e-16 5.16021e-16 -4.5346e-15 1 -7.11422e-05 -3.12349e-06 9.91552e-06 0.00779669 0.00179212 0.0334999 0.0008
1674 1 0.00351158 -0.000192748 0.0331485 0.0008 3.43146e-06 -1.71695e-13 2.08884e-13 3.23002e-12 -1.38999e-09 4.63492e-09 2.61938e-09 -1.28597e-14 1.96489e-15 3.15157e-15 0 0 0 0 0 0 0 0
1675 1 0.00643632 -0.000215871 0.0339253 0.0008 3.43146e-06 2.16837e-12 4.85089e-14 6.77262e-12 7.15617e-09 5.17677e-09 -1.52932e-09 -6.78811e-16 3.2504e-15 -7.13222e-16 0 0 0 0 0 0 0 0
1676 1 0.00217297 -0.00228132 0.0314877 0.0008 3.43146e-06 2.90292e-14 -3.21497e-14 5.56756e-13 -2.05264e-09 3.03997e-09 -2.78485e-09 5.74303e-15 2.86178e-15 -5.94687e-16 0 0 0 0 0 0 0 0
1677 1 -0.00581487 -0.00256987 0.0333036 0.0008 3.43146e-06 -1.13399e-12 -1.84711e-13 1.51359e-12 5.3646e-09 2.91148e-10 4.55654e-09 3.34301e-15 -2.54454e-16 -2.48765e-15 0 0 0 0 0 0 0 0
1678 1 -0.00123815 0.00201299 0.0299658 0.0008 3.43146e-06 -5.42031e-13 -1.0947e-12 -4.23795e-12 -2.5873e-09 -4.71826e-10 2.87693e-11 -5.73795e-16 9.46696e-15 1.17539e-14 0 0 0 0 0 0 0 0
1679 1 0.00330256 -0.00324102 0.030886 0.0008 3.43146e-06 -5.74774e-13 -1.08368e-12 1.27816e-12 5.11725e-09 -6.64963e-09 -5.7341e-10 1.34168e-15 -7.23751e-16 -1.27244e-15 0 0 0 0 0 0 0 0
1680 1 -0.005434 -0.00472363 0.0310346 0.0008 3.43146e-06 1.15026e-12 -5.59858e-13 7.17834e-13 -4.42665e-11 -1.46628e-09 -1.49843e-09 -1.67458e-15 1.2334e-15 -2.32069e-15 1 3.10823e-05 2.69175e-05 -6.35649e-07 -0.00603772 -0.00524842 0.0310346 0.0008
1681 1 0.0052234 0.00138743 0.0310238 0.0008 3.43146e-06 1.96271e-12 -1.13318e-14 2.16188e-12 1.5058e-09 -2.15464e-09 -5.85284e-10 2.81176e-15 -2.49646e-15 4.87644e-15 0 0 0 0 0 0 0 0
1682 1 0.00439301 0.00461449 0.0341153 0.0008 3.43146e-06 -2.16803e-12 -6.61143e-13 -1.14961e-11 -4.10992e-09 6.47536e-09 1.74041e-09 7.70879e-16 -8.76634e-15 -5.33345e-15 0 0 0 0 0 0 0 0
1683 1 0.00609954 -0.00166578 0.0345118 0.0008 3.43146e-06 1.0438e-12 5.61282e-13 -7.23624e-14 2.13304e-09 -2.10936e-10 -2.88256e-09 -2.58496e-15 -4.02778e-15 -1.45928e-15 0 0 0 0 0 0 0 0
1684 1 -0.00332443 -0.0021097 0.0341723 0.0008 3.43146e-06 -3.73012e-13 1.08419e-12 -6.68896e-12 -3.33303e-09 -6.59053e-09 5.40554e-11 1.13533e-14 4.51549e-16 -4.25492e-15 0 0 0 0 0 0 0 0
1685 1 0.000136952 0.00719872 0.0321991 0.0008 3.43146e-06 3.23971e-13 2.33774e-13 -8.04046e-12 9.80457e-09 -6.76655e-09 2.83559e-11 -5.3323e-17 2.34099e-15 2.47536e-15 1 -2.34e-07 -5.29724e-06 9.18663e-07 0.000152169 0.00799855 0.0321991 0.0008
1686 1 0.0071941 0.000294047 0.0326118 0.0008 3.43146e-06 1.81414e-13 9.90778e-13 1.46242e-12 -5.97133e-09 1.53306e-09 -9.79012e-10 2.19581e-15 5.99392e-16 -1.49118e-15 1 -7.4653e-05 1.06519e-06 2.52833e-05 0.00799333 0.000326714 0.0326118 0.0008
1687 1 0.00563737 -0.00116965 0.0311412 0.0008 3.43146e-06 -3.34894e-13 2.87549e-13 1.22388e-12 -1.14621e-09 -4.00608e-09 2.43845e-09 6.92288e-15 3.46293e-15 5.44312e-15 0 0 0 0 0 0 0 0
1688 1 0.00280057 -0.00345282 0.0353321 0.0008 3.43146e-06 -9.1731e-13 1.07513e-12 7.16142e-12 2.56791e-09 -5.55034e-10 7.5004e-09 4.22807e-15 1.81776e-15 5.2139e-15 0 0 0 0 0 0 0 0
1689 1 0.00128505 -0.00406172 0.0334819 0.0008 3.43146e-06 -2.30537e-13 -3.82906e-13 6.05564e-12 1.1561e-09 1.40416e-09 1.69977e-09 2.97204e-15 -6.92918e-15 -2.66139e-15 0 0 0 0 0 0 0 0
1690 1 -0.000827146 -0.00305367 0.0330233 0.0008 3.43146e-06 -2.83434e-13 9.85123e-13 6.55878e-12 -5.60145e-09 -2.96447e-09 2.74238e-09 -1.93877e-16 -1.79302e-16 -1.44615e-16 0 0 0 0 0 0 0 0
1691 1 -0.00152492 0.00623556 0.0307521 0.0008 3.43146e-06 5.40483e-13 2.16302e-12 -4.93875e-12 -3.12175e-09 3.09452e-09 1.22198e-09 5.50528e-15 -1.2545e-15 1.39342e-15 0 0 0 0 0 0 0 0
1692 1 0.00562455 -1.39595e-06 0.0324773 0.0008 3.43146e-06 -1.93576e-13 1.50989e-13 -2.1482e-12 -2.15405e-09 -7.49716e-10 1.41203e-09 -7.97926e-15 -1.79522e-15 1.29726e-14 0 0 0 0 0 0 0 0
1693 1 0.00147121 -0.0012203 0.0339673 0.0008 3.43146e-06 -1.89239e-13 -6.54028e-13 5.93825e-12 1.79691e-09 6.11964e-09 -8.51057e-10 1.14442e-14 -2.81312e-15 -3.31778e-15 0 0 0 0 0 0 0 0
1694 1 0.00118994 0.00549845 0.0312912 0.0008 3.43146e-06 -5.41245e-13 -1.85859e-12 4.00681e-12 8.73894e-09 -5.91217e-09 -2.90464e-10 3.86605e-16 5.58711e-15 -8.76149e-15 0 0 0 0 0 0 0 0
1695 1 -0.000133286 -0.000484597 0.0318185 0.0008 3.43146e-06 6.29186e-13 -1.36856e-13 -2.10891e-12 -2.73276e-09 1.21378e-09 2.31227e-09 2.6166e-15 4.44172e-16 -8.86148e-15 0 0 0 0 0 0 0 0
1696 1 -0.00719729 0.000198788 0.0340389 0.0008 3.43146e-06 -1.87516e-12 -1.49546e-12 -3.16121e-12 1.85054e-09 3.63044e-09 -1.99906e-09 6.16353e-15 1.58872e-15 1.05523e-14 1 1.32216e-05 -1.09256e-06 -8.10594e-07 -0.00799695 0.000220874 0.0340389 0.0008
1697 1 0.00154617 -0.00547633 0.0342795 0.0008 3.43146e-06 -5.43208e-13 -1.64161e-12 1.72989e-12 4.03392e-09 6.75311e-10 4.18868e-09 -3.25599e-15 -1.07161e-14 1.77491e-15 0 0 0 0 0 0 0 0
1698 1 -0.00314701 0.00171497 0.0339562 0.0008 3.43146e-06 -2.44928e-13 6.69042e-13 -3.13281e-12 -9.08335e-09 6.37586e-12 -2.21005e-09 1.57887e-15 2.96865e-15 7.68976e-15 0 0 0 0 0 0 0 0
1699 1 -0.00341013 0.00634135 0.033099 0.0008 3.43146e-06 1.08798e-12 -1.75726e-13 7.71529e-13 -2.98987e-09 4.72611e-09 1.24842e-09 -5.68764e-16 1.4939e-14 1.02928e-14 1 5.40727e-05 -7.42505e-05 -7.53015e-06 -0.00378897 0.00704583 0.033099 0.0008
1700 1 -0.00230756 -0.00239672 0.0313157 0.0008 3.43146e-06 -3.12058e-13 -1.02484e-12 4.04956e-12 -2.73547e-09 -1.7884e-09 5.74854e-09 1.13309e-14 5.07677e-16 -8.70183e-15 0 0 0 0 0 0 0 0
1701 1 0.00152862 0.00411532 0.0339471 0.0008 3.43146e-06 -5.45308e-13 -2.16847e-12 -9.13568e-12 2.29785e-09 -9.80844e-09 -5.98933e-09 2.89553e-15 -1.95252e-15 -7.64441e-15 0 0 0 0 0 0 0 0
1702 1 -0.000395114 -0.00699325 0.0318862 0.0008 3.43146e-06 9.60672e-14 -2.16735e-12 7.95414e-13 7.78154e-11 -2.11939e-09 2.22458e-10 -3.42922e-15 -1.33511e-16 1.25053e-14 0 0 0 0 0 0 0 0
1703 1 0.000259018 -0.00528209 0.0333494 0.0008 3.43146e-06 7.12142e-14 -1.0395e-12 4.83639e-12 3.03949e-09 1.32243e-09 -5.53943e-10 -2.57326e-15 -7.21007e-15 2.94206e-16 0 0 0 0 0 0 0 0
1704 1 -0.00631595 -0.00094772 0.0333543 0.0008 3.43146e-06 -1.26374e-12 -2.90415e-13 -9.02016e-12 4.56694e-09 -1.44068e-09 2.36004e-09 1.22103e-14 -2.90153e-15 -6.1319e-15 0 0 0 0 0 0 0 0
1705 1 0.00167943 0.00283188 0.0349815 0.0008 3.43146e-06 -5.42883e-13 -1.08407e-12 -8.27324e-12 1.66921e-09 -5.43223e-09 -3.44732e-09 7.05764e-16 5.71143e-16 -1.1889e-14 0 0 0 0 0 0 0 0
1706 1 0.000167065 -0.00719824 0.0288796 0.0008 3.43146e-06 3.14683e-14 -1.84851e-12 4.18311e-13 4.76851e-10 -2.18836e-09 -2.15547e-11 -6.11939e-16 1.3015e-15 -4.82788e-16 1 4.59381e-06 0.00015417 9.23708e-06 0.000185623 -0.00799785 0.0288796 0.0008
1707 1 -0.00199397 0.00541381 0.0323216 0.0008 3.43146e-06 5.16804e-13 2.16844e-12 -5.29836e-12 -2.82209e-09 4.00681e-09 -2.24e-11 2.05104e-14 -9.70574e-16 -4.00012e-15 0 0 0 0 0 0 0 0
1708 1 0.00229734 0.00545778 0.032555 0.0008 3.43146e-06 8.39806e-14 -2.16841e-12 -1.30517e-11 -1.79089e-08 -4.99874e-09 -7.81758e-09 -4.57597e-15 1.21011e-15 -3.83933e-15 0 0 0 0 0 0 0 0
1709 1 -0.0012306 -0.00147989 0.0337023 0.0008 3.43146e-06 4.25598e-13 -5.11512e-13 -7.6489e-13 -1.66118e-09 1.28268e-10 5.58544e-10 4.85751e-15 -6.73244e-16 -4.12641e-16 0 0 0 0 0 0 0 0
1710 1 -0.00227438 0.00080943 0.0305528 0.0008 3.43146e-06 1.08395e-12 8.26712e-13 -3.61878e-12 -3.52034e-09 3.61503e-10 9.29635e-10 -2.61945e-15 1.23623e-15 -3.31335e-15 0 0 0 0 0 0 0 0
1711 1 -0.00377396 0.00372056 0.034398 0.0008 3.43146e-06 4.63004e-13 -1.04393e-13 -1.2473e-11 1.31934e-08 -2.77285e-09 -2.96363e-10 -7.90294e-15 1.18161e-14 -5.51922e-15 0 0 0 0 0 0 0 0
1712 1 0.0020075 -0.00386923 0.0315916 0.0008 3.43146e-06 -3.3719e-13 4.86022e-13 7.176e-12 -5.92728e-09 5.26256e-10 1.99526e-09 5.861e-15 8.62116e-16 -4.68145e-15 0 0 0 0 0 0 0 0
1713 1 -0.00230838 -0.00532135 0.0321309 0.0008 3.43146e-06 -5.46556e-15 -2.14593e-12 3.81631e-12 2.55668e-09 1.02812e-09 2.63535e-10 -3.90764e-15 1.21393e-15 1.23131e-15 0 0 0 0 0 0 0 0
1714 1 0.0024013 -0.00512909 0.0327519 0.0008 3.43146e-06 -4.38507e-13 -2.16837e-12 9.51872e-12 5.669e-09 7.86478e-09 -3.21712e-09 1.13971e-14 -4.90109e-16 -7.16596e-15 0 0 0 0 0 0 0 0
1715 1 0.00049269 -0.00718315 0.0340697 0.0008 3.43146e-06 2.71004e-13 -1.54723e-13 -8.44761e-13 -8.99474e-10 -2.09928e-09 -2.84738e-10 2.64506e-16 5.82727e-15 1.28948e-15 1 -2.06167e-06 1.12013e-05 -4.36349e-07 0.000547431 -0.00798125 0.0340697 0.0008
1716 1 -0.00366718 -0.00482617 0.0314464 0.0008 3.43146e-06 -2.82626e-14 1.34013e-12 2.77763e-12 -8.45896e-10 -2.65301e-09 -1.43866e-09 2.13041e-15 7.10015e-15 -5.75357e-15 0 0 0 0 0 0 0 0
1717 1 -0.00557264 -0.00455925 0.0336108 0.0008 3.43146e-06 2.16757e-12 -1.89398e-12 -1.35797e-12 3.86655e-09 5.31725e-09 -3.61521e-09 4.45956e-16 7.59235e-16 -3.91681e-15 1 3.66934e-05 2.76973e-05 -7.34219e-06 -0.00619176 -0.00506578 0.0336108 0.0008
1718 1 0.00203668 -0.00690601 0.0337549 0.0008 3.43146e-06 1.08377e-12 -1.53574e-12 -9.01531e-13 -2.12362e-09 1.63303e-09 -1.06049e-09 2.81278e-16 7.38456e-15 -2.57083e-15 1 -1.47571e-05 3.95737e-05 -6.41054e-06 0.00226296 -0.00767327 0.0337549 0.0008
1719 1 -0.00687521 0.0021386 0.0334461 0.0008 3.43146e-06 2.12897e-12 3.1866e-12 5.61212e-12 -1.55353e-08 -2.21044e-09 4.71727e-09 -4.98852e-15 2.33577e-14 1.58256e-14 1 0.000112073 -3.18241e-05 4.43024e-06 -0.00763897 0.00237617 0.0334461 0.0008
1720 1 -0.00438282 0.00259138 0.033442 0.0008 3.43146e-06 2.05202e-12 -9.81964e-13 -1.73393e-11 -1.24196e-08 -6.44328e-09 -2.3006e-09 2.03024e-15 1.6928e-14 7.95338e-15 0 0 0 0 0 0 0 0
1721 1 -0.00409848 0.00524583 0.0340401 0.0008 3.43146e-06 2.16027e-12 -1.10155e-12 3.03245e-13 3.76811e-09 -4.26256e-09 7.16964e-10 -3.07024e-15 1.63321e-14 2.94032e-16 0 0 0 0 0 0 0 0
1722 1 0.00695566 0.00186016 0.0316522 0.0008 3.43146e-06 -1.06147e-14 -5.36705e-13 1.88224e-12 -1.4335e-09 2.10106e-09 6.66136e-10 -8.77138e-16 3.99281e-17 2.06785e-15 1 -5.43994e-05 -2.99575e-05 -3.20795e-08 0.00772841 0.00206682 0.0316522 0.0008
1723 1 0.000141395 0.00473195 0.0297736 0.0008 3.43146e-06 9.2153e-14 -1.50002e-12 1.56572e-12 6.63532e-09 2.40874e-09 3.39035e-09 -6.23829e-15 -1.45247e-14 1.03275e-14 0 0 0 0 0 0 0 0
1724 1 0.00324962 -0.00326606 0.0292873 0.0008 3.43146e-06 1.08222e-12 7.83849e-13 4.46244e-12 -2.55248e-09 4.70892e-09 4.14024e-09 -6.23313e-17 1.45106e-15 -1.88726e-15 0 0 0 0 0 0 0 0
1725 1 -0.000950162 -0.00713703 0.0333799 0.0008 3.43146e-06 2.64093e-13 -7.0962e-13 -1.65837e-12 -1.89576e-09 1.10176e-09 -2.74835e-10 -1.01759e-15 -7.35213e-16 6.38561e-15 1 1.79381e-07 7.2191e-07 -8.01022e-08 -0.00105574 -0.00793003 0.0333799 0.0008
1726 1 -0.00382853 0.000707396 0.0309189 0.0008 3.43146e-06 1.08419e-12 -3.36746e-13 -9.27848e-13 -9.2306e-11 2.06698e-09 1.60084e-09 1.16621e-15 1.05618e-15 -1.13217e-16 0 0 0 0 0 0 0 0
1727 1 0.00464997 -0.00350546 0.0327953 0.0008 3.43146e-06 9.85615e-13 9.65309e-13 5.39713e-12 -2.06938e-09 1.40213e-09 -1.46152e-09 2.01312e-15 3.59845e-15 1.17957e-14 0 0 0 0 0 0 0 0
1728 1 0.000322851 0.00207877 0.0311979 0.0008 3.43146e-06 3.64755e-14 1.08184e-12 -6.01385e-12 -2.36105e-09 -3.61889e-09 -4.00176e-10 -3.90116e-15 1.00055e-15 2.59357e-15 0 0 0 0 0 0 0 0
1729 1 -0.00336028 0.000118078 0.0330979 0.0008 3.43146e-06 1.00967e-12 -5.21558e-13 -1.08417e-11 -4.61658e-09 3.16646e-09 6.44435e-10 -2.59118e-15 -1.71603e-15 5.98583e-15 0 0 0 0 0 0 0 0
1730 1 -0.00187978 0.00352313 0.033119 0.0008 3.43146e-06 5.41057e-13 -7.9705e-13 -3.07965e-12 1.83888e-09 6.39417e-11 -2.08307e-09 3.38534e-16 -7.36039e-15 4.58926e-15 0 0 0 0 0 0 0 0
1731 1 -0.0052339 0.00145114 0.0310964 0.0008 3.43146e-06 1.90964e-12 5.41962e-13 -5.58978e-13 -7.45501e-10 -3.31078e-10 -2.63926e-09 1.00024e-14 -7.07427e-16 -1.0377e-14 0 0 0 0 0 0 0 0
1732 1 -0.00456676 0.00134446 0.0296463 0.0008 3.43146e-06 1.66521e-12 -5.40988e-13 6.93206e-14 2.17346e-10 -1.22213e-10 -4.86259e-10 -2.68172e-16 1.48257e-16 -6.72223e-15 0 0 0 0 0 0 0 0
1733 1 0.00290759 -4.62636e-05 0.0301961 0.0008 3.43146e-06 2.1648e-13 -4.46072e-14 -2.56516e-12 5.00208e-10 4.39786e-10 4.74823e-09 -2.97596e-16 9.86119e-16 5.46417e-15 0 0 0 0 0 0 0 0
1734 1 0.00478626 0.00348078 0.033057 0.0008 3.43146e-06 -2.16758e-12 1.53987e-13 8.16379e-13 -4.93946e-09 -1.07788e-08 -1.66981e-09 -3.7015e-16 2.13977e-15 -7.24509e-15 0 0 0 0 0 0 0 0
1735 1 0.00487366 -0.000570088 0.0338983 0.0008 3.43146e-06 2.15703e-12 2.53226e-13 -1.50828e-12 2.07094e-09 1.86619e-09 -2.0651e-09 -7.78592e-16 1.70725e-15 4.38128e-16 0 0 0 0 0 0 0 0
1736 1 -0.00688385 0.00211066 0.029248 0.0008 3.43146e-06 -3.23329e-13 -8.80197e-14 -1.25922e-12 2.19489e-09 7.03947e-10 -2.65948e-10 -1.77692e-15 1.70184e-16 3.65616e-15 1 0.000122974 -5.93905e-05 1.62912e-05 -0.00764855 0.00234513 0.029248 0.0008
1737 1 -0.000292524 -0.00404987 0.034208 0.0008 3.43146e-06 1.08538e-13 -1.65478e-12 9.04089e-12 5.57152e-10 2.78867e-09 2.54428e-09 -2.73224e-15 -1.10311e-14 -5.12264e-15 0 0 0 0 0 0 0 0
1738 1 0.000300097 0.00543682 0.0351084 0.0008 3.43146e-06 1.05504e-12 1.98861e-12 -1.30577e-11 1.23956e-09 -6.84564e-10 -3.19149e-10 -1.99649e-15 -4.5936e-15 -5.33739e-15 0 0 0 0 0 0 0 0
1739 1 -0.0038531 -0.00327064 0.0317855 0.0008 3.43146e-06 -2.71481e-13 -1.0839e-12 5.43128e-12 1.0866e-09 -4.12082e-09 -1.95631e-09 -1.7685e-15 -1.15937e-16 -8.18747e-15 0 0 0 0 0 0 0 0
1740 1 0.00246919 0.00676348 0.0298451 0.0008 3.43146e-06 7.57322e-13 9.70904e-13 7.07733e-13 -5.9945e-09 -1.41155e-08 4.5396e-10 1.32411e-15 -1.604e-15 -3.46803e-15 1 -3.05311e-05 -6.88327e-05 7.61758e-06 0.0027435 0.00751487 0.0298451 0.0008
1741 1 -0.00528327 -0.000935661 0.0300653 0.0008 3.43146e-06 5.05975e-13 2.70618e-13 3.73791e-12 5.07359e-10 1.52046e-09 4.30386e-09 6.86055e-15 2.55865e-17 -2.45127e-15 0 0 0 0 0 0 0 0
1742 1 -0.00428874 -0.00305001 0.0333089 0.0008 3.43146e-06 2.15804e-12 9.98795e-13 -2.17668e-12 -3.97191e-09 4.15799e-09 -1.88126e-09 2.26644e-15 -3.47254e-15 -7.32881e-15 0 0 0 0 0 0 0 0
1743 1 0.0054007 -0.00189766 0.0297363 0.0008 3.43146e-06 1.54823e-12 -2.70499e-13 2.08961e-12 2.1751e-13 2.31883e-09 -1.10604e-09 -1.62437e-15 2.01695e-15 2.73044e-16 0 0 0 0 0 0 0 0
1744 1 -0.00714418 0.000896896 0.028239 0.0008 3.43146e-06 -1.50982e-12 2.55293e-13 -1.14239e-12 -1.84598e-09 1.65114e-09 1.34388e-10 1.49585e-15 -7.75966e-16 1.30343e-16 1 0.000285884 -4.77819e-06 -3.00039e-06 -0.00793769 0.000996515 0.028239 0.0008
1745 1 0.00610528 -0.00229492 0.0321778 0.0008 3.43146e-06 -8.75362e-13 -5.02149e-14 1.00166e-12 2.39137e-09 1.22982e-09 -1.07139e-09 -4.2039e-15 5.60475e-15 -2.05335e-15 0 0 0 0 0 0 0 0
1746 1 -0.00254625 -0.006735 0.0291699 0.0008 3.43146e-06 -5.81375e-13 -1.27261e-12 6.3711e-13 2.05027e-09 3.14324e-09 8.78522e-11 -1.31217e-15 -2.7082e-16 2.68014e-15 1 0.000159535 0.000218839 1.47711e-05 -0.00282907 -0.00748307 0.0291699 0.0008
1747 1 -0.00187926 -0.00609691 0.0307991 0.0008 3.43146e-06 -5.41533e-13 -1.77791e-12 -3.38464e-13 6.87942e-10 5.76562e-10 -8.99182e-10 -3.47476e-16 -2.2738e-15 -3.66723e-15 0 0 0 0 0 0 0 0
1748 1 -0.00249299 -0.00510806 0.0337057 0.0008 3.43146e-06 6.43933e-13 -7.53855e-13 5.43364e-12 -3.71765e-09 -4.51081e-10 -3.40911e-09 3.62169e-15 1.80225e-15 4.99101e-15 0 0 0 0 0 0 0 0
1749 1 -0.00620014 0.00134456 0.03466 0.0008 3.43146e-06 2.09082e-12 5.2997e-13 1.4975e-11 1.23088e-08 -3.51793e-09 -5.98687e-09 -9.82562e-15 -1.9151e-15 -2.33774e-14 0 0 0 0 0 0 0 0
1750 1 -0.00525084 -0.00492669 0.0294583 0.0008 3.43146e-06 8.10732e-13 1.3463e-12 2.66769e-13 2.5331e-09 1.88479e-09 5.17377e-10 -1.06681e-15 1.89087e-16 -8.88931e-16 1 0.000184443 0.000199118 1.85295e-05 -0.00583406 -0.00547391 0.0294583 0.0008
1751 1 -0.00063398 0.00178026 0.0343856 0.0008 3.43146e-06 1.13556e-12 -5.06236e-13 -1.09411e-11 -5.83807e-09 -2.3011e-09 6.39862e-09 -1.94004e-15 -9.60454e-15 -2.14284e-16 0 0 0 0 0 0 0 0
1752 1 -0.00452351 -0.00146511 0.0332905 0.0008 3.43146e-06 -2.16804e-12 2.69748e-12 2.29983e-12 4.52363e-09 1.35578e-09 2.11739e-09 2.4818e-16 -2.48417e-15 -9.01105e-15 0 0 0 0 0 0 0 0
1753 1 0.00305115 0.0027792 0.0341597 0.0008 3.43146e-06 -1.08261e-12 -1.31267e-12 -3.04672e-12 1.07055e-09 7.02161e-11 1.62179e-09 -6.16196e-16 -2.65473e-15 -8.46617e-15 0 0 0 0 0 0 0 0
1754 1 0.00189039 -0.00300844 0.0300909 0.0008 3.43146e-06 -5.26625e-13 -8.83363e-13 7.25949e-12 -2.96284e-09 -1.40745e-09 1.90094e-09 -2.90412e-15 4.55486e-15 -1.38759e-15 0 0 0 0 0 0 0 0
1755 1 -0.00213469 -0.000817192 0.0298484 0.0008 3.43146e-06 1.36818e-13 3.31943e-14 -2.35722e-12 -2.52109e-09 1.11732e-10 2.22554e-09 -2.66776e-15 -1.60474e-15 -5.79623e-15 0 0 0 0 0 0 0 0
1756 1 0.000940159 -0.00654753 0.0326465 0.0008 3.43146e-06 -3.29394e-13 -2.16672e-12 8.33642e-13 5.18656e-11 1.79526e-09 -1.73654e-11 6.09382e-16 3.43006e-16 4.98678e-15 0 0 0 0 0 0 0 0
1757 1 -0.0032379 0.00643088 0.0346871 0.0008 3.43146e-06 1.08425e-12 2.16842e-12 3.14384e-12 -1.06296e-10 -6.03089e-09 2.84659e-09 3.15472e-17 -5.63089e-17 3.59729e-15 1 3.38289e-06 -3.44489e-06 -7.08753e-07 -0.00359766 0.00714541 0.0346871 0.0008
1758 1 0.00387894 0.0060658 0.0332539 0.0008 3.43146e-06 3.15594e-12 -7.57228e-13 1.62293e-11 -8.39754e-09 1.93679e-08 4.63192e-09 7.42163e-15 -1.30058e-15 -2.03349e-14 1 -1.18874e-06 -1.18745e-06 9.33785e-08 0.00430993 0.00673977 0.0332539 0.0008
1759 1 -0.00165326 0.00263921 0.0318048 0.0008 3.43146e-06 -2.51262e-14 -2.29392e-13 -7.97696e-12 3.35686e-09 -2.19051e-09 -3.41229e-09 -5.75632e-15 -1.98233e-14 1.44117e-14 0 0 0 0 0 0 0 0
1760 1 -5.0069e-05 0.00437439 0.0339645 0.0008 3.43146e-06 3.14866e-13 2.1672e-12 -1.60114e-11 1.59082e-09 8.18658e-10 1.44114e-10 -2.10578e-15 -9.0666e-16 -1.77821e-14 0 0 0 0 0 0 0 0
1761 1 0.00505798 -0.00206743 0.0333656 0.0008 3.43146e-06 9.50205e-13 6.18032e-13 1.51626e-13 -3.87273e-09 -2.75029e-11 1.19041e-09 1.23526e-15 4.88878e-15 8.28007e-15 0 0 0 0 0 0 0 0
1762 1 0.0022486 0.00223205 0.0316777 0.0008 3.43146e-06 7.42803e-13 -8.23197e-13 -4.87962e-12 -2.00605e-10 1.47438e-09 -1.47487e-09 4.89942e-15 3.11857e-15 -9.16768e-15 0 0 0 0 0 0 0 0
1763 1 -0.00522117 -0.00333397 0.0345777 0.0008 3.43146e-06 2.01357e-12 1.08366e-12 1.5631e-12 -2.14916e-09 -2.90869e-09 7.26167e-09 -4.13372e-15 -5.67212e-16 -2.66293e-15 0 0 0 0 0 0 0 0
1764 1 0.002859 -0.0045667 0.034185 0.0008 3.43146e-06 -1.08546e-12 -9.53206e-13 6.82265e-13 1.29667e-09 4.73938e-09 -3.76537e-09 -8.57908e-17 -1.95433e-15 9.77894e-16 0 0 0 0 0 0 0 0
1765 1 0.00268349 0.00138233 0.0329617 0.0008 3.43146e-06 1.33577e-12 -7.31398e-14 -9.83409e-12 7.199e-10 3.22266e-09 -1.74971e-09 1.11403e-15 8.77104e-15 -3.20791e-14 0 0 0 0 0 0 0 0
1766 1 0.00184594 0.000159846 0.0346846 0.0008 3.43146e-06 2.58106e-12 -9.86404e-13 -2.25872e-12 -1.18049e-08 -7.3631e-09 -4.85253e-09 1.71443e-14 -1.84909e-14 -8.65284e-15 0 0 0 0 0 0 0 0
1767 1 -0.00419204 0.00310978 0.0306588 0.0008 3.43146e-06 7.41736e-13 1.76673e-13 4.81627e-12 5.98159e-09 -3.24094e-09 1.41552e-09 8.13697e-15 1.14419e-14 -7.56022e-15 0 0 0 0 0 0 0 0
1768 1 0.00325965 0.00083358 0.0343497 0.0008 3.43146e-06 1.18802e-12 1.32328e-12 -4.96543e-12 -6.70438e-09 -3.55827e-09 -2.68061e-09 -5.15422e-16 1.90821e-14 -1.66813e-14 0 0 0 0 0 0 0 0
1769 1 0.00269813 0.00501207 0.0310717 0.0008 3.43146e-06 1.0833e-12 -1.81653e-12 6.65623e-12 1.45215e-08 -5.51348e-09 -2.50634e-09 -9.65418e-16 -3.59465e-15 -3.97638e-15 0 0 0 0 0 0 0 0
1770 1 0.000379104 -0.0055956 0.0304075 0.0008 3.43146e-06 -9.34708e-14 -2.02439e-12 2.15456e-12 2.48004e-09 -1.60863e-09 3.23589e-10 3.09985e-15 -4.4588e-15 2.14106e-15 0 0 0 0 0 0 0 0
1771 1 0.0060078 0.00396836 0.0294594 0.0008 3.43146e-06 -1.03953e-13 -9.35513e-14 -3.16796e-12 3.01173e-10 -4.51783e-09 -7.25761e-12 -4.86228e-16 3.2035e-15 -4.16201e-15 1 -5.33641e-05 -4.83805e-05 1.30802e-05 0.00667523 0.00440923 0.0294594 0.0008
1772 1 -0.00330872 0.000208931 0.0294903 0.0008 3.43146e-06 4.70821e-14 -4.05166e-13 -2.81955e-12 8.36092e-10 3.04535e-11 -1.97233e-09 1.58563e-15 5.11811e-15 4.61993e-15 0 0 0 0 0 0 0 0
1773 1 0.00703737 -0.00152203 0.0332235 0.0008 3.43146e-06 4.80397e-13 -5.41797e-13 1.59485e-13 -2.00589e-09 8.04017e-10 5.22482e-10 -1.77877e-16 2.22335e-16 -3.2497e-15 1 -4.60495e-05 9.90362e-06 6.39986e-06 0.00781921 -0.00169113 0.0332235 0.0008
1774 1 -0.00474679 -0.00541382 0.0346821 0.0008 3.43146e-06 -1.44317e-12 1.10619e-12 -7.25363e-13 -8.23424e-09 -7.83478e-09 2.0347e-09 -1.67657e-15 -2.99806e-16 -3.45996e-15 1 5.52233e-05 4.34627e-05 2.28984e-06 -0.00527414 -0.00601527 0.0346821 0.0008
1775 1 0.00472722 0.00262189 0.0301351 0.0008 3.43146e-06 -1.93168e-12 4.86268e-14 -3.23939e-12 1.77978e-09 -2.01898e-09 1.62782e-10 4.71902e-15 -1.69218e-15 -5.77734e-15 0 0 0 0 0 0 0 0
1776 1 -4.8132e-06 -0.000286439 0.034048 0.0008 3.43146e-06 1.37436e-12 1.12912e-13 -3.68283e-12 -7.09543e-09 5.40592e-09 -3.24513e-09 4.11277e-15 7.35588e-16 4.72031e-15 0 0 0 0 0 0 0 0
1777 1 0.00046973 -0.001881 0.0313222 0.0008 3.43146e-06 8.92364e-13 5.41521e-13 -3.59929e-13 6.20687e-10 -4.98191e-10 -1.41355e-09 -4.8454e-15 -2.11118e-16 1.28031e-15 0 0 0 0 0 0 0 0
1778 1 0.00266897 0.00524721 0.0346066 0.0008 3.43146e-06 1.08427e-12 -2.16837e-12 1.06581e-11 4.21334e-09 6.30276e-09 5.89314e-11 -4.71246e-17 3.13486e-16 -2.20803e-16 0 0 0 0 0 0 0 0
1779 1 -0.00222259 -0.00372543 0.0322026 0.0008 3.43146e-06 7.6338e-13 -9.20156e-13 6.46565e-12 5.09668e-10 -2.81682e-09 -1.17022e-09 7.86632e-16 5.03469e-15 8.53637e-16 0 0 0 0 0 0 0 0
1780 1 -0.0024111 0.00353611 0.0307183 0.0008 3.43146e-06 6.22667e-13 -3.57018e-13 -7.34313e-12 -2.17646e-09 1.48941e-09 4.13151e-09 -4.64725e-15 -2.55082e-14 8.57042e-15 0 0 0 0 0 0 0 0
1781 1 -0.00710821 -0.00114752 0.0319788 0.0008 3.43146e-06 -4.80678e-13 5.41958e-13 -4.06722e-12 -2.09454e-09 4.72297e-09 7.81909e-10 -3.19001e-16 3.02645e-16 -3.64153e-16 1 0.000237867 5.45913e-05 2.44848e-06 -0.00789775 -0.00127498 0.0319788 0.0008
1782 1 0.00511522 0.00506718 0.0327613 0.0008 3.43146e-06 -2.16715e-12 -6.28024e-13 -7.41203e-12 4.81827e-09 -8.47936e-09 -1.38263e-09 -1.34585e-15 1.9923e-15 -1.8695e-15 1 -6.3031e-05 -7.19191e-05 -1.30411e-05 0.00568348 0.00563011 0.0327613 0.0008
1783 1 -0.000908177 -2.11756e-05 0.0304977 0.0008 3.43146e-06 1.29574e-13 -1.15922e-13 -2.59849e-12 1.36377e-09 -5.89094e-10 -2.71765e-09 6.64226e-15 -3.07391e-15 -1.16103e-15 0 0 0 0 0 0 0 0
1784 1 -0.00209732 -0.00356467 0.0338511 0.0008 3.43146e-06 -7.0047e-13 1.78477e-13 1.98769e-12 -2.53482e-09 -6.01011e-09 4.60909e-09 -2.34038e-15 -1.97216e-15 -1.43376e-15 0 0 0 0 0 0 0 0
1785 1 0.00301314 0.00428542 0.0333753 0.0008 3.43146e-06 -1.08441e-12 -2.16831e-12 -2.66872e-12 4.78949e-09 3.54243e-09 2.81418e-09 1.16391e-15 -2.43901e-15 -1.46196e-15 0 0 0 0 0 0 0 0
1786 1 -0.0030482 0.00209016 0.0311189 0.0008 3.43146e-06 2.40463e-13 1.08128e-12 -1.08045e-12 3.59601e-09 3.6413e-09 1.32428e-09 5.20661e-15 1.06787e-17 -2.53576e-15 0 0 0 0 0 0 0 0
1787 1 -0.00677265 0.000326712 0.0325017 0.0008 3.43146e-06 -1.36737e-12 2.29919e-13 -5.49043e-12 8.26615e-10 -2.92612e-09 1.05518e-09 1.20832e-14 2.55689e-15 8.63786e-15 0 0 0 0 0 0 0 0
1788 1 -0.00256327 0.00468168 0.0339853 0.0008 3.43146e-06 1.08354e-12 1.07676e-12 -4.90701e-12 -3.34001e-09 -9.69524e-10 -5.06924e-10 -6.00204e-16 6.55333e-15 1.55305e-14 0 0 0 0 0 0 0 0
1789 1 -0.00556759 -0.00156603 0.0320825 0.0008 3.43146e-06 1.86028e-12 4.95404e-13 -1.2332e-13 -7.20437e-09 -7.38387e-09 -7.15244e-10 -2.9875e-15 4.63776e-15 -2.56125e-15 0 0 0 0 0 0 0 0
1790 1 -0.00700562 -0.00166232 0.0292202 0.0008 3.43146e-06 2.10658e-12 -3.95551e-13 -1.85688e-12 -1.47616e-09 1.99402e-09 -1.03901e-09 2.48845e-15 1.84494e-15 2.2174e-15 1 0.000107793 3.43521e-05 -1.57564e-05 -0.00778387 -0.00184698 0.0292202 0.0008
1791 1 0.00107516 0.00150834 0.0324895 0.0008 3.43146e-06 5.40883e-13 3.5249e-13 -1.82004e-12 1.46521e-10 2.14983e-09 -9.86375e-10 -2.46798e-15 2.53798e-15 -6.11969e-15 0 0 0 0 0 0 0 0
1792 1 -0.00195974 0.00614377 0.0337448 0.0008 3.43146e-06 1.09742e-12 1.28968e-12 -2.15635e-12 5.95278e-09 -2.19435e-09 1.56885e-09 -7.87056e-15 -6.79095e-15 1.36619e-14 0 0 0 0 0 0 0 0
1793 1 0.00218609 0.00307089 0.0297035 0.0008 3.43146e-06 -1.77698e-13 -1.08429e-12 -4.71214e-12 -1.45102e-09 -1.65806e-09 -2.59482e-10 -7.45428e-15 1.28342e-16 -1.04521e-14 0 0 0 0 0 0 0 0
1794 1 0.00179021 0.00697395 0.0326161 0.0008 3.43146e-06 3.1054e-12 -2.16857e-12 -1.13208e-11 1.71216e-08 1.48095e-08 4.77539e-09 -3.40393e-15 -1.49179e-15 -7.45652e-15 1 -5.77693e-06 -3.16348e-05 2.77201e-06 0.00198911 0.00774877 0.0326161 0.0008
1795 1 -0.00527669 0.000658268 0.0329619 0.0008 3.43146e-06 -1.24878e-12 4.66391e-13 3.44683e-12 1.22462e-09 -7.83635e-09 -1.2421e-09 8.88508e-15 -3.38186e-15 -3.58357e-15 0 0 0 0 0 0 0 0
1796 1 0.00313613 -0.00648115 0.0348368 0.0008 3.43146e-06 1.08367e-12 -2.1637e-12 1.5604e-12 3.93287e-09 -3.55385e-09 2.02043e-10 -7.56072e-16 -1.05665e-15 -1.65943e-15 1 -1.11377e-05 1.72388e-05 -3.65411e-06 0.00348456 -0.00720124 0.0348368 0.0008
1797 1 -0.00527496 0.00490055 0.035068 0.0008 3.43146e-06 6.20829e-13 -2.06698e-12 -8.45002e-13 -1.33415e-09 2.49733e-09 -1.42332e-09 1.34114e-14 7.02843e-15 -3.62177e-16 1 1.06943e-05 -1.5519e-05 2.69046e-06 -0.00586103 0.00544503 0.035068 0.0008
1798 1 -0.00155831 0.00053176 0.0340029 0.0008 3.43146e-06 3.71063e-12 -1.88028e-12 -6.12923e-12 5.81729e-10 5.01163e-09 -2.90465e-09 1.59804e-14 -1.6304e-15 1.58753e-14 0 0 0 0 0 0 0 0
1799 1 -0.00343678 0.00480579 0.0326507 0.0008 3.43146e-06 1.08292e-12 7.96579e-13 9.20324e-13 3.29777e-09 4.52959e-09 1.05306e-09 -6.21759e-17 -7.80804e-15 6.1228e-15 0 0 0 0 0 0 0 0
1800 1 -0.000699761 0.00441066 0.032503 0.0008 3.43146e-06 -9.36283e-14 7.31229e-13 -6.50415e-12 -1.88777e-09 4.63928e-09 3.00835e-09 1.98333e-15 2.45693e-15 -7.53237e-15 0 0 0 0 0 0 0 0
1801 1 -0.00106131 -0.00572779 0.0341352 0.0008 3.43146e-06 5.40439e-13 7.12846e-13 7.00775e-12 -5.11222e-09 1.06166e-09 -1.31749e-09 -1.95686e-16 4.39777e-15 -2.64e-15 0 0 0 0 0 0 0 0
1802 1 0.000777948 0.00715792 0.034478 0.0008 3.43146e-06 9.67067e-13 7.57643e-13 -7.14768e-12 6.627e-09 -2.29417e-08 8.09263e-10 2.96113e-15 1.18934e-14 4.21923e-15 1 -6.37356e-06 -3.63473e-05 4.99158e-06 0.000864379 0.00795317 0.034478 0.0008
1803 1 -0.00485262 -0.00531917 0.032401 0.0008 3.43146e-06 -1.889e-12 1.56419e-12 3.12657e-13 -1.47797e-09 -2.35155e-09 3.01634e-09 -1.09991e-15 6.40588e-15 -5.31695e-15 1 4.92108e-05 5.51966e-05 -6.67728e-06 -0.00539172 -0.0059101 0.032401 0.0008
1804 1 -0.000277194 -0.000184139 0.0290367 0.0008 3.43146e-06 1.77124e-13 -1.08558e-13 -1.51467e-12 -1.08795e-10 1.22849e-10 -7.59661e-11 2.68697e-15 -6.14396e-16 2.55861e-15 0 0 0 0 0 0 0 0
1805 1 0.00574032 0.00249747 0.0338832 0.0008 3.43146e-06 -1.78291e-12 1.08214e-12 5.3026e-12 3.24502e-09 5.37377e-09 4.95631e-09 5.32854e-16 -8.61541e-16 -8.89499e-15 0 0 0 0 0 0 0 0
1806 1 -0.00464324 0.00126476 0.0343001 0.0008 3.43146e-06 2.03321e-12 8.46495e-13 7.38543e-12 2.15019e-09 1.18115e-08 3.6016e-09 -5.41374e-15 2.45482e-14 -5.0449e-15 0 0 0 0 0 0 0 0
1807 1 0.00413686 0.0018341 0.0334613 0.0008 3.43146e-06 2.16879e-12 5.44572e-13 -8.24091e-12 2.5856e-09 3.08288e-09 2.64306e-09 -2.80486e-16 -3.03785e-16 -2.28212e-14 0 0 0 0 0 0 0 0
1808 1 -0.00472028 0.00344498 0.0321313 0.0008 3.43146e-06 2.16794e-12 1.03723e-12 3.28672e-12 -7.15558e-09 4.16337e-09 -1.81495e-09 1.28905e-15 -3.55979e-15 -2.7235e-15 0 0 0 0 0 0 0 0
1809 1 -0.000288561 0.000767263 0.032878 0.0008 3.43146e-06 1.23901e-13 -4.45368e-13 -3.21348e-12 5.94384e-09 -7.78406e-10 4.6542e-10 -4.86545e-15 -4.61662e-15 -7.68962e-15 0 0 0 0 0 0 0 0
1810 1 0.00415922 -0.00587736 0.0319873 0.0008 3.43146e-06 -2.07482e-12 1.15029e-12 -1.52177e-14 -1.68939e-09 2.14974e-09 1.33986e-09 -2.04667e-15 -1.65143e-15 -1.6823e-15 1 -8.28067e-05 0.000134137 -1.08302e-05 0.00462125 -0.00653024 0.0319873 0.0008
1811 1 -0.00447253 -0.000399566 0.032071 0.0008 3.43146e-06 5.81055e-13 9.89491e-14 -9.99128e-13 3.64897e-09 6.54312e-09 6.43213e-10 2.61099e-15 -2.6728e-15 1.17689e-14 0 0 0 0 0 0 0 0
1812 1 -0.00143857 0.00705486 0.0324372 0.0008 3.43146e-06 5.42142e-13 -2.16835e-12 -7.20231e-12 6.98788e-09 9.29183e-09 5.97322e-10 2.14192e-16 1.44036e-15 -3.01316e-15 1 8.98201e-07 -1.47515e-05 -1.79875e-06 -0.0015984 0.00783869 0.0324372 0.0008
1813 1 -0.00690223 -0.0020494 0.0343555 0.0008 3.43146e-06 -2.16038e-12 3.82982e-13 -2.11948e-12 -1.36665e-08 -1.26419e-09 1.28256e-09 9.8005e-16 -1.22596e-14 4.97559e-16 1 3.04694e-05 7.77904e-06 -1.03313e-06 -0.00766908 -0.0022771 0.0343555 0.0008
1814 1 0.00260282 0.00671324 0.0339695 0.0008 3.43146e-06 3.25274e-12 -2.16803e-12 2.22217e-12 -1.30517e-08 -2.57361e-08 5.07531e-09 -4.02318e-16 -3.80134e-16 8.94188e-15 1 -5.27506e-05 -0.000121218 6.44516e-06 0.00289196 0.00745899 0.0339695 0.0008
1815 1 0.000461951 0.0028588 0.0339438 0.0008 3.43146e-06 -1.16775e-13 1.08422e-12 -1.43517e-11 -3.41217e-09 -1.11777e-09 -1.11818e-09 1.38039e-15 2.33739e-16 -1.23786e-14 0 0 0 0 0 0 0 0
1816 1 -0.00122676 0.00512982 0.034742 0.0008 3.43146e-06 5.80819e-13 2.16558e-12 -9.82732e-12 2.22885e-10 5.30547e-09 4.9565e-10 6.5784e-16 2.53381e-16 7.5271e-15 0 0 0 0 0 0 0 0
1817 1 -0.00244664 0.00100704 0.0321311 0.0008 3.43146e-06 2.21814e-14 -9.99825e-13 -9.63748e-12 5.86984e-09 -2.17426e-09 -1.2855e-09 4.1256e-15 -9.60882e-15 -1.01725e-14 0 0 0 0 0 0 0 0
1818 1 0.00603722 -0.00392354 0.0321141 0.0008 3.43146e-06 7.76453e-13 2.03834e-12 2.02083e-12 -2.5833e-09 4.66866e-09 -2.72203e-09 -1.78557e-15 2.74204e-15 1.25247e-16 1 -0.000107109 7.06782e-05 -1.05306e-05 0.00670788 -0.0043594 0.0321141 0.0008
1819 1 -0.00152723 -0.00455076 0.0305862 0.0008 3.43146e-06 5.42999e-13 -2.16785e-12 2.87608e-14 6.26556e-10 2.17324e-09 -1.21973e-09 2.77862e-16 8.87568e-16 -9.13275e-15 0 0 0 0 0 0 0 0
1820 1 0.00516365 -0.00501778 0.0328883 0.0008 3.43146e-06 -6.25994e-13 1.01747e-12 2.51925e-12 5.78073e-09 -1.25916e-09 -3.9564e-10 -7.64957e-16 2.60137e-17 5.98809e-15 1 -5.80379e-05 3.67091e-05 -1.07803e-05 0.00573731 -0.00557524 0.0328883 0.0008
1821 1 0.000605366 0.00285779 0.0298275 0.0008 3.43146e-06 -2.75012e-13 -1.0842e-12 -2.48816e-12 -2.47954e-09 3.58689e-09 7.54386e-10 -3.81678e-15 1.13453e-17 -1.65967e-15 0 0 0 0 0 0 0 0
1822 1 0.00280363 -0.0066318 0.0323779 0.0008 3.43146e-06 -1.08323e-12 -2.01722e-12 1.2878e-12 2.10651e-09 -4.89387e-10 2.41736e-09 -9.79779e-16 4.71548e-15 -3.62617e-15 1 -2.3328e-05 3.91629e-05 2.82324e-06 0.00311511 -0.00736859 0.0323779 0.0008
1823 1 0.00429241 0.000844667 0.0322137 0.0008 3.43146e-06 -6.04953e-14 2.95373e-13 -5.39136e-12 -5.17629e-09 4.69374e-10 -2.80836e-09 -5.64016e-15 1.67322e-15 -4.02523e-15 0 0 0 0 0 0 0 0
1824 1 0.000214018 -0.00148837 0.0330148 0.0008 3.43146e-06 5.98462e-14 -5.39107e-13 5.31272e-12 -1.58773e-09 -6.98345e-09 8.39217e-10 -3.48219e-16 2.38308e-16 -5.96295e-15 0 0 0 0 0 0 0 0
1825 1 0.00653392 0.00302459 0.0306393 0.0008 3.43146e-06 -1.86289e-12 -1.0563e-12 1.15351e-13 -8.85824e-10 -2.02514e-10 3.47287e-10 -2.50917e-15 -1.72665e-16 9.52794e-16 1 -5.99457e-06 -1.63169e-06 -5.12997e-07 0.00725989 0.00336065 0.0306393 0.0008
1826 1 0.00572605 0.00436515 0.03146 0.0008 3.43146e-06 -2.16813e-12 1.04514e-12 3.29415e-12 -6.43735e-09 6.48799e-10 -2.65181e-09 1.85058e-15 3.99208e-15 1.47778e-15 1 -0.000112084 -5.8277e-05 2.78045e-06 0.00636214 0.00485007 0.03146 0.0008
1827 1 -0.000294519 0.00581005 0.0333023 0.0008 3.43146e-06 -2.08689e-12 -1.4568e-12 -1.73383e-11 -4.94477e-09 1.91953e-09 2.90359e-09 1.311e-14 -8.8185e-15 1.03336e-15 0 0 0 0 0 0 0 0
1828 1 0.00406949 0.00593969 0.0349513 0.0008 3.43146e-06 2.16858e-12 -2.1679e-12 -3.29916e-13 1.20028e-08 1.64263e-08 4.35751e-09 -4.54459e-16 8.65102e-16 5.32438e-15 1 -1.25498e-05 -2.10082e-05 8.81017e-06 0.00452163 0.00659961 0.0349513 0.0008
1829 1 -0.000984139 0.00285821 0.0356596 0.0008 3.43146e-06 5.16192e-13 2.00134e-13 -1.20949e-11 1.0075e-09 6.30144e-09 1.682e-09 2.24689e-15 -3.03676e-15 8.68558e-15 0 0 0 0 0 0 0 0
1830 1 0.000360185 0.0036639 0.035338 0.0008 3.43146e-06 -6.67728e-13 1.07676e-12 -1.41843e-11 -1.36248e-09 -3.32911e-09 -8.47095e-11 -1.31862e-15 -1.73369e-15 -9.4832e-15 0 0 0 0 0 0 0 0
1831 1 0.00180343 0.00431263 0.0355747 0.0008 3.43146e-06 -6.56218e-13 -1.93976e-12 -6.52539e-13 5.9517e-09 -1.32624e-08 -3.73788e-09 7.10502e-15 1.47356e-14 -2.2573e-14 0 0 0 0 0 0 0 0
1832 1 -0.00223292 0.00409884 0.0354382 0.0008 3.43146e-06 1.46057e-12 2.16501e-12 -5.86063e-12 1.34844e-09 2.9911e-09 -2.62604e-09 -1.40318e-15 5.30803e-16 1.41032e-14 0 0 0 0 0 0 0 0
1833 1 -0.00441885 -0.00419315 0.0356631 0.0008 3.43146e-06 -1.39394e-12 -1.52005e-12 -1.43998e-12 7.76666e-09 4.27833e-10 -8.99871e-09 -3.59347e-15 1.00823e-14 -8.30847e-15 0 0 0 0 0 0 0 0
1834 1 -0.00336565 -0.0011925 0.0354826 0.0008 3.43146e-06 6.98059e-13 1.63079e-13 -5.52965e-12 5.45718e-09 6.5039e-09 -2.99807e-09 -1.07306e-14 -2.87529e-14 -1.0206e-14 0 0 0 0 0 0 0 0
1835 1 0.00245069 -0.00523981 0.0355779 0.0008 3.43146e-06 -1.08778e-12 -2.16817e-12 3.22979e-12 -4.46162e-11 -1.49497e-09 -5.27343e-10 -2.93629e-15 5.19767e-17 -2.10804e-15 0 0 0 0 0 0 0 0
1836 1 -0.00173511 0.0019231 0.0332331 0.0008 3.43146e-06 4.53326e-13 -1.62947e-12 -7.3159e-12 -2.29125e-09 2.74622e-09 3.45644e-09 1.26988e-14 1.07331e-16 1.0059e-14 0 0 0 0 0 0 0 0
1837 1 0.00320353 -0.000592825 0.0350723 0.0008 3.43146e-06 3.25283e-12 1.52472e-12 4.45298e-12 -3.71412e-09 6.57296e-09 4.56253e-09 -1.39713e-16 2.11e-15 1.44399e-14 0 0 0 0 0 0 0 0
1838 1 -0.00181313 0.00150879 0.0354323 0.0008 3.43146e-06 1.15962e-12 -2.46795e-13 -5.42937e-12 -3.50784e-09 5.4236e-09 5.00915e-10 -3.64304e-15 -1.03325e-14 2.3148e-15 0 0 0 0 0 0 0 0
1839 1 -0.00535232 -0.00174031 0.0346311 0.0008 3.43146e-06 -9.08495e-13 5.41581e-13 -3.95384e-13 2.66316e-10 -1.02361e-09 -3.46936e-09 -3.09429e-14 5.29947e-16 2.33901e-15 0 0 0 0 0 0 0 0
1840 1 0.0037954 -0.00317984 0.0341091 0.0008 3.43146e-06 -5.85987e-13 -4.80038e-13 9.26765e-12 -7.78215e-09 -2.58269e-09 -3.9133e-09 8.72255e-16 2.60728e-15 -1.66338e-16 0 0 0 0 0 0 0 0
1841 1 -0.00303475 0.000550132 0.0350472 0.0008 3.43146e-06 1.08428e-12 3.29476e-13 -8.18054e-13 6.93116e-09 4.29238e-09 8.85494e-10 -4.7553e-16 4.33906e-15 2.71088e-14 0 0 0 0 0 0 0 0
1842 1 0.00524063 -0.00299091 0.0347688 0.0008 3.43146e-06 -1.06348e-12 -6.57945e-13 2.88591e-12 -6.28812e-10 8.55206e-09 2.59787e-10 4.68732e-15 9.70202e-15 3.20267e-15 0 0 0 0 0 0 0 0
1843 1 -0.00540542 0.00361675 0.0341221 0.0008 3.43146e-06 -1.96143e-12 -1.07576e-12 -1.35743e-11 1.58641e-08 6.72051e-09 5.10637e-09 1.1947e-14 -2.43921e-15 6.98148e-15 0 0 0 0 0 0 0 0
1844 1 -0.00176178 0.00676562 0.0352056 0.0008 3.43146e-06 3.68677e-12 -3.17932e-12 1.11147e-11 4.11721e-09 -1.10241e-09 -1.06825e-08 -1.19187e-14 -1.73851e-14 3.18692e-14 0 0 0 0 0 0 0 0
1845 1 -0.0029328 -0.00328367 0.0351863 0.0008 3.43146e-06 -6.22811e-13 8.88965e-13 -1.40276e-12 -1.61196e-09 4.74399e-09 -2.6115e-10 9.38768e-15 -6.91569e-15 -4.18748e-15 0 0 0 0 0 0 0 0
1846 1 0.00663915 -0.00278614 0.0355185 0.0008 3.43146e-06 -2.13489e-12 -1.94716e-13 -2.17168e-12 1.20401e-09 -3.37973e-09 1.32813e-09 -4.57799e-15 1.09828e-14 -2.50797e-15 1 -2.89511e-05 1.38228e-05 2.80407e-06 0.00737677 -0.00309568 0.0355185 0.0008
1847 1 0.00104604 -0.00375794 0.0350344 0.0008 3.43146e-06 5.39216e-13 1.0841e-12 6.10032e-12 -3.14727e-09 -2.08279e-11 -4.98705e-10 1.88109e-16 1.71629e-16 2.41051e-15 0 0 0 0 0 0 0 0
1848 1 -0.00175209 -0.00459316 0.035027 0.0008 3.43146e-06 2.78897e-13 1.5585e-12 4.82859e-12 8.30853e-10 1.94646e-10 3.42856e-09 2.93655e-16 -8.53659e-15 3.75016e-15 0 0 0 0 0 0 0 0
1849 1 0.00340748 0.00395227 0.0351877 0.0008 3.43146e-06 1.0843e-12 -2.16833e-12 -4.16962e-13 2.80148e-09 5.22654e-09 -1.35164e-09 5.99536e-17 7.81688e-16 -5.42804e-15 0 0 0 0 0 0 0 0
1850 1 0.000414319 -0.00135685 0.0351607 0.0008 3.43146e-06 3.84944e-13 -2.51975e-13 5.1418e-12 -1.15842e-09 -5.99849e-09 -8.91317e-10 1.21215e-14 -1.27659e-14 1.05225e-14 0 0 0 0 0 0 0 0
