LAMMPS data file via write_data, version 22 Jul 2025, timestep = 4000001, units = si

1850 atoms
1 atom types

-0.008 0.008 xlo xhi
-0.008 0.008 ylo yhi
0 0.07 zlo zhi

Atoms # sphere

1 1 0.0016 1600 0.0037043510853420774 -0.0050828758518468116 0.002131439884296257 0 0 0
2 1 0.0016 1600 0.0010518071690099795 0.0030369734120764833 0.0007994819163569301 0 0 0
3 1 0.0016 1600 -0.0065564495397065405 0.0029756660797335944 0.0022542440603572985 0 0 0
4 1 0.0016 1600 0.0055190786647247156 0.0015485523858990318 0.002106936572737514 0 0 0
5 1 0.0016 1600 0.002643590679317525 0.0031935889115575727 0.0007997714931594655 0 0 0
6 1 0.0016 1600 0.0005247887559189342 -0.005962326105056833 0.0007996363474324592 0 0 0
7 1 0.0016 1600 -0.00041475489257733115 -0.002601321078438491 0.000799934433197936 0 0 0
8 1 0.0016 1600 -0.0072001741811971364 3.0226105348228684e-05 0.004858263970192246 0 0 0
9 1 0.0016 1600 0.0020815910924238063 0.0022883753752629666 0.0019933225287453757 0 0 0
10 1 0.0016 1600 -0.0035772352056147997 -0.002307346143558619 0.0007999358558858059 0 0 0
11 1 0.0016 1600 0.003987743655701614 0.0011376333503076612 0.003619080821778792 0 0 0
12 1 0.0016 1600 0.005384459025149088 -0.0005589933990128927 0.0048218283519203525 0 0 0
13 1 0.0016 1600 -0.005533712523825442 -0.004606731272697239 0.0007991878188774021 0 0 0
14 1 0.0016 1600 0.0019041046864242644 -0.006944118810581575 0.004698502931631012 0 0 0
15 1 0.0016 1600 0.0009172791895768656 -0.004451450106839597 0.0029917825252352022 0 0 0
16 1 0.0016 1600 -0.0015362258415437594 -0.00023929810743156653 0.004663152882622602 0 0 0
17 1 0.0016 1600 -0.0030852978639260547 -0.004940777270227083 0.004959036481622144 0 0 0
18 1 0.0016 1600 -0.0015907957890280739 0.0054030585952836935 0.0007993530356352371 0 0 0
19 1 0.0016 1600 0.005117002145536244 0.005066734251546321 0.003550535309953608 0 0 0
20 1 0.0016 1600 0.0009070794777099534 0.0015703736055226415 0.004929089444338842 0 0 0
21 1 0.0016 1600 0.0050886848274676755 -0.0008349566042813755 0.0007992349948909196 0 0 0
22 1 0.0016 1600 -0.005531742354509965 0.004610017001609877 0.0021597169697264444 0 0 0
23 1 0.0016 1600 0.004457449063223795 0.005654422002697476 0.0007995828628467073 0 0 0
24 1 0.0016 1600 -0.006044942679410434 0.0014001386625154795 0.0047489193072047416 0 0 0
25 1 0.0016 1600 -3.54604542924779e-05 0.0018639911911847726 0.0007994757649912625 0 0 0
26 1 0.0016 1600 0.004669837567861228 0.004551154292805142 0.002104567647100363 0 0 0
27 1 0.0016 1600 -0.003769066625285845 0.0017015231173459625 0.0026681842906759296 0 0 0
28 1 0.0016 1600 0.0042981999728632985 -0.005776574989118038 0.0034447747039995915 0 0 0
29 1 0.0016 1600 -0.00404390209634474 -0.003996063666560098 0.0036263804022005804 0 0 0
30 1 0.0016 1600 0.004662754585670565 0.0018968755930128807 0.0007996733391877398 0 0 0
31 1 0.0016 1600 -0.00045991693342770394 0.002556629197835234 0.005073435057882063 0 0 0
32 1 0.0016 1600 0.003727290186073368 -0.004197410224785516 0.0007996000959916204 0 0 0
33 1 0.0016 1600 0.00093460567861551 -0.00441622130321748 0.0007994772837387027 0 0 0
34 1 0.0016 1600 -0.003880377571990126 0.0008718560223683907 0.0007993038538215988 0 0 0
35 1 0.0016 1600 -0.000711621020610471 0.0024656997206774062 0.002118149904887308 0 0 0
36 1 0.0016 1600 -0.0036495358738561617 0.001975952396600505 0.004417860230268926 0 0 0
37 1 0.0016 1600 0.006714615228205291 0.0025993495539429947 0.0022674614878673747 0 0 0
38 1 0.0016 1600 -0.005556544306739971 -0.0015653586836159917 0.0038201467003819633 0 0 0
39 1 0.0016 1600 -5.156282671312504e-05 0.003347294061748952 0.0037449714678452002 0 0 0
40 1 0.0016 1600 -0.0021133602324732194 -0.0003918381635966818 0.0012890771077487153 0 0 0
41 1 0.0016 1600 0.001495186812724351 0.0013994911289968044 0.0007996760571916054 0 0 0
42 1 0.0016 1600 -0.005247588339795944 0.0020960436578752943 0.0035505355182209888 0 0 0
43 1 0.0016 1600 0.001165356725776903 0.0057111525945399075 0.003908371961027432 0 0 0
44 1 0.0016 1600 -0.0022522771518444853 0.006839461592283934 0.005503648449455129 0 0 0
45 1 0.0016 1600 0.0011577670077001156 -0.002306107562024391 0.0007999030498830539 0 0 0
46 1 0.0016 1600 -0.0006149164647161513 -0.006001252863679019 0.004218765068775563 0 0 0
47 1 0.0016 1600 -0.0020266913644965837 -0.001912202093592267 0.0007993986047117504 0 0 0
48 1 0.0016 1600 -0.006007298769684794 -0.003969361536316705 0.0053283804677844784 0 0 0
49 1 0.0016 1600 0.0030081752599115997 0.004967656117480265 0.0007991673295828412 0 0 0
50 1 0.0016 1600 0.0051406416445669584 -0.003310875810993843 0.004417795590536789 0 0 0
51 1 0.0016 1600 0.007123889412556989 0.001040464182031793 0.0022623982597512796 0 0 0
52 1 0.0016 1600 -0.0029731057005088347 -0.00496654748853762 0.0007988779562136835 0 0 0
53 1 0.0016 1600 -0.0015417964283734294 -0.005721930882342631 0.000799935855885801 0 0 0
54 1 0.0016 1600 0.0013179907112198482 -0.00412035649834431 0.00510723469300757 0 0 0
55 1 0.0016 1600 -0.002389257687373962 -0.0034388313988528325 0.0038844078634495574 0 0 0
56 1 0.0016 1600 -0.004964028607924355 0.0017298725905425497 0.0016047470654170996 0 0 0
57 1 0.0016 1600 0.00041367557788622136 -0.005969515572042205 0.0029941060649839625 0 0 0
58 1 0.0016 1600 -0.005698330429144228 -0.0010639910476867873 0.0023080464047944816 0 0 0
59 1 0.0016 1600 0.0007139211919910462 0.0050712519315738456 0.0025131682839958937 0 0 0
60 1 0.0016 1600 -0.0024549299491995104 -0.003453305047220466 0.0007998769284918864 0 0 0
61 1 0.0016 1600 0.0037685317682657777 0.0031437185826637053 0.00431778990691921 0 0 0
62 1 0.0016 1600 0.003078506528997118 0.00165396593482651 0.0007991354546343809 0 0 0
63 1 0.0016 1600 -0.007164222708059841 0.000720576433150849 0.003415831839210388 0 0 0
64 1 0.0016 1600 -0.0010320992186483647 -0.004185097790284055 0.0007994942098265899 0 0 0
65 1 0.0016 1600 -0.00336823363014138 0.004676107740854209 0.002953451565739452 0 0 0
66 1 0.0016 1600 -0.0035200667183413123 0.0035586489950443748 0.0017959502219701993 0 0 0
67 1 0.0016 1600 0.0017563273945736587 -0.006982937216198219 0.0007999007786400887 0 0 0
68 1 0.0016 1600 0.005698646409367094 0.0006440897532860961 0.0007997540551769367 0 0 0
69 1 0.0016 1600 -0.0007087000615570669 0.006982614317728945 0.000799694663680684 0 0 0
70 1 0.0016 1600 0.00711363796094157 -0.0010233600349447713 0.0044255057203082425 0 0 0
71 1 0.0016 1600 0.0060053151539462574 -0.0005720000828186735 0.0033482072825622754 0 0 0
72 1 0.0016 1600 0.005709076208876078 0.0008600375649233454 0.005484392665229261 0 0 0
73 1 0.0016 1600 -0.0032423104792555684 0.002338756706771497 0.0007995278336448186 0 0 0
74 1 0.0016 1600 -0.000492327272439839 0.004030238921021306 0.00236841933733414 0 0 0
75 1 0.0016 1600 -0.00382413914131515 0.004283962050453408 0.004455330199962508 0 0 0
76 1 0.0016 1600 0.006002105817713483 0.003978209488991513 0.0027803606813173324 0 0 0
77 1 0.0016 1600 -0.006887987305746647 -0.002096891695301212 0.0007997125207762356 0 0 0
78 1 0.0016 1600 -0.0010523115524017962 0.005526637700867393 0.002300166062319208 0 0 0
79 1 0.0016 1600 -0.0004241039156569122 -0.005222935530799163 0.0018539009365745132 0 0 0
80 1 0.0016 1600 -0.002497269476537625 -0.001583534702286874 0.0022923572509922397 0 0 0
81 1 0.0016 1600 0.005999759834994736 -0.003980819988349028 0.000799543347849281 0 0 0
82 1 0.0016 1600 0.0014919496658675653 -0.001261874324767726 0.0022608070977268896 0 0 0
83 1 0.0016 1600 -0.006772561910704951 0.002349043860345687 0.0007991525836581827 0 0 0
84 1 0.0016 1600 -0.003032168414563051 0.004709715145321137 0.0007993562119929672 0 0 0
85 1 0.0016 1600 0.0015846621620946555 -0.002550666681502124 0.005886354729377441 0 0 0
86 1 0.0016 1600 0.007199570595084077 8.979781039629683e-05 0.0007995775602730856 0 0 0
87 1 0.0016 1600 -0.0017761630956148956 -0.006977673168328065 0.0017960550105216302 0 0 0
88 1 0.0016 1600 0.0039725165477996534 -0.0026169198047490683 0.0007995123533889735 0 0 0
89 1 0.0016 1600 -0.0013156780728553754 0.000905262450357777 0.0007994313555353052 0 0 0
90 1 0.0016 1600 -0.0027615818663403 -0.004926334682392199 0.0033928302582695025 0 0 0
91 1 0.0016 1600 0.00645891202760231 0.0031821329489343914 0.0007996002209001222 0 0 0
92 1 0.0016 1600 -0.003352482789881203 -0.006372193868847353 0.0038630835546000115 0 0 0
93 1 0.0016 1600 -0.0038829502969378333 0.0060638458996034985 0.0007993568436328794 0 0 0
94 1 0.0016 1600 0.0036862957733446136 0.002542605367252976 0.001981821320016734 0 0 0
95 1 0.0016 1600 0.001639250165128825 -0.00586314317116735 0.001971554472537311 0 0 0
96 1 0.0016 1600 -0.006872994401771502 -0.002146090319380043 0.0023985393198627503 0 0 0
97 1 0.0016 1600 0.0006010913952739425 0.0055792482277213715 0.0007997117748496739 0 0 0
98 1 0.0016 1600 -0.0004027737342686727 0.004976985528745304 0.003655088916623415 0 0 0
99 1 0.0016 1600 0.006071454494423949 -0.0038702182017117475 0.0031841337027500296 0 0 0
100 1 0.0016 1600 0.0011539634555568653 -0.0007061437859990861 0.0007995606789062505 0 0 0
101 1 0.0016 1600 -0.004151346830885962 -0.0038016815812786575 0.00079922230094162 0 0 0
102 1 0.0016 1600 0.000551329828437581 -0.0012859499674101828 0.003554605336841521 0 0 0
103 1 0.0016 1600 -0.005254996702693946 -0.00249993009247768 0.0007996178434071596 0 0 0
104 1 0.0016 1600 0.006457246089225247 0.0031860498465353 0.005178113036974491 0 0 0
105 1 0.0016 1600 -0.0015958558532534251 0.007021329154421699 0.002130306394856142 0 0 0
106 1 0.0016 1600 0.0032549532111366126 -0.0064229193553525105 0.0007996163461394186 0 0 0
107 1 0.0016 1600 -0.004950344610974864 0.0031360117748456175 0.0023734463230892515 0 0 0
108 1 0.0016 1600 0.0015940498531400006 0.004444171452752811 0.0013334440628789666 0 0 0
109 1 0.0016 1600 -0.00575652310231381 0.0005969240782446885 0.0007998781945111555 0 0 0
110 1 0.0016 1600 -0.0009100397702148948 -0.0015047025578477859 0.0018695600262827062 0 0 0
111 1 0.0016 1600 -0.005206695752619824 -0.0030731620963422666 0.004222279237648916 0 0 0
112 1 0.0016 1600 0.005353988727098729 -0.004814592824772868 0.0020020085396865715 0 0 0
113 1 0.0016 1600 0.004280606498228072 -0.0014781686152034019 0.0021445567742967744 0 0 0
114 1 0.0016 1600 0.005562457190190464 -0.0024419739127631178 0.0007995911739532149 0 0 0
115 1 0.0016 1600 -0.001134741577478925 -0.007110279005618696 0.00533523032276409 0 0 0
116 1 0.0016 1600 0.00134198247311084 0.004131964729053895 0.0037228558137744868 0 0 0
117 1 0.0016 1600 -0.0024480593572224186 0.006771189506833033 0.0007997878102557369 0 0 0
118 1 0.0016 1600 0.002641823145652947 -0.0021606913175517078 0.001606360180260046 0 0 0
119 1 0.0016 1600 -0.0009629776449569743 -0.004042608044416165 0.0031001804285199293 0 0 0
120 1 0.0016 1600 0.00180342576253927 0.006279302915891391 0.001872694706308832 0 0 0
121 1 0.0016 1600 0.002954430926777364 0.006566343434940069 0.0007996628849563287 0 0 0
122 1 0.0016 1600 0.00015327850015943635 -0.0003872219507281424 0.0022924310921093485 0 0 0
123 1 0.0016 1600 0.006548534367398296 -0.0029930649912396304 0.0019325036459790141 0 0 0
124 1 0.0016 1600 0.0023307557703970295 0.0068127329295567885 0.0046465112835283266 0 0 0
125 1 0.0016 1600 0.0031151532210564963 0.0010533105738872442 0.0022807220497938836 0 0 0
126 1 0.0016 1600 0.005177124706706339 0.003075207979270343 0.0017505057706986055 0 0 0
127 1 0.0016 1600 0.002932390210131579 -0.0005332300097687446 0.002184061982663698 0 0 0
128 1 0.0016 1600 -0.007107727842769853 0.0011491065384562377 0.0018029483086397415 0 0 0
129 1 0.0016 1600 0.002287448573062208 -0.0042838846040632985 0.002183845413729392 0 0 0
130 1 0.0016 1600 0.005102216243196858 4.992988279510169e-06 0.0021605537212879386 0 0 0
131 1 0.0016 1600 -0.003685158811733781 -0.004509399526740397 0.0021554009698314413 0 0 0
132 1 0.0016 1600 0.007187053400028315 0.0004324970304334214 0.0037409373361650703 0 0 0
133 1 0.0016 1600 0.005876735456529656 -0.0014752469353473906 0.0020343711129295885 0 0 0
134 1 0.0016 1600 -0.004169711792812555 -0.0008214412746614677 0.0035333718291005144 0 0 0
135 1 0.0016 1600 0.002551508332777262 0.0031136864901823544 0.003280519084220634 0 0 0
136 1 0.0016 1600 -0.006076644614985799 0.003860133607628196 0.000799935855885801 0 0 0
137 1 0.0016 1600 -0.0002706486455405963 -0.0025110155000890753 0.0029361593882309737 0 0 0
138 1 0.0016 1600 0.00018572634179902118 0.006504376843283409 0.0020368618152955807 0 0 0
139 1 0.0016 1600 -0.007184709515499163 -0.0004749948734321947 0.0023532376554791087 0 0 0
140 1 0.0016 1600 -0.004676549811254952 0.0030815531184965697 0.0007990524548284924 0 0 0
141 1 0.0016 1600 -0.0014702395980904493 0.005281201749811462 0.004981362457760716 0 0 0
142 1 0.0016 1600 0.004081155860659409 0.0004072673818288731 0.0007996826907807443 0 0 0
143 1 0.0016 1600 0.005066940976009372 -0.002822226853939691 0.002511549235543737 0 0 0
144 1 0.0016 1600 -0.004383411596388581 -0.005712172504515406 0.0009172034924985662 0 0 0
145 1 0.0016 1600 0.0007691123069012869 0.0071593195114845 0.00464873524797938 0 0 0
146 1 0.0016 1600 -0.0005403448130994526 -0.0071788803971378976 0.000799934800975909 0 0 0
147 1 0.0016 1600 0.0026762432618582872 0.00021832647845716803 0.0035720340539270646 0 0 0
148 1 0.0016 1600 0.0035090176428327698 -0.0010863542496695122 0.0007990147612910508 0 0 0
149 1 0.0016 1600 0.004754756768501864 0.0024678888877926433 0.0031697462547488255 0 0 0
150 1 0.0016 1600 0.0049781395676334415 0.0020447844299772712 0.0046962190361677855 0 0 0
151 1 0.0016 1600 0.007006998544437783 -0.0015644983666785782 0.000799935855885801 0 0 0
152 1 0.0016 1600 -0.002957058442590004 -0.006565531998512445 0.0007994143532845752 0 0 0
153 1 0.0016 1600 -0.0017907829017598782 0.00392995091520896 0.001439469738752249 0 0 0
154 1 0.0016 1600 0.00042892537895132315 -0.007111511219170313 0.005671823851990669 0 0 0
155 1 0.0016 1600 0.002391223614425989 -0.005077048617091047 0.0007991678453778884 0 0 0
156 1 0.0016 1600 0.005618463683786801 -0.004503009429592083 0.005875385341228154 0 0 0
157 1 0.0016 1600 0.004592676371992153 -0.0055451454269731726 0.0007996952076753883 0 0 0
158 1 0.0016 1600 -0.0063310112195358904 -0.0034294210089307886 0.0015327384371636883 0 0 0
159 1 0.0016 1600 -0.0020464900701324907 -0.004490311785969814 0.0020122442397562047 0 0 0
160 1 0.0016 1600 0.003917062810403562 -0.0021050547309883656 0.005354155555369491 0 0 0
161 1 0.0016 1600 -0.0036040379046605817 -0.0007039708880104542 0.0007998120164366058 0 0 0
162 1 0.0016 1600 -0.001933716571596452 0.003975956241895061 0.003060438036769335 0 0 0
163 1 0.0016 1600 0.0055936444178411055 0.004527557410140547 0.0007994117567725589 0 0 0
164 1 0.0016 1600 -0.0018638636013926274 -0.00695497475944319 0.0039196791065852325 0 0 0
165 1 0.0016 1600 -0.00606569612098215 0.0038795749478140393 0.0034789726607027736 0 0 0
166 1 0.0016 1600 0.006645438833083048 -0.0027727060290337496 0.0044807339984668385 0 0 0
167 1 0.0016 1600 -0.0022954084526429063 0.0026397412152665955 0.0022582709464033708 0 0 0
168 1 0.0016 1600 0.000980508576998588 0.0071333224106159224 0.0007994763525447503 0 0 0
169 1 0.0016 1600 -0.00037542101977645816 0.004312232488485815 0.0007990443320654192 0 0 0
170 1 0.0016 1600 -0.0045067324346394376 -0.005615602278605753 0.004672136479417927 0 0 0
171 1 0.0016 1600 -0.007199588133196987 -9.383143123965502e-05 0.0007997260868637937 0 0 0
172 1 0.0016 1600 -0.006718326441456737 -0.002590531889591147 0.004423376722717037 0 0 0
173 1 0.0016 1600 0.0044976928696246485 -0.004158421551443752 0.0031825190011069765 0 0 0
174 1 0.0016 1600 0.0017024586884216587 -0.006996203721218499 0.003098684428949082 0 0 0
175 1 0.0016 1600 0.0025015101729983957 0.00015609619218116236 0.0007995768002514659 0 0 0
176 1 0.0016 1600 -0.004568452721765039 -0.003036991575895435 0.0021407956471582554 0 0 0
177 1 0.0016 1600 0.007001924434776219 0.0016773563546524516 0.0007998514110091997 0 0 0
178 1 0.0016 1600 0.004120353517966541 0.0038078199028752932 0.0007994239760565911 0 0 0
179 1 0.0016 1600 -0.004380902602404913 0.005714367561582504 0.0022783766327025396 0 0 0
180 1 0.0016 1600 -0.005324748458138991 0.0048474270761573466 0.0063249842831986204 0 0 0
181 1 0.0016 1600 -0.002962994500820593 -0.0031080887203787846 0.0024280065576310675 0 0 0
182 1 0.0016 1600 2.381491425903714e-05 -0.0036860620247858794 0.0018924366008980346 0 0 0
183 1 0.0016 1600 -0.0014356537993559075 -0.0030127706672599002 0.0019611592435974084 0 0 0
184 1 0.0016 1600 -0.0016477313387435791 0.0024703819822328344 0.0007999241617807662 0 0 0
185 1 0.0016 1600 -0.002252786027951245 0.002540235146596139 0.0038539706722331792 0 0 0
186 1 0.0016 1600 -0.0040831906709526905 -0.0015134932917667072 0.0020937093217585426 0 0 0
187 1 0.0016 1600 -0.005191498572219317 -0.000901379521777946 0.0007996199908688957 0 0 0
188 1 0.0016 1600 0.005272262826584289 -0.004904274278792662 0.004366312260137519 0 0 0
189 1 0.0016 1600 0.0022474636340850083 -0.0034839200186233396 0.0007993621113203419 0 0 0
190 1 0.0016 1600 -0.004693052174846286 0.004684088743209485 0.000799650883269627 0 0 0
191 1 0.0016 1600 -0.0036687635339256093 0.003133785190804204 0.00555599496857171 0 0 0
192 1 0.0016 1600 -0.0004201482578877036 -0.0004204382094880911 0.0007996046765738941 0 0 0
193 1 0.0016 1600 0.0006160333365734159 -0.007173654803111203 0.0019057113560809642 0 0 0
194 1 0.0016 1600 -0.0049957288086955745 0.005062256680658209 0.0036034102272062586 0 0 0
195 1 0.0016 1600 -0.0004865293721272632 -0.007183784693232619 0.00698172899670386 0 0 0
196 1 0.0016 1600 3.866054297030204e-05 0.005802252709559809 0.0050761303890494765 0 0 0
197 1 0.0016 1600 -0.006551443780666527 -0.0029872314158088135 0.008975818557845525 0 0 0
198 1 0.0016 1600 -0.0008394562926932462 0.0025475356715194534 0.009161993194548258 0 0 0
199 1 0.0016 1600 -0.003957895198865165 -0.0024058815109547103 0.0034775968362094505 0 0 0
200 1 0.0016 1600 0.0027109760017768264 -0.0046452070329139694 0.005692946773573522 0 0 0
201 1 0.0016 1600 0.0033924764014261304 0.005338090307054689 0.007370629614247732 0 0 0
202 1 0.0016 1600 0.00558733218121509 -0.0009357436297403896 0.00836169475431811 0 0 0
203 1 0.0016 1600 -0.0057731198172931986 0.0008074496835042638 0.002631085810660185 0 0 0
204 1 0.0016 1600 0.0027471985357937967 0.006655771939012325 0.003110315707692466 0 0 0
205 1 0.0016 1600 0.0028379957115576464 0.005134583251637364 0.008857092101411043 0 0 0
206 1 0.0016 1600 -0.0029445478709296444 -0.0023341044094613837 0.00938289196809924 0 0 0
207 1 0.0016 1600 -0.0030001252490250655 -0.0009354426767302885 0.005360250629450387 0 0 0
208 1 0.0016 1600 0.003102485015851727 0.004027845054461643 0.0020893536962855014 0 0 0
209 1 0.0016 1600 -0.0065204091649176945 0.003054347431458836 0.005016262129836639 0 0 0
210 1 0.0016 1600 -0.0037921610896715177 0.0011887484051822461 0.009705106539030957 0 0 0
211 1 0.0016 1600 -0.0022701974676645393 0.003942433442805621 0.004624222573662534 0 0 0
212 1 0.0016 1600 0.003551164844555387 0.0056941948735386395 0.002116931132528879 0 0 0
213 1 0.0016 1600 -0.003457792382759783 0.006316108788340593 0.0034372274866706167 0 0 0
214 1 0.0016 1600 0.005537463365597418 0.002188762862567928 0.006359102081536569 0 0 0
215 1 0.0016 1600 0.0016809773359528237 0.00347222112353022 0.006843734777380029 0 0 0
216 1 0.0016 1600 -0.0014970993499356996 -0.005775204608116372 0.002903597167548314 0 0 0
217 1 0.0016 1600 0.0015029026638973496 -0.005663918290257689 0.005943433941979053 0 0 0
218 1 0.0016 1600 0.0032302746579229227 -0.0015919153710316051 0.00670451317010689 0 0 0
219 1 0.0016 1600 0.001696729807702999 -0.00404406693974283 0.006773716244349766 0 0 0
220 1 0.0016 1600 0.0009712461276272565 0.0033843785924228863 0.0023584661121144254 0 0 0
221 1 0.0016 1600 0.0017073035695228452 0.0025983908961694263 0.008183440840409296 0 0 0
222 1 0.0016 1600 -0.002998044130620451 0.0002523088129449896 0.008329661185589013 0 0 0
223 1 0.0016 1600 0.0006215725565550817 0.0024337279443149783 0.006245269249086118 0 0 0
224 1 0.0016 1600 -0.0026755500614973004 -0.006684564008550681 0.00527810154054239 0 0 0
225 1 0.0016 1600 0.002318557230013079 -0.0034125134428199294 0.0035244407501901784 0 0 0
226 1 0.0016 1600 -0.007105268109264641 -0.0011657581313460291 0.0037941760170790173 0 0 0
227 1 0.0016 1600 0.0014328176895339027 -0.003927812712537073 0.00834707562745797 0 0 0
228 1 0.0016 1600 -0.001586492167009317 -0.004699915759422958 0.004454513106246783 0 0 0
229 1 0.0016 1600 0.0027610414422168596 -0.006649597360094186 0.006017129907494761 0 0 0
230 1 0.0016 1600 -0.006953666241251828 -0.0018685337264049916 0.006994584863160508 0 0 0
231 1 0.0016 1600 -0.001458291439333794 0.006008757583812964 0.0080821808354842 0 0 0
232 1 0.0016 1600 -0.005845405538505786 -3.4261540144820526e-06 0.004008144739423579 0 0 0
233 1 0.0016 1600 0.003064108001006763 0.005566161812861367 0.00532920520446209 0 0 0
234 1 0.0016 1600 0.006228817676240058 0.0036115899653669905 0.0067026929152105225 0 0 0
235 1 0.0016 1600 -0.004752974611300718 0.0030468235908743323 0.0077226944903779 0 0 0
236 1 0.0016 1600 0.002786901712271048 0.006638835648234855 0.006483426158651359 0 0 0
237 1 0.0016 1600 -0.003868746560129737 0.004279652666042135 0.006663739526291334 0 0 0
238 1 0.0016 1600 0.0021024167713434073 -0.0010475405999239638 0.005709779078798088 0 0 0
239 1 0.0016 1600 -0.002736934083845219 -0.0014493882505131478 0.0038681495373434024 0 0 0
240 1 0.0016 1600 0.0024045921326805667 -0.005400804747459634 0.0033230913817155123 0 0 0
241 1 0.0016 1600 -0.0011269627431803814 -0.0027120379418757233 0.006243184462258421 0 0 0
242 1 0.0016 1600 -0.0051593747912615905 -0.005023082563691953 0.006239622988654861 0 0 0
243 1 0.0016 1600 -0.0007723718263144313 0.007158514104668293 0.009167995168448215 0 0 0
244 1 0.0016 1600 -0.0008437929651259749 -0.00314556905701427 0.004419316003895859 0 0 0
245 1 0.0016 1600 0.001401931576366555 -0.0029526265240469216 0.0022428675191430185 0 0 0
246 1 0.0016 1600 0.0030758187555574687 9.018592527003101e-05 0.0062760194136994765 0 0 0
247 1 0.0016 1600 0.0008027927031937134 -0.003162348122938684 0.009602889532556651 0 0 0
248 1 0.0016 1600 -0.0008477827030666048 0.0017992101963859547 0.006427855208529466 0 0 0
249 1 0.0016 1600 -0.003541620455320097 -0.004534333358956871 0.0064371656735070695 0 0 0
250 1 0.0016 1600 0.0022416772235261968 0.0006733284953976406 0.005041786706504269 0 0 0
251 1 0.0016 1600 0.004501662176203109 -0.0007575569228387858 0.007200326741648799 0 0 0
252 1 0.0016 1600 -0.00683441086017648 0.002266483264459448 0.003660426822255154 0 0 0
253 1 0.0016 1600 0.00421848369256031 -0.005204105719944959 0.005531682946818004 0 0 0
254 1 0.0016 1600 -0.007098808723737013 0.001207927264615062 0.005936156039891467 0 0 0
255 1 0.0016 1600 0.004982791408964556 -0.001751549324137143 0.0036974741904474283 0 0 0
256 1 0.0016 1600 -0.003637561852529828 0.006213683101399912 0.006164698244503395 0 0 0
257 1 0.0016 1600 0.00045170226067542645 -0.006129500089598095 0.007734757806494425 0 0 0
258 1 0.0016 1600 0.0016409415299756698 -0.0005672222097588193 0.008772498270835191 0 0 0
259 1 0.0016 1600 0.00551579219012821 -0.0020594397259829987 0.005359877821282029 0 0 0
260 1 0.0016 1600 0.0034378127067124157 0.0017344136958015869 0.004997956789925364 0 0 0
261 1 0.0016 1600 0.005100807375376534 -0.002605731218605804 0.008245834847844642 0 0 0
262 1 0.0016 1600 -0.0030145896036274152 0.0029558407478056034 0.008164365027803478 0 0 0
263 1 0.0016 1600 -0.0024555667412124657 0.006768573636608467 0.007088847540745663 0 0 0
264 1 0.0016 1600 -0.003009807784111826 0.00010260876135911129 0.004142793601828215 0 0 0
265 1 0.0016 1600 0.002717523168711084 0.0035445401795952277 0.008986084167738672 0 0 0
266 1 0.0016 1600 0.002793456323741999 0.0066365072914112136 0.008086715778413788 0 0 0
267 1 0.0016 1600 -0.003901289295277052 -0.006052600443256012 0.00608855990931491 0 0 0
268 1 0.0016 1600 0.003247203191286718 -0.004979806422023036 0.009244710788035154 0 0 0
269 1 0.0016 1600 0.001728258312260324 -0.0019495775807181516 0.004411120758312898 0 0 0
270 1 0.0016 1600 -0.0050746274141020365 0.001597372636702016 0.00712694679608282 0 0 0
271 1 0.0016 1600 -0.006378212515827236 -0.0033409920424965593 0.0067516283824234045 0 0 0
272 1 0.0016 1600 0.006622994018796803 0.0016690650840513902 0.008774472115188538 0 0 0
273 1 0.0016 1600 0.0062611662801172335 0.002382922485370583 0.003786430088161553 0 0 0
274 1 0.0016 1600 -0.0015483249411674385 -0.0004327087771325616 0.0028709641567133725 0 0 0
275 1 0.0016 1600 0.0033247131109064697 -0.004455856559934517 0.0042282553732609805 0 0 0
276 1 0.0016 1600 -0.002907781921670991 0.005338568510440248 0.0076458061582668465 0 0 0
277 1 0.0016 1600 0.0007137827756952835 -0.001989592366438177 0.008518463404591078 0 0 0
278 1 0.0016 1600 0.007006970810002374 -0.0016566457672348679 0.005890445450284834 0 0 0
279 1 0.0016 1600 0.0071787182432835285 -0.0005585679476424159 0.002261589271151178 0 0 0
280 1 0.0016 1600 -0.006916202245954666 -0.00024254374441979012 0.006584504040865352 0 0 0
281 1 0.0016 1600 -0.00036976741084320436 -0.0057296345794513644 0.005775782751623199 0 0 0
282 1 0.0016 1600 0.0027207104462910123 0.002954443609616752 0.005743732279430569 0 0 0
283 1 0.0016 1600 -0.00035457132721006246 -0.007188099374798416 0.010356730991562417 0 0 0
284 1 0.0016 1600 0.0027090245339260947 -0.0017819431509893055 0.0031588206270293626 0 0 0
285 1 0.0016 1600 -0.0014456091137880127 0.0003852030857103178 0.00869194584388703 0 0 0
286 1 0.0016 1600 -0.003672329544345896 0.0031525478457102235 0.0033351614115882592 0 0 0
287 1 0.0016 1600 -0.0016343923680126344 -0.007012174829698446 0.0082734054660846 0 0 0
288 1 0.0016 1600 -0.004020378682061807 0.004364856177744755 0.00825696893281726 0 0 0
289 1 0.0016 1600 0.002782470106958376 -0.0031873070854912962 0.005038360654119865 0 0 0
290 1 0.0016 1600 0.0003637736955688511 0.005845847681814584 0.006964964718820181 0 0 0
291 1 0.0016 1600 -0.0021696935034783084 0.0033869362603641874 0.009451897547365891 0 0 0
292 1 0.0016 1600 -0.000613462646027413 -0.004137999469478965 0.005731203240529147 0 0 0
293 1 0.0016 1600 0.0022118137310753886 0.0003681810565286416 0.007593243971752391 0 0 0
294 1 0.0016 1600 -0.002179350309002786 -0.0038201629028651587 0.005653512604011821 0 0 0
295 1 0.0016 1600 -0.0013837054645167396 -0.004466483268180306 0.009540580885021665 0 0 0
296 1 0.0016 1600 -0.004418582180959695 -0.004084406100794348 0.005178130569747377 0 0 0
297 1 0.0016 1600 0.0013980255772353266 0.006225360833561081 0.005805308299735973 0 0 0
298 1 0.0016 1600 0.0003520233895577839 0.004306099507281498 0.006530657989181666 0 0 0
299 1 0.0016 1600 -0.00251170120794716 0.003435932793414582 0.006724268826407396 0 0 0
300 1 0.0016 1600 -0.0011084685387861512 -0.0040849694207172145 0.007251666263665366 0 0 0
301 1 0.0016 1600 0.003152216753555799 0.0033484200678670743 0.0074598121833192085 0 0 0
302 1 0.0016 1600 -0.00033041561282526815 0.004164542184053554 0.005090985540698742 0 0 0
303 1 0.0016 1600 -0.004090751992522182 -0.005925491296191246 0.0090752416571477 0 0 0
304 1 0.0016 1600 0.004093419900577025 -0.005923914118458937 0.0082700684866943 0 0 0
305 1 0.0016 1600 -0.003891237405746501 -0.004220218903727631 0.007966002715973777 0 0 0
306 1 0.0016 1600 0.001338442010948041 0.003110544539773583 0.004953910344784039 0 0 0
307 1 0.0016 1600 0.00017123889334852093 0.007198301527564598 0.006132261435196559 0 0 0
308 1 0.0016 1600 0.0012099990318819337 0.007098095935978839 0.0031122509794187705 0 0 0
309 1 0.0016 1600 -0.006318765671048602 -0.0034525039760755173 0.003136827131756214 0 0 0
310 1 0.0016 1600 0.005823242486055508 0.0003738947786798764 0.009267211869312463 0 0 0
311 1 0.0016 1600 0.0015701748497638887 0.0003267505304156809 0.002088487402481154 0 0 0
312 1 0.0016 1600 0.002864373296358752 -0.006605794356315176 0.009249543361307401 0 0 0
313 1 0.0016 1600 0.00018969380349552354 -0.0008686126759294891 0.005998145616946477 0 0 0
314 1 0.0016 1600 0.0012081004466849858 -0.005540670868931281 0.004375749521130735 0 0 0
315 1 0.0016 1600 0.0012197795103067607 -0.0070962383729101085 0.01008228908736097 0 0 0
316 1 0.0016 1600 -0.007061785779352411 0.0014054539565010963 0.009081150607570277 0 0 0
317 1 0.0016 1600 0.0007300088839134572 0.007163510020524156 0.008618729106303222 0 0 0
318 1 0.0016 1600 -0.0022248562918935535 0.0012330685070603023 0.007329724149886235 0 0 0
319 1 0.0016 1600 0.0037936569253786316 -0.0028214843020337105 0.0037075929353956724 0 0 0
320 1 0.0016 1600 0.00028339628627308564 -0.004783798653695888 0.006887720412133041 0 0 0
321 1 0.0016 1600 -0.003734357633008284 0.006156773751600206 0.00874343875287786 0 0 0
322 1 0.0016 1600 0.0035726612361949668 -0.0033315480891643874 0.0021733920673721496 0 0 0
323 1 0.0016 1600 -0.002624742168240701 0.0057075146022474085 0.0019818063438763003 0 0 0
324 1 0.0016 1600 -0.001932531652593556 -0.00543746175315326 0.0059503587154062084 0 0 0
325 1 0.0016 1600 -0.00518214866642726 0.003221856534551878 0.006183123599196187 0 0 0
326 1 0.0016 1600 -0.0008157075660527594 0.007153789127859005 0.004874319869930295 0 0 0
327 1 0.0016 1600 -0.001303454177197597 -0.0005520037828504173 0.007403499214762418 0 0 0
328 1 0.0016 1600 -0.004427252901754653 0.0007400376402952028 0.0037645460444203282 0 0 0
329 1 0.0016 1600 -0.005496464370068275 -0.0010084196342287142 0.006322001877854683 0 0 0
330 1 0.0016 1600 0.00020843480813733658 -0.0020495125659578646 0.004920042611446867 0 0 0
331 1 0.0016 1600 -6.880370200690315e-06 -0.004503527900706249 0.004296784002022166 0 0 0
332 1 0.0016 1600 0.003441577620858242 -0.005364098951863936 0.0069206882928605 0 0 0
333 1 0.0016 1600 0.000792644034320909 -0.003166047869787827 0.003935451471216991 0 0 0
334 1 0.0016 1600 -0.002881920711892481 0.001021429704099032 0.005446020318380736 0 0 0
335 1 0.0016 1600 -0.005589041663032231 -0.0009291804120365029 0.008267033885444416 0 0 0
336 1 0.0016 1600 0.002602129849284345 0.004166770794660525 0.004707256358286096 0 0 0
337 1 0.0016 1600 0.0006448339810781907 0.0016243343200969562 0.002227359736274188 0 0 0
338 1 0.0016 1600 0.005327590603602704 0.0048436579506662995 0.00718103192406329 0 0 0
339 1 0.0016 1600 0.0043623854597885136 0.0047233000248501356 0.0049173758082697114 0 0 0
340 1 0.0016 1600 0.007151343149482915 -0.0008386801194698385 0.007257482101772615 0 0 0
341 1 0.0016 1600 -0.00051941768612986 0.007181469075887491 0.003302819567882226 0 0 0
342 1 0.0016 1600 -0.0014277655236887845 0.0013561165685917354 0.004649217996942209 0 0 0
343 1 0.0016 1600 0.0032362997356297023 -0.006063352088839591 0.004606374203429037 0 0 0
344 1 0.0016 1600 -0.0024986668988350343 0.004930408642912163 0.006154691226729663 0 0 0
345 1 0.0016 1600 -0.0062397205460454075 0.0035937350735713706 0.00891156727328945 0 0 0
346 1 0.0016 1600 0.001316185089136836 0.0002455332097589154 0.006273688056970147 0 0 0
347 1 0.0016 1600 0.0011767119505307663 0.004686757127901367 0.0052138994525488805 0 0 0
348 1 0.0016 1600 -0.0021178041494689425 0.0010713971607340317 0.0032347079097766063 0 0 0
349 1 0.0016 1600 -0.004021398850308327 -0.003967742986618291 0.00954049603921564 0 0 0
350 1 0.0016 1600 -0.0026017940651205593 0.001167270759874381 0.001713410564330873 0 0 0
351 1 0.0016 1600 0.003925258494161199 0.006035958358980584 0.003997850473730086 0 0 0
352 1 0.0016 1600 -0.003023674239523489 0.005621897561428687 0.004810994900722519 0 0 0
353 1 0.0016 1600 -0.0020414951337030807 -0.006904604929696837 0.006730097518164695 0 0 0
354 1 0.0016 1600 0.007162956398544181 0.0007321274128038053 0.00695534092509892 0 0 0
355 1 0.0016 1600 -0.003487505381422283 -0.0028623697154159774 0.00562420522797158 0 0 0
356 1 0.0016 1600 0.0021208472128906837 0.004965264728716084 0.006474601546398862 0 0 0
357 1 0.0016 1600 0.004527315917708668 0.0007042093822677858 0.006550766371541394 0 0 0
358 1 0.0016 1600 -0.005612952211508998 -0.002450337126103723 0.005638861557213648 0 0 0
359 1 0.0016 1600 0.0004498990562390831 -0.00718633427582788 0.0040746508233489905 0 0 0
360 1 0.0016 1600 -0.004643189840308414 -0.0001899859430929962 0.005048090411665103 0 0 0
361 1 0.0016 1600 0.0058506542489539315 -0.0006273874698330196 0.006350499994621131 0 0 0
362 1 0.0016 1600 -0.005041578047368142 -0.003258140945771442 0.008522353783900559 0 0 0
363 1 0.0016 1600 0.0020530036627013706 0.006901560354820099 0.009479142484119546 0 0 0
364 1 0.0016 1600 0.006973446359485232 0.001795258182538732 0.005775228990213204 0 0 0
365 1 0.0016 1600 -0.0038525558520083186 0.0015934009655499532 0.008158465548469728 0 0 0
366 1 0.0016 1600 0.0011646559614946301 0.0007427682766217665 0.003578670013819951 0 0 0
367 1 0.0016 1600 -0.0020804868798350766 0.0025812296057583077 0.0054434723795854165 0 0 0
368 1 0.0016 1600 -0.00033239377736877845 0.00019201949738290974 0.003701865009815351 0 0 0
369 1 0.0016 1600 0.003005183104438709 0.0017794227840902822 0.007732083506617848 0 0 0
370 1 0.0016 1600 0.00545590903110075 -0.0037372906396716853 0.0097995597928504 0 0 0
371 1 0.0016 1600 0.0010374571770138128 -0.0003396681121698953 0.004749156878153355 0 0 0
372 1 0.0016 1600 0.004407722678882056 0.005694104682903042 0.006187304439384308 0 0 0
373 1 0.0016 1600 0.0010004424237057506 0.0013951424329956014 0.0074012064404921 0 0 0
374 1 0.0016 1600 -0.0020845636168439277 0.00550085815211562 0.0035213246502041437 0 0 0
375 1 0.0016 1600 0.0052933853923235455 0.0036000944790801886 0.004162961346515982 0 0 0
376 1 0.0016 1600 -0.004788291400279335 -0.003515836108148545 0.006626954215196265 0 0 0
377 1 0.0016 1600 0.00056901599966691 0.003301194999275995 0.009060419771696193 0 0 0
378 1 0.0016 1600 -0.002095785163629684 -0.002352741853494625 0.005022000277552777 0 0 0
379 1 0.0016 1600 0.007195447386861862 0.0002637469438132705 0.0053714116582385075 0 0 0
380 1 0.0016 1600 -0.006702407928118009 0.002631757492617076 0.006547650601297285 0 0 0
381 1 0.0016 1600 -0.0030820747748953824 -0.00010664730989025895 0.0025538341344441278 0 0 0
382 1 0.0016 1600 0.0036091215003667375 0.004533003549292194 0.0035195675040301634 0 0 0
383 1 0.0016 1600 0.004291378698959808 -0.0036193142338443417 0.005737671664909559 0 0 0
384 1 0.0016 1600 -0.005357603286450571 0.004144983939968994 0.0048882455765206665 0 0 0
385 1 0.0016 1600 -0.0030416964695341438 -0.006080529741227495 0.0023212397307463824 0 0 0
386 1 0.0016 1600 -0.0044606808555354765 -0.005652315068223467 0.0029621504436272285 0 0 0
387 1 0.0016 1600 0.0013979345101025097 0.007063054145755302 0.007168348735878288 0 0 0
388 1 0.0016 1600 -0.004738823891405918 0.0018090100884221216 0.005577330582564736 0 0 0
389 1 0.0016 1600 0.006930825738226192 -0.0019533756785229273 0.00313735996604486 0 0 0
390 1 0.0016 1600 -0.005524987675080074 -0.004617088552552723 0.00394785397214585 0 0 0
391 1 0.0016 1600 -0.006218503557594796 0.0022620162291332752 0.008025876175403575 0 0 0
392 1 0.0016 1600 0.0011776639167937258 0.00234192879392038 0.0035541778842568257 0 0 0
393 1 0.0016 1600 0.0050065819509865685 -0.005175012476133068 0.007191335309294658 0 0 0
394 1 0.0016 1600 0.004243593849312037 0.005817381123319638 0.009197666525895046 0 0 0
395 1 0.0016 1600 -0.00456262540361335 6.703461558562362e-06 0.001958541205181471 0 0 0
396 1 0.0016 1600 0.006045715086080938 0.003910582792824193 0.00826310674419678 0 0 0
397 1 0.0016 1600 0.0022674334690399316 0.005137533007241829 0.0028920701089888545 0 0 0
398 1 0.0016 1600 -0.00036791573064897824 -0.004925139598867103 0.008393962558418507 0 0 0
399 1 0.0016 1600 -0.001144960991848025 -0.0015971821409334998 0.0039146621566546625 0 0 0
400 1 0.0016 1600 -0.003876829384111768 -0.002644436831755534 0.007611686325435496 0 0 0
401 1 0.0016 1600 0.0030316612206376355 -0.003176715960666762 0.006618601580718902 0 0 0
402 1 0.0016 1600 0.003525549467769316 -0.002505478328547719 0.007984358565294145 0 0 0
403 1 0.0016 1600 0.0041198849973239325 -0.0004331470947709607 0.0033452933031776844 0 0 0
404 1 0.0016 1600 0.00019074923554409848 -0.0005373166368760763 0.008098109018567131 0 0 0
405 1 0.0016 1600 -0.004373775392395311 -0.0017578697595352277 0.004879751490384427 0 0 0
406 1 0.0016 1600 0.006526088123272165 -0.003042110581248969 0.008826499964559248 0 0 0
407 1 0.0016 1600 -0.0045988022952794545 0.0055403273272879566 0.005077595465278488 0 0 0
408 1 0.0016 1600 -0.005312668396427586 -0.004433598759053544 0.0023733359227846515 0 0 0
409 1 0.0016 1600 -0.004461489767872652 -0.005651643056938406 0.007536895453595365 0 0 0
410 1 0.0016 1600 -0.0002254006295013251 0.0004931911996039069 0.00526897726607207 0 0 0
411 1 0.0016 1600 -0.0015723924042872384 0.00040526537161980056 0.006126630551227478 0 0 0
412 1 0.0016 1600 -0.004078520666082316 0.0005432135601850247 0.00639355274777984 0 0 0
413 1 0.0016 1600 -0.0006365221786946483 -0.0071722518172378106 0.002901024283413734 0 0 0
414 1 0.0016 1600 -0.002604764308835746 -0.005340192540616071 0.008989735838476034 0 0 0
415 1 0.0016 1600 -0.0001565093915081764 0.0004264815533783544 0.006870011006655957 0 0 0
416 1 0.0016 1600 0.0064707730899231115 -0.0031579308967608242 0.006023106000202369 0 0 0
417 1 0.0016 1600 -0.0008192181636160833 0.0008824644289084996 0.0023198596974986557 0 0 0
418 1 0.0016 1600 -0.00151362904253253 -0.001187649045604697 0.0059508628502415286 0 0 0
419 1 0.0016 1600 0.004686272244306067 0.003320882198599931 0.0056161366257640715 0 0 0
420 1 0.0016 1600 -0.004005504784512744 -0.0015784712639545881 0.006425915479629555 0 0 0
421 1 0.0016 1600 0.00557643253064519 0.0009503368875109676 0.0035896931125563537 0 0 0
422 1 0.0016 1600 0.004717069035692529 -0.0022710275094435595 0.006729466765519884 0 0 0
423 1 0.0016 1600 -0.0025876358833349256 -0.003482120714039046 0.007170741165590691 0 0 0
424 1 0.0016 1600 -0.003461822306744639 0.0019950326655587074 0.006660068913736531 0 0 0
425 1 0.0016 1600 -0.005296768387027601 -0.004877038466544901 0.009146828675343392 0 0 0
426 1 0.0016 1600 0.004008582854941911 0.00024019862491815055 0.004985092728986492 0 0 0
427 1 0.0016 1600 -0.0003251200737409814 0.00178396763270127 0.003545522048975051 0 0 0
428 1 0.0016 1600 -0.0010525561752575952 0.003951750136407776 0.008425418682262485 0 0 0
429 1 0.0016 1600 -0.004465460293010776 0.005648066358408244 0.007411430901225364 0 0 0
430 1 0.0016 1600 0.0029382552415211116 -0.004175017686006265 0.00786530263334208 0 0 0
431 1 0.0016 1600 0.0030712378545778296 -0.0008720619874324569 0.008123801124752538 0 0 0
432 1 0.0016 1600 0.0030519741670042124 -0.0065216113639117515 0.00238318486926948 0 0 0
433 1 0.0016 1600 0.00034002181654025336 -0.0032034491982545744 0.006649622862944659 0 0 0
434 1 0.0016 1600 0.0031373987114504745 -0.0010070971354634096 0.0044908464637862635 0 0 0
435 1 0.0016 1600 0.0014537941764551367 -0.007052563490411241 0.006897875547681038 0 0 0
436 1 0.0016 1600 -0.0009591086076464805 0.0033924104017028717 0.006342669833015133 0 0 0
437 1 0.0016 1600 -0.002333886364820125 0.0068115883865049924 0.009153632707650487 0 0 0
438 1 0.0016 1600 -0.005640541329465265 0.00056065288542186 0.006048661780116766 0 0 0
439 1 0.0016 1600 -0.003042843085864314 -0.0005171853969640446 0.009731385715805237 0 0 0
440 1 0.0016 1600 0.005620516501593531 0.0017846566133089914 0.01278029478515374 0 0 0
441 1 0.0016 1600 -0.0033693520770052957 0.006363073746288973 0.010287831845380117 0 0 0
442 1 0.0016 1600 0.006046345870006606 -0.001807403755016145 0.011496997785506615 0 0 0
443 1 0.0016 1600 -0.005452905744298225 -0.0011979769724604348 0.009837654137468132 0 0 0
444 1 0.0016 1600 0.002184310764386277 0.0038530283021847517 0.012058678459031812 0 0 0
445 1 0.0016 1600 0.001764867634061046 -0.0026078307637959017 0.007474786773375029 0 0 0
446 1 0.0016 1600 0.00425089083017667 0.0019273679162908762 0.01196669435453974 0 0 0
447 1 0.0016 1600 -0.0018166881672981193 -0.001469044735433267 0.010117348749212544 0 0 0
448 1 0.0016 1600 -0.0033804045660321014 -0.005317878803163184 0.01326431586806627 0 0 0
449 1 0.0016 1600 0.002990939004207597 0.006549378933990422 0.013151929283335938 0 0 0
450 1 0.0016 1600 0.0010925532656311926 -0.0012344560467864969 0.010119067169695416 0 0 0
451 1 0.0016 1600 -0.006799551661279986 -0.0013896366729532832 0.005476138943673453 0 0 0
452 1 0.0016 1600 0.004815927479893749 0.0017717634244544401 0.007724203470797137 0 0 0
453 1 0.0016 1600 -0.002980115781450503 0.00491171866766924 0.011180575510531707 0 0 0
454 1 0.0016 1600 0.004231698041385329 -0.0017281373015433778 0.013566624730940696 0 0 0
455 1 0.0016 1600 0.00594314427663086 0.004064990133526983 0.010819124951612592 0 0 0
456 1 0.0016 1600 -0.006453674648952642 0.0031933606240107867 0.012192432008247697 0 0 0
457 1 0.0016 1600 -0.004505721020932497 0.005616059862074845 0.01325525813317369 0 0 0
458 1 0.0016 1600 -0.0016072975123266565 -0.0027447855641877113 0.01105909571501358 0 0 0
459 1 0.0016 1600 -0.0004298443584528733 -0.0022423429118155454 0.012018191273182034 0 0 0
460 1 0.0016 1600 0.004095310164983752 0.001244830220023227 0.010528145188424142 0 0 0
461 1 0.0016 1600 -0.0002463518930110195 -0.002107283254355361 0.010191048870392978 0 0 0
462 1 0.0016 1600 0.005248741182885208 -0.004929017632556127 0.008753393445080809 0 0 0
463 1 0.0016 1600 0.0009601312407565532 0.005744344045880449 0.00931886427496502 0 0 0
464 1 0.0016 1600 0.0058326302717897635 -0.004221929006783875 0.013136428320034173 0 0 0
465 1 0.0016 1600 -0.0006996860536759897 0.001720041959420152 0.011434165668887306 0 0 0
466 1 0.0016 1600 0.003042978845743208 0.0044644216213233 0.013268332961450078 0 0 0
467 1 0.0016 1600 -0.005794907048460989 0.000773499282439879 0.01410912196058473 0 0 0
468 1 0.0016 1600 0.005507404794440247 0.0024116309068142622 0.010702715252625608 0 0 0
469 1 0.0016 1600 -0.006277364902374066 -0.0035263220443955863 0.011714598289960455 0 0 0
470 1 0.0016 1600 0.0007305305574641515 0.0007682716168282309 0.00884768823295286 0 0 0
471 1 0.0016 1600 -0.002413492160671292 -0.006783722307043946 0.009651930923405688 0 0 0
472 1 0.0016 1600 0.001718215109719212 -0.0017058186101099422 0.011793516561830794 0 0 0
473 1 0.0016 1600 0.0016385306947500403 0.005548505514837331 0.007883707186941969 0 0 0
474 1 0.0016 1600 0.0014591584186915724 0.007050803092660887 0.012876469078716011 0 0 0
475 1 0.0016 1600 -0.007198951615166064 0.00013556712167229522 0.012013134291892765 0 0 0
476 1 0.0016 1600 0.002765881585394871 -0.00452138387258473 0.012664750917288017 0 0 0
477 1 0.0016 1600 0.0007951071423005973 -0.002871889437464132 0.011204326075952517 0 0 0
478 1 0.0016 1600 0.0032689007114603914 -0.0018591951207616443 0.011374507289486717 0 0 0
479 1 0.0016 1600 0.002599885766846637 -0.0035222513328842255 0.009362815938744372 0 0 0
480 1 0.0016 1600 0.0023488896152194585 0.002263070242734146 0.011993426467386931 0 0 0
481 1 0.0016 1600 -0.0025561992365208323 0.006731184755133625 0.012022938694212568 0 0 0
482 1 0.0016 1600 0.0004847897826292905 -0.004724964800357112 0.009732746489298295 0 0 0
483 1 0.0016 1600 0.002693646454875672 -0.0066776935848970155 0.01241821362189054 0 0 0
484 1 0.0016 1600 0.0032985542664477163 0.006400198294727233 0.01034910670519174 0 0 0
485 1 0.0016 1600 0.005719662871769124 0.0004586801801532989 0.007588940871124345 0 0 0
486 1 0.0016 1600 -0.004201146240026454 -0.000504673524283087 0.007595695415846034 0 0 0
487 1 0.0016 1600 0.00014457165348625162 0.0026769324346425606 0.01047015015643566 0 0 0
488 1 0.0016 1600 -0.000492403914760866 0.007183620237615889 0.007587519107462163 0 0 0
489 1 0.0016 1600 -6.371391549884377e-05 -0.0008872461723507175 0.01278490166206752 0 0 0
490 1 0.0016 1600 -0.0030601886335093484 -0.006517408636272417 0.011901554712925838 0 0 0
491 1 0.0016 1600 0.006021588298159825 -0.003947280192552046 0.0073402329780806195 0 0 0
492 1 0.0016 1600 -0.0036162430631457806 0.004890614454975713 0.00971293352818872 0 0 0
493 1 0.0016 1600 -0.0014312007084801644 -0.002623869137196206 0.007865545271176218 0 0 0
494 1 0.0016 1600 2.3607465725101336e-05 0.0031008091258977 0.007570437852809932 0 0 0
495 1 0.0016 1600 0.0028004122750576598 -0.006633721572236276 0.007651722261707046 0 0 0
496 1 0.0016 1600 0.0032068663700002813 0.004413609028981218 0.010236401505604707 0 0 0
497 1 0.0016 1600 -0.006072988763482288 0.003867927913466226 0.0073445118744167055 0 0 0
498 1 0.0016 1600 0.0027386095141307115 -0.0033763141002736566 0.011547808278799821 0 0 0
499 1 0.0016 1600 -0.00341207920654412 0.0034881714786512076 0.010453699865712596 0 0 0
500 1 0.0016 1600 -0.001943181796152937 0.0008094631689011341 0.013294874680388138 0 0 0
501 1 0.0016 1600 -0.0010233897649190027 -0.006014805675365701 0.009364861830966494 0 0 0
502 1 0.0016 1600 -0.0025318571395653326 -0.0018977703934275672 0.006959689085313537 0 0 0
503 1 0.0016 1600 0.0022040540475107805 0.0015733223985310788 0.00636330763847683 0 0 0
504 1 0.0016 1600 0.00028928996636264597 0.0018251499145990292 0.012687267513575018 0 0 0
505 1 0.0016 1600 0.004801360425395296 0.0034137523852292725 0.011730387514625766 0 0 0
506 1 0.0016 1600 -0.005340886648958905 0.0007913482274184197 0.010130572802569382 0 0 0
507 1 0.0016 1600 0.006791351946631337 -0.0023916349661460856 0.007389623531097117 0 0 0
508 1 0.0016 1600 0.0018714990478309952 -0.0055120147749105316 0.009863779474202423 0 0 0
509 1 0.0016 1600 -0.0005631430725864992 0.0052721031670723735 0.009184385287692288 0 0 0
510 1 0.0016 1600 -0.005399431403917483 -0.002227744015129927 0.007352471536100453 0 0 0
511 1 0.0016 1600 -0.004509610819136564 0.0012090833923876724 0.011431207231141305 0 0 0
512 1 0.0016 1600 -0.00013781426900953792 0.006279518144448149 0.010351489666125369 0 0 0
513 1 0.0016 1600 -0.0014290150300387918 0.0003549401396978836 0.011837426285413889 0 0 0
514 1 0.0016 1600 0.007197441379156792 0.00020791761234142676 0.0084662465362676 0 0 0
515 1 0.0016 1600 -0.007159705293513813 0.0007632483172751039 0.01054268779769032 0 0 0
516 1 0.0016 1600 0.004317161168537675 -0.00392838084606854 0.013556966331906126 0 0 0
517 1 0.0016 1600 -0.006175052615228613 0.003702873065796946 0.01368242715304141 0 0 0
518 1 0.0016 1600 -0.0021795188275435685 0.004924578235130336 0.009010853524861626 0 0 0
519 1 0.0016 1600 -0.0016679444733094038 0.005829687584756119 0.010226552845997319 0 0 0
520 1 0.0016 1600 0.004138123431798187 0.0028974899994985786 0.008636138731582027 0 0 0
521 1 0.0016 1600 0.0066221378914886105 -0.00282820864404209 0.01040855106413728 0 0 0
522 1 0.0016 1600 0.00708188612521059 -0.0013012683746407825 0.010288209156996055 0 0 0
523 1 0.0016 1600 -0.004792008312567608 -0.005374092019738891 0.01058073986426493 0 0 0
524 1 0.0016 1600 -0.004299384105832493 -0.00025894229718903387 0.010738066519492535 0 0 0
525 1 0.0016 1600 -0.0007041566237915861 -0.0009193748200858762 0.011160080273416233 0 0 0
526 1 0.0016 1600 -0.005653987410651037 0.0022363663199261143 0.009521847632619823 0 0 0
527 1 0.0016 1600 0.00015283941144691201 0.000358157170806373 0.011599766912614119 0 0 0
528 1 0.0016 1600 0.005153178500136139 -0.00502848977631771 0.010694415308406034 0 0 0
529 1 0.0016 1600 0.000990005812796213 -0.002052045215995626 0.013174744899044051 0 0 0
530 1 0.0016 1600 0.004861041477648758 -0.003179977369726134 0.011175664380416056 0 0 0
531 1 0.0016 1600 -0.0045864362259072046 0.0037491974880653543 0.013500434596327552 0 0 0
532 1 0.0016 1600 0.005688348602540356 -0.0005626458943088379 0.010557335569418042 0 0 0
533 1 0.0016 1600 0.001473208830919376 0.0019508888502397874 0.009627632365123958 0 0 0
534 1 0.0016 1600 -0.006634233606525806 0.0027992709932581784 0.010653082427836668 0 0 0
535 1 0.0016 1600 -0.0017931978977156079 -0.0008513154511710414 0.012822176190020042 0 0 0
536 1 0.0016 1600 -0.0023750210350841467 -0.0015455149782223788 0.014140290989722278 0 0 0
537 1 0.0016 1600 -0.0032012738296851007 0.002107513403768183 0.011232446306633595 0 0 0
538 1 0.0016 1600 -0.0013773780528372026 0.005042193618432662 0.013279245658406404 0 0 0
539 1 0.0016 1600 -0.0031245773422570087 -0.003270347046571531 0.010667140530486067 0 0 0
540 1 0.0016 1600 -0.004730214455631931 0.0006666428258613935 0.012919990053977195 0 0 0
541 1 0.0016 1600 0.007166911010808272 -0.0006980839802184154 0.011766901654514796 0 0 0
542 1 0.0016 1600 0.0020984526004199557 0.005439674184223408 0.010792184411558343 0 0 0
543 1 0.0016 1600 -0.00041601577909020743 -0.003677796712691152 0.010540090710718398 0 0 0
544 1 0.0016 1600 -0.00020955897685659918 -0.001815390058933282 0.007223837406401888 0 0 0
545 1 0.0016 1600 -0.0016133472968535344 -0.000186281295393113 0.014502426191569186 0 0 0
546 1 0.0016 1600 0.0034301486915494475 0.002891021042300881 0.010988924016659659 0 0 0
547 1 0.0016 1600 0.007100347782772874 0.0011955284907973712 0.012929134209051077 0 0 0
548 1 0.0016 1600 -0.005230751923023016 -0.0014486765768987905 0.011401431078876815 0 0 0
549 1 0.0016 1600 -0.007121543274142914 0.0010344737334462303 0.007526228218618286 0 0 0
550 1 0.0016 1600 0.0015133794940369097 -0.007039661121499841 0.008510837881255165 0 0 0
551 1 0.0016 1600 0.003972369451979398 -0.006005399271721868 0.01023503969121583 0 0 0
552 1 0.0016 1600 0.007039177911748004 -0.0015138516870005624 0.008703555623020828 0 0 0
553 1 0.0016 1600 0.0011386382619183052 0.00036385433207560474 0.010339998533634598 0 0 0
554 1 0.0016 1600 0.004130435210374442 -0.005897608858816033 0.01451441412848134 0 0 0
555 1 0.0016 1600 -0.0009681318450886298 -0.00203664822159908 0.013510738936503617 0 0 0
556 1 0.0016 1600 0.0007789194178841902 0.0031117955557307714 0.011872676758790451 0 0 0
557 1 0.0016 1600 0.00654482024584585 -0.0030023200142007722 0.013887338703004659 0 0 0
558 1 0.0016 1600 0.005020347561115885 0.001756078983536391 0.009327147411925531 0 0 0
559 1 0.0016 1600 -0.004831104466503204 -0.0026638925369514 0.009992432442408094 0 0 0
560 1 0.0016 1600 -0.002398273016728332 -0.00504931852457461 0.007430529941259539 0 0 0
561 1 0.0016 1600 0.004240786157219305 -0.0014986478868132616 0.009016763013682389 0 0 0
562 1 0.0016 1600 0.0018474892575602484 -0.0053491087729658745 0.007686700144981655 0 0 0
563 1 0.0016 1600 -0.0048394261467438245 0.0053320290270367 0.010644589696332392 0 0 0
564 1 0.0016 1600 -0.0012749141269751952 0.007087009392006576 0.011134062352856503 0 0 0
565 1 0.0016 1600 0.0024578092311126113 0.006767870228893133 0.011659342122651408 0 0 0
566 1 0.0016 1600 -0.0014386638585510503 -0.0028707719558359952 0.009446043107108035 0 0 0
567 1 0.0016 1600 -0.0032222035460264136 -0.005645881093381779 0.010433699659161176 0 0 0
568 1 0.0016 1600 -0.0023664364346259207 -0.0012157072335832575 0.008396988512154365 0 0 0
569 1 0.0016 1600 0.005107392256215268 0.00507537253683759 0.01214008713493195 0 0 0
570 1 0.0016 1600 0.004374237355182512 -0.003712479452283724 0.007332481163916736 0 0 0
571 1 0.0016 1600 -0.00034047843592670474 0.0012406926684297673 0.009938383653575177 0 0 0
572 1 0.0016 1600 -0.000868426061373527 -0.003779801077774357 0.012070969947109624 0 0 0
573 1 0.0016 1600 -7.651435776193322e-05 0.004488896322767351 0.012424197980907398 0 0 0
574 1 0.0016 1600 -0.0019576852461508742 -0.004305013687518226 0.011024439308928637 0 0 0
575 1 0.0016 1600 0.006362798826106275 -0.003371096063550673 0.011890306162338778 0 0 0
576 1 0.0016 1600 -0.0018976083904445882 0.001657906793845797 0.010375599121020642 0 0 0
577 1 0.0016 1600 0.0037152110994720837 -0.004143131792252339 0.010525572344575568 0 0 0
578 1 0.0016 1600 0.004304694250635095 0.004462264591094509 0.008350177475683687 0 0 0
579 1 0.0016 1600 -0.0008542379509690013 -0.0014945636207707867 0.008839976811108102 0 0 0
580 1 0.0016 1600 -0.00561859404083058 8.512736746978332e-05 0.011688271112455063 0 0 0
581 1 0.0016 1600 -0.001631224741520374 -0.0063655676774946835 0.012604936801232706 0 0 0
582 1 0.0016 1600 0.004734375597441357 0.0033580849513716467 0.007214899824067049 0 0 0
583 1 0.0016 1600 0.003128912212995544 0.0021317223169665337 0.009612684779494951 0 0 0
584 1 0.0016 1600 -0.006458846033843713 -5.0539625121107844e-05 0.009357339702046647 0 0 0
585 1 0.0016 1600 -0.0007348404412480117 -0.005303873262457823 0.010768610535395675 0 0 0
586 1 0.0016 1600 0.0037332895058454934 -0.0026187245557376037 0.010040227613107593 0 0 0
587 1 0.0016 1600 -0.0032180084762340974 0.0010778570958533793 0.014223625953754062 0 0 0
588 1 0.0016 1600 -0.003968988048835831 -0.0008548131973819955 0.0121851706811728 0 0 0
589 1 0.0016 1600 -0.005658211975796527 -0.004452825138493367 0.0076480201447730895 0 0 0
590 1 0.0016 1600 0.006961756662949243 0.0018383415018492233 0.010363320098676469 0 0 0
591 1 0.0016 1600 -0.00414773323259543 0.002709340959098684 0.009265861427352825 0 0 0
592 1 0.0016 1600 -0.006287491535828736 -0.0023854533224247068 0.01059291570914141 0 0 0
593 1 0.0016 1600 -0.0028020017056899493 -0.0003256746656349263 0.006841767489779552 0 0 0
594 1 0.0016 1600 -0.0020504563989433016 -0.004797037270863723 0.012543767244504525 0 0 0
595 1 0.0016 1600 -0.002938210932600935 0.0005643976840168927 0.010905338054761871 0 0 0
596 1 0.0016 1600 0.00053260864815947 -0.004397430481445618 0.01160856336359669 0 0 0
597 1 0.0016 1600 -0.0003678086574167853 0.0005555237376245912 0.01340498083773984 0 0 0
598 1 0.0016 1600 -0.0011955934416601767 0.004795148692684321 0.007073747458049525 0 0 0
599 1 0.0016 1600 -0.0015013459484977364 0.0026213470605288033 0.007659178984939196 0 0 0
600 1 0.0016 1600 0.0013667447606400345 -0.0007127892135378516 0.013964175383823439 0 0 0
601 1 0.0016 1600 0.0039036232777225404 -0.0004135520118895693 0.010984113090270243 0 0 0
602 1 0.0016 1600 -0.0017575603780710465 -0.0069822119769526025 0.011097514565882708 0 0 0
603 1 0.0016 1600 0.0029163940569308894 -0.000784569366109238 0.009713750204077566 0 0 0
604 1 0.0016 1600 0.007194978516546788 0.0002809663762928276 0.0100846041887594 0 0 0
605 1 0.0016 1600 -0.0069665875096769385 -0.0018192030667418947 0.011926089171408995 0 0 0
606 1 0.0016 1600 -0.003695387374862587 -0.0019404409204439813 0.013327869216994697 0 0 0
607 1 0.0016 1600 -0.0018537987882291985 0.0031282576096699805 0.011003302054730662 0 0 0
608 1 0.0016 1600 0.004313351721524682 -6.768546996041122e-05 0.012964587538528905 0 0 0
609 1 0.0016 1600 -0.0027599601297878217 0.006650401516720475 0.013607420094341433 0 0 0
610 1 0.0016 1600 0.0052586188492218305 -0.002041747838599909 0.010124452123182883 0 0 0
611 1 0.0016 1600 0.004224441968741121 -0.0043770864279636685 0.012024167050758724 0 0 0
612 1 0.0016 1600 -0.002232899278671388 -0.004634546998442272 0.014144184850959834 0 0 0
613 1 0.0016 1600 -0.004479094816631703 -0.00013973421275019347 0.00913664687817198 0 0 0
614 1 0.0016 1600 -0.000776238610313799 0.0058796677144971055 0.012056813316416783 0 0 0
615 1 0.0016 1600 -0.0026910519598053687 0.0024847263214013335 0.013674760427742018 0 0 0
616 1 0.0016 1600 0.0014724052484143776 -0.0034785864776059163 0.012520482507821989 0 0 0
617 1 0.0016 1600 -0.0070335691677888106 -0.0015401792769725632 0.009457895476748569 0 0 0
618 1 0.0016 1600 0.003931075393422135 0.0021852477537063373 0.006452386634469551 0 0 0
619 1 0.0016 1600 -5.9160353994157544e-05 -0.003365012738096141 0.008221432686005932 0 0 0
620 1 0.0016 1600 0.0071928882979203 -0.0003260658868250213 0.013414983612907867 0 0 0
621 1 0.0016 1600 -0.00494693312952054 0.004004506020272463 0.0097587314399121 0 0 0
622 1 0.0016 1600 -0.002569025473271208 -0.0009069851713719136 0.011412374881033107 0 0 0
623 1 0.0016 1600 -0.0014055558306751 0.004641223529354143 0.011264567950125747 0 0 0
624 1 0.0016 1600 0.0011591049918818913 0.007106849561439997 0.010789124918138382 0 0 0
625 1 0.0016 1600 0.0025654492558728724 -0.0022822883088535546 0.013021973467245247 0 0 0
626 1 0.0016 1600 0.0020763160299172786 0.00540935612202381 0.012412708240403166 0 0 0
627 1 0.0016 1600 -0.00012632651649577842 -0.007199512466775134 0.008773578756474911 0 0 0
628 1 0.0016 1600 0.006836486548174027 0.0022590430656483956 0.007302718475356762 0 0 0
629 1 0.0016 1600 -0.0007600279713802248 0.003908877750745862 0.009997639798123157 0 0 0
630 1 0.0016 1600 0.004125971050599691 -0.0036847380761806455 0.008912404599431399 0 0 0
631 1 0.0016 1600 0.0064698229213788925 0.0031601120409351395 0.009609853417418525 0 0 0
632 1 0.0016 1600 0.0022717625307597865 -0.0020333983669264754 0.008878879262049525 0 0 0
633 1 0.0016 1600 0.0038749255458834842 0.006068638614009287 0.011908023161916264 0 0 0
634 1 0.0016 1600 0.005823751082321073 -0.0004440786395444745 0.012596212736239511 0 0 0
635 1 0.0016 1600 -0.006045463797836444 -0.0039117412674161784 0.01017919908666274 0 0 0
636 1 0.0016 1600 0.00012539409673679053 0.007199456148310785 0.01200614314618205 0 0 0
637 1 0.0016 1600 0.006577392837434833 0.0007610265699005511 0.011481147281244209 0 0 0
638 1 0.0016 1600 -0.004807356529246795 0.0027718345608460904 0.010769000951229091 0 0 0
639 1 0.0016 1600 -0.0010863098436031827 0.006254589076980703 0.006428525040321222 0 0 0
640 1 0.0016 1600 0.0013113349677392936 -0.001117357222630677 0.007111473450141609 0 0 0
641 1 0.0016 1600 0.003528555148633669 0.004257551252352486 0.006199527731988777 0 0 0
642 1 0.0016 1600 0.005411956116018757 0.004749330064089214 0.009468639521478944 0 0 0
643 1 0.0016 1600 -0.00556414024344026 -0.0006882380747430813 0.013087732621681262 0 0 0
644 1 0.0016 1600 0.002116397772876589 -0.002425550518374087 0.010421617323743228 0 0 0
645 1 0.0016 1600 0.003274991736432336 0.000659986664873282 0.011989592851910272 0 0 0
646 1 0.0016 1600 0.005000878546185468 0.0005444570727956014 0.01164533066302789 0 0 0
647 1 0.0016 1600 0.0025955170550940876 -0.006716008738058384 0.010822298091430276 0 0 0
648 1 0.0016 1600 -0.007164738104184239 -0.0007220662604751347 0.008089640544108222 0 0 0
649 1 0.0016 1600 -0.0004623760345450361 0.0014679023853474207 0.008044280440151649 0 0 0
650 1 0.0016 1600 -0.002417303641718578 0.0016462838401446658 0.008862946455986682 0 0 0
651 1 0.0016 1600 0.00186737739017987 0.003070740837241637 0.01069957382226796 0 0 0
652 1 0.0016 1600 0.003905896827897163 0.0004874227583845683 0.008008506861528904 0 0 0
653 1 0.0016 1600 -0.002197546400237538 0.0038348638523370573 0.0123966464002498 0 0 0
654 1 0.0016 1600 0.0003904853262118469 0.004573119937636102 0.00810712995644688 0 0 0
655 1 0.0016 1600 0.00455388441314685 0.0035289824431472025 0.010046006299177252 0 0 0
656 1 0.0016 1600 0.0007581713983972657 -0.005843807178346731 0.01096355827271699 0 0 0
657 1 0.0016 1600 -0.00013231647574522742 -0.0003190892815937275 0.009649606564173687 0 0 0
658 1 0.0016 1600 -0.006634520209632351 -0.0027980467334570583 0.013147367385076696 0 0 0
659 1 0.0016 1600 0.0004630524614066221 0.004359935816169506 0.010923752819035213 0 0 0
660 1 0.0016 1600 -0.0031273602888619986 -0.006485385885748036 0.007827692237939358 0 0 0
661 1 0.0016 1600 0.0024379584530864616 0.0007745008499565009 0.009123820911783266 0 0 0
662 1 0.0016 1600 -0.0043051212033918835 -0.001699953979669828 0.008829453136526973 0 0 0
663 1 0.0016 1600 -0.0025754861392335974 -0.0037542822992295425 0.008746890569273592 0 0 0
664 1 0.0016 1600 0.00427845016090042 2.784945125538723e-05 0.009493879665335454 0 0 0
665 1 0.0016 1600 0.0015660214913746362 0.004333790082432539 0.009766075426966822 0 0 0
666 1 0.0016 1600 -0.00370623665983958 -0.0017418388153507796 0.01065814284076583 0 0 0
667 1 0.0016 1600 -0.004414255752915894 -0.005689504029628526 0.012102486667097243 0 0 0
668 1 0.0016 1600 -0.0015486460963487143 0.0001010706219648625 0.010262671657394267 0 0 0
669 1 0.0016 1600 -0.005505437809177079 0.0009137545170260842 0.008507860466394004 0 0 0
670 1 0.0016 1600 -0.0069872494946457515 0.00173713555525019 0.011800068619597936 0 0 0
671 1 0.0016 1600 -0.004765826524644225 -0.0037863467953990603 0.011129819996447254 0 0 0
672 1 0.0016 1600 0.0016973361397053862 -0.004081700005062209 0.010558890769428026 0 0 0
673 1 0.0016 1600 0.0036229143521350413 0.004494262195507613 0.011778477196123972 0 0 0
674 1 0.0016 1600 0.0017213367802246635 0.0011800902119598914 0.012990448688133696 0 0 0
675 1 0.0016 1600 -0.0025417183667041043 0.003313698022572692 0.015034611308108247 0 0 0
676 1 0.0016 1600 0.0003101077522172418 0.005702913462401583 0.015881952899018024 0 0 0
677 1 0.0016 1600 0.00022547662450956804 -0.007196710751940614 0.013448520156496722 0 0 0
678 1 0.0016 1600 0.005078079146268661 0.005105067063187802 0.015094090629691668 0 0 0
679 1 0.0016 1600 -0.005684183840128489 0.004419831438596306 0.016656990725254322 0 0 0
680 1 0.0016 1600 -0.0032564453904812343 0.0010173344705152892 0.012406243940187144 0 0 0
681 1 0.0016 1600 0.0030922098716651436 -0.0051539075494711085 0.01615957848736341 0 0 0
682 1 0.0016 1600 0.0036418847633645115 0.0027184720445431487 0.016326885110573043 0 0 0
683 1 0.0016 1600 0.0030666644815419536 -0.004953291435014542 0.017989115732545816 0 0 0
684 1 0.0016 1600 0.0023123771510323637 -0.00037386202764102866 0.011137194399165998 0 0 0
685 1 0.0016 1600 -0.00045203359703131226 0.0002189757825376149 0.01552498792162706 0 0 0
686 1 0.0016 1600 -0.002852278260033763 0.005321316774686275 0.012721732236141856 0 0 0
687 1 0.0016 1600 0.0013275012497963746 0.0014966386961801949 0.015769627854630847 0 0 0
688 1 0.0016 1600 0.003903537521469068 -0.004340542740067856 0.015046279332159044 0 0 0
689 1 0.0016 1600 0.004058644682561357 -0.001781083325279608 0.015155734298015153 0 0 0
690 1 0.0016 1600 0.005330843161305641 -0.004839897222921466 0.014524019911879751 0 0 0
691 1 0.0016 1600 -0.005877303589842374 -0.0007266896821955102 0.01681062397879385 0 0 0
692 1 0.0016 1600 0.00027480799445961547 0.0025640794897296864 0.016328345797458142 0 0 0
693 1 0.0016 1600 -0.003585886198434766 0.003041516720338977 0.01247251709419644 0 0 0
694 1 0.0016 1600 0.0013695836837020832 -0.00027468839846143234 0.012425555569725875 0 0 0
695 1 0.0016 1600 -0.001054114084169061 -0.005100888376442429 0.01781263954063106 0 0 0
696 1 0.0016 1600 -0.005977041523193932 -0.004014840553704799 0.013962602454358456 0 0 0
697 1 0.0016 1600 -0.0051847704338815765 -0.0022162627380294814 0.01280377051813436 0 0 0
698 1 0.0016 1600 0.00449296842097053 0.005257909576887404 0.010674894655814374 0 0 0
699 1 0.0016 1600 -0.001328549038426449 0.004345138056365879 0.015187465162821686 0 0 0
700 1 0.0016 1600 0.003949419922625459 -0.00283882856693161 0.012444922022433306 0 0 0
701 1 0.0016 1600 -0.0002351918134015134 -0.003122747733414824 0.01589207975190222 0 0 0
702 1 0.0016 1600 0.001699180162855431 -0.0019482804221632 0.015089371306995798 0 0 0
703 1 0.0016 1600 -0.0004226415399575841 -0.007188130862596469 0.01195488707240667 0 0 0
704 1 0.0016 1600 -0.003041314195677593 0.0040941181933502714 0.01373058072498826 0 0 0
705 1 0.0016 1600 -0.00017008380658958507 -0.0008653313041104239 0.014380964268463798 0 0 0
706 1 0.0016 1600 -0.0018411535305319206 -0.0033552005560448946 0.01326750145954245 0 0 0
707 1 0.0016 1600 -0.0050036127665155335 -0.003802939704657177 0.012711143264596724 0 0 0
708 1 0.0016 1600 -0.0037628568859758298 -0.004376884493289174 0.014632098838025633 0 0 0
709 1 0.0016 1600 -0.0004465488009636703 -0.0035512226246896894 0.017919595330093074 0 0 0
710 1 0.0016 1600 -0.0024604476777337703 0.0015760247881647896 0.017000609113292053 0 0 0
711 1 0.0016 1600 -0.0068067772975530525 0.002347386967262605 0.014249910615346213 0 0 0
712 1 0.0016 1600 -0.0033684352428083493 -0.0037421046251860167 0.012991466195546426 0 0 0
713 1 0.0016 1600 -0.0012792600403883623 0.005865329514562006 0.01568573287587649 0 0 0
714 1 0.0016 1600 -0.0034317193440378756 -0.004532275206302034 0.011600692870817534 0 0 0
715 1 0.0016 1600 -0.001312487787540102 0.007079659591321704 0.012968488227206912 0 0 0
716 1 0.0016 1600 0.0032082613636085205 -0.0004545427825249735 0.017263841852215345 0 0 0
717 1 0.0016 1600 -0.0026555144655985106 0.00011254832097188707 0.01767198848548152 0 0 0
718 1 0.0016 1600 -0.0007533972807355175 -0.004714622673901102 0.013476501079936065 0 0 0
719 1 0.0016 1600 -0.0041279191882185136 0.003142292640794598 0.01490766514516007 0 0 0
720 1 0.0016 1600 0.005560618335832802 0.0018561340992749506 0.018270326121765424 0 0 0
721 1 0.0016 1600 0.005710329128351916 0.0016710006100503667 0.01498981908637926 0 0 0
722 1 0.0016 1600 -0.005321286907878247 0.004850242259850366 0.014398991512574469 0 0 0
723 1 0.0016 1600 0.005573049590526244 -0.0003047333843308895 0.01514888914863285 0 0 0
724 1 0.0016 1600 0.0016227554738762141 0.004901245444378692 0.013860213878852437 0 0 0
725 1 0.0016 1600 0.0002597833218373732 -0.002396540089646289 0.01455535017366602 0 0 0
726 1 0.0016 1600 0.004360119850048509 0.005729711233628094 0.013394439696725413 0 0 0
727 1 0.0016 1600 -0.003966121132289733 0.006008852059209764 0.011801316896459413 0 0 0
728 1 0.0016 1600 -0.003956037351389396 -0.0027068981257208843 0.017929349586061606 0 0 0
729 1 0.0016 1600 0.00280229651790856 -0.0010684977421932815 0.01584316795734357 0 0 0
730 1 0.0016 1600 4.964635292072836e-05 0.0041246918431703875 0.01596964218794751 0 0 0
731 1 0.0016 1600 -0.007112548544173901 0.0011200728489529647 0.013270754070239857 0 0 0
732 1 0.0016 1600 -0.0016327334773133346 0.005735340118137785 0.017923302096175524 0 0 0
733 1 0.0016 1600 0.0042553864219801885 0.0013192567741288001 0.015852338826153393 0 0 0
734 1 0.0016 1600 -0.001153131416309932 -0.0018946711000984691 0.015111412718885853 0 0 0
735 1 0.0016 1600 0.0026660080582170233 -0.002382793531057099 0.017370825997153838 0 0 0
736 1 0.0016 1600 -0.005527332044151455 0.004614904596280174 0.012539137273398775 0 0 0
737 1 0.0016 1600 2.811515320244935e-05 -0.004631822514310553 0.015273154994342989 0 0 0
738 1 0.0016 1600 0.0038926466548903373 0.003132988376097582 0.013016273766439952 0 0 0
739 1 0.0016 1600 0.00011414760237524604 0.007199785188629042 0.013820642609085628 0 0 0
740 1 0.0016 1600 -0.0020100350558451296 -0.006914200516996954 0.017588193945921482 0 0 0
741 1 0.0016 1600 0.004097329428023653 -0.00030800426595744727 0.01453103816522707 0 0 0
742 1 0.0016 1600 -0.0008458763383590999 0.0014443680666166394 0.016547545613408068 0 0 0
743 1 0.0016 1600 0.0061911760650346735 0.0036762683684146633 0.01470493230219236 0 0 0
744 1 0.0016 1600 0.0014236045584830417 -0.0028354784781930583 0.01827085256670658 0 0 0
745 1 0.0016 1600 0.002685128839133443 -0.005164146966495019 0.011201063455459147 0 0 0
746 1 0.0016 1600 0.005736793386070142 -0.001325150673636273 0.013928301079274593 0 0 0
747 1 0.0016 1600 0.003220200928730439 0.0016946684260965821 0.01320814773034475 0 0 0
748 1 0.0016 1600 0.003946004925177027 0.004261546111432121 0.017515162405775046 0 0 0
749 1 0.0016 1600 0.002753814079388759 -0.006652925367959213 0.014817629339417666 0 0 0
750 1 0.0016 1600 -0.0012891588601797303 0.0070210715538862045 0.01456703507644367 0 0 0
751 1 0.0016 1600 -0.0033333339201300073 0.0019548952161179884 0.01565419266884374 0 0 0
752 1 0.0016 1600 0.00048717862483227 0.005788790980973415 0.01316712717659052 0 0 0
753 1 0.0016 1600 0.00034741738244862446 -0.0023755257274082225 0.01718073412956269 0 0 0
754 1 0.0016 1600 0.002917421176633256 -0.00268418804146558 0.015820049636804445 0 0 0
755 1 0.0016 1600 -0.0019328511615894733 0.0017892673672776336 0.014898628025340756 0 0 0
756 1 0.0016 1600 0.0023416390581514858 -0.004066546252884189 0.015257538426310703 0 0 0
757 1 0.0016 1600 0.006803789562670297 0.0023561979993687483 0.011868300311123037 0 0 0
758 1 0.0016 1600 0.00041114084196701683 -0.005971007502638904 0.01445986033511832 0 0 0
759 1 0.0016 1600 0.005726903944290912 0.0005766976501632458 0.013823227841316597 0 0 0
760 1 0.0016 1600 -0.0007356060536432223 0.003031813727490534 0.012382060682960994 0 0 0
761 1 0.0016 1600 -0.007070389734942479 0.0013614156795883198 0.018490791815745762 0 0 0
762 1 0.0016 1600 -0.00352564241401787 0.0046009024342445306 0.015168430882902704 0 0 0
763 1 0.0016 1600 0.006870306469426319 -0.0021541860879909064 0.017943082703068918 0 0 0
764 1 0.0016 1600 -0.005184728413485582 -0.004105394596329402 0.018072586506233453 0 0 0
765 1 0.0016 1600 -0.0003613111032244123 0.005393325647546748 0.014463692583169147 0 0 0
766 1 0.0016 1600 0.006948538082158592 -0.0018855432204471713 0.012815901222553803 0 0 0
767 1 0.0016 1600 -0.0031627417113863536 -0.0003283768410388843 0.013462327351398469 0 0 0
768 1 0.0016 1600 -0.004991120892508016 -0.005189746789140246 0.013507920857828409 0 0 0
769 1 0.0016 1600 -0.004461258644910009 -0.0006322277327165252 0.01583958020544391 0 0 0
770 1 0.0016 1600 0.004753660910719639 -0.005407733889426875 0.015903757666631504 0 0 0
771 1 0.0016 1600 0.0039048641244748923 0.006050006935000162 0.01563178086491939 0 0 0
772 1 0.0016 1600 -0.004762107718936235 0.005400696546839429 0.015792973523523237 0 0 0
773 1 0.0016 1600 -0.003763417453971647 -0.001733236935914784 0.014912478590927059 0 0 0
774 1 0.0016 1600 0.0011707444588679955 -0.007104183218045261 0.01867677496265119 0 0 0
775 1 0.0016 1600 -0.004555348966432527 -0.0002371033167718267 0.014244604702947609 0 0 0
776 1 0.0016 1600 0.004620819251502912 -0.0013521596367204356 0.012061758529922481 0 0 0
777 1 0.0016 1600 0.006266379510829617 0.0035461727003497285 0.017567940320600578 0 0 0
778 1 0.0016 1600 -0.006954094700638544 -0.001834781472113554 0.016201593780750208 0 0 0
779 1 0.0016 1600 0.0016287306241926887 0.00642729470700547 0.014339594137114532 0 0 0
780 1 0.0016 1600 0.0017625455979959242 -0.005504202775358441 0.016980399983285863 0 0 0
781 1 0.0016 1600 0.0005747728101396046 -0.0043733289046403445 0.01675399620914443 0 0 0
782 1 0.0016 1600 -0.005881069212453966 0.004154125172637795 0.011048626425116911 0 0 0
783 1 0.0016 1600 0.002848902273404626 -0.001258083719942716 0.014217977392794921 0 0 0
784 1 0.0016 1600 0.001373691660976008 -0.005307765571706565 0.012619770193023256 0 0 0
785 1 0.0016 1600 0.006320427319956249 0.0034489653428698163 0.012931568328916773 0 0 0
786 1 0.0016 1600 0.0009441166858101458 -0.0006090367633419535 0.015530412653313508 0 0 0
787 1 0.0016 1600 -0.0017255639271170882 -0.006990818796582253 0.015649550176438747 0 0 0
788 1 0.0016 1600 7.56829394384491e-05 -0.0033592629150702887 0.01329152578283241 0 0 0
789 1 0.0016 1600 -0.002004846470763928 0.0020621325000406646 0.012293199803649032 0 0 0
790 1 0.0016 1600 0.007147194933669834 0.0008745621721599799 0.014495550006549765 0 0 0
791 1 0.0016 1600 0.005587638173708991 -0.0018793267915749418 0.015616247625399033 0 0 0
792 1 0.0016 1600 0.0023518702401165497 0.0016559928929702054 0.01455106750310434 0 0 0
793 1 0.0016 1600 0.0008254313781170099 0.003594804353558294 0.013396686944640737 0 0 0
794 1 0.0016 1600 -0.004333492303188089 0.004142105049272482 0.011585552973277255 0 0 0
795 1 0.0016 1600 -0.004014544176586015 0.0038152511529062167 0.0184630510872291 0 0 0
796 1 0.0016 1600 -0.0014979158516654028 0.0035404027781706544 0.013815411062188624 0 0 0
797 1 0.0016 1600 0.0028947124676640674 0.0028350476909866184 0.017736553996911607 0 0 0
798 1 0.0016 1600 -0.00017849530568273824 -0.0071980788190363874 0.015299844017587962 0 0 0
799 1 0.0016 1600 -0.0049670977511243 -0.0034473461787395514 0.015577995309376959 0 0 0
800 1 0.0016 1600 0.0014180942145747134 0.003080132637104202 0.015336243554308288 0 0 0
801 1 0.0016 1600 -0.004062032017076638 -0.005946254724337637 0.014567607569446903 0 0 0
802 1 0.0016 1600 -0.0019812418863785074 0.0005327702978519549 0.01588629214197074 0 0 0
803 1 0.0016 1600 -0.002609762996065692 0.006710971677584845 0.015414398122658674 0 0 0
804 1 0.0016 1600 -0.0059328072008665664 -0.0005579895900935807 0.015217469398104436 0 0 0
805 1 0.0016 1600 0.00298873327554155 0.00045580401983770545 0.015395377881284008 0 0 0
806 1 0.0016 1600 -0.0043118671155307955 0.0021172513698536188 0.013693554284531626 0 0 0
807 1 0.0016 1600 -0.003896562328115944 -0.0023988731678734714 0.016360849923891148 0 0 0
808 1 0.0016 1600 -0.0024466417576709367 -0.0022209217793902887 0.012316242255259556 0 0 0
809 1 0.0016 1600 0.00532180367007409 -0.002476542553286406 0.017683847217626926 0 0 0
810 1 0.0016 1600 0.003027426394548567 0.005337328727181237 0.01676318090651999 0 0 0
811 1 0.0016 1600 -0.003928537890251385 -0.0026840707397081534 0.011931014521740994 0 0 0
812 1 0.0016 1600 -0.007199364208277563 0.00012958090171214355 0.014523956831084504 0 0 0
813 1 0.0016 1600 -0.00025367128418755095 -0.005627658744642907 0.012261955873047644 0 0 0
814 1 0.0016 1600 0.005051184453791652 -0.002801712212803682 0.014424047529576368 0 0 0
815 1 0.0016 1600 0.0068043344770405195 0.0023540299730241752 0.0139927458444774 0 0 0
816 1 0.0016 1600 -0.005564393099530166 -0.0045698911919291145 0.01658983728911127 0 0 0
817 1 0.0016 1600 -0.004576174127946479 0.001124551562224573 0.015084160016941106 0 0 0
818 1 0.0016 1600 -0.007198732347096723 -0.00015913948241492648 0.01610996678309132 0 0 0
819 1 0.0016 1600 -0.006789176162210678 0.002398952269327926 0.015848502822599208 0 0 0
820 1 0.0016 1600 0.0011312187621870357 0.0036943952385701086 0.017068341732885104 0 0 0
821 1 0.0016 1600 0.005467710317899716 -0.004365921945004467 0.016885255104103207 0 0 0
822 1 0.0016 1600 0.005507193472586801 0.004638555175736531 0.013625644423885636 0 0 0
823 1 0.0016 1600 0.002573307479879077 -0.005245560096802417 0.014078318443981606 0 0 0
824 1 0.0016 1600 -0.007143101470862205 -0.0009046950767061019 0.01322666960991484 0 0 0
825 1 0.0016 1600 -0.0011833840697186401 -0.0001392255439066701 0.017099143709122848 0 0 0
826 1 0.0016 1600 0.00238193349472534 0.004346832394578637 0.017840591044429168 0 0 0
827 1 0.0016 1600 -0.0006217659295621677 -0.007173125099767781 0.016836698780598177 0 0 0
828 1 0.0016 1600 -0.005195498704666662 0.0025160575837535927 0.015920792755756665 0 0 0
829 1 0.0016 1600 -0.0006251672428500593 0.007173052939532963 0.016334704989793482 0 0 0
830 1 0.0016 1600 0.004306846140051972 -0.0005157727874973572 0.016103079166371926 0 0 0
831 1 0.0016 1600 -0.004926489493354732 0.0011677074852044053 0.01673824208013196 0 0 0
832 1 0.0016 1600 0.00038180520257244274 0.0004697774822035697 0.016866768817478756 0 0 0
833 1 0.0016 1600 0.007191700077050267 -0.00035131969637264466 0.015522133854627267 0 0 0
834 1 0.0016 1600 -0.003620760056719767 0.006223508378700668 0.016553971061673788 0 0 0
835 1 0.0016 1600 0.0014528995738862108 0.00467660496679094 0.015434793106878699 0 0 0
836 1 0.0016 1600 0.007006927176487284 -0.0016568428792417098 0.016427896318762125 0 0 0
837 1 0.0016 1600 0.002761890009655099 0.0002875027477184808 0.013815204703847884 0 0 0
838 1 0.0016 1600 0.005452820671297607 -0.002469432016600212 0.012847349864791914 0 0 0
839 1 0.0016 1600 0.002647693308995509 0.0038853735980448416 0.014705874534409765 0 0 0
840 1 0.0016 1600 0.0008994385238034701 0.0021730624192902483 0.014124738445252609 0 0 0
841 1 0.0016 1600 0.002954734299995235 -0.000807867056727649 0.012538830098929091 0 0 0
842 1 0.0016 1600 -0.003162673183861316 -0.006468575811299651 0.01657256480811125 0 0 0
843 1 0.0016 1600 0.0039994996969690945 -0.005962343307472977 0.0118337570032221 0 0 0
844 1 0.0016 1600 0.004763156776202215 -0.0033075346088575655 0.015914166019498285 0 0 0
845 1 0.0016 1600 0.0017496130369685195 -0.003177548270049657 0.014066865236537175 0 0 0
846 1 0.0016 1600 0.0010505629372876888 0.001646121411661726 0.011291949755803308 0 0 0
847 1 0.0016 1600 0.001814145661415548 -0.0004564266628727494 0.018047722930322748 0 0 0
848 1 0.0016 1600 0.0024725627039912674 0.00676232556877927 0.015656550626086153 0 0 0
849 1 0.0016 1600 0.0023208289394721655 0.0030067721595349738 0.0134095414518525 0 0 0
850 1 0.0016 1600 -0.00032016227212068365 0.0017465041886062964 0.015067580612704315 0 0 0
851 1 0.0016 1600 0.0029562373974535484 0.001347731702164687 0.016785388560058283 0 0 0
852 1 0.0016 1600 -0.004142696529206004 -0.0038943088919194467 0.016874110791479453 0 0 0
853 1 0.0016 1600 0.00512504101711109 0.0027454958484114064 0.013959380890651584 0 0 0
854 1 0.0016 1600 -0.0009783604823164318 0.00203791627913638 0.013639128748961685 0 0 0
855 1 0.0016 1600 0.003965400561830627 -0.006009715932681269 0.01719144179880718 0 0 0
856 1 0.0016 1600 0.0007453843438383486 0.0006393706383188491 0.014550715030178466 0 0 0
857 1 0.0016 1600 -0.0030663672964716254 0.0025829266246548822 0.018086387413980845 0 0 0
858 1 0.0016 1600 -0.0012317027017121898 -0.007093270698388179 0.014100365512801069 0 0 0
859 1 0.0016 1600 0.002964485571795049 0.005552775739481424 0.01443773188329337 0 0 0
860 1 0.0016 1600 0.004100406700335521 -0.0020972271035076913 0.016723131740805836 0 0 0
861 1 0.0016 1600 0.0007556259330004473 0.005783446227361435 0.011590902042758056 0 0 0
862 1 0.0016 1600 -0.00031908995451019917 -0.0012203436921256377 0.016297767828888157 0 0 0
863 1 0.0016 1600 -0.00112077800552097 -0.0056133018628485255 0.014747876489570258 0 0 0
864 1 0.0016 1600 0.004427238301338857 0.0005813503484304025 0.017261179380109033 0 0 0
865 1 0.0016 1600 0.007183111620451483 0.0005043996084509849 0.017405587126378613 0 0 0
866 1 0.0016 1600 0.004187679841677902 0.004038424742169011 0.014301663432671705 0 0 0
867 1 0.0016 1600 0.003958027943164821 -0.003113154187645949 0.018226426015889852 0 0 0
868 1 0.0016 1600 0.0020199949753185553 -0.003958709930436397 0.01730110989136989 0 0 0
869 1 0.0016 1600 -0.0029763422959022665 -0.003011278038281077 0.014359131512174507 0 0 0
870 1 0.0016 1600 -0.002311642309414062 0.005417333439705958 0.014522181525700999 0 0 0
871 1 0.0016 1600 -0.0031095323896244355 -0.00028066342098919246 0.015060218422001012 0 0 0
872 1 0.0016 1600 0.0011192769064785784 -0.006823364811140715 0.012175551864051457 0 0 0
873 1 0.0016 1600 -0.0012348626727488698 -0.001428639698452432 0.018145602478289852 0 0 0
874 1 0.0016 1600 0.0016228497803310571 -0.005489610943190214 0.015386861540005488 0 0 0
875 1 0.0016 1600 0.003628981103074712 0.002602380865691953 0.014731369756247338 0 0 0
876 1 0.0016 1600 0.004756956097681736 -0.005405369642244473 0.013127701704430374 0 0 0
877 1 0.0016 1600 -0.0020885696596117105 0.006890874103991598 0.016915773575295234 0 0 0
878 1 0.0016 1600 -0.0025426692681696896 -0.004187900203522337 0.01564860008799651 0 0 0
879 1 0.0016 1600 -0.003860622418924205 0.006077489336177774 0.01464440156188183 0 0 0
880 1 0.0016 1600 -0.005239344687910234 -0.004938954302699127 0.01506787871846623 0 0 0
881 1 0.0016 1600 -0.0010664114127442905 -0.0036557643691007046 0.014634093299790076 0 0 0
882 1 0.0016 1600 0.0016800083689413733 -0.00649924391477186 0.013642212482260517 0 0 0
883 1 0.0016 1600 0.002574884032792761 -0.006724180001214962 0.018010504048048315 0 0 0
884 1 0.0016 1600 -0.0027540966366792047 -0.006652888763863284 0.013883652661925615 0 0 0
885 1 0.0016 1600 0.0025240909575423827 0.003862703377216425 0.016300572719252757 0 0 0
886 1 0.0016 1600 0.006977516132876949 -0.001777884875217494 0.01483045349110784 0 0 0
887 1 0.0016 1600 -0.00014529180725996775 0.0032754646949129792 0.014627765264220815 0 0 0
888 1 0.0016 1600 -0.0024124407715544753 -0.0026013890757813855 0.015798752489457085 0 0 0
889 1 0.0016 1600 0.0024652092498010456 0.0011769916963131689 0.010710944831350776 0 0 0
890 1 0.0016 1600 -0.006654166940743334 -0.0007381803779908867 0.01078889057058852 0 0 0
891 1 0.0016 1600 0.004343497024601972 0.0012519431124493271 0.014256873846153277 0 0 0
892 1 0.0016 1600 -0.0055453957863375045 0.0036261620612920158 0.018038526900018906 0 0 0
893 1 0.0016 1600 0.0033255100040957886 -0.0029051378149536748 0.014284548664755706 0 0 0
894 1 0.0016 1600 -0.004547794868484069 -0.0031000804591108048 0.014073657881917456 0 0 0
895 1 0.0016 1600 -0.0026331403505003813 -0.005734828976431078 0.015253515671707647 0 0 0
896 1 0.0016 1600 0.0009247686338983758 -0.0045436219848200956 0.013951393384491665 0 0 0
897 1 0.0016 1600 -0.006997554323681411 -0.0016959211569081737 0.014608847416665904 0 0 0
898 1 0.0016 1600 0.0013948888682318215 -0.007063994187620354 0.015554286443226532 0 0 0
899 1 0.0016 1600 -0.005244027640661504 -0.0016796821778811222 0.014309297787161905 0 0 0
900 1 0.0016 1600 -0.00505446842692201 0.002428219853872854 0.01231166115961769 0 0 0
901 1 0.0016 1600 0.005456667433557145 0.0019764042361689856 0.01667882904299626 0 0 0
902 1 0.0016 1600 -0.0071985809459740166 -0.0001437698041539396 0.017709840543417888 0 0 0
903 1 0.0016 1600 0.003417709228240293 0.0037624893397438137 0.0189401828906763 0 0 0
904 1 0.0016 1600 0.006851161866497265 0.0012393270275654954 0.016024498642194022 0 0 0
905 1 0.0016 1600 -0.001381649868818599 0.0026905078436337063 0.017395513274521195 0 0 0
906 1 0.0016 1600 0.0002953370254387774 -0.00593570193436103 0.01616092029311651 0 0 0
907 1 0.0016 1600 -0.005021027282193308 0.0027239478349704535 0.01925071657920832 0 0 0
908 1 0.0016 1600 -0.005988879553434784 0.0011463998108021253 0.021967236609603282 0 0 0
909 1 0.0016 1600 0.0036607300423269263 -0.0046425740867299 0.021217324949171345 0 0 0
910 1 0.0016 1600 -0.002347536640073636 -0.005310190621899856 0.02174983437148501 0 0 0
911 1 0.0016 1600 -0.004738454530609658 -3.372979798280786e-05 0.01947872492588135 0 0 0
912 1 0.0016 1600 -0.00044070846609688206 0.005837562275850419 0.018985351106910926 0 0 0
913 1 0.0016 1600 -0.000651039972887679 -9.675401255828545e-05 0.01881162773381059 0 0 0
914 1 0.0016 1600 -0.0029725924239806406 0.004747342487850889 0.016662244713236497 0 0 0
915 1 0.0016 1600 -4.168746821331747e-06 -0.003640642162473644 0.019454220077541814 0 0 0
916 1 0.0016 1600 -0.0014070273471055383 -0.007061503192154302 0.019916556965155572 0 0 0
917 1 0.0016 1600 0.0029941009706618647 0.000418727514658394 0.022258893458538494 0 0 0
918 1 0.0016 1600 -0.006262332149277085 0.0035530663932172627 0.020424722563303622 0 0 0
919 1 0.0016 1600 0.0012473342352560019 -0.007091269981499688 0.020413431621132565 0 0 0
920 1 0.0016 1600 -0.003278949717767977 -0.0036134594807195816 0.019491380993627894 0 0 0
921 1 0.0016 1600 0.0015502151294885344 -0.0013990514785236384 0.016782450229952926 0 0 0
922 1 0.0016 1600 0.0008362326244774648 0.00243249474618535 0.021921677507114764 0 0 0
923 1 0.0016 1600 -0.0040065487666190325 0.00452296667687911 0.019897908031381032 0 0 0
924 1 0.0016 1600 -0.003805848831423039 -0.00020405926183039523 0.022429228180426038 0 0 0
925 1 0.0016 1600 -3.1205388521151066e-05 -0.002300976387180871 0.02156458042148023 0 0 0
926 1 0.0016 1600 -0.00691072535946586 -0.0020214808938905093 0.019367195293663982 0 0 0
927 1 0.0016 1600 2.3612135219869553e-05 2.4889203860400307e-05 0.021597008248366845 0 0 0
928 1 0.0016 1600 0.0013494144167518765 -0.0031291480160265967 0.016109637244282236 0 0 0
929 1 0.0016 1600 0.004181722563705941 0.002492399265687877 0.019542487886944588 0 0 0
930 1 0.0016 1600 0.0011899160814320571 -0.002739371578812773 0.02250055761623708 0 0 0
931 1 0.0016 1600 -0.0021261878799119158 -0.0010500560471224335 0.01605945148939657 0 0 0
932 1 0.0016 1600 0.0034810933226355483 -0.002475277846662881 0.019649055095505862 0 0 0
933 1 0.0016 1600 0.005552698543604316 0.004584318912539759 0.021344702318588288 0 0 0
934 1 0.0016 1600 -0.003997160264974412 -0.0021424906097461567 0.020025650266889447 0 0 0
935 1 0.0016 1600 0.0023839563905916523 0.006776490979975501 0.017253655718060364 0 0 0
936 1 0.0016 1600 0.0004094791964388762 0.0071886559406899395 0.01887913985470018 0 0 0
937 1 0.0016 1600 0.0009573221645544694 -0.007136086726721196 0.01709147312914309 0 0 0
938 1 0.0016 1600 -0.0025020439784213793 0.005165575851781554 0.02024895015942324 0 0 0
939 1 0.0016 1600 -0.003956261057969212 -0.005210347031342815 0.015984108506708002 0 0 0
940 1 0.0016 1600 0.0028306479554832944 9.899822328814218e-05 0.019291254768139764 0 0 0
941 1 0.0016 1600 -0.0022303484864446264 0.002647059051035993 0.021412701051953396 0 0 0
942 1 0.0016 1600 -0.0015991885773502675 -0.002418816003279787 0.021859575731474942 0 0 0
943 1 0.0016 1600 0.0022018826328696643 0.004701647648335936 0.01938986019357536 0 0 0
944 1 0.0016 1600 0.0006246906391472945 0.007173301659916243 0.015336481541477095 0 0 0
945 1 0.0016 1600 -0.0006021871399984424 -0.0032546686435813476 0.022790627923358488 0 0 0
946 1 0.0016 1600 0.004056323475176663 0.004517694780389977 0.021905560726801953 0 0 0
947 1 0.0016 1600 -0.0012075416449848484 0.0028797207365170987 0.015816851918423396 0 0 0
948 1 0.0016 1600 0.0018486824466066852 0.005935235705291258 0.021036590684641455 0 0 0
949 1 0.0016 1600 0.006476902760130414 -0.0031333461451611352 0.016740888186992518 0 0 0
950 1 0.0016 1600 -0.007060926541667291 -0.0014107880274388269 0.02083795750513975 0 0 0
951 1 0.0016 1600 0.0003708980229659129 0.0014245351230894017 0.020728328356983617 0 0 0
952 1 0.0016 1600 -0.0045557207175366005 0.0032458889868498516 0.020689547007780265 0 0 0
953 1 0.0016 1600 0.0046594214146974 -0.003588463369323589 0.020375007811768642 0 0 0
954 1 0.0016 1600 -0.0045205700567314 0.005604639122218447 0.018837897514980842 0 0 0
955 1 0.0016 1600 0.0016207292343700472 6.49048603728513e-05 0.021518694214017243 0 0 0
956 1 0.0016 1600 0.0041561565181366 -0.0022409227049430395 0.021080093280775897 0 0 0
957 1 0.0016 1600 -0.002060818523012795 -0.0022630850534425553 0.02033592931288516 0 0 0
958 1 0.0016 1600 -0.005539313742795826 0.0016559930159824258 0.018133107869684563 0 0 0
959 1 0.0016 1600 -0.001049997716400778 -0.005819665010266115 0.020965394746893008 0 0 0
960 1 0.0016 1600 -0.005868019824611372 -0.004172824905883645 0.01951759830493718 0 0 0
961 1 0.0016 1600 -0.0015187946580950068 0.002791431457076835 0.023406748753495823 0 0 0
962 1 0.0016 1600 0.006891473500408196 0.0020852602100782294 0.017381828435426877 0 0 0
963 1 0.0016 1600 0.002785909630974627 0.0066392811502547135 0.01879587784554386 0 0 0
964 1 0.0016 1600 -0.001312520468404729 0.0011427097159940334 0.018046966612055723 0 0 0
965 1 0.0016 1600 0.005739342670946247 0.0009222101743366926 0.019556459575855233 0 0 0
966 1 0.0016 1600 0.0017701975071896133 -0.005597581992847283 0.018811634085879624 0 0 0
967 1 0.0016 1600 0.0016044171423883786 0.004359525329927351 0.021161151362653487 0 0 0
968 1 0.0016 1600 0.003187916431808857 0.006456245189460441 0.02033334443517337 0 0 0
969 1 0.0016 1600 -0.001316246482324575 -0.00401727963271396 0.016660891927604206 0 0 0
970 1 0.0016 1600 -0.003356251227059137 0.0016615253004094016 0.02084780362814287 0 0 0
971 1 0.0016 1600 0.0011735204684153531 0.0010668594209535215 0.02268285613056689 0 0 0
972 1 0.0016 1600 0.007108209498436265 0.0011461131364947656 0.022850712105626433 0 0 0
973 1 0.0016 1600 -0.006989959104225926 -0.001727406529292462 0.01779702635922554 0 0 0
974 1 0.0016 1600 -0.0015135402933289914 0.004656283840303262 0.019097986827209572 0 0 0
975 1 0.0016 1600 0.0014258223579942933 -0.004259683412830906 0.019820653158231612 0 0 0
976 1 0.0016 1600 5.983090266647131e-05 -0.0021496617443649024 0.01874768585016881 0 0 0
977 1 0.0016 1600 -0.002022014321225134 0.0034929741348912993 0.02007083006696221 0 0 0
978 1 0.0016 1600 -0.002748283509875689 0.0030996477812331954 0.016606252078307952 0 0 0
979 1 0.0016 1600 -0.004869789906499515 -0.0036632450947055913 0.021993387421275545 0 0 0
980 1 0.0016 1600 0.001379178877497776 0.0060488341581202264 0.018314042425451694 0 0 0
981 1 0.0016 1600 0.005757808181632862 0.00027381978107330143 0.01809411268347824 0 0 0
982 1 0.0016 1600 -0.004434923203670585 0.004219960119137375 0.022029976335311115 0 0 0
983 1 0.0016 1600 -0.0030260268426497076 0.0050417353171871735 0.018742555544335182 0 0 0
984 1 0.0016 1600 0.0043433813253413054 0.000940620534284034 0.021576208582458213 0 0 0
985 1 0.0016 1600 -0.002679632042820632 -0.0033330815766370713 0.017195766547829675 0 0 0
986 1 0.0016 1600 0.006943699803112796 0.001904491899868438 0.02026012130708036 0 0 0
987 1 0.0016 1600 0.00558709095605026 -0.004541948597800832 0.019462984443641616 0 0 0
988 1 0.0016 1600 0.005842785553053172 0.00420599429652839 0.01617373376338332 0 0 0
989 1 0.0016 1600 0.004384038463741118 -0.0011713768737195746 0.019859556749825598 0 0 0
990 1 0.0016 1600 -0.0025352112333627487 -0.0056729768352186865 0.018449576078692246 0 0 0
991 1 0.0016 1600 -0.0008669198915244341 0.007147793267622778 0.01791593857497854 0 0 0
992 1 0.0016 1600 -0.0021342495835599204 -0.004123950257738745 0.018474637259327423 0 0 0
993 1 0.0016 1600 0.0025801643177361727 -0.006722231595170289 0.019610293019738906 0 0 0
994 1 0.0016 1600 -0.007094231665011157 0.001229899624368038 0.01689672463789456 0 0 0
995 1 0.0016 1600 -0.004387355742971684 0.005060268034439367 0.017339960821411118 0 0 0
996 1 0.0016 1600 -0.006458699616541002 -0.0031832542933145193 0.018364910473660748 0 0 0
997 1 0.0016 1600 0.00432441539388417 -3.5645665520979765e-05 0.018734241997708796 0 0 0
998 1 0.0016 1600 0.0007130874725627339 0.0006415607350532795 0.01842206977945867 0 0 0
999 1 0.0016 1600 0.0010414304553053805 0.0018983671017159492 0.01935511114470535 0 0 0
1000 1 0.0016 1600 -0.00609810268516226 0.0009678571676446169 0.015667845626050923 0 0 0
1001 1 0.0016 1600 0.005689032763087348 -0.001083415891796497 0.01893810324977817 0 0 0
1002 1 0.0016 1600 0.001844005247364914 0.0021098191788138845 0.020722207390305974 0 0 0
1003 1 0.0016 1600 0.000864365403341617 0.00714795236903036 0.016918138729041136 0 0 0
1004 1 0.0016 1600 0.0049687621714038085 -0.0052111400461985705 0.01814819156639588 0 0 0
1005 1 0.0016 1600 0.004064795148134776 -0.005943298174628043 0.020377937495985026 0 0 0
1006 1 0.0016 1600 0.0037443836829307354 0.0015978978016465732 0.0182903921337762 0 0 0
1007 1 0.0016 1600 -0.0032346733701882845 -0.0030120535058271365 0.02113099841481735 0 0 0
1008 1 0.0016 1600 0.002725976456237095 -0.006664343680917877 0.022802702916414595 0 0 0
1009 1 0.0016 1600 0.000164637673626707 0.0071981313281568 0.02046003041236716 0 0 0
1010 1 0.0016 1600 0.0030425145625829326 0.004914588778808792 0.02073397647654216 0 0 0
1011 1 0.0016 1600 -0.0008910216779375535 0.0059564838342391555 0.02051568896749448 0 0 0
1012 1 0.0016 1600 0.0070783920888218155 0.0013199036541469153 0.01877731562318222 0 0 0
1013 1 0.0016 1600 -0.0004974790737191295 0.0014635059134427675 0.019385118337011863 0 0 0
1014 1 0.0016 1600 0.0038173092931041873 -0.0061053902091269515 0.018805924677483817 0 0 0
1015 1 0.0016 1600 0.004198122221966044 0.0009550085719242698 0.019983391487831615 0 0 0
1016 1 0.0016 1600 0.002096946545928542 -0.004418601679981826 0.021725013419112156 0 0 0
1017 1 0.0016 1600 -0.00034055841535370475 0.0038742124924511677 0.017668236053895208 0 0 0
1018 1 0.0016 1600 -0.005974974351928781 -0.000299915949750172 0.020457511775566147 0 0 0
1019 1 0.0016 1600 -0.0022539547885104395 0.003944296417978333 0.017871605491349665 0 0 0
1020 1 0.0016 1600 -0.0030827415265549576 -0.0009309962246358325 0.020529941066790746 0 0 0
1021 1 0.0016 1600 0.00482642675883832 0.005343281841432444 0.016731730238941242 0 0 0
1022 1 0.0016 1600 0.0061755466603291955 -0.0037027425201850124 0.015276754116482398 0 0 0
1023 1 0.0016 1600 0.0014380347245460813 0.005257719429766057 0.016925064419188163 0 0 0
1024 1 0.0016 1600 0.005332183491479637 0.004838468930107962 0.018162892979456384 0 0 0
1025 1 0.0016 1600 0.0035367226723578707 -0.0037705769364175397 0.01683015278533284 0 0 0
1026 1 0.0016 1600 0.0026873777000855537 -0.006680286070006405 0.01641548384358473 0 0 0
1027 1 0.0016 1600 -0.0015906284420009605 -0.000962712866196656 0.021140079187388663 0 0 0
1028 1 0.0016 1600 -0.006146929457485751 0.003749488079186147 0.015280751035083594 0 0 0
1029 1 0.0016 1600 0.0015449497888390753 0.0021555221377178224 0.017211208030626826 0 0 0
1030 1 0.0016 1600 -0.0036595778949381416 -0.004552298345937671 0.018253131944434144 0 0 0
1031 1 0.0016 1600 -0.0022891078563711423 -0.004191575082012 0.020607496365460398 0 0 0
1032 1 0.0016 1600 -0.006487502354539962 -0.0031029585009651577 0.015173584613244178 0 0 0
1033 1 0.0016 1600 0.0022307937679663364 0.0010898866222048876 0.01818775246805135 0 0 0
1034 1 0.0016 1600 -0.0013660393112744141 -0.0028262470934435403 0.019009326884882678 0 0 0
1035 1 0.0016 1600 -0.006771395808917077 0.0024474173974682024 0.021462902848300804 0 0 0
1036 1 0.0016 1600 0.003694792290692977 -0.0004451427257419866 0.02110889395368949 0 0 0
1037 1 0.0016 1600 0.0008156843942197691 -0.0008168934035927327 0.01924451441425866 0 0 0
1038 1 0.0016 1600 -0.00540520487928424 -0.0022214754475450376 0.017455867676556883 0 0 0
1039 1 0.0016 1600 -0.0006945403014882444 0.002669931095803828 0.020416758515042106 0 0 0
1040 1 0.0016 1600 0.00394708965680973 0.005235284740631099 0.019272497350952777 0 0 0
1041 1 0.0016 1600 -0.006431395730955707 -0.003237175385160546 0.016766533204948277 0 0 0
1042 1 0.0016 1600 0.002312625654723696 -0.0008895658047324185 0.02043750706338955 0 0 0
1043 1 0.0016 1600 -0.004579500589147209 -0.003578305163903922 0.020422591201373644 0 0 0
1044 1 0.0016 1600 0.00013662700443441532 0.003733555329679583 0.021275356046676585 0 0 0
1045 1 0.0016 1600 -0.005592480558837931 0.004535092756651979 0.019354051276979607 0 0 0
1046 1 0.0016 1600 -0.006985598529099485 0.0017446962969331363 0.020041632952256118 0 0 0
1047 1 0.0016 1600 -0.004488859531604469 0.002577730057888732 0.017354730163399903 0 0 0
1048 1 0.0016 1600 0.005202726277430638 -0.004977585600615362 0.020953377360454033 0 0 0
1049 1 0.0016 1600 0.0040370340084468805 0.004214043758894249 0.0159188469486868 0 0 0
1050 1 0.0016 1600 0.006260772984310603 0.0035542264143426728 0.020346547312627767 0 0 0
1051 1 0.0016 1600 0.0003899281519792713 -0.0057866802764332415 0.017751042359935323 0 0 0
1052 1 0.0016 1600 -0.0012665639991486341 -0.002437042699667733 0.016904232972136668 0 0 0
1053 1 0.0016 1600 0.006404283444644662 -0.003290802555081116 0.020033335963945874 0 0 0
1054 1 0.0016 1600 -0.0013770827456243073 0.00467657055917904 0.01675166921498025 0 0 0
1055 1 0.0016 1600 -0.0038210602874637544 0.0011855262528371892 0.017894351966819867 0 0 0
1056 1 0.0016 1600 -0.004237423632946914 0.0038048741354314948 0.016359705583303387 0 0 0
1057 1 0.0016 1600 0.005031729797275441 -0.00250662858502104 0.01925683491156434 0 0 0
1058 1 0.0016 1600 -0.0049254824322236416 -0.005251975551986283 0.02217121145165897 0 0 0
1059 1 0.0016 1600 0.0066963584398367845 0.0026458603748061547 0.02322588772130352 0 0 0
1060 1 0.0016 1600 -0.005082589238343538 0.00010433100712994007 0.01792285934146452 0 0 0
1061 1 0.0016 1600 -0.003910419890716473 -0.006045837145773938 0.020139207255781305 0 0 0
1062 1 0.0016 1600 -0.0013929972976802444 -0.005579110413565763 0.01632407247992466 0 0 0
1063 1 0.0016 1600 0.0062482108038984146 -0.0035787372498917295 0.023103365472669668 0 0 0
1064 1 0.0016 1600 0.00037344921753472757 -0.0059702683379199845 0.019496907858956337 0 0 0
1065 1 0.0016 1600 -0.002618854534833425 -0.001749007017168356 0.017410518980732394 0 0 0
1066 1 0.0016 1600 0.0003007983787663353 -0.0008740454463568225 0.017731137987705082 0 0 0
1067 1 0.0016 1600 0.0008644546510770291 -0.00437167579821353 0.01832711572433499 0 0 0
1068 1 0.0016 1600 -0.00023709482407800652 -0.007196649062568575 0.020999376844151 0 0 0
1069 1 0.0016 1600 -0.00409935083993979 0.0014321235970765124 0.019450289560249873 0 0 0
1070 1 0.0016 1600 -0.00010778304493620041 0.0058295361405630445 0.017420766199979634 0 0 0
1071 1 0.0016 1600 -0.006416856748140946 -0.003266487163894189 0.022082337571677615 0 0 0
1072 1 0.0016 1600 -0.0011695037890718397 -0.004727905031871 0.01959843253336574 0 0 0
1073 1 0.0016 1600 0.002182767478104278 -0.0016562037478054996 0.01903973243792281 0 0 0
1074 1 0.0016 1600 0.0019166658334337436 0.00015599650973190403 0.016544141206887783 0 0 0
1075 1 0.0016 1600 4.4713284024925504e-05 0.0019490532502043178 0.017787125139372428 0 0 0
1076 1 0.0016 1600 -0.0005718706121979777 -0.0016873920544230943 0.020142476759874746 0 0 0
1077 1 0.0016 1600 -0.004596063295652277 -0.005542274909768223 0.017412461766751004 0 0 0
1078 1 0.0016 1600 -0.006680822947841713 0.0026846154703067645 0.017418930070315874 0 0 0
1079 1 0.0016 1600 -0.0017204947634727058 0.002410122671830949 0.01893325633276713 0 0 0
1080 1 0.0016 1600 -0.003502587108820047 0.0005319652558327572 0.01638110456629459 0 0 0
1081 1 0.0016 1600 -0.0027415717302806245 -0.0049907294743899225 0.017017644200074917 0 0 0
1082 1 0.0016 1600 -0.0007949443431257862 -0.006508959373310564 0.01854613437039123 0 0 0
1083 1 0.0016 1600 -0.005215534298953474 0.00496393573568764 0.020848405785729603 0 0 0
1084 1 0.0016 1600 -0.001833000091076119 -0.0008989062332054198 0.019531757902569582 0 0 0
1085 1 0.0016 1600 0.00661631186765453 0.0028403989695547087 0.018960090800331206 0 0 0
1086 1 0.0016 1600 -0.0061448326245520804 -0.0007596087363318779 0.018750066479775604 0 0 0
1087 1 0.0016 1600 0.007115982418795481 -0.0010980649547833248 0.020903247399112534 0 0 0
1088 1 0.0016 1600 0.004862361353532117 -0.0009514105589369757 0.017538573703030927 0 0 0
1089 1 0.0016 1600 -0.002828461547124575 -0.002182592577654346 0.018935218944285143 0 0 0
1090 1 0.0016 1600 0.00402210717234504 -0.004410935504417748 0.019159642465026015 0 0 0
1091 1 0.0016 1600 -0.007179554196624594 0.0005465346679596456 0.02108360879864134 0 0 0
1092 1 0.0016 1600 -0.0022113364359871213 0.006852094771767438 0.02063523948548226 0 0 0
1093 1 0.0016 1600 0.0053849343909782715 0.002136837278971743 0.020535063929419086 0 0 0
1094 1 0.0016 1600 0.006073746473252897 -0.00037844016912507046 0.016665894585418516 0 0 0
1095 1 0.0016 1600 -0.005389581869292932 -0.0019346028056794204 0.015881956087378257 0 0 0
1096 1 0.0016 1600 -0.00467643796928615 -0.0013807702719179776 0.018618346513325355 0 0 0
1097 1 0.0016 1600 0.002622042228545715 0.0022310836148096325 0.0192386242488136 0 0 0
1098 1 0.0016 1600 -0.0023277393487429235 -0.006813622024593924 0.021200776889663833 0 0 0
1099 1 0.0016 1600 0.00500308984710451 0.0029983978166925784 0.01553443820656297 0 0 0
1100 1 0.0016 1600 0.003944432547324459 0.006023520465988839 0.017880245077873152 0 0 0
1101 1 0.0016 1600 -0.005061349973579046 -0.002864582591117448 0.019074731815655166 0 0 0
1102 1 0.0016 1600 0.0066241721374576444 0.0028224424453336997 0.015986426579008364 0 0 0
1103 1 0.0016 1600 -0.003914230054938509 -0.0008140659619599166 0.017331385651984416 0 0 0
1104 1 0.0016 1600 0.004904585307064014 0.0033115353418891706 0.018374104669568916 0 0 0
1105 1 0.0016 1600 -6.887631447674442e-05 0.0030052254276305844 0.018983355328469818 0 0 0
1106 1 0.0016 1600 0.006148908843277156 -0.003746877462682466 0.018193629199473458 0 0 0
1107 1 0.0016 1600 -0.003162976765355763 0.003910559020309258 0.02111092926869874 0 0 0
1108 1 0.0016 1600 -0.0032932802951657594 -0.0006402137313177222 0.018931466970870444 0 0 0
1109 1 0.0016 1600 0.001541639985348582 0.003168709762808815 0.01852213122081635 0 0 0
1110 1 0.0016 1600 0.00716817467470655 -0.0006779622325428362 0.01848275737140993 0 0 0
1111 1 0.0016 1600 -0.003133954764225199 0.006482412100904898 0.018055605829560124 0 0 0
1112 1 0.0016 1600 0.006950661975537365 -0.0018789141912118126 0.019516893086034378 0 0 0
1113 1 0.0016 1600 0.0006443937704681518 -0.005005961151841125 0.022047952442061553 0 0 0
1114 1 0.0016 1600 0.00362220699294806 -0.0015538347457852287 0.0183494186730315 0 0 0
1115 1 0.0016 1600 0.002607674860309531 -0.0037140767614036027 0.018890839434684295 0 0 0
1116 1 0.0016 1600 0.0011846809531140003 -0.0026424666613486677 0.019840716700488755 0 0 0
1117 1 0.0016 1600 -0.003865423189826574 -0.006074650987904618 0.023311352433121702 0 0 0
1118 1 0.0016 1600 0.0009356597307509582 -0.006571390188572261 0.02189379732570403 0 0 0
1119 1 0.0016 1600 0.003429005410813126 0.0014402407875234264 0.023410744620019835 0 0 0
1120 1 0.0016 1600 -0.0014633488794014609 0.007049918019999798 0.026372871528671706 0 0 0
1121 1 0.0016 1600 0.003174830771452953 -0.002548935427597312 0.024653272548165545 0 0 0
1122 1 0.0016 1600 -0.0038023564879957742 -0.0006539769359532994 0.02571467064557742 0 0 0
1123 1 0.0016 1600 0.003286271032909109 -0.004880317870941481 0.026777580161728296 0 0 0
1124 1 0.0016 1600 -0.0002121425290617049 -0.00528394195405674 0.025722337031944046 0 0 0
1125 1 0.0016 1600 0.003983489979110076 -0.004688149095029132 0.024536759763171212 0 0 0
1126 1 0.0016 1600 -0.005793192219422983 0.002531408353786809 0.026970181165137483 0 0 0
1127 1 0.0016 1600 0.002751777340120164 0.006653503528239728 0.023309106834470256 0 0 0
1128 1 0.0016 1600 -0.0036664765137298097 0.0027844257327402392 0.022129372780820226 0 0 0
1129 1 0.0016 1600 0.0010804999021855949 0.0033414551232615283 0.020044191641697694 0 0 0
1130 1 0.0016 1600 -0.003579650140663808 0.000904725719782728 0.023559849639116205 0 0 0
1131 1 0.0016 1600 -0.006626927733484112 -0.002815922579171323 0.024266909750423404 0 0 0
1132 1 0.0016 1600 0.000611863913045334 -0.0004152679478645112 0.025798784692407276 0 0 0
1133 1 0.0016 1600 0.0024377110991541957 0.0019171795060634825 0.02219499544033754 0 0 0
1134 1 0.0016 1600 -0.0003705381624802654 0.0008989162309403324 0.024540366169797212 0 0 0
1135 1 0.0016 1600 -0.0033617045507475718 0.006367091854268937 0.01963479911209589 0 0 0
1136 1 0.0016 1600 -0.0037978675411052855 0.004427321832280084 0.0265044471723078 0 0 0
1137 1 0.0016 1600 -0.0009856464086571623 -0.006678627822521214 0.0223147067423821 0 0 0
1138 1 0.0016 1600 -0.0006815795165351549 -0.0011339916964025775 0.022444634842150035 0 0 0
1139 1 0.0016 1600 -0.0037782002657076983 0.00612950896034019 0.021160983663303403 0 0 0
1140 1 0.0016 1600 0.001991414655524594 -0.0023150602427818856 0.02118262633608841 0 0 0
1141 1 0.0016 1600 0.004794961652035792 0.0034347004493922393 0.023309157656233252 0 0 0
1142 1 0.0016 1600 -0.0028292613832980235 -0.001411726590474239 0.022046335459768744 0 0 0
1143 1 0.0016 1600 0.00011600035024587432 -0.001965420987842027 0.025108088983212682 0 0 0
1144 1 0.0016 1600 -0.0008032374296413197 0.004131282093159227 0.02254609073927169 0 0 0
1145 1 0.0016 1600 0.001655204762626193 0.0070076800121105665 0.019866060978798263 0 0 0
1146 1 0.0016 1600 0.0015957765279101062 0.0051164542261540776 0.02517436380146568 0 0 0
1147 1 0.0016 1600 -0.0014164041011409123 -0.004269668733015274 0.02543866774149621 0 0 0
1148 1 0.0016 1600 0.0016515208796556394 -0.007008247842887995 0.02393718139482527 0 0 0
1149 1 0.0016 1600 -0.005886421642385955 0.0019501760892397942 0.02334599686903589 0 0 0
1150 1 0.0016 1600 -0.003427388019330281 0.0028756570518195805 0.019617305338311616 0 0 0
1151 1 0.0016 1600 0.0035584672007512373 0.0062596443496498125 0.026793088976277378 0 0 0
1152 1 0.0016 1600 0.003651270836736138 -0.004449609717705324 0.02280638877079766 0 0 0
1153 1 0.0016 1600 0.006988559529462716 0.001732156771879577 0.026225823051741877 0 0 0
1154 1 0.0016 1600 -0.005555100534028868 -0.0018205933768345869 0.02019204339494996 0 0 0
1155 1 0.0016 1600 0.00393546259444881 -0.006029386888867285 0.021970009967897077 0 0 0
1156 1 0.0016 1600 -0.0062974952005764775 0.003491753349009234 0.02345318496438609 0 0 0
1157 1 0.0016 1600 0.005466825911173308 0.002234245300673242 0.024163146593976323 0 0 0
1158 1 0.0016 1600 0.002787156778831947 0.0008179637674733064 0.02072392720323844 0 0 0
1159 1 0.0016 1600 0.0016449004998677227 -0.0020765214552618634 0.025566056948059857 0 0 0
1160 1 0.0016 1600 -0.00236750276771586 -0.002477519476693688 0.023261434989458655 0 0 0
1161 1 0.0016 1600 0.0019962930918397334 0.003535876204995211 0.026654717847556512 0 0 0
1162 1 0.0016 1600 -0.0011275722844934547 0.00564752089250144 0.022154266254827613 0 0 0
1163 1 0.0016 1600 0.004497730737305726 0.005622380021551146 0.025601039971083595 0 0 0
1164 1 0.0016 1600 0.002361046278313257 -0.0011875222396502965 0.02444569918643575 0 0 0
1165 1 0.0016 1600 0.006033741617668564 0.000703632227458339 0.0239542161126972 0 0 0
1166 1 0.0016 1600 -0.002348646524994733 -0.005715790144232779 0.020037475819026637 0 0 0
1167 1 0.0016 1600 -0.0017829841140994459 0.006976048960965082 0.024807081456852065 0 0 0
1168 1 0.0016 1600 -0.0024505191271699013 0.000385720272281729 0.021181758089769923 0 0 0
1169 1 0.0016 1600 -0.003700230869720181 -0.006176545412219851 0.0217202619412444 0 0 0
1170 1 0.0016 1600 -0.00237137954189439 -0.0037853856885787774 0.02223387628283359 0 0 0
1171 1 0.0016 1600 -0.0029433916225759618 0.0019804321487220497 0.026617137986681985 0 0 0
1172 1 0.0016 1600 0.0006583548372151493 0.003935858945514808 0.024639251380956576 0 0 0
1173 1 0.0016 1600 0.0013549499364838517 -0.0027932729796701973 0.024165580380967545 0 0 0
1174 1 0.0016 1600 0.0013273313592300755 -0.007076875603168248 0.026444389313536272 0 0 0
1175 1 0.0016 1600 0.00608350887407398 -0.002310368533201326 0.025884508080938125 0 0 0
1176 1 0.0016 1600 0.0016497680174865342 0.007008793358804307 0.02220544638839677 0 0 0
1177 1 0.0016 1600 -0.0001200550015223359 0.004377405478200867 0.019832496288251716 0 0 0
1178 1 0.0016 1600 0.007012017435319685 -0.0016358086315733827 0.02699881799097636 0 0 0
1179 1 0.0016 1600 -0.00035278721223051617 -0.007191410972423284 0.026337786277835097 0 0 0
1180 1 0.0016 1600 0.002701311580837984 -0.0035787568492964385 0.02050503889781015 0 0 0
1181 1 0.0016 1600 0.003013211736081375 -0.006539444379479571 0.024640209131549816 0 0 0
1182 1 0.0016 1600 -0.000940725419609808 0.0002618429301667969 0.02034307984758464 0 0 0
1183 1 0.0016 1600 -0.0023301086757611706 -0.0006763583130804889 0.026340037084008474 0 0 0
1184 1 0.0016 1600 -0.0015663335357692498 0.0011395716464105506 0.02350506525219508 0 0 0
1185 1 0.0016 1600 -0.007175601756472719 -0.0005918622606297878 0.022207604771006015 0 0 0
1186 1 0.0016 1600 0.005094325201569388 -0.005088308973363802 0.022545237256181194 0 0 0
1187 1 0.0016 1600 0.002561742915913989 -0.0011092586236867905 0.02206561201703378 0 0 0
1188 1 0.0016 1600 -0.004278412175428169 -0.005564616979648544 0.026699324021018284 0 0 0
1189 1 0.0016 1600 -0.0020371294164033254 -0.003842533418589983 0.024027407401627163 0 0 0
1190 1 0.0016 1600 -0.0038257641108670024 -0.0020372717770827365 0.02490770459618817 0 0 0
1191 1 0.0016 1600 -0.0030678993985489874 0.0024259372241558566 0.023568978710517073 0 0 0
1192 1 0.0016 1600 -0.003340075031228913 -0.004780072858304149 0.024363558257318056 0 0 0
1193 1 0.0016 1600 0.0027922277680522247 -0.005084025289157094 0.019930021792972413 0 0 0
1194 1 0.0016 1600 -0.0037138265577471136 -0.004438748285268923 0.022827359204859187 0 0 0
1195 1 0.0016 1600 0.0008342003824464111 0.002344327567003362 0.024395125024156722 0 0 0
1196 1 0.0016 1600 0.0011952769405156726 -0.0013800903658698377 0.026934229737060854 0 0 0
1197 1 0.0016 1600 0.0024940906453738906 0.005119896036034887 0.022252366241632005 0 0 0
1198 1 0.0016 1600 -0.0022347445063557432 -7.052677171111742e-05 0.02269972566168139 0 0 0
1199 1 0.0016 1600 -0.0011523196054744665 0.0010913520603781353 0.02179509100665335 0 0 0
1200 1 0.0016 1600 0.0009190456965762101 -0.004082923088949345 0.02332506038071829 0 0 0
1201 1 0.0016 1600 -0.006011848523718034 0.003962644940142158 0.0219510943035403 0 0 0
1202 1 0.0016 1600 0.007193494114511076 0.000143326048608976 0.019855312870619972 0 0 0
1203 1 0.0016 1600 -0.0012700080581816728 0.006744701705067228 0.023309676813756314 0 0 0
1204 1 0.0016 1600 0.0035469755201468283 0.006265776244933896 0.021880759557792926 0 0 0
1205 1 0.0016 1600 -0.00134059646827625 -0.00707429745671795 0.023826999721323572 0 0 0
1206 1 0.0016 1600 -0.0024377596727432026 0.0067753166497708725 0.022217024602337387 0 0 0
1207 1 0.0016 1600 -0.001967017956807234 0.006926107122708378 0.019056004337156228 0 0 0
1208 1 0.0016 1600 0.0039174430475583276 -0.0017759351210139495 0.0225918815633753 0 0 0
1209 1 0.0016 1600 -0.006507647522070401 -0.003080769268605136 0.020496108871492315 0 0 0
1210 1 0.0016 1600 0.0028658510729284935 0.0004828691913336504 0.024561891129759535 0 0 0
1211 1 0.0016 1600 -0.0008582506070173629 0.004049324841320896 0.024142743714988518 0 0 0
1212 1 0.0016 1600 -0.0057746711262555385 -0.0009477990312629249 0.02330645964917347 0 0 0
1213 1 0.0016 1600 0.005208006009318135 -0.004971823815773162 0.025567418800415517 0 0 0
1214 1 0.0016 1600 0.005274045283278808 0.004901677987865252 0.022887742622066356 0 0 0
1215 1 0.0016 1600 0.005078859604102909 0.00018602982169659623 0.02277985687956255 0 0 0
1216 1 0.0016 1600 -0.0059782245266870706 -0.004012968705168863 0.023427374869065185 0 0 0
1217 1 0.0016 1600 0.007188671029635719 0.00040972064904605554 0.02143269251690526 0 0 0
1218 1 0.0016 1600 0.00011826799499864768 -0.0020201100749838003 0.023509124870298964 0 0 0
1219 1 0.0016 1600 0.0025823232243990194 -0.003734631267733466 0.02375772083196054 0 0 0
1220 1 0.0016 1600 0.004819614408231972 -0.0009875769292020569 0.02620894251007008 0 0 0
1221 1 0.0016 1600 0.0035237638866051526 0.0030721449817196515 0.022408633185593 0 0 0
1222 1 0.0016 1600 -0.003532393966211143 0.004542876871044146 0.0233210829382547 0 0 0
1223 1 0.0016 1600 -1.0261092752734088e-05 0.00011386663389932764 0.02319387450332908 0 0 0
1224 1 0.0016 1600 -0.0014203224869960348 -0.005694929356228787 0.026686596130526104 0 0 0
1225 1 0.0016 1600 0.004196536980072395 0.0038804982734178158 0.02033721355790475 0 0 0
1226 1 0.0016 1600 0.003358500807728128 0.0063690890227942 0.02476175808965082 0 0 0
1227 1 0.0016 1600 0.0009171551867420688 -0.0011662782166679147 0.022402846246686873 0 0 0
1228 1 0.0016 1600 0.004490059030456756 0.005628477333068896 0.020756311945899227 0 0 0
1229 1 0.0016 1600 -0.0037796506914857778 -0.004311764804662334 0.025828703493526867 0 0 0
1230 1 0.0016 1600 0.00132895144982074 0.0008272496987619329 0.024281339166375798 0 0 0
1231 1 0.0016 1600 -0.0013996777628761496 0.005423240771182726 0.02477418839616064 0 0 0
1232 1 0.0016 1600 -0.0007489221695271988 0.0026238130952631923 0.0220145630023108 0 0 0
1233 1 0.0016 1600 0.00417294550049778 -0.0030897231761652694 0.02346851418107816 0 0 0
1234 1 0.0016 1600 0.0021112216568971733 -0.0036041033736074622 0.025318453488853445 0 0 0
1235 1 0.0016 1600 0.00574762115580266 -0.00041482373002856194 0.0204340893364643 0 0 0
1236 1 0.0016 1600 0.0030498505605671706 -0.003168973475203396 0.022025328664572522 0 0 0
1237 1 0.0016 1600 -0.0002857486799420627 0.00539458202440111 0.023490627256611857 0 0 0
1238 1 0.0016 1600 0.006678084146052027 0.0026914704193369394 0.021627209477225087 0 0 0
1239 1 0.0016 1600 -0.0043750625772343175 0.005718471665264387 0.022587244987261865 0 0 0
1240 1 0.0016 1600 -0.0031599891628029376 0.0008026625628988795 0.0255565390500126 0 0 0
1241 1 0.0016 1600 -0.005317359946508713 -0.00030397720985170517 0.021915332064520055 0 0 0
1242 1 0.0016 1600 -0.0009854545057643692 -0.004475163366322902 0.02182996508765088 0 0 0
1243 1 0.0016 1600 -0.002653454370462365 0.0014376525616888894 0.022369792703698668 0 0 0
1244 1 0.0016 1600 0.0009263937914069022 0.005586203752146735 0.01977705788440955 0 0 0
1245 1 0.0016 1600 0.006959992938574242 0.0018450763735802353 0.02458516593870357 0 0 0
1246 1 0.0016 1600 0.0027193644113662043 0.0008326764070592193 0.026807622892390148 0 0 0
1247 1 0.0016 1600 0.00392981859086344 0.0016750990898134635 0.024944557810851507 0 0 0
1248 1 0.0016 1600 -0.0022131212997437894 -0.005277845233774091 0.023343434880744026 0 0 0
1249 1 0.0016 1600 0.0015075061348734848 -0.005551437257522337 0.02076114802225072 0 0 0
1250 1 0.0016 1600 0.005893037551939048 0.0012786454569601255 0.021785905892464884 0 0 0
1251 1 0.0016 1600 -0.007156126855857509 0.0007961012485282563 0.02300336322172976 0 0 0
1252 1 0.0016 1600 0.004646259629436697 0.004649248009760334 0.024339825010596238 0 0 0
1253 1 0.0016 1600 0.00024609461989348326 -0.0071959714467472475 0.023195082423921733 0 0 0
1254 1 0.0016 1600 -0.007150525131956276 -0.0008451774592740348 0.026565468106003593 0 0 0
1255 1 0.0016 1600 0.004147522291262199 0.005885585840599528 0.023455285078968203 0 0 0
1256 1 0.0016 1600 -0.006231985784279898 -0.0036065070497776123 0.025600442616549365 0 0 0
1257 1 0.0016 1600 -0.0045605156528792275 0.0010281258073585697 0.024817081654172585 0 0 0
1258 1 0.0016 1600 0.006500558044798514 -0.0007212434774195504 0.02233116942958322 0 0 0
1259 1 0.0016 1600 0.0025198550099835002 -0.002226352018590773 0.02322681850385684 0 0 0
1260 1 0.0016 1600 0.0036430155773402822 0.0020922094736543825 0.026462123357139204 0 0 0
1261 1 0.0016 1600 0.0008957776205292382 -0.0035353793809583802 0.021144631565767714 0 0 0
1262 1 0.0016 1600 0.0026646144235970733 0.0034193318272217 0.020309137673172394 0 0 0
1263 1 0.0016 1600 0.00033384545767516376 0.006031826105460922 0.021542176135878537 0 0 0
1264 1 0.0016 1600 -0.0009271719614467539 -0.0033235673402871677 0.020721541713411715 0 0 0
1265 1 0.0016 1600 -0.002369104293883227 0.003805219391619335 0.022507453237770553 0 0 0
1266 1 0.0016 1600 0.004829029124118151 0.0030909324584394472 0.0253541172321563 0 0 0
1267 1 0.0016 1600 -0.0014190762635941958 0.002124518160226038 0.026153843894360148 0 0 0
1268 1 0.0016 1600 -0.00013373954193670207 0.001800898867077796 0.02324063016982577 0 0 0
1269 1 0.0016 1600 -0.0023693997448605117 -0.0038844424714703295 0.02666466827273094 0 0 0
1270 1 0.0016 1600 0.0007257513193880698 0.007163395292570623 0.025677811788408233 0 0 0
1271 1 0.0016 1600 0.00141494806975331 0.00047265259916246037 0.019977477493859377 0 0 0
1272 1 0.0016 1600 0.0022594017060107822 -0.005169321789287738 0.023128243764894394 0 0 0
1273 1 0.0016 1600 0.006151810709683668 -0.0037414769944706886 0.025173622472870073 0 0 0
1274 1 0.0016 1600 -0.005360109942397266 -0.0025744808911391985 0.023098075911766675 0 0 0
1275 1 0.0016 1600 -0.005103112897400841 -0.005080133578985511 0.02059047667303821 0 0 0
1276 1 0.0016 1600 -0.002794362157983309 -0.006635691301272542 0.024358960976885315 0 0 0
1277 1 0.0016 1600 -0.00597990249882826 0.004010243270201136 0.026388904704853215 0 0 0
1278 1 0.0016 1600 -0.00456572446112251 -0.0005037594980242049 0.024316981433727264 0 0 0
1279 1 0.0016 1600 -0.0021296100354741875 0.0053111932733160006 0.023355127111391632 0 0 0
1280 1 0.0016 1600 -0.005206869127341506 -0.0049733748533616505 0.02553849977499858 0 0 0
1281 1 0.0016 1600 0.006796658152810673 -0.002376172597513602 0.021810865166579763 0 0 0
1282 1 0.0016 1600 0.0007778330753172676 -0.0011458882216561644 0.020809417085275582 0 0 0
1283 1 0.0016 1600 0.0026460094448203333 -0.006585149162927627 0.021202963806238716 0 0 0
1284 1 0.0016 1600 -0.004648816269919552 0.003057357733449902 0.023362392144749687 0 0 0
1285 1 0.0016 1600 -0.007198705794753526 0.00015449844441434754 0.019532843584306736 0 0 0
1286 1 0.0016 1600 0.005435242604178647 -0.002277139449626956 0.02265320512421533 0 0 0
1287 1 0.0016 1600 -0.0038695087817820165 -0.002530996842217122 0.02251845700073513 0 0 0
1288 1 0.0016 1600 -0.001633193869249062 -0.0011358327024071915 0.023730055367642066 0 0 0
1289 1 0.0016 1600 -0.001253418018467843 0.0044939262870578485 0.021053482781826335 0 0 0
1290 1 0.0016 1600 -0.0071849061015350464 0.00046864422110333545 0.025594135294343165 0 0 0
1291 1 0.0016 1600 0.003647077330848714 -0.003705623758870575 0.02575359199537532 0 0 0
1292 1 0.0016 1600 0.004793926339058893 0.0019388305636357543 0.02274225879755785 0 0 0
1293 1 0.0016 1600 0.004957271218125999 0.0031434407751110755 0.02170231602896573 0 0 0
1294 1 0.0016 1600 -0.005111065614960558 0.00055469208416996 0.02324883986688976 0 0 0
1295 1 0.0016 1600 -0.005128135093119613 0.004582556079348016 0.023425111098608675 0 0 0
1296 1 0.0016 1600 0.00011086589252255776 -0.0047988264810169216 0.020554377277991764 0 0 0
1297 1 0.0016 1600 -0.005241646816833953 0.0025606398732858433 0.021961837113789632 0 0 0
1298 1 0.0016 1600 -0.003597209939054631 -0.003267804875405632 0.023911299051781423 0 0 0
1299 1 0.0016 1600 0.007186870300467168 0.0004366353641302909 0.025308215126853422 0 0 0
1300 1 0.0016 1600 -0.0043051973242893195 -0.0014429472848279071 0.021430206424504678 0 0 0
1301 1 0.0016 1600 0.002255149993221085 0.0024941970832496473 0.023675786662277987 0 0 0
1302 1 0.0016 1600 -0.004096329932198449 0.00024474480103550694 0.02091742087028705 0 0 0
1303 1 0.0016 1600 -0.005489256521184431 0.0012040435681698752 0.020208833831621267 0 0 0
1304 1 0.0016 1600 0.003131414880509916 0.004789339878816378 0.024868437969959047 0 0 0
1305 1 0.0016 1600 -0.005011812036886199 -0.005169452369679318 0.023962942816984283 0 0 0
1306 1 0.0016 1600 0.00567311261194097 -0.0020003824384301314 0.020632440962770948 0 0 0
1307 1 0.0016 1600 0.0008380416519635452 -0.00565548296225903 0.02367759463005833 0 0 0
1308 1 0.0016 1600 0.000153595136379309 0.007198516332146796 0.02273840462177101 0 0 0
1309 1 0.0016 1600 -0.0006300308310059953 -0.005345419054122962 0.023123983217050708 0 0 0
1310 1 0.0016 1600 -0.0030389576263836035 0.006021048134412681 0.025070646157959797 0 0 0
1311 1 0.0016 1600 0.0038653059630654775 0.0002731872026649476 0.025793494965406814 0 0 0
1312 1 0.0016 1600 -0.0025121667576895085 -0.006747856385368767 0.022788139910948732 0 0 0
1313 1 0.0016 1600 0.0006861553036907231 0.00470256386255441 0.02242514744773126 0 0 0
1314 1 0.0016 1600 0.00350443376126583 0.0022272283649280365 0.02096751984694427 0 0 0
1315 1 0.0016 1600 -0.002622798116595648 0.0010601862613545715 0.01896059261579326 0 0 0
1316 1 0.0016 1600 0.002207037208215575 -0.00029480148044036287 0.025794915788420983 0 0 0
1317 1 0.0016 1600 0.001968499880434204 0.0034453781054248635 0.02242204329153778 0 0 0
1318 1 0.0016 1600 0.00040593161414208636 0.0033061378980488395 0.023190703201512303 0 0 0
1319 1 0.0016 1600 -0.0037087749958959093 -0.00464237430948847 0.021240532314780642 0 0 0
1320 1 0.0016 1600 -0.0008883367437161281 0.004246771673958282 0.025730002494788084 0 0 0
1321 1 0.0016 1600 -0.006668365602685288 0.0027154558207213315 0.02545360816798298 0 0 0
1322 1 0.0016 1600 -0.002640737524471464 0.005234034043928232 0.02184120394121942 0 0 0
1323 1 0.0016 1600 -0.0034674849646561074 -0.0013430685457588747 0.0235116192713456 0 0 0
1324 1 0.0016 1600 0.006118235605403916 -0.0037962673788022234 0.02152385909928499 0 0 0
1325 1 0.0016 1600 -0.00718231362418139 -0.0005095005667483414 0.023927381824715953 0 0 0
1326 1 0.0016 1600 -0.0001126248211430344 0.007199424710647365 0.024315868628148146 0 0 0
1327 1 0.0016 1600 0.001913850205413754 -0.00023675763634307064 0.023239879118222995 0 0 0
1328 1 0.0016 1600 -0.0016329381227026347 -0.006997154113044171 0.025398127727562295 0 0 0
1329 1 0.0016 1600 -0.0058239142093975725 -0.0018142166993153172 0.02176896651389747 0 0 0
1330 1 0.0016 1600 -0.006917038998232399 -0.0019997559275032324 0.022922020045456612 0 0 0
1331 1 0.0016 1600 0.003381384903258695 0.004362658047926776 0.023347250529791617 0 0 0
1332 1 0.0016 1600 0.0046189127676318975 -0.003478445411018892 0.021981972466728943 0 0 0
1333 1 0.0016 1600 -0.007027576149484494 0.0015664888088341908 0.024399701094564293 0 0 0
1334 1 0.0016 1600 0.004931221497648538 -0.0011414810332201174 0.023660850065348175 0 0 0
1335 1 0.0016 1600 -0.0040041929492658345 -0.005984379788915748 0.025180115496442054 0 0 0
1336 1 0.0016 1600 -0.006592042130773578 0.0028964201317748994 0.019003468045705324 0 0 0
1337 1 0.0016 1600 0.005397038252518026 0.004766065752290947 0.019759687658861512 0 0 0
1338 1 0.0016 1600 0.0009182689807152455 -0.004561960458887188 0.024850935911112836 0 0 0
1339 1 0.0016 1600 0.0017969870895564303 0.00667943227480109 0.02459253773102304 0 0 0
1340 1 0.0016 1600 -0.004258728474705419 0.0012983745194766105 0.0221177145125356 0 0 0
1341 1 0.0016 1600 -0.00548007114976165 -0.0007436148592634663 0.025697148346700175 0 0 0
1342 1 0.0016 1600 -0.005004906394512524 0.00517639556536138 0.025768954587123447 0 0 0
1343 1 0.0016 1600 -0.003451854945953223 -0.0023084793220332018 0.02643933391840571 0 0 0
1344 1 0.0016 1600 -0.0008521915166685246 -0.0012877063199875625 0.026377836149010403 0 0 0
1345 1 0.0016 1600 -0.0025227518139722288 0.003236073004957527 0.02571976204697463 0 0 0
1346 1 0.0016 1600 0.002229082300326066 0.006846532840726408 0.02612393892587797 0 0 0
1347 1 0.0016 1600 0.001810882861129852 0.004486260268190036 0.02362678801023134 0 0 0
1348 1 0.0016 1600 0.005047064993252149 -0.0010256893363743474 0.02173585953777372 0 0 0
1349 1 0.0016 1600 0.001209222826119048 0.00593339014073915 0.0233049992515791 0 0 0
1350 1 0.0016 1600 -0.002757828720938412 -0.00019905274150348824 0.024375869768096536 0 0 0
1351 1 0.0016 1600 0.0054995646389879105 -0.004647633153294404 0.024028368919331446 0 0 0
1352 1 0.0016 1600 0.0034727818253460396 -0.0005133401246192899 0.023467369741768638 0 0 0
1353 1 0.0016 1600 0.005741277595479947 -0.0005482527937333701 0.024906328672806177 0 0 0
1354 1 0.0016 1600 -5.2370467411991986e-05 -0.007200130861823838 0.02476667524811147 0 0 0
1355 1 0.0016 1600 -0.001154965715792271 -0.0025416292872787365 0.024325560505079214 0 0 0
1356 1 0.0016 1600 -0.001856133665701219 0.001572294476683392 0.020288822246472604 0 0 0
1357 1 0.0016 1600 0.005514902986214454 -0.0026336245995647045 0.024210862237176885 0 0 0
1358 1 0.0016 1600 0.003934264701456418 -0.002679732515600194 0.02695104935526209 0 0 0
1359 1 0.0016 1600 -0.00096229346565868 0.0071361066410524756 0.021593844893225696 0 0 0
1360 1 0.0016 1600 -1.911881349763246e-05 -0.0035083395740381955 0.025605538084614302 0 0 0
1361 1 0.0016 1600 0.0001480210465483646 0.005769465091739679 0.024983770048778192 0 0 0
1362 1 0.0016 1600 0.0058136560592143924 0.0030760674480582975 0.028405650958813224 0 0 0
1363 1 0.0016 1600 0.0005585792991573188 -0.005800102338681667 0.027025736142248395 0 0 0
1364 1 0.0016 1600 0.0054737289911820555 -0.0019392010977624496 0.027316140090280588 0 0 0
1365 1 0.0016 1600 -0.002443368824544296 0.0034980780630132343 0.027296075895085262 0 0 0
1366 1 0.0016 1600 0.007176592292438242 0.0005831898379887968 0.02739965409452092 0 0 0
1367 1 0.0016 1600 0.0025743361335039774 -0.0021063351296166087 0.027653298145851938 0 0 0
1368 1 0.0016 1600 -0.006115303769964922 0.0038008566671870734 0.029571311494340183 0 0 0
1369 1 0.0016 1600 -0.0028170510398938366 -0.00662606026365592 0.028172410012310023 0 0 0
1370 1 0.0016 1600 0.0023576385098288853 0.001766139395752867 0.029811064288894427 0 0 0
1371 1 0.0016 1600 0.0017453052661201376 0.005403453869762956 0.029384184937026957 0 0 0
1372 1 0.0016 1600 -0.0016351751127109521 -0.000971061240683665 0.02830412971263264 0 0 0
1373 1 0.0016 1600 -0.0025114172136682022 -0.005486037849577948 0.02553547228861034 0 0 0
1374 1 0.0016 1600 0.0006601804861780308 0.003312824905340208 0.027505197604056043 0 0 0
1375 1 0.0016 1600 -0.0023665924382301183 -0.00330152859569289 0.02815510967144931 0 0 0
1376 1 0.0016 1600 0.005692380512878862 0.0012623750584520848 0.02541391834441096 0 0 0
1377 1 0.0016 1600 -5.3842475976141636e-05 -0.00018965410828102516 0.030670611448094423 0 0 0
1378 1 0.0016 1600 -0.005961509095209507 0.00029360479834438945 0.024578334223478125 0 0 0
1379 1 0.0016 1600 0.005186830086370268 0.0006257538555617174 0.028935234162005257 0 0 0
1380 1 0.0016 1600 -0.0006305685153453499 0.003839836476046739 0.029843477280949333 0 0 0
1381 1 0.0016 1600 0.0027862489959428055 0.004907818643822305 0.02642601027953166 0 0 0
1382 1 0.0016 1600 -0.004192314229729432 0.0025594252929108355 0.027432028891348395 0 0 0
1383 1 0.0016 1600 0.0033805792382226494 0.0033397871424587886 0.027432507664324392 0 0 0
1384 1 0.0016 1600 0.002620357160466759 -0.0067067230323942205 0.027425673007573467 0 0 0
1385 1 0.0016 1600 -0.006819266064782846 -0.00148875715097165 0.025139044553599537 0 0 0
1386 1 0.0016 1600 -0.0022789246475284244 -0.0016739949694597543 0.02509079030125763 0 0 0
1387 1 0.0016 1600 -0.006801306592495836 0.0023637703109706965 0.02941812879964066 0 0 0
1388 1 0.0016 1600 -0.0023734290587999023 0.004819587100076699 0.025890824596799242 0 0 0
1389 1 0.0016 1600 0.0015133039398629524 -0.006655209225927407 0.028579454799693826 0 0 0
1390 1 0.0016 1600 0.0045251020320538635 0.00032056099592792515 0.02433671426635896 0 0 0
1391 1 0.0016 1600 -0.0005156440171082646 -0.004162729320112415 0.02908461348022379 0 0 0
1392 1 0.0016 1600 -0.0030971471534522645 -0.0006424477514246229 0.027743700444426634 0 0 0
1393 1 0.0016 1600 -0.0034873859656578987 -0.0021667367446559275 0.028032424969319587 0 0 0
1394 1 0.0016 1600 -0.004263677328991383 0.003965787487584027 0.02462186201021837 0 0 0
1395 1 0.0016 1600 -0.0001641539440454953 0.006126908047233452 0.026511196453410706 0 0 0
1396 1 0.0016 1600 -0.001574143527800994 0.0005924597351317812 0.025548494621252065 0 0 0
1397 1 0.0016 1600 0.005287645478584373 -0.0003995862826867794 0.02770932801928339 0 0 0
1398 1 0.0016 1600 0.0009862016517513995 -0.0029622972836260116 0.026723650546175252 0 0 0
1399 1 0.0016 1600 0.004044221970461451 -0.0059570627468204735 0.023564428388023553 0 0 0
1400 1 0.0016 1600 -0.0026255978347409802 -0.0003146213759423165 0.030472709299600238 0 0 0
1401 1 0.0016 1600 -0.00517611954884125 0.00500502182711669 0.027350195970492815 0 0 0
1402 1 0.0016 1600 0.002335684737139376 0.0053600515074338235 0.02789792837116121 0 0 0
1403 1 0.0016 1600 -0.004533506455932814 0.0006134317693466775 0.02636190434140548 0 0 0
1404 1 0.0016 1600 0.006157613718536437 -0.00013040283241738036 0.0263938011407416 0 0 0
1405 1 0.0016 1600 0.0010396155092201763 0.0026174286632768217 0.029498962432704154 0 0 0
1406 1 0.0016 1600 -0.005583659185750546 -0.0013943271912119726 0.028567801505637813 0 0 0
1407 1 0.0016 1600 0.002423203856684244 0.0017022160387129826 0.02549789003291309 0 0 0
1408 1 0.0016 1600 0.003050756686549873 -0.0016026292546888667 0.026164750604101204 0 0 0
1409 1 0.0016 1600 0.0014248174014380194 -0.0045972911935275845 0.026368101362242765 0 0 0
1410 1 0.0016 1600 0.004778761554529914 -0.005386006328019777 0.027051869152326453 0 0 0
1411 1 0.0016 1600 0.00243541042828625 -0.005049623427441047 0.024714118357790252 0 0 0
1412 1 0.0016 1600 -0.005288927493834051 0.00259013739845429 0.028596499489454787 0 0 0
1413 1 0.0016 1600 0.006105783901235141 0.0038163656076218807 0.02414247686557075 0 0 0
1414 1 0.0016 1600 0.0024863465415390132 -0.0034982890305376418 0.0268701243365535 0 0 0
1415 1 0.0016 1600 0.002575792338133306 -0.0009726113238846251 0.031124720314465632 0 0 0
1416 1 0.0016 1600 -0.005730264026434185 -0.0043594576890547635 0.026919785282662784 0 0 0
1417 1 0.0016 1600 -0.0034136655518158155 -0.004467070068730605 0.028566111104096327 0 0 0
1418 1 0.0016 1600 -0.0013796049706965583 -0.0027204810646810993 0.025899660649984522 0 0 0
1419 1 0.0016 1600 -0.0028961112134169055 0.004976945718769165 0.02770577168470528 0 0 0
1420 1 0.0016 1600 0.003859584551377683 -0.0011702121669456078 0.027475705227525946 0 0 0
1421 1 0.0016 1600 0.002075922430127141 0.0038166147911016203 0.028227709508518252 0 0 0
1422 1 0.0016 1600 -0.000646452970220624 0.0064873445460252085 0.027993397330391554 0 0 0
1423 1 0.0016 1600 0.005610324895039155 -0.004512855107156234 0.029950373562393842 0 0 0
1424 1 0.0016 1600 0.006451249627948417 -0.003197805037087041 0.02716355441398893 0 0 0
1425 1 0.0016 1600 -0.0037853782186651583 3.44822710822205e-05 0.029390338263621273 0 0 0
1426 1 0.0016 1600 -0.0007193785369163619 -0.0006120710838273954 0.02493386182867379 0 0 0
1427 1 0.0016 1600 0.0007969519591467931 -0.0007755153326313895 0.024250850061167256 0 0 0
1428 1 0.0016 1600 -0.0024378196483704055 0.003810451326468576 0.02422912748410123 0 0 0
1429 1 0.0016 1600 0.005117247577725281 0.0024482054892989475 0.026986438579208565 0 0 0
1430 1 0.0016 1600 0.0006397130557058256 0.004271395029837121 0.026203375007721824 0 0 0
1431 1 0.0016 1600 0.0016874181046261233 -0.00144776230319022 0.02942252233892939 0 0 0
1432 1 0.0016 1600 -0.001985433449345556 0.006921118265638482 0.02875421316809023 0 0 0
1433 1 0.0016 1600 0.002411553315512642 -0.005981398426694725 0.02601538352005472 0 0 0
1434 1 0.0016 1600 -0.0020571180372327387 -0.0020181984017711816 0.027167547474536514 0 0 0
1435 1 0.0016 1600 -0.00024905063478852037 0.004754618709716391 0.027442857259529347 0 0 0
1436 1 0.0016 1600 -0.005265092230445906 0.002461830423445265 0.02472818527061222 0 0 0
1437 1 0.0016 1600 0.0009930881164795376 -0.0022768245579707293 0.028243626789963023 0 0 0
1438 1 0.0016 1600 -0.003698152249129412 0.0023714653784696763 0.02503850909028252 0 0 0
1439 1 0.0016 1600 0.001347427830452782 0.0056282860419624445 0.026669374949083845 0 0 0
1440 1 0.0016 1600 0.003984181251276006 -0.001260161996609632 0.030422187203461053 0 0 0
1441 1 0.0016 1600 0.004352336683382723 -0.004006578065166849 0.027740930321321536 0 0 0
1442 1 0.0016 1600 0.005738049539284766 0.004349514139077801 0.029384493677855214 0 0 0
1443 1 0.0016 1600 0.0015968581035405193 0.00702107610204294 0.03093307968925933 0 0 0
1444 1 0.0016 1600 -0.00328853282600964 0.002618979736443977 0.02974298810414431 0 0 0
1445 1 0.0016 1600 -0.0005025721017741666 -0.0026808345774745152 0.02723669653828773 0 0 0
1446 1 0.0016 1600 -0.005376468794566733 -0.0018617932310097162 0.024557525453879552 0 0 0
1447 1 0.0016 1600 0.006942274099733592 -0.0019091846225418928 0.023334157372430175 0 0 0
1448 1 0.0016 1600 0.004659419849883835 0.0039523627888101345 0.02669157268535128 0 0 0
1449 1 0.0016 1600 0.0035124332636969698 0.006285413166610394 0.028461966861721068 0 0 0
1450 1 0.0016 1600 0.002917292102134574 -0.004148741793163892 0.028433723018205525 0 0 0
1451 1 0.0016 1600 -0.0014336565061020886 -0.0016346502497218635 0.029773092368869186 0 0 0
1452 1 0.0016 1600 -0.0012514886758905521 -0.005656842726800513 0.02456470223946282 0 0 0
1453 1 0.0016 1600 -0.005504082829665893 0.0007921391776726917 0.029353883790526742 0 0 0
1454 1 0.0016 1600 -0.003280095083483166 0.006409549745913675 0.023527001363511168 0 0 0
1455 1 0.0016 1600 0.007116231242249837 -0.0010965762671441986 0.029869067520587815 0 0 0
1456 1 0.0016 1600 -0.002830355447963009 0.002211770569525737 0.028196226301478392 0 0 0
1457 1 0.0016 1600 -0.0014202961398947576 -0.007058996031930347 0.02752208079373685 0 0 0
1458 1 0.0016 1600 -0.002685852711736314 0.006680410229951146 0.027336328016915896 0 0 0
1459 1 0.0016 1600 0.007107974945068549 -0.0011518302146480783 0.02547720831053005 0 0 0
1460 1 0.0016 1600 -0.0028302564434200695 -0.005273214856961283 0.02731362955580034 0 0 0
1461 1 0.0016 1600 -0.004016577008278906 0.005771127018359574 0.029741537834747273 0 0 0
1462 1 0.0016 1600 0.0037985047030984066 0.0017700695141890004 0.030719881751901736 0 0 0
1463 1 0.0016 1600 0.002599766362363427 0.0067145235534985075 0.02971578776545751 0 0 0
1464 1 0.0016 1600 0.0038623253514260656 0.004947907467931595 0.027657024666568115 0 0 0
1465 1 0.0016 1600 -0.0008716534610782981 0.003335548060781002 0.027044640882113467 0 0 0
1466 1 0.0016 1600 -0.00382634399222516 -0.0036225290989473696 0.027271609617871943 0 0 0
1467 1 0.0016 1600 -0.0041319051698767584 0.004026947251749027 0.028065791502463237 0 0 0
1468 1 0.0016 1600 0.000614276622036914 -0.005113742573945239 0.02846964976951525 0 0 0
1469 1 0.0016 1600 0.005297406147742847 -0.002162940694193854 0.030282675495766395 0 0 0
1470 1 0.0016 1600 0.0011791844585513711 0.0004535838542490509 0.027016584727854513 0 0 0
1471 1 0.0016 1600 0.0062073905065064775 0.003648313392895028 0.026964633921713162 0 0 0
1472 1 0.0016 1600 -0.00701098441674262 -0.0002759395114845637 0.028053925408529357 0 0 0
1473 1 0.0016 1600 0.0019991767674207663 0.0031905509312149384 0.0250928600075964 0 0 0
1474 1 0.0016 1600 -0.00466611718828021 0.0031700090644062534 0.02603131014141795 0 0 0
1475 1 0.0016 1600 -0.0004426656450922707 0.0052296094066791275 0.028969015554222696 0 0 0
1476 1 0.0016 1600 0.0003711289645558041 0.001630586709697955 0.02782138871423456 0 0 0
1477 1 0.0016 1600 -0.004825201523198661 -0.005339224832412137 0.029660855963675743 0 0 0
1478 1 0.0016 1600 -0.0025988882474556312 -0.005390944134652457 0.030587970828128114 0 0 0
1479 1 0.0016 1600 -0.0020618146214041347 0.0007232162305385243 0.02706644538127169 0 0 0
1480 1 0.0016 1600 -0.0004619246527329488 -0.004114721621384399 0.02413242825766645 0 0 0
1481 1 0.0016 1600 -0.004967817327596375 -0.003683254721410714 0.024623373136328768 0 0 0
1482 1 0.0016 1600 0.0071900519115205876 -0.00037993839972501526 0.023733979567468998 0 0 0
1483 1 0.0016 1600 -0.0034740705404325933 0.0038548357650122463 0.030741810236677634 0 0 0
1484 1 0.0016 1600 -0.0007952389076503689 -0.005865109022798122 0.02838372365471318 0 0 0
1485 1 0.0016 1600 0.007078268579325579 -0.0007265985295260132 0.028313181484935626 0 0 0
1486 1 0.0016 1600 -0.0008116422231148209 -0.003165412581971846 0.03030019306106669 0 0 0
1487 1 0.0016 1600 -0.0011987596804418153 0.0016317213534004838 0.029302498749103026 0 0 0
1488 1 0.0016 1600 -0.003102181497670984 0.005382719114816208 0.031036917996296917 0 0 0
1489 1 0.0016 1600 -0.0023760528106775503 0.00048747131293254707 0.02861714875324702 0 0 0
1490 1 0.0016 1600 -0.0036818065725653863 -0.00430410880300064 0.030134789394936218 0 0 0
1491 1 0.0016 1600 -0.002671377004132429 -0.006686406955607244 0.026580570064784634 0 0 0
1492 1 0.0016 1600 0.001537764523226572 0.0020095739098591496 0.026794279639892164 0 0 0
1493 1 0.0016 1600 0.0008036809675657904 0.005823928972494467 0.02816114641166401 0 0 0
1494 1 0.0016 1600 -0.0007221930268552926 0.0024459244796923747 0.024750324353874056 0 0 0
1495 1 0.0016 1600 0.0010460536119249431 -0.006119072968200031 0.02519428846228957 0 0 0
1496 1 0.0016 1600 -0.003560514954320585 0.0008822227713824048 0.027602972091440657 0 0 0
1497 1 0.0016 1600 0.003378544737342588 -0.006358229264683239 0.03082650212391248 0 0 0
1498 1 0.0016 1600 0.0019095375933124957 0.003898450939223583 0.029900722753827793 0 0 0
1499 1 0.0016 1600 0.005012154385020197 -0.005169322697520404 0.02861963240871446 0 0 0
1500 1 0.0016 1600 0.00436200972696148 0.0038019742323446093 0.030201829221073406 0 0 0
1501 1 0.0016 1600 -0.004930382038003316 -0.0026806946243117685 0.025869630990411622 0 0 0
1502 1 0.0016 1600 0.004173075767989002 -0.0037914369145708605 0.029358304273037244 0 0 0
1503 1 0.0016 1600 -0.0013158816445701246 0.0019662897545663894 0.027742448911396378 0 0 0
1504 1 0.0016 1600 7.085744696922582e-06 0.0072000714703242315 0.030929358252117314 0 0 0
1505 1 0.0016 1600 0.0027844830593255782 -0.004194723673815912 0.03011788272071962 0 0 0
1506 1 0.0016 1600 0.0057598829101393 -0.0012700816135648052 0.029038403921369537 0 0 0
1507 1 0.0016 1600 0.0007913635794006037 0.007156689870815783 0.027276249352684707 0 0 0
1508 1 0.0016 1600 0.003886134669471931 -0.0010618025697859757 0.02491200429449696 0 0 0
1509 1 0.0016 1600 -0.005810017267220436 0.001364729529247436 0.02575713125028975 0 0 0
1510 1 0.0016 1600 -0.0011734303856528285 -0.005695618517395729 0.029928782805131372 0 0 0
1511 1 0.0016 1600 -0.0022064862861772418 0.0018499054280624832 0.024787859443343566 0 0 0
1512 1 0.0016 1600 0.0023752773497976026 -0.0005204740555650748 0.02758848459603214 0 0 0
1513 1 0.0016 1600 -0.004640570422506649 -0.000206150021199776 0.028059679028803002 0 0 0
1514 1 0.0016 1600 -0.006357361935811692 -0.002263418728644765 0.026460468133852402 0 0 0
1515 1 0.0016 1600 -0.000512347548705594 0.0009013638879893999 0.02670451867402776 0 0 0
1516 1 0.0016 1600 0.004384712656230311 0.00376773447133477 0.028602427941138656 0 0 0
1517 1 0.0016 1600 0.0054332779853980195 0.004724787954300264 0.02785953778889655 0 0 0
1518 1 0.0016 1600 -2.0479375524004716e-05 -0.004309041091096436 0.026990544594287184 0 0 0
1519 1 0.0016 1600 0.003589365370503797 0.003104901179866493 0.024313337568516957 0 0 0
1520 1 0.0016 1600 0.0020552275459286037 0.006900847040687243 0.028222953048981075 0 0 0
1521 1 0.0016 1600 0.0020170905915128136 -0.0052512809062743564 0.027702589312200817 0 0 0
1522 1 0.0016 1600 -0.0044307598204404676 0.005675669358054726 0.024361712795287118 0 0 0
1523 1 0.0016 1600 -0.004121867966714915 0.0059036569199264 0.028150594232850677 0 0 0
1524 1 0.0016 1600 -0.007189448747312805 0.0003908740116224984 0.029497083255469386 0 0 0
1525 1 0.0016 1600 -0.00013688163258896975 -0.001231653606389665 0.02780762343437123 0 0 0
1526 1 0.0016 1600 0.0029376401351002036 -0.006573861025798366 0.029303734556785106 0 0 0
1527 1 0.0016 1600 0.006033942175849421 0.001558501977790044 0.02794944464601187 0 0 0
1528 1 0.0016 1600 0.000689876990589245 0.001212970904720651 0.02569620848151358 0 0 0
1529 1 0.0016 1600 0.005670510829579947 0.004437354048607436 0.025550969161070115 0 0 0
1530 1 0.0016 1600 0.006693491265173215 0.00265301227829308 0.03149992379262649 0 0 0
1531 1 0.0016 1600 0.004540866186294335 -0.002408922500180177 0.025473780549409557 0 0 0
1532 1 0.0016 1600 0.0013561287806296523 2.7089356574111283e-05 0.029946101088065332 0 0 0
1533 1 0.0016 1600 -0.0038644075737907105 0.006075156546578871 0.02643998446794269 0 0 0
1534 1 0.0016 1600 0.0010105051659303503 -0.00029885823397371604 0.02841834776077869 0 0 0
1535 1 0.0016 1600 -0.002054488196089397 -0.004455352386057122 0.029409880422574534 0 0 0
1536 1 0.0016 1600 0.0022596347427108025 0.0006747979021178862 0.028645238127491136 0 0 0
1537 1 0.0016 1600 0.006500642992063095 -0.0030960954525529522 0.029792653321782332 0 0 0
1538 1 0.0016 1600 -0.0042151956923641605 -0.00316828792097614 0.029045902844129733 0 0 0
1539 1 0.0016 1600 0.002871732210563058 -0.0003985525144838864 0.02966114768293798 0 0 0
1540 1 0.0016 1600 -0.0015656432101461381 0.00557336892812085 0.027047866811624594 0 0 0
1541 1 0.0016 1600 0.004970321406313517 0.0008678153877674082 0.02678595609336266 0 0 0
1542 1 0.0016 1600 0.006509894330796302 0.0030762102257077314 0.025501859541346383 0 0 0
1543 1 0.0016 1600 0.0038619162094934516 0.0003886172500481783 0.027835460742443124 0 0 0
1544 1 0.0016 1600 0.006865184463273398 0.0021706257426083 0.02920155405022704 0 0 0
1545 1 0.0016 1600 0.0029146057260123013 0.0030967789026608897 0.03085287512541578 0 0 0
1546 1 0.0016 1600 -0.0005538666731201958 -0.002583368314537782 0.02883243978002894 0 0 0
1547 1 0.0016 1600 0.0038450976790731957 -0.005318577000311729 0.02970365914436375 0 0 0
1548 1 0.0016 1600 -0.005841313487022611 0.0042094945522181 0.024807742808012626 0 0 0
1549 1 0.0016 1600 0.004496692903103414 -0.0025217140100685857 0.02844072394999207 0 0 0
1550 1 0.0016 1600 0.0005784109658532679 -0.005809013134405407 0.02991007211207625 0 0 0
1551 1 0.0016 1600 -0.005113307748426558 0.0012784464193677733 0.027696538874821746 0 0 0
1552 1 0.0016 1600 -0.0016052454882936574 -0.007018942747161854 0.029139996278044433 0 0 0
1553 1 0.0016 1600 -0.004208131944288794 -0.005842392871746103 0.028273187731664363 0 0 0
1554 1 0.0016 1600 -0.0027799393048425582 -0.0031879499431190675 0.025284079412863356 0 0 0
1555 1 0.0016 1600 0.004273070965605473 -0.0006874311668688283 0.02894544516717213 0 0 0
1556 1 0.0016 1600 0.003993610175215867 -0.005991260368660916 0.02577955988339365 0 0 0
1557 1 0.0016 1600 -0.0059610568215557515 0.00016206166188509547 0.026925546551029567 0 0 0
1558 1 0.0016 1600 0.005113987936033488 -0.003598650428783619 0.026382693120279053 0 0 0
1559 1 0.0016 1600 0.00027062985808102544 0.002732058682180432 0.025971876801443607 0 0 0
1560 1 0.0016 1600 0.0033714722028751845 0.0035395118787279857 0.02583740784840428 0 0 0
1561 1 0.0016 1600 -0.006106755471057152 0.003814648199982224 0.027971563240504566 0 0 0
1562 1 0.0016 1600 -0.004526337506636733 0.003616052408753937 0.02956074671349698 0 0 0
1563 1 0.0016 1600 0.003966717192165732 0.001973772209590035 0.028024243894512146 0 0 0
1564 1 0.0016 1600 -0.004620299311035161 -0.0013238242317447143 0.02691517052054051 0 0 0
1565 1 0.0016 1600 -0.001175771389669751 0.0059130583578492655 0.030225822569630686 0 0 0
1566 1 0.0016 1600 -0.0012788026500395154 -4.707124193743212e-05 0.029651455153059326 0 0 0
1567 1 0.0016 1600 -0.0024235960503891773 -0.0028894443872081606 0.02969998080148717 0 0 0
1568 1 0.0016 1600 0.005264587136283439 0.001986531767413028 0.031771453699211014 0 0 0
1569 1 0.0016 1600 -0.0014255753144003067 -0.007057620052453695 0.030729231500857438 0 0 0
1570 1 0.0016 1600 -0.006954110080345474 -0.0018663124660910579 0.027890610337931186 0 0 0
1571 1 0.0016 1600 -0.005236626809075531 0.004941567134883472 0.030547450081164555 0 0 0
1572 1 0.0016 1600 0.0011303177155670202 -0.004419216419193612 0.03222219063039805 0 0 0
1573 1 0.0016 1600 -0.004144220036513676 0.0015284052757798185 0.02894477673681011 0 0 0
1574 1 0.0016 1600 0.00021961085507590333 -0.0013879945770127451 0.03242276164886652 0 0 0
1575 1 0.0016 1600 -0.0025646818518456874 0.0012204845625441933 0.03002646310709269 0 0 0
1576 1 0.0016 1600 -0.0015633119237404899 -0.00559928789174098 0.03178950119958999 0 0 0
1577 1 0.0016 1600 -0.0013309919476668915 0.004019240974689958 0.028416186877668753 0 0 0
1578 1 0.0016 1600 0.0043228760266219345 0.0037255877625576904 0.03336992697529945 0 0 0
1579 1 0.0016 1600 0.0026978084852396387 -0.0011040706329604386 0.034233038671896684 0 0 0
1580 1 0.0016 1600 -0.0046971427018160155 0.0033229500021445387 0.03269700479909034 0 0 0
1581 1 0.0016 1600 -0.007199194661627938 -0.00011958224004014634 0.031031737606917263 0 0 0
1582 1 0.0016 1600 0.001412123220766771 -0.003803773905278685 0.028015650428783633 0 0 0
1583 1 0.0016 1600 -0.007096384125759198 -0.0012178074496047024 0.032265744556320156 0 0 0
1584 1 0.0016 1600 -0.0040990082611487184 -0.00172862108091989 0.0317481262586981 0 0 0
1585 1 0.0016 1600 -0.0028019073040205667 0.0006936548485670522 0.033166034095456945 0 0 0
1586 1 0.0016 1600 -0.0008134850255714529 0.0005120219200316823 0.028226628245193914 0 0 0
1587 1 0.0016 1600 -0.0034679068958658895 0.00042572026945240227 0.031613837371088714 0 0 0
1588 1 0.0016 1600 -0.0053384193977751545 -0.002007655652954308 0.0300248559856241 0 0 0
1589 1 0.0016 1600 0.0008349348283276251 0.0021227196326311956 0.03358227712682107 0 0 0
1590 1 0.0016 1600 0.004420768119279998 0.002128838515774936 0.03338896622116546 0 0 0
1591 1 0.0016 1600 0.005065992753716471 0.005116319560106237 0.030781991648952386 0 0 0
1592 1 0.0016 1600 -0.0023280298239854594 -0.003275554645016636 0.033013350050793804 0 0 0
1593 1 0.0016 1600 -0.0002627915059696246 0.002344654414603284 0.030386876290556867 0 0 0
1594 1 0.0016 1600 0.004370334743311708 0.00028894176391833936 0.030523885230565113 0 0 0
1595 1 0.0016 1600 -0.0057362346969918 -0.0005452545541950544 0.031758638977073525 0 0 0
1596 1 0.0016 1600 8.362091796925432e-05 0.0024979234472929626 0.03194124319107413 0 0 0
1597 1 0.0016 1600 0.00345574227102846 -0.002769935914110704 0.03039825345670771 0 0 0
1598 1 0.0016 1600 0.003811548674249006 0.0007482873276200197 0.0319509495800588 0 0 0
1599 1 0.0016 1600 0.0026299345259657224 0.006702545154552315 0.03332002224721426 0 0 0
1600 1 0.0016 1600 -4.02673977602384e-05 -0.007200038516449634 0.02941841239554286 0 0 0
1601 1 0.0016 1600 0.007100078989385462 -0.0011954960121079007 0.032292162065904545 0 0 0
1602 1 0.0016 1600 0.0038646938139849023 -0.003269801893948163 0.03396900640039833 0 0 0
1603 1 0.0016 1600 -0.0008844497610533606 -0.007145565358244196 0.03223221632825407 0 0 0
1604 1 0.0016 1600 0.0011355370896860228 -0.00236830142033989 0.0340751940966736 0 0 0
1605 1 0.0016 1600 0.007064019307180229 0.0013933633958504946 0.03058569206904198 0 0 0
1606 1 0.0016 1600 0.005473421601300763 -0.0034759635175353803 0.033361054474917745 0 0 0
1607 1 0.0016 1600 0.003680819692311755 0.0010348139443013703 0.02928777305319739 0 0 0
1608 1 0.0016 1600 -0.006655773009019552 -0.0027464194627228092 0.02949736058256687 0 0 0
1609 1 0.0016 1600 -0.0031788920684102 -0.0007688012932114497 0.03263799027959934 0 0 0
1610 1 0.0016 1600 -0.005752886121123633 0.00101367749638029 0.03297099620970243 0 0 0
1611 1 0.0016 1600 -0.0015117258520171697 -0.005534929138611527 0.03386515050451499 0 0 0
1612 1 0.0016 1600 0.0020521220076339048 -0.005465812024519837 0.030890120517309362 0 0 0
1613 1 0.0016 1600 0.00524747753917036 -0.000989045704439552 0.03136848470273769 0 0 0
1614 1 0.0016 1600 -0.00705485136704913 0.0014386018942817832 0.03069851478276613 0 0 0
1615 1 0.0016 1600 -0.004979424053060335 0.003471536511494157 0.031123930198060083 0 0 0
1616 1 0.0016 1600 0.0046380123393866095 0.005507256132859838 0.02929072019274142 0 0 0
1617 1 0.0016 1600 0.004545771282215895 0.0023999795486444827 0.029453281908579373 0 0 0
1618 1 0.0016 1600 0.0004332314176703837 -0.0033187633469311784 0.03129345515556466 0 0 0
1619 1 0.0016 1600 -0.003465478599860267 -0.004618078612860293 0.0316886165847804 0 0 0
1620 1 0.0016 1600 0.0016415683420322477 -0.00701040275061491 0.030134156811638276 0 0 0
1621 1 0.0016 1600 -7.247217404311014e-05 0.0071997699244333415 0.03252715238299085 0 0 0
1622 1 0.0016 1600 0.002935281465778368 -0.002347001267736019 0.03186028408607483 0 0 0
1623 1 0.0016 1600 -0.005467490648384858 0.000810596080631849 0.030953142477257736 0 0 0
1624 1 0.0016 1600 -0.0037546159889071855 0.0025669025212795788 0.031648443562507254 0 0 0
1625 1 0.0016 1600 -0.004997126772121128 -0.004452171697727665 0.028338588180652713 0 0 0
1626 1 0.0016 1600 -0.005343429840692506 0.002109141424000237 0.03187929290946908 0 0 0
1627 1 0.0016 1600 0.0006537976520600126 0.004065674711722182 0.028916815472629732 0 0 0
1628 1 0.0016 1600 -0.0011132021524148388 0.005084805891424273 0.033894206431737746 0 0 0
1629 1 0.0016 1600 0.0005935970306552989 0.004330445300741932 0.030748664057049544 0 0 0
1630 1 0.0016 1600 -0.0023721735701922133 0.0017726782474174923 0.03151555439654701 0 0 0
1631 1 0.0016 1600 0.004170682730968842 -0.003748675411513429 0.03247341087380748 0 0 0
1632 1 0.0016 1600 -0.006365560166109384 -0.0033648608561438207 0.030944020281289654 0 0 0
1633 1 0.0016 1600 -0.002928736705227433 0.006577577235775701 0.032086451432426374 0 0 0
1634 1 0.0016 1600 0.00452056917537209 -0.002417616593110904 0.03165772153989821 0 0 0
1635 1 0.0016 1600 -0.005598282470150119 0.004527986884152958 0.032153558665822556 0 0 0
1636 1 0.0016 1600 0.0031995614170397444 -0.0018626029276941523 0.02910563075571981 0 0 0
1637 1 0.0016 1600 0.0014119940090263736 0.006316027963395394 0.03235725422046872 0 0 0
1638 1 0.0016 1600 0.004522922401745865 -4.0668730567225765e-05 0.03314737640924137 0 0 0
1639 1 0.0016 1600 0.00549060461757912 0.001409772274819258 0.03029636099474959 0 0 0
1640 1 0.0016 1600 -0.0051765337271192985 0.005004417198380884 0.028949989656736248 0 0 0
1641 1 0.0016 1600 0.005529421106162196 -0.001401255099671456 0.03437147042175646 0 0 0
1642 1 0.0016 1600 -0.006426073183642795 -0.0032476181566166522 0.03253836567057981 0 0 0
1643 1 0.0016 1600 0.0038322285568960055 -0.0010463381474864202 0.03211237239241948 0 0 0
1644 1 0.0016 1600 -0.0049906540634302625 -0.002636029976874015 0.027751702191273604 0 0 0
1645 1 0.0016 1600 0.006087726622090601 -0.00365107098287347 0.031235270626053205 0 0 0
1646 1 0.0016 1600 0.0039813709361479 -0.00599912791605402 0.032306258991358895 0 0 0
1647 1 0.0016 1600 -0.005402494960864012 -0.0047596102596359335 0.031035854192252594 0 0 0
1648 1 0.0016 1600 -0.002424626865634659 -0.0018054550880864514 0.03101726193485024 0 0 0
1649 1 0.0016 1600 -0.0016077748915302905 0.007018350115581746 0.031298704812023036 0 0 0
1650 1 0.0016 1600 0.0024844922799253403 0.004842854153735713 0.032271268577611846 0 0 0
1651 1 0.0016 1600 -0.004631076327241008 0.0008571261828282775 0.03410086430725248 0 0 0
1652 1 0.0016 1600 -0.0019528042911092782 -0.0017921859984760845 0.03254591981906445 0 0 0
1653 1 0.0016 1600 0.00017314835122412411 0.0058071942456830745 0.03327537765135063 0 0 0
1654 1 0.0016 1600 0.004530402077003365 -0.0038356584095579405 0.030917052660997365 0 0 0
1655 1 0.0016 1600 -0.0031883925102902375 -0.0030425004790012276 0.031684794307725576 0 0 0
1656 1 0.0016 1600 0.006821057292709754 -0.0023059369832083296 0.02843894453289109 0 0 0
1657 1 0.0016 1600 -0.000448449708605984 -0.0017858224814518257 0.03102448516154171 0 0 0
1658 1 0.0016 1600 -0.007185426591338719 0.00046023853769973784 0.032522706242279764 0 0 0
1659 1 0.0016 1600 -0.002479357668990571 -0.0011750705444810016 0.03401831511912391 0 0 0
1660 1 0.0016 1600 0.002589812156001521 -0.0024760915024003237 0.033417092738926873 0 0 0
1661 1 0.0016 1600 0.007175021875117571 0.000601221824273714 0.029200020411763162 0 0 0
1662 1 0.0016 1600 0.0006043793577880267 -0.005750956906590192 0.03150865455354177 0 0 0
1663 1 0.0016 1600 0.0040001375855677245 -0.0017321467344367657 0.03354806599059711 0 0 0
1664 1 0.0016 1600 -0.005913704970357086 -0.0005219621205126541 0.03016881274928404 0 0 0
1665 1 0.0016 1600 -0.003039236519806097 0.0028962278514879257 0.03304107227863016 0 0 0
1666 1 0.0016 1600 -0.004766516798102482 -0.005396440743768707 0.03237488665507632 0 0 0
1667 1 0.0016 1600 -0.003458126117395633 -0.006315299796486123 0.029604803634040496 0 0 0
1668 1 0.0016 1600 0.001961402758785744 -0.00692774161708256 0.03362275269000497 0 0 0
1669 1 0.0016 1600 -0.0027442008566436484 0.006656600549777538 0.03013763901338938 0 0 0
1670 1 0.0016 1600 0.006887011557744755 0.0021003588443216513 0.03305209615554401 0 0 0
1671 1 0.0016 1600 -0.004148078353295597 0.001407532113209217 0.032678335142717944 0 0 0
1672 1 0.0016 1600 0.00010527957369740899 -0.003519417235656806 0.03336073500307626 0 0 0
1673 1 0.0016 1600 0.0058633585579094295 0.0029600792505103126 0.030167138535068486 0 0 0
1674 1 0.0016 1600 -0.007010317407849677 0.0016420879629890212 0.03373496183060708 0 0 0
1675 1 0.0016 1600 -0.0011331087861440885 -0.002473729476844803 0.03373896583469623 0 0 0
1676 1 0.0016 1600 -0.005538677498438442 -0.004600515659468646 0.03352821291568461 0 0 0
1677 1 0.0016 1600 -0.0003355510037125546 -0.005755505145547069 0.03280327592864773 0 0 0
1678 1 0.0016 1600 0.0019680500029676277 -0.005301567658954585 0.02930088768419331 0 0 0
1679 1 0.0016 1600 0.006953359166178386 -0.001868446470927719 0.03373623664834623 0 0 0
1680 1 0.0016 1600 0.0010308904061767353 0.0071258677938762435 0.03368339392348533 0 0 0
1681 1 0.0016 1600 -0.0049538641649182966 -0.0038113521627296623 0.032265360247432075 0 0 0
1682 1 0.0016 1600 0.0010239700956763082 0.0014288258386789359 0.030641749336803276 0 0 0
1683 1 0.0016 1600 -0.0063143436912377815 -0.0034605212588847065 0.02810717198320153 0 0 0
1684 1 0.0016 1600 0.0014885551073567191 0.0009476364235499115 0.032715218840356386 0 0 0
1685 1 0.0016 1600 0.0011432188716647962 -0.0016843168554731471 0.031150412882936015 0 0 0
1686 1 0.0016 1600 -0.0012350353997488813 -0.007093318234122045 0.03457546767199552 0 0 0
1687 1 0.0016 1600 0.005869274817750159 -0.00013884970796119688 0.03016416176990857 0 0 0
1688 1 0.0016 1600 -5.248774424124221e-05 -0.0012995669863971758 0.033996927729409626 0 0 0
1689 1 0.0016 1600 0.0060770114391697026 -0.00040990090802452286 0.03324132247298681 0 0 0
1690 1 0.0016 1600 -0.002087252030182756 -0.003910613036021323 0.030914285645029873 0 0 0
1691 1 0.0016 1600 -0.000216710125657729 -0.004617140303414715 0.030622034142158517 0 0 0
1692 1 0.0016 1600 0.005330130451939695 0.004840766616263889 0.03282087794762959 0 0 0
1693 1 0.0016 1600 0.0057157284768398825 0.002790249744846072 0.034056263879855296 0 0 0
1694 1 0.0016 1600 -0.0040406607608581184 -0.0027225953171453295 0.033000470455609 0 0 0
1695 1 0.0016 1600 -0.0010638581434512509 -0.004338235802489654 0.03263794026413925 0 0 0
1696 1 0.0016 1600 0.0038239937406386293 0.0061006364783342615 0.03419847227752205 0 0 0
1697 1 0.0016 1600 0.0004214431566621876 0.0058422252540703615 0.030168095533608937 0 0 0
1698 1 0.0016 1600 0.0006323574295837501 -0.0025491720051705443 0.029905180835085518 0 0 0
1699 1 0.0016 1600 0.0017325394222715846 0.005428194930190181 0.030986190113125194 0 0 0
1700 1 0.0016 1600 -0.0007726984970375235 -0.0028217137056420413 0.032219548306753505 0 0 0
1701 1 0.0016 1600 -0.0014017322769059044 -0.004517980365874707 0.02777010800337894 0 0 0
1702 1 0.0016 1600 0.0026276879804912486 0.0006076612033138542 0.030880816594546077 0 0 0
1703 1 0.0016 1600 -0.004101365065758631 -0.001344764325015425 0.033811430878142076 0 0 0
1704 1 0.0016 1600 5.968094806506108e-05 -0.0011458285346017548 0.029392990566229325 0 0 0
1705 1 0.0016 1600 0.007169364256026887 0.0006651065704540487 0.03369991596753441 0 0 0
1706 1 0.0016 1600 -0.005643367546756736 -0.00214032158179796 0.03167753964212199 0 0 0
1707 1 0.0016 1600 0.0010269335976536129 -0.007126412305375664 0.032339432385554846 0 0 0
1708 1 0.0016 1600 0.0040147234298960124 0.0044717146961418255 0.03198866466974556 0 0 0
1709 1 0.0016 1600 -0.0011259731595207947 0.001061003603195591 0.030795300958423484 0 0 0
1710 1 0.0016 1600 -0.0017465083692546435 0.003835473070125962 0.03312106964217863 0 0 0
1711 1 0.0016 1600 0.0016008455077521635 4.271144839216195e-05 0.03402983874767457 0 0 0
1712 1 0.0016 1600 -0.001392649249855584 -0.0005697627868755475 0.03145987186328387 0 0 0
1713 1 0.0016 1600 -0.002716450313097351 -0.00482587825739889 0.03308696162052631 0 0 0
1714 1 0.0016 1600 0.00290391540145156 0.006588444339614683 0.03174789712134317 0 0 0
1715 1 0.0016 1600 0.0033589670935865127 -0.004767337578932954 0.03149690212845739 0 0 0
1716 1 0.0016 1600 -0.001706686855704789 0.0005382848601732478 0.03432194683469612 0 0 0
1717 1 0.0016 1600 0.0029595169779243866 0.001514220447004526 0.03317316088629213 0 0 0
1718 1 0.0016 1600 -0.00391885160073604 0.006040247397193689 0.03322258294381553 0 0 0
1719 1 0.0016 1600 -0.004061189310426919 0.0014536320867897514 0.03054116002073965 0 0 0
1720 1 0.0016 1600 -0.0003428363698818086 0.005556324398525138 0.03154433495148325 0 0 0
1721 1 0.0016 1600 -0.003762648694703584 -0.0021926367512803578 0.03023030758757479 0 0 0
1722 1 0.0016 1600 -0.0024590764740563768 0.006767101788323248 0.033604064215527356 0 0 0
1723 1 0.0016 1600 -0.0033477284176082573 0.001809663140354827 0.03417421716985776 0 0 0
1724 1 0.0016 1600 -0.0009275331076552302 0.00714004090661247 0.033878086123999486 0 0 0
1725 1 0.0016 1600 -0.0013150134592213153 0.006198349115798217 0.032640976045701466 0 0 0
1726 1 0.0016 1600 0.0020252445255591976 0.002219662797030635 0.0283033662828079 0 0 0
1727 1 0.0016 1600 0.00020369300806782697 -0.0071971623158243216 0.027837461496744553 0 0 0
1728 1 0.0016 1600 -0.001788032253146025 0.004908804251340732 0.031820626141143116 0 0 0
1729 1 0.0016 1600 0.0010384864521415225 0.007124846337445794 0.029437480635255097 0 0 0
1730 1 0.0016 1600 0.0019343800199315725 -0.003034879629706069 0.030819016356244233 0 0 0
1731 1 0.0016 1600 -0.004422373717929728 -0.0005225208656016112 0.030748036679724346 0 0 0
1732 1 0.0016 1600 0.0008851350306600184 0.004809418234089102 0.03224704996837823 0 0 0
1733 1 0.0016 1600 -0.00289896178806783 -0.0012878857847103105 0.029232670311050417 0 0 0
1734 1 0.0016 1600 0.003827202791196881 0.00609864397617479 0.030536641163025034 0 0 0
1735 1 0.0016 1600 0.004742301294056261 -0.005417812677941451 0.03102451303521008 0 0 0
1736 1 0.0016 1600 0.006630443803725967 -0.002807182201389612 0.032481556231111215 0 0 0
1737 1 0.0016 1600 9.06298626233106e-05 0.004015620904222741 0.03338652085211994 0 0 0
1738 1 0.0016 1600 -0.007033708096568455 0.001540790718862383 0.026771856317306802 0 0 0
1739 1 0.0016 1600 0.0013341167162942357 0.0029445271112220834 0.0310489016944292 0 0 0
1740 1 0.0016 1600 0.0012938196494419153 0.003305154779552057 0.032607136828456694 0 0 0
1741 1 0.0016 1600 0.0009292742670301695 -0.005195118039538906 0.03360686992599986 0 0 0
1742 1 0.0016 1600 0.002770340309637032 -4.5384630227411387e-05 0.03287059403787369 0 0 0
1743 1 0.0016 1600 -0.006376066266390682 0.003344731090700397 0.03289815326210706 0 0 0
1744 1 0.0016 1600 0.0018865274072405618 -0.001332858730376759 0.032522897035124905 0 0 0
1745 1 0.0016 1600 0.002330977638763695 0.001912937159367097 0.031757037578381386 0 0 0
1746 1 0.0016 1600 -0.0017865090271382232 0.002814162755853178 0.03025740414569087 0 0 0
1747 1 0.0016 1600 -0.006517252497043957 0.0030605587060864117 0.030962953946037226 0 0 0
1748 1 0.0016 1600 -0.0004760205042486563 0.003995904774972186 0.031890418622864604 0 0 0
1749 1 0.0016 1600 -0.000560363465020926 0.007178232543955216 0.029433832965955347 0 0 0
1750 1 0.0016 1600 0.003961072722608478 0.0028736246747751034 0.03204229522131565 0 0 0
1751 1 0.0016 1600 0.003765408254073549 -0.004923727006454782 0.03348060451162169 0 0 0
1752 1 0.0016 1600 0.0031856827952232683 0.004709600517433377 0.029086846770549058 0 0 0
1753 1 0.0016 1600 -0.0022606011374093227 0.003387314225246716 0.03167382833058561 0 0 0
1754 1 0.0016 1600 0.0025651340746790756 -0.006727722056001579 0.03215360193022862 0 0 0
1755 1 0.0016 1600 -0.005417089887149417 -0.003021997597672602 0.033759247143482496 0 0 0
1756 1 0.0016 1600 -0.0014353207450030477 0.0007695522043093597 0.03233760726660723 0 0 0
1757 1 0.0016 1600 0.005625109181291858 0.0011178180635553147 0.03309422826962657 0 0 0
1758 1 0.0016 1600 0.0009831092398743353 -0.004087422862897723 0.029640287284853132 0 0 0
1759 1 0.0016 1600 -0.004775258983200973 -0.0033147853674837654 0.03075511337369309 0 0 0
1760 1 0.0016 1600 -0.0027380537578976373 -0.0066592805329554385 0.03155295828831264 0 0 0
1761 1 0.0016 1600 -0.004127803130027086 -0.005899509866265648 0.030996936625029337 0 0 0
1762 1 0.0016 1600 -0.0035461374717630665 0.0044175847427059215 0.032237719837401244 0 0 0
1763 1 0.0016 1600 -0.005888154494704263 -0.0041438397063214985 0.029630890431443294 0 0 0
1764 1 0.0016 1600 0.0035512850101250626 -0.005634877068465521 0.028163095114533774 0 0 0
1765 1 0.0016 1600 -0.002038048112082778 0.00534212362771903 0.02900532651629663 0 0 0
1766 1 0.0016 1600 0.00014366641100668268 -0.007198716290619619 0.031007524426902664 0 0 0
1767 1 0.0016 1600 0.00025646575449474467 3.019166987506519e-05 0.03316251059562633 0 0 0
1768 1 0.0016 1600 0.002091619531235035 -0.003010200434552288 0.029227157886177798 0 0 0
1769 1 0.0016 1600 0.006266825285867091 0.003545358615013885 0.03275788386747038 0 0 0
1770 1 0.0016 1600 0.005804706677404379 0.0004867580653255186 0.03163516385941342 0 0 0
1771 1 0.0016 1600 -0.002824741834525884 0.003949259244093053 0.02898493345377375 0 0 0
1772 1 0.0016 1600 0.005454506312225991 -0.004699847039284729 0.03226429099323783 0 0 0
1773 1 0.0016 1600 -0.0012369036195920412 -0.0005390507006146801 0.033236361026576275 0 0 0
1774 1 0.0016 1600 0.0030859890971436515 0.0030568310421206805 0.02920851794795446 0 0 0
1775 1 0.0016 1600 -0.0035314320791874692 -0.00627450051136161 0.032887904090119546 0 0 0
1776 1 0.0016 1600 -0.006600973219639348 0.001253048858136065 0.028284595268699534 0 0 0
1777 1 0.0016 1600 0.0012885207429749563 -0.00011728424348583751 0.03153808097708315 0 0 0
1778 1 0.0016 1600 -0.005387481867173445 0.002262209742881206 0.030159321017244226 0 0 0
1779 1 0.0016 1600 0.003111351950865829 0.004675437385182689 0.030684367539792087 0 0 0
1780 1 0.0016 1600 -0.000566138664722512 0.001351053781760757 0.033548386058961606 0 0 0
1781 1 0.0016 1600 0.005280489958663174 0.0036237973527916455 0.03150086734248961 0 0 0
1782 1 0.0016 1600 0.006027969664328679 -0.003937774440044205 0.028517099598094977 0 0 0
1783 1 0.0016 1600 -0.0003141359346831683 0.0028033176298241673 0.028666967802899974 0 0 0
1784 1 0.0016 1600 0.005426855237503864 -0.0018120681096561269 0.03282860021892545 0 0 0
1785 1 0.0016 1600 0.0002740213012593118 0.0010069592386147878 0.0292915420366469 0 0 0
1786 1 0.0016 1600 -0.007096731547963513 -0.0012161198774195804 0.029345503053415035 0 0 0
1787 1 0.0016 1600 -0.005530013399348135 -0.0014046648832645489 0.033093690721390796 0 0 0
1788 1 0.0016 1600 -0.001365562690686067 0.0023692140950154037 0.032606626588524236 0 0 0
1789 1 0.0016 1600 -0.002041631560373462 0.004425935990038931 0.03031665467828223 0 0 0
1790 1 0.0016 1600 -0.0019089722431167326 0.002506000937354766 0.03410517195103584 0 0 0
1791 1 0.0016 1600 -0.0069537924868093934 -0.0018667844334532703 0.030800153507080482 0 0 0
1792 1 0.0016 1600 0.007199314787079043 -0.00010726351312742051 0.031123602571924695 0 0 0
1793 1 0.0016 1600 -0.0044935433588067794 0.00562589248085645 0.03178806604229412 0 0 0
1794 1 0.0016 1600 9.061271529656095e-05 0.0009019071345497367 0.031831260584161934 0 0 0
1795 1 0.0016 1600 0.006868012989815263 -0.0021607881208660297 0.03103752475678819 0 0 0
1796 1 0.0016 1600 0.001290944345590789 -0.002817552425154854 0.032547498171061465 0 0 0
1797 1 0.0016 1600 0.002571175083984938 -0.003774922219069728 0.03248306589343549 0 0 0
1798 1 0.0016 1600 -0.00688225811595035 -0.002115482964646517 0.03357268451234265 0 0 0
1799 1 0.0016 1600 -0.002097171957639328 -0.00688788287561744 0.03324344359266515 0 0 0
1800 1 0.0016 1600 0.001958435645707207 0.006345415558317743 0.034727638018561456 0 0 0
1801 1 0.0016 1600 0.0016573669481917091 0.00528611726767513 0.033566986216279515 0 0 0
1802 1 0.0016 1600 -0.004073154673151564 -0.0027994850275086503 0.03459825971097465 0 0 0
1803 1 0.0016 1600 -0.0001566529429562324 -0.0045329885425586785 0.034577356940809274 0 0 0
1804 1 0.0016 1600 -0.00462566990544643 -0.00011230394441566103 0.03282575220497789 0 0 0
1805 1 0.0016 1600 0.0071751912498306866 -0.0005975277309658049 0.03468246308137294 0 0 0
1806 1 0.0016 1600 0.005415893142690855 0.00035190358764738966 0.03448325101622567 0 0 0
1807 1 0.0016 1600 -0.003306429101977516 8.425309541126197e-05 0.034556683331198955 0 0 0
1808 1 0.0016 1600 -0.005756668185961299 -0.0017323928450685936 0.03464323975577406 0 0 0
1809 1 0.0016 1600 0.0028176032142967255 0.0032598328011544967 0.033092490614531775 0 0 0
1810 1 0.0016 1600 -0.004016955500533429 -0.004148083314564497 0.03372653994397969 0 0 0
1811 1 0.0016 1600 0.004393817486710901 0.0057039117902822215 0.0356398957155942 0 0 0
1812 1 0.0016 1600 -0.004754480429307814 0.004704734831347284 0.03350139965435698 0 0 0
1813 1 0.0016 1600 0.00693482205007639 0.0019361611585997647 0.03464289056700488 0 0 0
1814 1 0.0016 1600 0.0048476012792934885 0.004879799188926354 0.03434577837880215 0 0 0
1815 1 0.0016 1600 -0.0023625766773647133 0.005633885923441891 0.034729369523249135 0 0 0
1816 1 0.0016 1600 0.004072182453354779 0.00593789576251774 0.032626323692706856 0 0 0
1817 1 0.0016 1600 -0.0016280058611415368 -0.003989449976302789 0.03426233748253999 0 0 0
1818 1 0.0016 1600 0.003136861799549222 0.004716781343193629 0.033782961902733666 0 0 0
1819 1 0.0016 1600 -0.0026418905452385536 0.004088653258119747 0.03442258914350715 0 0 0
1820 1 0.0016 1600 -0.007183023654548059 0.0004947639923604759 0.03483661130434568 0 0 0
1821 1 0.0016 1600 0.006474437047856165 -0.0031499917996031654 0.03456578495297339 0 0 0
1822 1 0.0016 1600 -0.00011706068204384104 -0.0029613844972221593 0.034874582762877755 0 0 0
1823 1 0.0016 1600 0.002179268633685991 -0.005425888027970089 0.034578462101260705 0 0 0
1824 1 0.0016 1600 0.0052653202276171426 -0.004910957569632544 0.03403722553163623 0 0 0
1825 1 0.0016 1600 -0.005970169633133027 0.0040246202186771185 0.03428837693863899 0 0 0
1826 1 0.0016 1600 -0.0030228449264946664 -0.004333931401923094 0.034966270429886225 0 0 0
1827 1 0.0016 1600 0.002341148392584792 -0.005311716938386615 0.03286361218699852 0 0 0
1828 1 0.0016 1600 0.0037235277152751507 0.0029020787571999666 0.034603781416066556 0 0 0
1829 1 0.0016 1600 1.76856193618234e-07 -0.007200036680981731 0.03356419537372495 0 0 0
1830 1 0.0016 1600 -0.004588132419832628 0.0022137261986452748 0.03510047137393576 0 0 0
1831 1 0.0016 1600 0.0022385295494464375 0.002388239709971188 0.03430280640019925 0 0 0
1832 1 0.0016 1600 -0.004062324248579919 0.003399365289448209 0.03416358877636102 0 0 0
1833 1 0.0016 1600 0.003383060364890796 -0.006355825986493078 0.0340826301708461 0 0 0
1834 1 0.0016 1600 0.004166956777496261 -0.0006261023149463645 0.03469199923799802 0 0 0
1835 1 0.0016 1600 0.0008572400685649299 -0.0064022218427036 0.034654498673416245 0 0 0
1836 1 0.0016 1600 0.006584815302437338 -0.0018473705982777332 0.035488166891761846 0 0 0
1837 1 0.0016 1600 -0.0009100265553597893 -0.0057235049121644975 0.035335610885290504 0 0 0
1838 1 0.0016 1600 0.003926505808246353 0.000904361334332085 0.03429241274662182 0 0 0
1839 1 0.0016 1600 -0.005434711740662365 0.002373116373587636 0.0337522647773826 0 0 0
1840 1 0.0016 1600 0.002377408360107658 -0.003923843817114294 0.034064212229486454 0 0 0
1841 1 0.0016 1600 -0.0009063547124729909 0.0036566794746664393 0.03458524798434163 0 0 0
1842 1 0.0016 1600 -0.00343803563278086 -0.001488650725617436 0.03526026608503158 0 0 0
1843 1 0.0016 1600 -0.006725956231523751 -0.000527818285115801 0.033694160507301125 0 0 0
1844 1 0.0016 1600 -0.0002193202236430773 0.006047297173922949 0.03480772684425616 0 0 0
1845 1 0.0016 1600 -0.0069116060100822855 0.0020176691758660484 0.03218291436670757 0 0 0
1846 1 0.0016 1600 -0.0025458876653258965 0.005219438813245831 0.03319494461236361 0 0 0
1847 1 0.0016 1600 -0.0024783955804323463 -0.002672460294381096 0.03458183759016662 0 0 0
1848 1 0.0016 1600 -0.0030199619539411308 -0.005801092361204432 0.034328051174293 0 0 0
1849 1 0.0016 1600 -0.00480930817855958 -0.0004820743181562376 0.03495791173178351 0 0 0
1850 1 0.0016 1600 0.005982079135580764 0.0040069148281415955 0.03506053165144054 0 0 0

Velocities

1 -2.4129880932088983e-11 2.3852446566687676e-11 4.458516517858436e-11 -3.568013357088802e-08 -8.28208727710858e-09 -1.1664723735383086e-07
2 1.5701372086709878e-10 -1.6076933040885937e-10 5.550936007534409e-11 2.3785499302057592e-07 2.76123552255345e-07 -4.164546419163319e-07
3 4.119934220273303e-11 2.6380326665402226e-10 -1.3669112512716322e-10 8.890762776868751e-08 1.014781052522343e-07 6.458101524508391e-07
4 -2.8133072049385626e-11 2.6959759355255164e-11 1.4090174239557827e-11 5.642049968824897e-08 1.8430335601205643e-07 1.261004530362859e-08
5 6.386258975744427e-11 -6.83033406416639e-11 -4.949880338976975e-11 9.31778565785087e-08 -4.3082755799525404e-08 4.579996874542614e-07
6 -4.255345850849421e-11 -1.9515793175556773e-11 -2.9051765310694706e-11 -2.737082291557123e-08 -5.228782395609058e-08 -1.719766937076006e-07
7 9.271657182090457e-11 -1.0131892128711205e-10 -2.644601429750398e-12 1.282161130414941e-07 1.0992516415930207e-07 -3.859011523976764e-07
8 9.7578133578862e-11 5.293539404690945e-11 -1.3523847997826132e-10 -7.612881802224108e-08 4.5917778956637174e-07 -3.6850854802444666e-08
9 3.797217596138443e-10 -1.0882839713469363e-10 -1.288096487948262e-10 -8.748090227764499e-08 2.263476455524099e-07 -1.5086482192725544e-07
10 -2.0491131723603912e-41 -3.102580680084935e-41 -1.78118040850191e-13 3.87813635026082e-38 -2.5613323548806343e-38 -0.01642374815897108
11 4.119894662063845e-11 -1.7881233378207373e-11 3.19135491983751e-11 1.706247898238001e-07 2.3280837991458398e-07 -8.066101468908054e-09
12 1.5151355235245824e-11 3.175982166552832e-11 -1.0841882143710242e-11 -2.737620073042816e-08 -6.136465117519517e-08 1.7272174333682956e-07
13 6.260129390045414e-11 -6.231267866029337e-11 -2.6294545564340865e-11 2.48286700362612e-08 7.539126210928161e-08 -1.1538854341330863e-07
14 -1.8007309247259292e-10 1.951651628982404e-11 1.3663791326682429e-11 2.2454102964940943e-08 -5.329052192691314e-09 2.1466020221098348e-07
15 -8.401230583813546e-11 1.7992484383584005e-10 1.8185729467923508e-10 2.314762516666622e-07 2.5942571991232497e-07 -2.609291621222386e-07
16 3.085994934940556e-10 3.8879463082939276e-10 -6.199938591028312e-10 8.890455819440047e-07 1.4674474729932327e-06 -2.938575233011423e-07
17 -1.696143452221053e-10 -1.4784416144666273e-11 -4.0734804976749264e-11 -1.7700451761223643e-07 1.4107097058449672e-08 2.0519481290278586e-07
18 4.788942553134484e-10 -3.086125201548218e-10 -2.1825971581034408e-10 5.07216359292183e-07 3.197661203765391e-07 -2.468990845800712e-07
19 6.5006258876565625e-12 1.552768120783234e-11 3.2692989234881585e-11 -6.915240094318726e-08 -9.658427079882006e-09 -3.3520675406450605e-09
20 4.431893897001864e-10 8.936652027894497e-11 9.324256154234967e-11 9.414566822033045e-08 -1.3101998027591195e-06 9.310540852730998e-07
21 1.3309133066318554e-11 2.189873150074927e-12 -8.137518953811735e-13 -4.657709501320145e-09 -6.052009672529943e-10 1.4036239676592378e-08
22 -1.5340063454258656e-09 -4.403347677590992e-10 -4.824042818628087e-10 -1.0651888301477616e-06 2.007093174402861e-06 -1.513338721315674e-06
23 6.668336750097821e-11 -6.659774582670572e-12 2.0476563444877737e-11 6.474767886473361e-09 8.939893671782842e-08 5.753238429788192e-08
24 8.225214984507215e-10 1.142341072791181e-10 1.7997254608785595e-10 3.749873595225809e-07 1.7401109983406736e-07 -1.4660393721681664e-06
25 2.0913837384847684e-10 -2.5890792942980033e-10 1.3782653437066486e-10 1.8195579275485726e-07 2.1269722543895938e-07 6.330973244936371e-07
26 7.785733417516341e-11 -1.897964459911469e-11 1.4170111096695721e-11 6.86913515078093e-08 -5.042823056243112e-08 1.1435385593562288e-07
27 2.4646513341801405e-10 2.633536182960534e-10 -2.051166863476199e-09 -1.022671920435928e-05 3.984093342542031e-06 3.912858609220849e-06
28 -4.8139906360437036e-11 -3.6863438728388535e-11 4.5783595560836944e-11 8.34281865443029e-08 -7.640552329912237e-10 5.602634037217242e-08
29 -1.96586082278496e-10 -2.935294747981919e-10 -2.828320933730549e-10 -1.349401396441899e-07 5.208793451513028e-08 -1.2115248026905667e-07
30 4.572297817664141e-11 -1.897349672931729e-11 5.679810113985315e-12 3.872610460550292e-08 5.1033862079495135e-08 -4.096007543346966e-08
31 -6.797244591373711e-10 1.7456955408658855e-10 2.3851143359459236e-11 3.402917273733529e-07 -7.525429422800379e-07 -8.81054619866407e-07
32 1.1911886065471976e-11 2.168503630102835e-12 5.6914036451259564e-12 -1.2152039306558099e-08 1.7562584900384435e-08 1.7518307399678383e-08
33 -1.2128073183914742e-10 -1.0719838937586415e-10 7.753606153891249e-11 1.8054701146224372e-07 -1.1857408708120345e-07 3.0037710744676836e-07
34 -1.689771099487391e-10 -8.295618506904821e-10 -2.9148728704248507e-10 7.967011592177276e-07 -2.390242175504578e-07 8.240490882466296e-07
35 -6.866343166892242e-10 -2.689349293573305e-10 -3.33245434052025e-10 -1.0605929299136033e-07 -1.963261733745991e-06 -5.256030956177728e-07
36 2.891478271820109e-09 -6.0468847135763756e-09 -4.008632932232598e-09 -1.3619291077767302e-05 5.342647648303403e-06 -5.5844646183161794e-06
37 -1.3712640921457928e-11 1.3418447623353202e-11 -2.056845116911694e-11 3.5405071244327e-08 -2.1638955262596246e-08 -1.9332430201527133e-08
38 3.252631863210896e-11 -4.623802521216447e-11 -9.050494837483307e-11 -9.527383736746649e-08 1.1254465893836396e-06 -4.675779093301849e-07
39 3.4010388281347076e-10 -4.535018626482701e-11 1.0368135750809724e-10 -5.095513049716723e-07 -5.018597284369696e-07 2.736444358925981e-07
40 -3.114691131218821e-10 2.6140095225189726e-10 -6.66966597290792e-11 1.8652280358491504e-07 -2.846204105848569e-07 1.6617154461600577e-06
41 1.2142699840210038e-10 -4.992596895394268e-12 -7.81469813157059e-12 -3.0445615860339054e-08 3.1292406070637076e-10 -2.9415844550788165e-07
42 1.915994634581582e-09 9.92792121887162e-10 1.8971115956966143e-09 2.4145169780569853e-06 -2.017698347546552e-06 6.643263802356115e-08
43 -8.509124922646099e-12 -3.6862868199509764e-11 -1.3217579455573415e-10 7.627958501069151e-08 -9.284676389564232e-07 3.6294085218756033e-09
44 8.805539341766011e-11 -7.235069005211074e-10 1.0923021555370909e-09 -2.639965633642674e-06 2.113865049701594e-06 5.672665777075419e-07
45 -2.7648076290515855e-11 8.544810380320863e-11 2.4487461758640332e-11 -5.12410044808935e-08 -5.105703989013634e-08 6.524200742112358e-07
46 -6.877701663703612e-11 5.854882784119406e-11 -1.2541712415717139e-14 -2.6500153876522874e-08 8.089456559696178e-08 3.8027999649748496e-08
47 2.7909639803487595e-10 1.324052977635209e-10 -1.0296854065765802e-10 -1.7589270534275587e-07 3.394812341136978e-07 -8.051533303038207e-07
48 -9.55185414555013e-11 6.512534782822416e-12 -2.0165993872244826e-10 2.0120199341472573e-07 5.267234866955673e-08 3.6307279319095716e-08
49 1.2568283334778067e-10 8.039310745668488e-12 -4.24402799190411e-11 1.013011865490354e-08 7.023577936027854e-08 2.7639924417236625e-08
50 -3.655114021738718e-11 -1.983067438750244e-11 -3.831744285157836e-12 -5.968860969411418e-08 3.737517574690416e-08 -6.35294717366113e-08
51 1.5060309800369852e-11 5.343044452950597e-12 -5.420213775195e-12 -1.0626820014166173e-08 3.554553047636889e-08 -2.357048071386652e-08
52 1.846376434601135e-10 -5.590922558788197e-11 -3.006737337341215e-11 6.988540366841867e-08 2.6537544574590294e-07 2.0351331118999005e-08
53 5.869351976181709e-41 8.374616754117063e-41 -7.907932192085047e-14 -1.0468029360885344e-37 7.336520657597338e-38 -2.701896951678841
54 -1.1451472577769016e-10 2.2080182837623966e-10 2.0502504793195294e-10 4.4134868185329067e-07 2.6646185600494585e-07 -8.834957717296686e-08
55 -5.891917943154492e-10 -1.669725811768064e-11 5.324528056629144e-10 1.1244189064061866e-06 -4.126515250774001e-07 6.387123557101514e-07
56 3.831417622348977e-11 -1.2580845339459995e-09 -6.659863945618295e-11 3.293981219237424e-06 -1.465518981413843e-06 -3.844605798829019e-06
57 -5.6225534582174494e-11 1.409388074115126e-10 5.993354946501325e-11 -7.047718536244504e-08 -1.9516258866668566e-07 2.5118550953446e-07
58 -1.412960770472284e-10 -3.7754202558335496e-10 -7.589386915775752e-12 -3.6535582627446455e-07 -4.3192520621662704e-07 -5.39409802576473e-07
59 5.947084742849697e-10 -1.496133663779532e-10 -2.03188990368168e-10 2.2733363902720155e-08 3.483492836085864e-07 4.561007978514199e-07
60 -9.164362992872216e-11 8.565261555640228e-11 1.7422909031309344e-11 2.5034796996567125e-08 -1.0997050687927348e-07 3.357190171927873e-07
61 -1.6262984724325968e-11 2.0587234888913117e-11 2.7910607941941446e-11 1.982782023986345e-07 -1.0856162705969131e-08 9.743101784659038e-08
62 1.1345601634339793e-10 5.1126440846713974e-11 -2.0328454241233114e-11 -8.689954951166962e-08 1.1665255539134021e-07 -2.0355976057186287e-07
63 1.7184676501633782e-10 -2.3029698325698735e-10 1.4285743214668355e-10 -1.3077729689021526e-07 -2.638519021613705e-07 -6.958371127975694e-07
64 -1.488898762046009e-10 2.943670389891312e-11 5.281780240620754e-11 1.3894011664563826e-08 -1.967587903819053e-07 2.2449617656160015e-08
65 1.3750582906227306e-09 -9.753080218042605e-10 1.926809953483126e-09 -1.578847360326442e-05 1.632581180593703e-05 -2.62766891458767e-06
66 4.525599315202765e-10 3.1714028577582983e-09 1.7878342115324277e-09 -7.144334607158513e-06 -9.826214263255793e-07 -1.1831623843005644e-06
67 -4.709136401218486e-11 -2.8190110978356662e-11 6.343154044220649e-12 2.2355021146138807e-08 -2.99648309100162e-08 9.157123245411612e-08
68 -5.816973771190204e-11 3.7034076653559713e-11 -2.9963402961899418e-12 -4.364699491974148e-08 -7.387278091246557e-08 8.297557205232007e-08
69 2.8505524648734385e-10 2.0008250714889298e-11 -6.683945543104866e-11 -2.191174119273955e-08 3.486669782703517e-07 -1.5803122507185763e-07
70 -4.119330136327379e-12 6.251398137169725e-13 -7.720408832735339e-12 -3.91476896477896e-08 2.036770497123589e-08 6.890552437231511e-10
71 2.6022118774255276e-11 1.928478059536678e-11 -3.2469357278257724e-12 -3.501431332228382e-08 3.73282324602774e-08 -2.772329400093846e-08
72 -6.722565656320278e-11 3.0044818762332996e-11 2.8465031161765125e-11 5.2984555767190756e-08 -3.0870810836184074e-08 -8.46969905626764e-08
73 4.7192004959271476e-11 -9.905153363528696e-10 2.2169298881613163e-09 2.500906121073095e-06 4.6220364304616516e-08 -1.146427656138159e-06
74 4.401153752534898e-10 -2.3173713551509183e-10 1.4785074645365342e-10 5.3052725917928434e-08 8.558398496841648e-07 -8.977225444651264e-07
75 8.578004471529079e-10 -8.287241988192567e-10 1.5408288946067653e-10 -3.4687354244974136e-05 -1.759973235867756e-05 -3.7512792522632008e-06
76 -9.403399191677887e-12 2.383892124180203e-11 8.940521346889962e-12 -8.788620864466973e-09 -1.785545840407138e-08 -3.5889561039943845e-08
77 -1.231109033520041e-10 1.188192226359878e-10 -5.777418869449624e-12 -1.4847743826336172e-07 -1.5450139502098918e-07 1.834645599902438e-07
78 8.262022555823761e-10 -2.914822548856663e-10 -2.6011358465339436e-10 -3.761937066209006e-07 6.315847350686995e-08 6.074240915119376e-07
79 -1.0167794236568305e-10 -2.2460956368753007e-12 5.957359340727292e-12 1.1241865919768992e-07 2.997885819779527e-08 1.497129608832985e-07
80 3.0523048939259487e-10 -2.9552761852643095e-10 -1.3382974309970554e-10 6.767189770527476e-07 -4.0154537678206044e-07 9.342986679397129e-07
81 -2.168508140589187e-12 4.975525946558025e-12 4.5287152019700285e-12 -4.584193003907231e-09 6.331649494645212e-10 -7.260988428316376e-09
82 -6.722568057051732e-11 2.825473026197645e-11 -1.5460621385179096e-11 5.022237245039124e-08 -1.733494535919253e-08 8.430124269559473e-08
83 3.6756785601355365e-11 1.5290053982797317e-10 -3.744972025914421e-11 -2.0057690310467758e-07 4.912303209773089e-08 -3.173977723232969e-07
84 7.131144452166533e-10 -2.536243815366887e-10 -6.45929958023919e-10 9.77967958568738e-07 4.37238906167575e-07 2.85093535614762e-07
85 -2.483650607802622e-10 1.802232753516352e-10 -6.501865320486713e-12 -4.572283284531608e-09 -3.8581508046179446e-07 -9.764752870301184e-08
86 2.1685459754810538e-12 2.8358532358319658e-12 -1.8974858709662064e-12 -2.9977114611670797e-09 2.831369996257777e-09 5.560715395175215e-10
87 8.067963624506003e-11 -3.252715714883644e-11 -8.609327232657788e-11 -1.4360066607356618e-07 1.082059892732984e-08 -7.007743595167041e-08
88 -1.953929629412308e-11 -5.420049466359602e-12 -7.956514996673972e-13 1.341146650452801e-08 -3.495369634887849e-08 7.506374018846865e-09
89 -2.133383960922518e-10 2.5913926621151983e-10 1.1447223083091249e-10 -2.1436246669620824e-07 -2.1379824637929792e-07 -1.8149538826162959e-06
90 -7.951281118904836e-11 -7.952996993245016e-11 1.283181333788922e-11 5.047801967558299e-08 -3.3022375578702154e-08 4.535104886244767e-08
91 5.987330178388864e-12 2.0592495764229043e-11 -4.5690069559071734e-12 -2.0632658821229422e-08 1.2051596714739097e-09 -3.049976201829625e-08
92 9.7577245756597e-12 2.1693949182602062e-12 -3.731901067619328e-12 -1.8502785446680902e-07 -2.6344498696230024e-08 7.405415404248508e-08
93 5.626697248022714e-10 -1.366971482064656e-10 3.506985827644804e-10 -2.728163429383932e-07 9.789295153606834e-07 2.7358112939861446e-07
94 1.6118588621743743e-10 -4.849446273115883e-12 -5.653333898672053e-11 1.670795752384932e-08 -1.6984682335394835e-07 -8.346986949975084e-08
95 -2.702751284561605e-11 9.755932078420093e-11 4.874906729537472e-11 2.4511568621301876e-07 2.2572629835746867e-07 -4.269529199139824e-07
96 -1.3659645381416476e-10 -5.253761771103889e-11 -7.895452521641139e-11 3.4337702613217495e-07 2.131963613392655e-07 1.050460967758041e-07
97 2.223963378382461e-10 -8.568545243650642e-11 -2.466373385540994e-11 7.30510016144473e-08 3.265551412345308e-07 -2.896693464687736e-07
98 9.608147697450959e-10 1.9744958087303027e-11 -4.658499373732927e-11 -2.946684064403507e-07 -1.9897284213309185e-07 -1.1493020848105062e-07
99 -1.9516597774131136e-11 -1.2202640624420703e-11 2.533420354789286e-11 -9.218577396222288e-08 9.360973344811945e-08 1.0163430779227508e-08
100 -2.0656667112266295e-11 1.6460447406019005e-10 3.4821728950436474e-11 -7.264615894552081e-08 7.046279280394537e-08 -6.669946898265866e-07
101 9.50766714537855e-11 -3.3160532855369143e-10 -1.4942613098223137e-11 4.5939639796270165e-07 1.252387409110123e-07 6.172986796953909e-08
102 1.5479337499378444e-10 -2.551987606422172e-11 8.204320021189588e-11 1.2392118793463937e-07 2.5485126631771753e-07 -2.734650213215022e-07
103 2.4691258313858437e-10 -3.436307313825181e-10 -2.287519278466252e-10 3.7687027006357473e-07 3.742173155000775e-07 -6.46971492708669e-07
104 -6.5054237473729504e-12 -1.1825618093018462e-11 9.305305216689767e-12 -4.2175674493408407e-08 -9.642243219918954e-09 -4.6609783064234736e-09
105 1.7982228217721036e-10 -2.1333901284597962e-10 -1.5042000664436465e-10 3.994594787138464e-07 -3.938614316412266e-07 1.8022403464376566e-07
106 -1.1875625931094093e-11 1.8364488896492652e-11 1.5327260682365985e-11 -1.0079180126702848e-08 1.803857450840679e-08 -8.984933406575385e-10
107 1.094966146490271e-09 1.6578910458215735e-09 2.3058114172901373e-09 -3.066657803850667e-06 -1.9898089047875654e-06 6.272660673524843e-06
108 3.4485413566843164e-10 -8.887289436113257e-11 -6.08310920824653e-11 -3.4929472702298474e-07 1.042520925525199e-08 2.5358603265034834e-07
109 -5.107934576723402e-10 9.67195874205907e-10 -6.874071915183684e-10 -1.699058738486049e-06 -2.2912811808799157e-07 1.1050607546911147e-06
110 6.297534415343597e-11 9.553167226203521e-12 7.029979780354358e-11 -2.2743122370848383e-07 -8.021605397240679e-07 1.9176532778038452e-07
111 -1.1180181060550998e-10 -1.3055574965017097e-10 -2.6819958424108467e-10 4.890009095711368e-08 -6.046120650553262e-08 -1.6647462655677853e-07
112 -6.5059441622520676e-12 1.0841966919333564e-11 1.8420657928801942e-11 2.480028025510993e-09 1.5464503517497886e-08 -7.302161333318533e-09
113 -2.168666634590619e-12 -3.028148328286133e-11 -9.798947385036956e-12 6.754809301885707e-08 -2.671822576460792e-08 4.361520289515316e-08
114 -2.1689347200485554e-12 4.202427419610241e-12 4.0543245621302945e-12 -5.999882560016611e-09 1.2095483913134815e-08 4.512014851508049e-09
115 -1.0423444516433012e-11 8.022011842732512e-11 8.423970271686444e-11 9.872385746433752e-08 2.2920910047167018e-07 -5.397860386081361e-08
116 2.3301120194586588e-11 3.044797217546898e-11 4.008626514850104e-11 -2.763992033256084e-07 9.778464273608095e-08 -2.387291033082335e-08
117 2.544873524925722e-10 -1.517378607047729e-11 -2.323790271450538e-10 2.0239798237648182e-07 1.9944686325303217e-07 1.6620346108001118e-07
118 -3.25262067516657e-12 7.772836127382264e-11 -3.794687404028461e-12 -4.3970860819675304e-08 -1.2241803030615604e-08 7.240931591049756e-09
119 -2.790560013080788e-10 -6.311661899922046e-11 2.990686906572756e-10 4.78515336112623e-07 -4.818835770674119e-07 1.6414503587772535e-06
120 1.8027016225790167e-10 2.383260797712754e-11 -2.3360367587688747e-11 -3.5701384853716646e-08 -2.553970273048108e-07 -1.2151574149984134e-07
121 1.1725472249546618e-10 -1.517640986273051e-11 1.0261716149080019e-11 4.187102396784666e-08 1.9738372134580738e-07 7.829445192359326e-08
122 -2.3284104925429904e-11 1.3281417187506366e-10 1.4407728128827848e-10 -7.141093831809787e-08 3.960428615411819e-07 -1.6771342164651553e-07
123 -2.385244585045283e-11 -4.8481420993743726e-11 -6.142338909027585e-12 1.6315483995424043e-07 -8.326964176964509e-08 6.742377181843772e-08
124 1.745194126415323e-10 6.877432738900618e-11 5.421019827664068e-11 4.3901870549658635e-08 5.630195045644371e-07 1.3296617215991348e-07
125 -1.4471011624218207e-11 1.0128787740349523e-10 7.245249318786501e-12 1.4007060956959017e-08 -2.0808772892336038e-07 -1.5851668664446967e-08
126 3.252694684237331e-11 -1.409523304896532e-11 1.1385391358397172e-11 -5.122420862287421e-09 3.652589980731883e-08 1.3234666197510293e-07
127 -9.734517991526036e-12 7.102725899272624e-11 -2.987235175167998e-11 -4.481160119199767e-08 -6.677828016967076e-08 -6.43587080803481e-09
128 -4.8619570218016356e-11 1.2655230591807016e-10 -6.509758918388039e-11 2.8493188943305064e-07 9.430757157929068e-08 6.800834786766501e-08
129 -9.347405543592698e-11 1.1416814211009582e-10 1.0299920583219265e-10 -4.935935458032695e-08 -1.7577618059522706e-07 7.180291607682427e-08
130 1.2611932294138388e-12 8.502548212149318e-12 4.046769774872668e-12 5.697184219921342e-09 4.139538502552311e-09 2.1497523728042287e-08
131 9.4245855821617e-11 -3.0461410483995206e-10 -1.0294710502229506e-10 -4.927108728762719e-08 -3.5644708087598394e-07 4.186256670871815e-07
132 1.8700635986424857e-11 -6.552336663696746e-13 -1.6090750006034088e-11 2.5496713752812653e-08 -2.3425435601277732e-08 7.804933317375215e-09
133 2.168443271151463e-12 4.879038574363179e-12 4.654474889438667e-12 9.014229657950364e-09 -1.0669755792010495e-08 -2.832813428061033e-09
134 -2.393687983348688e-10 -4.147711079522461e-10 -2.1771673010697338e-09 -3.993461678158451e-06 -7.444066783147329e-07 7.413615596633968e-07
135 2.164477765933252e-10 -7.430825137195707e-11 -1.9802603539965855e-10 5.468869188628113e-08 -3.810211794070944e-07 3.066631727635039e-07
136 5.816026009360248e-41 8.310902160698127e-41 -7.907932158646028e-14 -1.0388387957080388e-37 7.269864737359511e-38 -0.21061290909828542
137 1.6557266366382032e-10 1.1167164403516855e-10 -2.4954646386352604e-11 5.236682293452773e-07 2.5169063840813513e-07 4.139972983524331e-07
138 3.1826818870584163e-10 -4.9882771496776484e-11 -9.583483918174633e-11 -1.5381376557998777e-09 -3.9429830384867737e-07 2.3518866313530695e-08
139 -1.7300596249987174e-12 -1.653104842952379e-11 -9.599073184785156e-11 5.409858833834173e-07 1.2760282849882355e-07 5.475979644281539e-08
140 1.2843030910751662e-09 -3.551225718839419e-11 1.60939832261578e-09 4.3322891053233697e-08 1.2997745826186055e-06 1.6305457669835976e-06
141 -1.7208951727229343e-10 4.116929814173994e-10 4.557024958342855e-10 4.911549572482333e-06 -3.076342343935992e-06 2.242967138505202e-06
142 2.0668141661549716e-11 2.468550798331958e-12 -1.1655238738432153e-11 -6.727819573690424e-10 -2.4914115090605934e-09 2.0607880524755676e-09
143 -1.9515358608048975e-11 -4.416960808519312e-11 2.351143482891071e-12 -1.2192248119816513e-07 9.133114212526374e-08 -8.891670247187644e-08
144 6.926217070237509e-11 -6.722042682282851e-11 4.092632275916039e-11 -6.384438646344169e-08 -1.6284666388097612e-07 -4.4911449461654706e-08
145 5.401453596771301e-11 -5.854681775653467e-11 8.418510190160835e-11 -1.5438179514939846e-07 -4.475355963657557e-07 8.715962968294621e-08
146 4.62341074894848e-12 -5.558822706366981e-11 -5.154968743104684e-12 6.797893968402312e-08 -8.804758617887396e-09 7.727276917472392e-08
147 -3.773940592092298e-11 4.3747544052743235e-11 -3.7904284367411886e-11 3.791463098250809e-08 1.0121583456965596e-07 1.516496532649777e-07
148 2.0599929803754386e-11 1.3218116718148841e-11 -6.7837247769261e-12 -1.2007368430465655e-08 4.065889756488328e-09 -5.704187139030674e-08
149 -3.688334418136378e-12 1.1698246666088414e-11 5.5141983392483524e-11 -6.779773885594033e-08 -8.061270556851728e-08 5.5781550290432674e-08
150 -8.484560404655983e-12 6.078482172959443e-11 6.208734258317812e-11 -3.820760483426319e-09 6.025154530925532e-08 -8.2078252621153e-09
151 5.832945196333208e-41 8.380201397577716e-41 -7.90793216372513e-14 -1.0475010004111478e-37 7.291013233009547e-38 -3.419044284983581
152 8.34606855856048e-11 -2.4847034958245103e-11 -4.0384719844431895e-11 -1.1991520430961185e-08 9.748282017027651e-08 -1.172428301673072e-07
153 3.8154665119771137e-10 -3.694257443424547e-11 -2.442878744528364e-10 -7.39738556290865e-07 -1.0726609513780313e-06 3.7922384652232744e-08
154 -1.4947490997325334e-11 9.532495280013274e-11 -4.553611263769351e-11 1.7283276658395256e-07 -5.6164901498867603e-08 8.31493144233283e-08
155 5.423083342888503e-12 4.466141970741699e-11 5.2801133775064844e-11 -1.0305274960142428e-08 3.75878442334368e-08 -4.9839059957594546e-08
156 -4.824698518792116e-12 -2.167662242121983e-12 1.2563420999638482e-11 -1.5358700665746164e-09 4.427364606855083e-09 -7.2068235580684905e-09
157 -9.625462480894118e-12 2.16901054375312e-12 5.659430498749326e-12 1.6396983605681382e-09 -1.2756766694685346e-08 9.460446217988091e-09
158 5.419549874846675e-11 -1.1025523038326276e-11 -9.2842232012043e-11 -2.3533896237066798e-07 -1.1836418754245759e-08 -1.663185218889243e-08
159 3.678601562498415e-10 -3.469197555532123e-10 -9.06919365391086e-11 1.0209100942287826e-07 -1.233986460021032e-07 -4.899463136758894e-07
160 -6.720198447872985e-11 8.613761987828012e-11 1.2342104679175047e-10 1.4489513948161592e-07 2.448071083894847e-07 1.97179728250197e-07
161 3.406063397492103e-11 -3.3201645333432257e-10 -1.9133834719783386e-10 -8.621916365207654e-08 1.2824857329965758e-07 -6.401800528589444e-07
162 -5.314481235387879e-10 1.7097908848881132e-10 -3.910432719427196e-10 -3.0329755389830804e-06 -4.648967938541945e-06 1.4633966573813862e-06
163 5.839775134281107e-11 3.787972559283737e-11 -1.6180559741735918e-12 -4.078937238219622e-08 7.911032226484089e-08 -3.5613581931495016e-08
164 -3.6750859861086404e-11 3.686550187349369e-11 6.827973675329525e-11 -3.3437993152731945e-09 -6.494025768202547e-08 2.8910004743655117e-08
165 -1.9952949850386717e-09 3.623684078203642e-10 3.9146379053990155e-10 4.680711291036376e-09 -2.5231860337303646e-06 1.442597969308181e-07
166 -2.3812405484954634e-11 -2.7268321185301867e-11 -1.9514605081934706e-11 -4.481033511591817e-09 -3.433549511983707e-08 4.179782504178409e-08
167 -3.4693972542628247e-10 1.3216119586379317e-09 1.0503071880887938e-09 2.486575506201575e-06 4.0774960321447735e-06 -2.031406594409926e-06
168 2.150023281354005e-10 -1.9401208369967303e-11 -2.0330155872970366e-11 3.001673265717999e-08 2.644298016110697e-07 2.447661875056528e-07
169 7.443784509154464e-11 -9.525306601413495e-11 7.722879213832808e-11 1.1494809280988925e-07 4.718643474272362e-08 1.9726752619603182e-07
170 -4.4271787856931776e-11 -5.434213414145626e-11 3.784173593453976e-11 1.8175665987495336e-07 9.524520448238111e-08 -1.889500882204428e-08
171 -4.1200389322914046e-11 1.5015043085035772e-10 -3.9777738030392383e-11 -2.6889535071388016e-07 -4.679606767304585e-10 1.1451903232621483e-07
172 -4.5536490826764684e-11 3.2953827437060515e-11 -1.2450834553278668e-10 1.2934535888105426e-07 1.4319311755686556e-07 6.813051341657388e-08
173 -6.722031880376779e-11 -1.6839886161728682e-11 2.8690300860319266e-11 7.873017150666626e-08 -1.0026398359461441e-07 -4.093373578846992e-09
174 -7.191763963795065e-11 -1.0723378410256865e-11 -6.51629097320624e-11 -8.485420575706564e-08 -9.996711994358503e-09 7.448542157189478e-08
175 5.7461881951627695e-11 -6.195633765123712e-11 2.3565860761731647e-11 2.604381809418477e-08 6.746024773406202e-08 1.497646699677981e-07
176 1.95937148241407e-11 -3.2538486385121366e-10 -2.654693378380364e-10 -9.607411004711347e-07 -3.465848689464829e-07 -2.4594344606655217e-07
177 -4.3027615395671056e-12 2.73057739787447e-12 8.185236691638833e-13 5.822781518222063e-09 -9.825153261698524e-10 5.724686444107112e-09
178 3.090187492992177e-11 4.367161593761688e-11 1.0132384512574457e-12 -5.269977294352292e-08 2.2439295554127146e-08 -2.9450175763249503e-07
179 -5.392493473849055e-10 -1.3435785107249423e-09 4.154626120896248e-10 1.7704627501706526e-06 -3.0459951150783784e-06 -1.3034862020210598e-06
180 6.749865975777371e-10 6.358706813992873e-11 -7.586367480620693e-11 1.6037307068317002e-06 -2.1672202541676924e-06 8.606471208931164e-07
181 2.6933130086588733e-10 -1.4393390666611434e-10 -1.9535272958127134e-10 -1.011311264480901e-06 -8.929473366521472e-07 -7.212083804877307e-07
182 -9.907240149825521e-11 1.6100959648395026e-10 4.689690325885916e-12 -6.398426925127875e-07 1.6130437767501923e-07 -4.558395951819272e-07
183 3.937966470923515e-10 -2.69137084427818e-10 6.719633771581431e-11 7.55677787286054e-08 2.0161192811194882e-07 5.352587108105778e-07
184 8.116808128843439e-10 4.2717012773774546e-11 8.924412664457827e-11 7.63749255787906e-08 1.0310543886359944e-06 5.963579473358904e-07
185 9.077656476438817e-10 -1.3071654114720713e-10 3.058975296099773e-10 -1.949449824895919e-07 -2.0825174306182984e-06 -1.641470279508127e-06
186 2.2424880681938805e-10 -1.017721374456327e-09 -5.188680679075755e-10 1.4324186185940202e-06 3.9179320932680663e-07 -6.440792020815265e-08
187 8.890605331021886e-11 -3.2992731678815267e-10 6.330340587454601e-11 3.035704777458555e-07 1.4826956852110993e-07 7.39267638997421e-07
188 -5.1914771587393477e-11 -2.8188160860152842e-11 3.252596999646026e-11 -1.5826958408252973e-08 7.332926353449176e-08 5.963128045847183e-08
189 7.107442726409289e-12 4.0115452745238186e-11 2.9002498274071795e-11 -4.278034758449498e-08 -8.006836011013178e-11 1.8489746910609123e-08
190 -1.4873078331015306e-09 -1.2413340439179529e-09 -2.1305873922286312e-10 1.6028121248687334e-06 -1.963310944293312e-06 -1.4013674317365235e-06
191 -1.1672068932162834e-05 3.9759623191556414e-05 4.3197277201137146e-05 -0.5116461838950295 3.232030290781692 -3.1131661027636333
192 -2.2889967070519273e-10 -1.5230095107156378e-10 9.986276795733307e-11 2.2304407889838113e-07 -1.6246338676703173e-07 1.3561590665696972e-06
193 1.1681648535228367e-11 -4.520277246055558e-11 8.296418982322631e-13 -1.759772391500832e-08 6.625176778078951e-08 -1.7627597603290708e-08
194 -3.058687351362661e-09 7.222842820484374e-10 -8.199525469391782e-10 -4.485496311311161e-06 -6.333434014249111e-07 7.350501309972804e-07
195 -9.126703937218501e-12 4.98731054570083e-11 -1.5519231713304228e-10 -2.286692742028842e-07 5.982082936101199e-08 1.6637876479904814e-08
196 -3.4747388719255903e-10 6.017402860266071e-10 1.6052764963492113e-09 -6.28501674572777e-07 2.925632244629228e-06 -1.4760914640416053e-06
197 1.5955483475954916e-11 4.5353649645585144e-10 4.289127164290451e-10 5.31316136095433e-07 -6.058461835636199e-07 5.807431568038018e-07
198 -1.1842941591628198e-09 -9.851131894641378e-10 3.2166156687053696e-10 -1.3688121808162391e-06 -1.0441944396638995e-06 -5.20838591556571e-07
199 7.9424293848922e-12 -2.0859799615747483e-10 5.704499824801634e-11 8.734996546405877e-07 2.502397062847684e-07 -5.452948426335891e-08
200 -9.287588549123057e-11 7.807822983444575e-11 8.455948863104374e-11 -2.8008064373924692e-08 -2.2132083482358237e-07 1.0781084457195458e-07
201 1.7141508114463553e-11 -5.854765929250379e-11 4.987349073223036e-11 -8.909052586196393e-09 -1.0160701702914012e-07 5.317351896227157e-08
202 1.0881710396165342e-11 1.1148075350229533e-11 2.442701933361341e-11 -5.796776656827661e-08 3.7027267599427204e-08 -5.5653750477510605e-08
203 -6.155586964257426e-10 -8.603526502336239e-10 -8.045154656136631e-10 -1.8056237136288524e-06 1.711078345139496e-06 1.2841110313160147e-06
204 1.820767695806052e-11 2.6593696281390242e-11 -2.3418429919315372e-11 -7.025475918001466e-08 -2.6458377653347775e-07 -5.99214788521476e-08
205 -3.3109737869460954e-11 -2.3848560254098898e-11 1.2929935491804776e-10 -3.11874389473656e-08 1.4916913524196467e-07 -1.7232963047081793e-07
206 1.2324868997377475e-10 4.646737399261223e-10 1.267484639457561e-09 1.494266077679419e-06 -2.034396800655598e-06 -8.092348849758741e-07
207 -2.2236976460364257e-10 -2.5129272274996388e-09 -8.196340541197274e-10 2.539460771933284e-06 -1.956812507284768e-06 -2.590413040362329e-07
208 2.1807088133824686e-10 1.6590047690840034e-11 -6.844290126144633e-11 2.4608421657534817e-09 4.069040584293616e-08 2.5935885572969767e-08
209 7.429623642370785e-10 -6.943335693265913e-10 2.7080098971958303e-10 8.371661537133511e-07 -1.2156923550623397e-06 -2.133724977797087e-06
210 -3.964690938138203e-09 -8.41175420256544e-10 8.97275613903929e-09 1.1050556858186933e-05 1.7579120136850442e-06 1.3253846944501534e-05
211 3.867484390512711e-09 -1.0247505371007421e-10 2.189271404672526e-09 1.993577251927645e-06 1.5248059246057342e-05 3.9996181549633604e-06
212 9.323488034635236e-11 -3.8952128118740484e-11 4.930867613321691e-11 1.0293271744478689e-07 -6.721319724375747e-08 -1.1291375696658879e-07
213 8.387062441407734e-10 1.8294628212027226e-09 -4.3287499102361453e-10 -4.486271608622794e-06 5.124432834867841e-06 2.633945174101481e-06
214 -6.505180729340897e-12 -3.4535149088977274e-11 3.252560319455991e-11 4.2685816125378105e-08 -7.594788871493636e-08 -4.454751289725798e-10
215 -9.663870779028786e-11 -5.4975582253720976e-11 -1.1666352150513283e-10 3.5457289343768216e-08 -3.018977144893524e-07 -9.253357008015351e-08
216 -5.7958656819515155e-11 -5.4209846676063976e-11 2.4951551638292823e-11 -1.2302306289238374e-07 -5.33565019158432e-10 -8.67085294887062e-10
217 -2.91862564121874e-11 6.284935049645295e-11 1.529799452658029e-10 -1.596041353872052e-07 7.832885248030808e-08 -5.956096987414376e-08
218 -2.890473453514429e-11 -1.2692589912071704e-11 5.3449923256981565e-11 -1.1811720958560408e-07 -2.1901260756945703e-07 -7.712420082425813e-08
219 -2.5377747176934654e-10 2.950536018249281e-10 -1.3041974608458702e-10 6.721940698122376e-08 -2.3606295030145513e-07 -5.760253746583524e-07
220 1.8252255923555777e-10 -3.4149417769483513e-10 4.4452025457831665e-11 -1.0533649159890787e-07 -3.92399161952256e-07 3.304861618972902e-07
221 -1.2464797187472763e-10 -6.01614530782497e-11 3.903031694659508e-11 5.1749900570058194e-08 -1.0711066631640605e-07 5.515943027885573e-07
222 -8.868005281431239e-10 -2.4471401031462773e-09 8.351131722544462e-09 6.498321330904376e-06 1.4654087681341694e-05 6.480438320386507e-06
223 -3.8035777741358443e-10 -1.1692228621161724e-10 1.5351853036102848e-11 -2.2999155101010097e-07 8.898574502585586e-07 2.828810473659584e-07
224 -7.270061866857239e-11 1.2428547961896617e-10 2.0442964589888942e-10 2.5959129634383645e-07 -2.9180724586391275e-07 1.8081251411509362e-07
225 -5.60132351486998e-11 1.6878460562849098e-10 1.9370879710792876e-10 6.071628482439571e-08 3.30307572184041e-07 -4.909004846355158e-08
226 -2.1687181740487248e-12 1.8535234487922433e-10 1.891434258283185e-10 -9.604815981076915e-07 -4.110589101893471e-07 2.2259434598815334e-07
227 -3.725748150892277e-10 2.518281197060375e-10 -1.6905833810497968e-10 2.132349643502256e-07 3.326138456532369e-08 -3.437883122344068e-07
228 -1.9966307840205563e-10 2.835388519694792e-10 1.33994069049495e-10 -2.415923405085148e-07 -2.320505704321408e-07 3.939456495776568e-07
229 -6.114560423411668e-11 2.3348974347205548e-11 3.917867779725801e-11 5.1355207562388646e-08 1.6276268268650665e-07 1.3360506787245288e-08
230 1.277361654906914e-10 4.931084631949813e-11 -1.1054045672094593e-10 6.22075281087304e-07 2.6000874223506705e-07 6.686624443207628e-08
231 -4.590134108951707e-10 -1.1488552626323072e-10 2.2551056513241093e-10 7.350351643206055e-08 8.768361225973941e-07 5.28540629288083e-08
232 3.122710239848208e-10 1.23589450955816e-10 -1.9916666382836282e-11 1.217930798881968e-07 -9.971476534529194e-07 1.4558504806788403e-07
233 1.9445809377936631e-10 8.428981829316222e-11 -9.712973994075876e-11 6.124402724170204e-08 -4.23738059724938e-07 -1.0002902091877534e-07
234 2.1596437999355567e-12 2.5160721984239324e-12 2.1914512432503058e-12 1.9767328130656595e-08 1.3437813371174945e-08 -5.8895855938367165e-09
235 1.6117155444518768e-09 -2.728280882198225e-09 2.7392083781860764e-09 -6.959802455739782e-06 -3.936363603743204e-06 1.9907392511107348e-06
236 1.9290060902601595e-10 1.084154378072441e-11 7.14070219686996e-11 1.6083004736914313e-07 5.533740998586213e-07 1.2979433080845016e-07
237 -8.98756463110089e-11 -8.292239368275238e-10 1.0929795214757661e-09 -2.577456074721161e-06 1.0678618877501537e-06 -2.0195264166027554e-06
238 -1.6277482782229952e-10 1.9123818975853228e-10 2.690598528191538e-10 3.908469842046352e-07 5.835568238934419e-07 -6.712125840410562e-08
239 1.989185812472217e-10 -5.666983601230417e-10 -1.8432908707062465e-11 -3.6251750644715023e-07 4.2208371927487034e-08 -9.873396519963168e-07
240 -2.414928093498596e-10 6.288024192681233e-11 8.75626326497275e-11 8.481221869019761e-08 -1.144379515883463e-07 -9.413038793080478e-08
241 -1.3911771263718251e-09 5.10309732963286e-10 1.2992707649900112e-09 1.0124915814305355e-06 1.429408999836753e-06 1.357264944848657e-06
242 7.57743138484494e-11 -6.691144349886812e-11 -1.0245786969803531e-10 4.923052595606707e-07 8.894859860703823e-07 -3.172127737483994e-07
243 6.443204090225773e-12 1.4610936950933998e-11 4.929546338380848e-10 -5.260521073285888e-07 -4.2070576426676736e-07 2.7265850292524424e-07
244 -7.897294081063817e-10 -3.021435993947109e-11 8.763012216477465e-10 8.347438820790769e-08 2.239770256136748e-06 1.2300181499012873e-06
245 -1.2033716392921013e-10 1.9547733607424095e-11 1.1785643950517603e-11 2.6491303858593696e-07 -4.0121112432679074e-07 8.168298453012913e-08
246 6.34632613987086e-12 -8.095436693358449e-11 6.263022557249606e-11 5.981863011938784e-09 -2.2045045721440763e-07 1.3562275979257402e-07
247 1.2059066751655873e-10 -5.4417370353782885e-11 -2.1230229080198218e-10 -2.434117540715823e-07 -5.808948469138676e-08 -8.678601352508917e-08
248 -4.717452764560247e-10 5.152093026051281e-10 7.410906433440644e-10 -8.923490111256194e-07 2.4042140451926308e-06 -7.191300757132538e-07
249 -5.732507845949761e-10 2.622599946034056e-10 -9.388401904913429e-11 -2.974537835977247e-07 -2.650519513798387e-07 8.946293369511866e-07
250 8.673728329318082e-11 -6.596606408479131e-11 3.2532780448114646e-11 8.306246417676914e-08 1.0901868637462969e-07 -2.7406124694141585e-08
251 -1.9515597568901207e-11 -6.108163533346158e-12 7.512983819321317e-11 -2.259286180281703e-08 6.292291197842222e-08 1.2748942364018187e-09
252 7.139069247196121e-10 2.0645486379366387e-10 4.354685136918356e-12 -3.3054978049168505e-07 1.2119968159633585e-07 5.609678904787286e-07
253 -7.971857471712886e-11 3.0482101323210464e-11 4.5520825234173274e-11 -2.3308153513812183e-07 -1.3085589580394698e-07 9.599411032647087e-08
254 1.0518034610325772e-10 1.8795809213500896e-10 4.528352138228391e-11 2.914581848958928e-07 -3.2668975953216777e-07 3.8884016963489356e-07
255 4.982894745938012e-11 -3.845273540420301e-12 -1.8737398172426637e-11 7.541434122906304e-08 -1.6172741723578397e-08 5.8485594074130624e-08
256 -8.762976153023085e-11 -1.2672251239356436e-09 -1.5589750913611333e-09 -6.286758052139262e-07 1.3572350693543999e-07 -6.885574036007877e-07
257 -8.683470274687223e-11 1.4357247141860378e-10 -2.1020798591874396e-10 4.718749937002214e-08 -3.2921332912878477e-07 -1.4753907361322538e-08
258 5.6206690812723015e-11 6.125537457953831e-11 2.2034113049228574e-10 -1.9699553511404762e-08 2.388872738048744e-07 -2.5860524616959767e-08
259 6.502793041615808e-12 5.529454692988064e-11 -1.605124895499415e-11 1.886719275307181e-08 1.6464895515172217e-08 -1.807291824216146e-07
260 3.531357428146023e-11 1.463582019156899e-11 1.662159868736252e-11 -2.579295998557821e-07 -2.300406874870981e-07 1.1360285724595948e-07
261 -2.1669903065502127e-12 8.716792831281842e-13 4.336453397014942e-12 -1.0926977539551416e-07 5.676002447170436e-08 -6.269719467824155e-08
262 -1.962508804659728e-09 -3.8992959662018385e-09 -6.694466468148103e-10 -3.3839379457538324e-06 -2.91557346513466e-06 4.867305073587338e-07
263 -2.340454548973361e-10 -8.872090725345632e-12 1.4653519042635608e-10 6.055693544763513e-07 -2.2145967232164487e-06 2.947182474270238e-07
264 -9.387020587835765e-10 -1.2306556914171235e-09 7.613847240459803e-10 8.014253724312324e-07 7.782001610226065e-07 3.227015082629688e-06
265 -9.1380902602053e-11 -4.569527123696813e-11 1.0841947113146616e-10 8.622436201107466e-08 3.149196325507438e-08 1.462590912773229e-07
266 2.0670486467552035e-11 -4.9873593716261287e-11 3.115186322479125e-11 5.021031214953889e-09 1.4629068039633818e-07 1.9210174620845515e-08
267 1.1436300572867768e-11 2.1688274489032763e-12 5.867053640502277e-11 4.126706280644237e-08 4.257693014076882e-08 -1.1263235334248122e-07
268 -4.44570137211835e-11 -2.3846739021021298e-11 -5.6377883691260746e-11 -1.9192546817115907e-07 6.231665538570224e-09 9.152219146065021e-08
269 9.68383708421982e-11 2.9806857935814974e-13 -1.517853300064127e-11 -2.231696022747901e-07 -8.335757467593728e-08 1.7339705877419936e-07
270 1.2623255230151705e-09 -4.726916016332446e-09 2.197028410209299e-09 5.068005864814875e-06 -7.106031380901638e-06 -8.545426433585238e-06
271 2.548990691264585e-10 1.483266494405745e-10 -5.514449827087881e-10 -6.659697411532549e-07 7.148888176779875e-07 1.2947247743729272e-07
272 6.082460233648677e-12 1.4839291186368233e-11 7.09922702772984e-12 -8.730407788928854e-10 8.406235814381667e-09 -3.648980982688505e-09
273 -3.426680047340567e-11 1.8197230622838408e-11 -1.1839442715835828e-11 -4.236631257238003e-08 5.131255593882259e-09 4.3198494423863757e-08
274 -1.0159566090599306e-10 1.1911865146852947e-10 -1.3769715430061287e-10 -2.401818494365819e-07 8.933297265053206e-07 1.4750858623344938e-07
275 -7.637280885407874e-11 1.1713254291511814e-11 7.963172104294664e-11 -5.646298934468773e-08 1.8510378124616266e-07 -8.17409260334972e-08
276 -1.4190745107087056e-09 3.7922756356521496e-10 -1.8080714532081944e-09 2.3465966154641506e-06 2.8511987695214076e-06 -1.49342226598878e-06
277 2.168702492797874e-10 1.0947469075561267e-10 -8.238515511950589e-11 5.865088772910618e-07 -5.317597610211788e-07 3.250720064648299e-07
278 -1.0853043934680059e-11 1.0092559332471304e-11 -6.505019827574291e-12 2.849502144253037e-08 -1.956588889945765e-08 -2.4043564402885216e-08
279 2.1686333602526086e-12 -4.206428191033597e-12 -1.0251799040344888e-11 1.499648919940654e-08 -1.0778067989011968e-08 6.437348911969467e-09
280 2.2092712004222933e-10 1.2677431991470724e-10 1.0842458708799514e-11 1.6827011030002795e-07 8.378156213430454e-08 3.066984461895304e-07
281 -1.7163305245098832e-10 1.979300110120565e-10 -3.2563680956494184e-11 -1.3746155158044495e-07 -1.408662583304696e-07 5.3898629557305635e-08
282 -4.717686620259751e-11 4.87878765550896e-11 -2.52765426968677e-11 2.2427851809328675e-07 1.8866934967736653e-07 -1.5681268065816196e-08
283 1.5106888568206713e-10 3.197109292687425e-11 -4.7785768127834744e-11 1.9136823975733008e-07 -5.692308769476006e-08 1.2409407822128957e-07
284 3.143404633893896e-11 6.170774031142051e-11 -1.7599083850049904e-11 8.168331530969193e-08 6.029013013251276e-08 9.494968583983978e-08
285 7.012560711256037e-10 -1.3885615338715866e-09 2.4753298186063764e-10 -7.256398509423797e-07 -2.048367274540653e-06 -2.3910509867819814e-06
286 2.6981609077436083e-09 -4.771172355551522e-09 2.0167522011067147e-09 2.173039848912229e-05 5.442116993814013e-06 -2.965962226053614e-06
287 3.707651479519428e-11 3.685073936363554e-11 -6.609020667921007e-12 -1.0350082978784719e-07 -8.110447212430776e-08 -4.7281171835158865e-08
288 -6.939311312276656e-10 1.4462948346290313e-10 -5.129113985054205e-10 -8.633950486140983e-09 5.28292074447383e-07 2.423895350383368e-07
289 1.566881409905873e-11 7.050020426776474e-11 1.3665750453911996e-10 5.50878289801563e-08 -1.2189966289726112e-07 -5.7219179745789685e-08
290 3.062393929397494e-10 -1.7640043564929581e-10 9.982789024394547e-12 7.39759136686408e-08 4.396570765319458e-07 -1.2956344826524118e-07
291 -1.3750396514770982e-09 -4.946416115780573e-10 -4.972796546717153e-10 -9.455574272721682e-07 1.7275745822611903e-06 -7.576450595635806e-08
292 -5.461937053090206e-10 7.410127642516862e-10 1.0951226118682772e-10 3.1104195856016514e-07 -3.5294222425435256e-07 -1.9529452250551171e-07
293 -1.0001999493107064e-10 -4.875895930623183e-11 1.0907015684998773e-11 -1.4557483225698107e-07 1.1220502571401975e-07 -1.2133253884646143e-08
294 -8.301075045609779e-10 -9.701973547796181e-11 7.700650862483161e-10 2.1852163934665347e-06 7.106621618253494e-07 1.434998710960935e-06
295 -7.297721366746423e-11 4.0807036627371193e-10 -4.032449110997555e-10 -3.962040679269502e-07 -1.4235156717171155e-06 -4.233152782965937e-07
296 -3.516711214181903e-10 -2.2406491214827532e-10 -2.763109559820976e-10 -1.925048436838624e-08 -2.137864430770577e-07 -1.5366743829816144e-07
297 3.527203934023499e-10 -2.7329208185366793e-11 3.360269473935244e-11 -5.969852741035144e-08 -6.830430786344317e-07 2.3211562084538116e-07
298 4.023569141970286e-11 -2.5131139836552566e-10 -8.999427530251609e-11 -1.4327660699650657e-08 1.686255649613663e-07 -2.1518064525447325e-08
299 6.16872480752368e-11 -1.4035393697413865e-09 3.490891865598037e-10 4.384615621635e-06 -9.740880705436108e-07 1.7257432909984657e-06
300 -6.988446299027777e-10 5.963960956385916e-11 1.1060594979639249e-10 7.146679468147899e-08 -1.4923292238040594e-07 3.2947932392400245e-07
301 -4.363745921346662e-11 2.6695992805651084e-11 6.71683126765052e-11 -6.722481843839455e-08 -1.767178759017944e-08 1.7995323702861538e-07
302 6.406664631256588e-11 3.568903960529067e-10 -2.812441934526286e-10 2.457687725408788e-07 -5.170675285951822e-07 -1.3396240377460542e-06
303 -4.1207095854842006e-11 4.1216879199940096e-11 3.4164260746513326e-10 4.6767712326481504e-08 -6.794902757375054e-07 2.6170705186684932e-08
304 -6.506510093299014e-12 -2.3853001754094156e-11 3.8817521100652255e-12 2.5041976262784834e-08 8.357608265387028e-09 7.167446408478531e-09
305 -3.0610763453428227e-10 1.1265637966281155e-09 -2.3753695888439117e-10 -1.359166764130351e-06 9.604749144210436e-07 6.09729450004144e-07
306 -7.847094110401736e-11 2.7164185414408473e-10 2.435555439867463e-10 -1.7471564158321322e-07 1.0378507626330833e-07 -3.093433777074491e-07
307 1.0118281128374555e-10 -1.2359322038449636e-10 9.999079720528889e-11 -5.309312761154044e-08 8.034836665195386e-07 1.3776257261401238e-07
308 1.3479133476767796e-10 -1.9567687681367995e-11 7.423028934140729e-12 9.129509512311976e-08 2.876915976686681e-07 1.5938252811642081e-07
309 -5.854690046254246e-11 -1.1818329056389262e-10 -1.3105236843173508e-10 -3.634323424834114e-07 -1.1339893733027017e-08 -1.1665790030058565e-07
310 -6.5021644532931506e-12 -7.575763952620707e-12 -3.307359438579216e-11 4.669292383699194e-08 -6.057291098545114e-08 2.3154001007136524e-08
311 4.9325048320234156e-11 -5.3024052863989175e-11 8.677134900133538e-11 1.113912341732637e-07 -1.654151401271707e-07 -2.614610991067448e-07
312 -3.43477905906791e-11 2.800494158987527e-11 -4.770301013455305e-11 -6.216867048106469e-09 2.432296735945162e-08 1.2747277216764793e-08
313 -6.977965829319843e-10 3.4413568378202553e-10 5.7633915437736727e-11 -9.959830876644787e-08 2.4462605986803797e-07 -3.157520888040867e-07
314 -2.7094216607915593e-10 1.3892670109099616e-10 2.3590416109341816e-10 1.938777788520936e-07 2.9574873138083013e-07 -2.2997965704835256e-07
315 -2.8238027133884897e-10 -3.685636112694079e-11 -9.106842989747134e-11 -3.728071437785088e-08 -3.401099354073653e-07 3.5953698068458956e-07
316 1.5179210305589582e-11 -1.0867324627862158e-10 1.3010367693253695e-11 -5.989990557264004e-07 3.835748175249382e-07 6.736303529090102e-09
317 -1.4659002653396885e-10 -2.167421580658339e-12 2.286123328979596e-10 -1.0537805028661926e-07 7.971101019886242e-07 -1.607149165720028e-07
318 -5.47629814595198e-09 5.347869679472137e-11 -4.87036143387279e-10 -2.5716519484114273e-06 -7.295266675247924e-06 -5.095727025813561e-06
319 1.1920620692853338e-11 4.4107652428130014e-11 -3.2893124273268954e-11 -1.0061098604749008e-07 -2.7604591317453043e-08 -1.3551443448653164e-07
320 -4.069660437884191e-10 4.310123490401645e-10 -1.0625193243947196e-10 1.5712169949760831e-07 3.597895544246135e-07 4.4384522267344993e-07
321 1.4393513877206864e-10 -4.987574727446484e-11 7.369511578087608e-11 -1.2921030002234077e-07 -4.285035194024819e-07 1.024256295598689e-07
322 -3.1499294440666746e-11 5.963649895392231e-11 4.227260687954535e-11 -9.096256583438572e-08 1.310509340953031e-07 -1.5320056732125984e-07
323 3.6923292290157837e-10 -3.604030783763376e-10 -2.6193804118666915e-10 -2.1193695224618283e-07 -4.801267952449093e-07 3.8086491026525817e-07
324 -7.207850727405592e-11 7.294320131828566e-10 -3.952084129363638e-11 -1.5424899149698376e-06 3.373036144001773e-07 -4.316618633162003e-07
325 2.467268981614989e-09 8.764677201536232e-11 -1.7108273627098646e-10 -5.481472744736218e-07 -6.991580469180694e-06 -1.454764157140519e-06
326 -1.1559315647683966e-12 -3.446269356704139e-10 -7.589175767023381e-11 2.6871281880069694e-07 -9.721968750242325e-07 4.369993637341536e-07
327 8.929462434601712e-10 -3.9443996457436355e-10 -5.648207616690126e-10 3.5524263282060423e-06 4.937982760182563e-07 8.941318054867527e-07
328 -5.021606847201053e-10 -1.1914650928972568e-09 -1.0804663976219606e-09 7.743195434372251e-06 -7.383652783672857e-06 -1.9849625386681306e-06
329 -1.9669742818364032e-10 1.0318655455406804e-09 -8.903348484029153e-10 2.3513492413608816e-07 9.73827149031261e-07 2.0302851756371953e-06
330 -7.556827054101388e-10 3.9243036562686164e-10 -8.530616511828796e-11 2.6199467835240897e-07 -3.935853264850707e-07 -9.040059146670395e-09
331 -1.9650925692194435e-10 4.5565405289233097e-10 3.223490205355027e-10 -3.5304368573283424e-07 -7.12324732834851e-08 -1.615275961344836e-07
332 -6.24286939062929e-11 5.855929608962191e-11 6.283063446755273e-11 1.474496749350798e-07 1.2915530316380795e-07 2.912796612519883e-08
333 -5.485740822519187e-11 2.866106140088635e-10 1.2359195259371847e-10 -3.3321951150858763e-07 -5.799232266746369e-07 4.9242076074930887e-08
334 8.909350734805165e-10 1.580112217590211e-10 -8.023116241558755e-11 -3.5051441568164163e-06 1.9556895217477472e-07 -5.4992701813176926e-06
335 -2.65510203545941e-10 4.248398640687447e-10 -9.47176384462239e-10 -1.675838225142018e-07 2.933441420479288e-06 8.536716901576343e-07
336 4.444422637870843e-11 1.43107065886665e-10 -2.3077712808927758e-11 -2.7934504065668525e-07 1.3516240278780282e-08 -3.3992270540536144e-07
337 -4.457536159838451e-11 -1.9543576379991624e-10 3.0630732988025687e-10 4.2021914460756874e-07 -2.1838919183106954e-07 5.94885750531082e-07
338 1.9515079791198547e-11 -7.435442290935822e-12 1.3922321447017855e-11 2.4539473794167005e-09 -1.969332997831055e-08 -5.480675561924264e-09
339 2.604126993979611e-11 -1.4709689417960804e-11 4.5535556669366344e-11 2.4693083272932778e-08 1.6892695182544388e-08 1.467955496228221e-07
340 -9.671446067517936e-12 -1.5523515020893328e-12 8.779949816233062e-12 -3.9327853737209235e-10 1.1929602785897278e-08 4.945730286633669e-09
341 2.813508123825039e-10 -7.154658421200442e-11 -6.308402855005382e-11 -6.596599436208505e-08 5.484002439517736e-07 3.4046686380290076e-07
342 -5.109822543103109e-10 1.529414816289259e-10 -4.0464135433089407e-11 -1.4142493357638758e-07 1.0088769825585286e-06 1.2803071570112582e-06
343 -1.0950211782199411e-10 8.036263925397541e-12 4.014267401951104e-11 2.918328136278605e-08 -1.1162053696588156e-08 -2.753557654985971e-07
344 -2.1902938427600552e-09 -1.7383634545551588e-09 -1.6353076168154239e-09 -6.042598022489842e-06 -1.4152876467279597e-06 3.019424509116088e-06
345 -6.10938893768853e-11 -6.768042429855582e-10 -2.0380727351731644e-10 -1.5163322522450504e-07 -7.143371755664652e-07 -8.833608729541069e-07
346 -1.0018757108901911e-10 6.384310101776919e-11 -5.849004987651305e-11 3.0041474011930674e-08 -2.6111586230841806e-07 -4.1637770432541953e-07
347 -1.270094772353027e-10 4.9873240138227536e-11 4.987122955991008e-11 1.9319578671434716e-07 8.042832741513482e-08 8.050459409904457e-07
348 -1.2159062790476917e-09 1.7346961004891252e-10 2.959393718975303e-10 2.2823863693703508e-07 -1.70281456218992e-07 -1.9513387443841635e-06
349 -6.433382450984853e-10 1.2835058743347141e-09 -4.6028066041519564e-10 1.2126010415081506e-06 -1.8976579320077524e-06 -3.2056967104440123e-06
350 -7.04531692022919e-10 4.97187515821179e-10 -1.2074573801108105e-10 6.094791877435426e-08 -4.0732146641145917e-07 2.343827333917116e-06
351 -2.2166045963543237e-12 1.6159887936367266e-11 6.987648840490029e-11 -3.118569157818986e-09 1.5462580152317905e-07 2.1249046951408147e-08
352 5.635499774372306e-10 8.451242619433112e-10 -3.4633952303819903e-09 9.56358437707276e-06 -4.860624142808934e-06 -1.6269616196938822e-06
353 -6.735613126350285e-11 1.9253602269285578e-13 7.589141411279047e-11 6.447358979734158e-08 2.6130538956436805e-07 4.0935717923777655e-08
354 2.168552726836031e-12 4.595273762893212e-12 1.3755382206895972e-11 4.2662498509520636e-09 8.850243678079977e-09 -2.2978437839779122e-08
355 -1.481243783854592e-09 -9.038907651464694e-10 1.2201009675383683e-09 2.2869977463059156e-06 3.304150375603187e-07 1.9065118043874004e-06
356 1.0181280653019363e-10 2.1908479179690097e-12 7.151925472318675e-11 2.7016215532385835e-07 1.7156843751471142e-07 -1.3588414580791453e-07
357 -5.421050427290076e-11 2.0601021093881794e-11 8.225717113212774e-11 2.0842288706483607e-08 1.127790801300644e-07 5.906263506239452e-09
358 3.4785390747665694e-10 3.1181739919422756e-10 -4.5734298666054027e-10 -6.224657374288353e-07 1.0203780052336944e-06 -1.6584985960590303e-09
359 -1.7778805676832485e-11 6.288282652910013e-11 -3.686313417666355e-11 -1.1479092782458534e-07 6.703124979158677e-08 3.941060527882823e-09
360 -2.199698355334879e-09 -2.281532729660882e-09 -2.0928875647650145e-09 -5.454839515611328e-06 4.5164733926744575e-06 2.99685286853884e-06
361 -2.8162635240679242e-11 2.883736658731216e-11 2.243856053422625e-11 8.500042579105868e-08 -9.642511951143882e-10 8.742592624580299e-09
362 1.518410605259583e-11 1.429993039880724e-09 -2.168477845378054e-11 -1.3536482871306241e-06 1.6262580897176454e-06 4.979394321721162e-07
363 1.6938324623713434e-11 -6.18646308832745e-11 -4.2528447612423795e-12 -8.279892465799175e-08 -1.5413436689892473e-07 6.073151106685103e-08
364 -6.504219173941892e-12 -9.215813803259024e-12 3.500535960968801e-11 -2.8516435514171364e-09 4.93518856704681e-08 4.022917233387843e-09
365 -3.904177843977875e-09 -7.445798903958174e-09 9.796139151918087e-09 -1.7709700342480077e-05 -3.8289491251944475e-06 -3.1301468381148934e-06
366 1.3653899406289447e-11 -5.721045305391442e-11 2.2997261063879938e-10 1.1779270607293766e-07 1.1673659335383825e-07 -2.930095705462912e-07
367 2.237222588469754e-10 7.390246792635139e-10 -3.3566930868750623e-10 -1.4790979814186932e-06 1.0697084861749106e-06 -1.1216618592073785e-06
368 -2.0896327494872365e-10 2.9278816617863856e-10 -1.6135254131235049e-10 -1.4751841991767576e-07 -1.0636556665790012e-06 -1.3896281511046635e-07
369 3.151779182664074e-11 8.073714808424008e-11 4.651613095456e-11 4.116163079344467e-08 -9.733449072844431e-09 -1.5325597040713878e-07
370 -4.98743775056712e-11 3.247019389974717e-12 1.1052392460742733e-11 -1.4142928149001317e-08 1.0771252505587518e-07 -9.472486937885132e-09
371 -3.3170992376890447e-10 3.34238696534204e-11 2.050840167384701e-10 -2.3900195722078344e-07 -8.806125406172511e-07 5.989226758110338e-07
372 1.4609091061588127e-11 -1.5107336427871955e-11 6.288344312591303e-11 -1.3920454147011588e-09 9.937976444950311e-08 1.595193794395512e-08
373 1.7816320950241337e-10 1.6747881555043544e-10 6.425675005342359e-11 -5.440297167790266e-08 1.6373121134187708e-07 -4.253389477019254e-07
374 1.5104771839829694e-09 2.360886015836348e-09 -5.18326063051491e-10 -2.8402294059623677e-06 2.293831852076786e-07 -2.302369931030711e-06
375 -1.7853787746202138e-11 3.1437398702911674e-11 3.6865494750303656e-11 4.162620583874524e-08 6.013575961885364e-08 -7.105522878671474e-08
376 5.183126975876443e-10 9.363653050897787e-10 -6.189571269999671e-10 -1.6827715943377198e-06 2.7649883240446545e-06 1.8138934733342477e-06
377 -4.256047770365871e-10 -2.1520637154601017e-10 2.339507163466383e-11 1.2858955051238206e-08 -1.0124194399497614e-07 -4.582428471193915e-07
378 -1.4615876045743907e-09 1.0040174057298904e-10 1.4015191040248829e-09 -1.335817331334517e-06 -1.4044776746397682e-06 -4.186196409044895e-07
379 -2.1733965481334827e-12 -2.687660863068196e-12 -3.905058116064232e-12 4.635591568630202e-08 -4.87469168730073e-09 7.515971422617024e-09
380 -1.0190705970497764e-10 -5.146779796644605e-10 -1.5808233653115257e-10 -3.0141873748847133e-07 6.511998655906535e-07 -2.409985745519631e-07
381 -1.3332028094569736e-10 6.127089520963448e-11 2.341761610021271e-10 -8.090651138610865e-07 -1.9904482803784266e-07 -2.83340978962123e-07
382 9.885623645252886e-11 -3.597748089651978e-11 -2.275316521600175e-11 1.2033180774634946e-07 -9.337999895204199e-08 1.6637177882976596e-07
383 -6.28830511412998e-11 3.297420648392239e-11 -6.015173840802761e-12 1.367980825693298e-07 -2.275056412907237e-08 -1.5213693161239407e-07
384 -4.0858731035679323e-10 1.7623510057384376e-09 -1.962271695147451e-09 1.9193655736936456e-06 8.533088007443426e-06 6.361778255979471e-06
385 8.161372859053596e-11 -5.844446252167157e-11 -3.143512043956417e-11 4.237256049733798e-08 -9.206523638985204e-08 1.2698155349362048e-07
386 8.874714374765724e-11 -1.5361328375653175e-10 -1.0035713400568028e-10 -1.8426843031129728e-07 4.687940527439802e-08 -2.1550922528537508e-07
387 -3.4473770017093494e-10 -3.2526074092047985e-11 2.9157778052100967e-12 5.3049482484254767e-08 -4.2650977338417576e-07 -3.5390901780674764e-07
388 4.901447768393655e-09 7.15136264372808e-10 1.1412153567263814e-09 2.561590849995569e-06 2.022491093185661e-06 3.3343323935349683e-06
389 -6.504789080927348e-12 -8.218938510610509e-12 -2.7978117962488537e-13 2.67581938065277e-08 -8.966484558000735e-09 9.89621238546508e-09
390 -2.3679918011344295e-11 -8.224012065992889e-11 -7.887460727515531e-11 -3.6340094983555214e-07 -1.304603597732973e-07 -2.7432714741378345e-08
391 1.945524866031911e-10 -8.764719460625494e-10 -7.317963454243724e-11 -1.192756033932529e-07 -5.964032795197495e-07 -5.22496577003396e-07
392 3.819767424072897e-10 -8.036124563777675e-11 1.721662296575822e-10 -2.582200844077282e-07 9.044893284777514e-07 -2.1518577322763563e-07
393 -1.7696278855147555e-11 6.5045952162185715e-12 5.14560879289686e-12 1.64043293777102e-08 -1.0017290705750751e-08 -9.946524248174241e-09
394 6.506132435586837e-12 -4.5167276603536535e-11 1.3007727952375214e-11 -2.742231914453168e-08 -3.8127909420498836e-08 7.507514052618879e-08
395 -6.288336561770508e-11 -8.802927881369838e-10 -3.472367520751825e-10 -1.315815581066152e-06 -5.006505978970759e-07 5.048309982670405e-07
396 1.1576673172491268e-11 -1.0842442863048737e-11 9.720351275246406e-12 4.385148119732502e-09 8.959140872033888e-09 3.5982398021425352e-09
397 1.8433280034951222e-11 -5.611439812140355e-11 -4.6617480582192316e-11 1.519288365280683e-07 4.5570554393650185e-09 -6.5909728780954796e-09
398 -3.25951372834044e-11 1.1483767913712619e-10 -7.372488186327334e-11 -9.609077595599219e-09 8.48291211170425e-07 1.1086538195401456e-07
399 8.788708885707944e-11 4.956646354634698e-11 -3.211105158115645e-10 -2.075384550360915e-06 8.211075972552964e-07 1.3451474291105808e-06
400 1.1549526910148409e-10 1.8603115461016333e-09 -6.151243563248187e-10 6.891988903171145e-06 4.1512810063497097e-07 1.5416448401529545e-06
401 -3.5739976575836235e-11 -1.1567577633237819e-11 7.263613849607146e-11 6.927898051255965e-08 4.302577913638538e-08 7.803320842580741e-08
402 -4.443728789031214e-11 -4.86870376927497e-11 9.696355605386483e-11 1.2347292125129555e-07 8.285217021699346e-08 1.6624317602966264e-07
403 -5.369241333322438e-11 9.347276920776499e-13 -3.081760972312445e-11 -9.718498852968987e-08 -1.1386479461334228e-07 -1.2487469272327694e-07
404 8.795967227641927e-11 1.238203627849017e-10 1.8255179326329032e-10 1.1445786975760888e-07 -3.675696040838362e-07 9.196315242201313e-08
405 -8.30849483096542e-10 -1.7941478855626086e-09 5.507761966325914e-10 1.4854288061311697e-06 -2.275335407593011e-06 -9.517288128683501e-07
406 1.4195540682411479e-12 -8.170760607537111e-13 -6.5090755925965476e-12 -2.4927492389671234e-08 4.6683763307029624e-09 3.000007485030527e-09
407 -1.185986693627294e-09 1.2489081132584268e-09 -2.9714973122823544e-09 3.2547417673417536e-06 3.162524792472436e-06 -1.506800166212898e-06
408 4.9865514556050815e-11 -1.8417134108382619e-10 -1.8650379836414867e-11 2.2249440034186946e-07 -5.052300439610274e-08 2.691589024795544e-07
409 7.288256223199795e-12 3.465606438407785e-10 4.4566577757608933e-10 6.252005694785861e-07 -8.688533265611662e-08 2.4603712884038364e-07
410 6.075545988154842e-11 7.352625235431332e-10 8.804937004046722e-11 -3.941516739441269e-07 1.158281253137274e-06 -1.7443992939319724e-06
411 1.6305174958800234e-10 -7.18684929357752e-10 6.724717199639821e-10 1.9696848130298116e-06 -5.85486348735527e-07 3.164521336287298e-06
412 5.113030286496335e-10 1.200055390599993e-08 1.9647104622370387e-09 -2.6636609509747826e-05 -5.0921041700711936e-06 1.283843899767957e-05
413 2.896917373212633e-11 8.851382608726569e-12 -2.9092256590522847e-11 -3.578941134495867e-08 -8.93025361800841e-08 -4.8505467140129666e-08
414 -1.3754541322588965e-10 1.670566546970673e-10 -1.0826985328029518e-10 -5.05319255906319e-07 1.1045069067837412e-06 1.8997677518079424e-07
415 3.167620332480906e-11 4.470663887398486e-10 3.335159192081134e-10 1.5208590393411182e-07 8.032817807547196e-07 -1.7061809527588236e-07
416 -2.249433102865868e-11 -3.2520047055681976e-12 -1.0843836617575798e-11 -3.020217811768832e-08 1.7705975228246797e-08 2.9236180493923866e-08
417 -6.680773135248163e-10 -1.2350975530333955e-10 2.186847281001342e-10 -5.838377231827898e-08 -2.118310271245269e-07 1.021768832213648e-06
418 -2.509793652656825e-10 1.228890915136921e-09 -1.4869512379783095e-10 -2.815946798307123e-06 5.795864721395257e-08 -3.8112952772307525e-06
419 1.4898216084075877e-11 -3.102810313080548e-11 4.987201778247489e-11 3.9553637338401545e-08 5.975689809943452e-09 3.824782915271423e-08
420 -7.485160129451797e-10 2.8648191509528924e-09 -7.224443260773206e-10 -9.476687103510248e-06 1.4270002985894363e-06 -2.9372850539716765e-06
421 2.362587909354832e-11 -2.42462988467422e-12 -3.233469189102644e-11 1.1677910089673821e-08 -1.428540791361121e-07 2.347339644822545e-08
422 4.3801286175522365e-12 1.1927739651729488e-11 -3.7052164988433025e-12 1.1707925252042512e-07 -5.499991697115436e-08 2.384782194352654e-08
423 -1.9385975609732403e-10 1.2759282943753297e-09 -1.614667071403261e-09 -3.5010352454733896e-06 -6.570070567719378e-07 -2.181944521618652e-06
424 -1.3600491378976221e-08 2.3847846708404246e-08 2.8507193333183735e-08 7.604692988182781e-05 1.6255585908440403e-05 1.0481928018875017e-05
425 -7.039886903462297e-11 9.995381528009885e-11 2.168379311122086e-11 3.047895398926388e-08 7.794567107341723e-08 -1.3334372977610052e-08
426 1.0841475358945257e-11 1.6703872891419985e-12 1.1389188038017138e-10 1.2819169636058663e-07 1.967242407697081e-07 -1.4823638739631973e-07
427 9.324249733190955e-11 4.065819580290066e-11 1.2699342625790896e-10 5.469402530795409e-07 1.8469611343654353e-06 -3.590410097007847e-07
428 -4.544075214493664e-10 -6.967742925532632e-10 -6.290932549108576e-10 1.3916670420537608e-07 4.2683129322901706e-07 1.6934321751674296e-07
429 -3.205901344254893e-10 -9.979947468499959e-11 -2.0694933300656054e-10 -7.28561036222036e-07 1.0201138883624936e-06 -7.316666578235469e-07
430 -2.0666276837908326e-10 3.168018655617992e-11 4.193051273079113e-11 -1.1187201483506063e-07 -3.3849432607237264e-07 2.11692436691728e-08
431 -4.647447277947632e-11 1.60323038527839e-11 7.163241307305058e-12 3.62590224095127e-08 1.0827841644051944e-07 3.2890125991521353e-09
432 -7.364041766077015e-11 3.686275562755426e-11 1.7330131161602923e-11 2.8840894332038394e-08 -1.0080315998516471e-07 6.710293534411192e-08
433 -5.959876933353222e-10 5.624755600269106e-10 -1.215897885914959e-10 -4.152460633993771e-08 1.637701924191408e-07 -4.934941200767967e-07
434 -1.5456933556560666e-10 1.1545314936884154e-10 8.88183284841926e-11 -1.71335712330903e-07 -3.522685136945477e-07 -1.460758590254174e-07
435 3.884669509201272e-12 5.08625067961488e-11 -5.3635304972440286e-11 -9.147052436110488e-08 5.874716284235717e-08 -4.0192998033053125e-08
436 -8.364892649538383e-12 5.678825088809956e-10 -5.834955262190317e-11 -4.271810380823837e-07 1.227752684888609e-06 -1.1394101294306327e-08
437 -2.8435882911175125e-11 -1.4080660409709077e-10 1.8336966744417366e-10 1.786885654730558e-08 -8.129290992547789e-08 -1.7735140116892061e-07
438 -8.456768517508686e-11 -8.05549165947157e-11 -9.359469492880944e-10 -6.555801242614041e-07 1.3465022568416446e-06 -1.5709142980071228e-06
439 3.0356409925790496e-09 -2.645480935624642e-09 3.5764518257492947e-09 -2.3716101675728975e-06 -7.401485737918601e-06 -1.9874396607061634e-06
440 -1.0840560185949381e-11 1.6140478676458815e-12 9.183560958194143e-12 2.245099210106928e-08 -2.1662586081661305e-08 -3.123556521568595e-08
441 -2.175891901679351e-11 -1.3614334059121664e-10 1.2559363491303609e-10 -1.619096219886096e-07 1.7066901191553432e-08 3.025939731288008e-08
442 6.224330139182718e-12 -1.095281562720243e-11 4.33739598138499e-12 6.884472986960846e-09 2.6023737089557807e-08 -1.9687449991366528e-08
443 8.678633388681501e-10 9.141669811706622e-10 -1.1709624546764823e-10 -9.354018648238441e-07 -1.504445008052301e-06 -7.302240675002628e-07
444 7.29879707839851e-11 -2.3207208403832448e-11 -1.0841607681579911e-10 9.989544627585285e-09 -4.003659605453578e-07 -8.065346524057851e-08
445 -2.9429013770552586e-10 1.6034217949900643e-10 4.697237624854859e-11 1.78312711627207e-07 3.033873321307774e-07 6.608791137440169e-07
446 -6.969142637007014e-11 -3.5293552731698394e-12 6.747869022496918e-11 1.289635726118376e-07 1.0866091210273277e-07 1.53906249462667e-07
447 1.3019394395269804e-09 -5.65984964889073e-10 2.4864661575796884e-09 9.945070564525648e-07 5.542013942194368e-06 1.6065165196926767e-06
448 1.3151937164883823e-10 -2.0164661509042075e-10 9.107299840427757e-11 2.0590040497017546e-07 -8.735439437502753e-08 -9.567062870372699e-08
449 -3.612292520094349e-11 -2.8189652203399898e-11 -3.0357591688789e-11 -1.569652122584626e-08 2.7253336896163013e-08 1.507377470010504e-08
450 1.3198775116587735e-10 -1.2235203561383625e-10 1.344320450321018e-10 4.364245399361216e-08 -2.671924509873459e-07 3.8153639313415647e-07
451 6.025170959978116e-11 1.1533489389044869e-10 -1.1040958028084867e-10 -1.7067823436718954e-07 3.4493823145434794e-08 -2.2550859487101371e-07
452 -4.987346876395055e-11 -5.713290771024157e-12 2.8416400145311584e-11 -9.648560597223551e-08 1.642191802084243e-08 2.3838022309392954e-08
453 -5.824423050232251e-10 -1.9860376709602285e-10 -8.240063887818927e-11 -6.862133895274414e-07 -3.5878243676625225e-07 4.616431015320903e-07
454 1.5180072635178198e-11 -5.411443969165686e-11 1.4314882743329234e-11 3.813664533899952e-08 -1.1072528957971418e-08 4.455028219160793e-08
455 2.7957593233215382e-11 -4.336324180987633e-11 4.770524048106688e-11 5.102641705689438e-08 1.0302382422450515e-07 6.658665703054278e-08
456 3.6864609695194285e-11 -1.2290705163249769e-10 -6.505177351781927e-11 -1.9915474564778083e-08 1.148106342961051e-07 -1.7436699511003757e-07
457 -6.5051341001681294e-12 -1.199977279266801e-11 7.372479702674336e-11 3.578760782652022e-08 -8.221556308750499e-08 -2.9113330671091062e-08
458 1.2193772446071178e-09 -2.24662973917305e-10 8.488412156963031e-10 2.646726516425494e-07 -2.7200105082548208e-06 -2.182184959142768e-06
459 5.157720062727919e-10 -8.3691156697439e-10 1.1707390375868876e-09 -1.0096276216064406e-07 1.4025899407074223e-06 7.938166859453951e-07
460 2.7401847739068823e-11 2.4064597556174514e-11 4.7667342881611164e-11 -5.0242124758218506e-08 -1.0817096024728843e-07 8.955457780017566e-08
461 2.5891333259225323e-10 3.54187273609471e-11 -1.0016398352078284e-09 5.420920561005819e-07 -1.3197921333695488e-06 -4.974932972518317e-07
462 -4.702987145280747e-11 -1.2915592788359707e-11 1.3010011258692276e-11 1.8391155664296745e-08 -1.1589507739288859e-08 6.100343310295482e-08
463 -1.7962636167585344e-10 -1.4540131022042218e-10 -1.4029735082422422e-10 4.2388752588774224e-07 1.1714047323081671e-08 -2.726696085305114e-07
464 1.524861345349632e-11 -4.715936072473563e-12 2.230883560060794e-11 5.2473950942388955e-09 2.573201478882711e-08 6.032055339405944e-09
465 4.532140443816282e-10 -6.242489970907996e-10 1.1414477656194684e-09 -1.0241456104394866e-06 8.143147249414637e-07 8.811850386829098e-07
466 1.9987124249530465e-11 1.9509925605107877e-11 4.337155717284087e-12 1.8194639736335005e-08 -5.506446244440716e-08 3.02524850725986e-08
467 8.890291200736661e-11 9.190277573929687e-11 -8.235403140268543e-11 -6.628225924058081e-08 6.825089319329708e-08 1.6661390858531583e-07
468 -6.471059966172523e-12 -1.628111703777211e-11 -3.035671840102029e-11 8.198011771186492e-08 -1.1983196855726327e-07 -4.640369478907461e-09
469 6.423613272654868e-11 -1.6068301319459314e-10 1.1688401063564533e-10 1.147982143953712e-07 -6.769933630642067e-08 -2.2719513458181055e-07
470 2.87428429635993e-10 -9.91439618839036e-12 2.108259243015414e-10 6.095577721841092e-08 -1.826180017024493e-07 -7.142741125437814e-07
471 1.5464894107914478e-10 1.0618540904988062e-10 3.035324276426937e-11 1.4177648246155848e-07 9.641392094766992e-08 -2.4044161747341835e-07
472 9.472658788504836e-11 -1.2532122488950425e-10 7.372651385279026e-11 -1.0770987822876715e-07 -1.1369909402517626e-07 -4.856458768437847e-08
473 1.076919805411845e-10 -1.0160579964118942e-10 4.335200235277175e-12 -2.2732414572510944e-07 -3.8898129079418397e-07 5.8577653072582494e-08
474 -6.666551591882583e-11 -2.4277588274212786e-11 -4.063956417614637e-11 -5.7917133673495055e-08 -1.9208061161274748e-08 1.6822416447507997e-08
475 -3.686982529087439e-11 3.295413932166222e-11 1.0652677908664093e-10 -7.524784676466545e-08 -4.06238276376812e-08 -2.8561164151857922e-08
476 2.1580451904071535e-10 -1.338433351749921e-10 1.2576643436677785e-10 -2.3523709589822e-07 1.5799506164503448e-07 2.2844345552165544e-07
477 1.7884846882881657e-10 -2.6108834198213436e-10 1.851489094594375e-10 -3.140059980685934e-08 1.0897998784504097e-07 2.4425153273613953e-07
478 1.0343092171631714e-10 -1.3619071029240287e-10 7.372401113970944e-11 -8.647585730635944e-08 1.0171196585420959e-09 2.6576618040128894e-07
479 -1.0420306339640786e-10 -5.600765668205076e-11 -1.4113566179017561e-10 8.164636177124112e-08 1.1612005220811094e-07 -1.1743926022427448e-08
480 6.061998707585702e-11 -3.458314121892809e-11 -2.3154647485004476e-11 5.214030408233063e-09 -2.474435211721806e-07 -1.1350640106061452e-07
481 -3.4984879122083754e-10 -1.1213861845889959e-10 -2.2972897196209317e-10 4.29640552769734e-07 -3.507854436578593e-07 -4.330783166754122e-07
482 1.319393121517471e-11 6.721258068733651e-11 -2.611241356076328e-10 9.585191756942362e-08 -6.066256048998643e-07 -1.0264570205494587e-07
483 -3.0741436573253675e-11 -5.8558651192665e-11 2.9046394767378076e-11 9.979698122814952e-08 -9.764977526390402e-08 8.732756637087645e-08
484 -9.578456195791719e-11 -6.072750798858512e-11 -1.3010566473097989e-11 3.7360813161069273e-08 -3.688189293269442e-08 -6.879396849955738e-08
485 2.5451472002419692e-12 4.366162826706438e-12 2.16871970833363e-11 5.6596608186200706e-08 1.0498618517990455e-08 2.668612004061676e-08
486 1.712979449972807e-10 6.6365374676812874e-09 3.983897532003856e-09 2.2401379287833997e-05 -4.821394188283275e-06 -3.408093967411766e-06
487 -5.859722473023466e-10 -3.7385388666469793e-10 1.517884739515237e-10 -4.226886384958178e-09 1.0748159651457252e-08 6.689319677951615e-07
488 -9.371832693493373e-11 6.226088683923818e-12 2.330461323472447e-10 -1.9398571055788783e-07 -9.77669665352852e-07 -1.1593514345300908e-07
489 3.377662063459732e-10 -2.886768429286749e-10 3.662505062622948e-10 -7.771384836612955e-07 -2.726205844451375e-07 2.895252684322628e-08
490 4.170648693874305e-11 -6.50595391269048e-12 -4.9899188606323215e-11 -3.843337230178334e-08 2.3021418002180242e-08 4.359095883656663e-08
491 1.6424036571955699e-12 4.459445992009848e-12 1.053059236825786e-11 2.132716633023435e-09 1.4192744420908004e-08 -8.280145219904924e-09
492 -4.4493689052423995e-10 -2.0987703677173444e-10 -2.2105835538900968e-10 5.946419271678351e-07 3.426057473019985e-08 -5.713936909251124e-07
493 -5.480386061870889e-10 7.55409245725097e-10 -9.090502756165455e-10 -4.834518479019245e-08 -2.821752778223861e-06 -3.8544723525723303e-07
494 5.026362146765141e-11 2.674838457167762e-10 -1.5813891080173195e-10 -2.6473050449072663e-08 -7.98843501601837e-07 -1.2220192498511298e-06
495 -1.4094481302265377e-11 3.7505752591395414e-11 -4.4657845371140025e-11 -1.1368930081046538e-08 -8.981501656165213e-08 -4.008954760375463e-08
496 -2.1892689994235547e-12 -6.715968572101967e-11 9.388940366338936e-11 -1.6356708035351801e-09 9.881037765472226e-08 -1.0375600915713519e-07
497 3.4169128439770774e-10 -1.0925301979902454e-09 -1.0591341045971416e-09 6.537555947444123e-07 1.3940451109267765e-06 -1.1150063637499333e-06
498 9.893164170732479e-11 -2.0371981426938476e-10 1.301124209234894e-11 5.249798147405333e-08 -1.1370908716673251e-07 1.47163040619507e-07
499 -5.096961889242348e-10 -4.263542807560661e-10 -2.552097285640251e-10 -2.9139758123660165e-07 -7.845191900144524e-07 1.0617243420287372e-06
500 1.8423834936663036e-10 4.1060246404700364e-10 9.439637774264277e-10 8.777196883011614e-07 1.23639184620106e-06 -8.473969094167614e-07
501 1.2553284958167413e-11 7.564963812978003e-11 2.1782161404942467e-11 1.961780486665605e-07 1.2788451834853491e-09 3.3068209430962276e-08
502 -8.677372009239377e-10 2.031362032282856e-09 -3.685163978315525e-10 5.669831584229068e-06 3.8477993439269586e-07 2.6078128603499634e-06
503 9.193553460781951e-11 -3.306488338869982e-11 -6.50621944857919e-12 -1.522529678454584e-07 -3.659995068610707e-08 1.8782598371760488e-07
504 3.549699659454126e-10 5.339164867735249e-11 3.335842974354408e-10 9.567827249144751e-08 6.276913663532213e-08 -3.473025956572222e-07
505 2.7382739178418022e-11 -6.617846787652341e-11 3.903224207567454e-11 1.4630269306024366e-07 -8.794784257181023e-09 -1.885840948258204e-07
506 1.2513646216517438e-09 1.1419363454566811e-10 -4.1634150963270465e-10 1.7779767941164944e-06 8.534420375310885e-07 9.450512124514251e-07
507 -6.654907740788475e-12 3.1526559673409757e-12 -6.510337866517073e-12 2.6754148538557183e-08 4.304530273549221e-09 -6.487539065936274e-09
508 -5.3660552107245505e-11 -8.634043460109052e-11 -5.842162787947485e-11 1.9051561882705284e-07 -6.008734710179006e-08 3.5327229879795548e-09
509 -1.2274838431486877e-10 -4.221278737715241e-10 -3.241217030923949e-10 4.065045912819514e-07 -1.8632510201791675e-08 -6.451559310829439e-08
510 -2.5591145532401726e-11 7.877213135742023e-10 -8.09952300308767e-10 1.3845850798762595e-08 -2.044317729615651e-06 4.3330704784321074e-08
511 1.1021935997156434e-09 -4.6231787039705443e-10 1.3009860566614592e-11 5.535678130286303e-09 -6.759025350940556e-07 2.893592606191912e-07
512 -1.8743786217660032e-10 -2.2541922050648444e-10 -1.6046279579030247e-10 -3.9583667742632417e-07 -7.350675671699872e-08 2.0293622525875526e-07
513 8.178594065177967e-10 -9.213356807148419e-10 8.31519939854687e-10 1.4732500386718034e-06 -7.507467076568237e-07 -4.060509369598493e-07
514 6.505438458943705e-12 9.312775847813047e-12 4.336751391879496e-12 -1.1985093954884896e-08 7.188195674847029e-09 -1.2732377182944057e-08
515 2.5355287714056833e-10 1.3909530363987968e-10 1.9830211609742844e-10 1.089130755227684e-07 -5.382723672046639e-07 4.435002031820473e-07
516 1.9508577855255302e-11 -3.087895670142182e-11 4.763875084272606e-11 6.901567020900404e-08 -4.043157499010746e-08 5.392987263004205e-10
517 2.108049643078059e-11 -3.988719754735892e-11 -4.335662020048313e-12 5.51290039776419e-09 -9.008497701583545e-08 5.764314921270949e-08
518 -5.206612566545077e-10 -3.853483932560216e-10 -1.6045314241489293e-10 9.362165700049846e-07 -3.0673453190548364e-07 -7.318485894006507e-07
519 -3.396643794231838e-10 -2.694337083527944e-10 1.014824630831212e-10 -5.534307928423028e-07 2.777402745955181e-08 -2.0282723574198892e-07
520 -1.0942078468374048e-11 2.5835292869240554e-11 3.402732578564162e-11 5.9137472697630504e-08 4.582067486538438e-08 -6.88087928357349e-08
521 -1.0842857280750756e-11 -3.2520963937827156e-12 -1.1186594734787416e-11 2.871510528043512e-08 -2.071339117876782e-08 2.182142287869826e-09
522 -2.443311730121552e-12 -2.4438944251599578e-12 4.337508583235471e-12 -1.0215025683405115e-08 4.306554206889332e-09 -2.6303722015118626e-09
523 1.098166225144151e-11 1.0740315200346373e-11 -1.3019880737612852e-11 6.507333493366807e-08 3.827463305803725e-08 -4.126293969986442e-09
524 1.2499059408956199e-09 2.0236308320223192e-10 5.543597632379724e-10 -3.599595291013143e-09 -4.2128954895170086e-06 2.1160989000687102e-07
525 5.578958629952728e-10 -6.400824638932542e-10 4.546772915397263e-11 1.375288342889854e-06 2.299069237511369e-07 -5.346839357204067e-07
526 -6.254127494482636e-10 -6.035687245244471e-11 4.987537608708277e-10 -4.967331240569227e-07 -7.484449669355301e-07 1.6051749364847921e-06
527 7.444609558029356e-10 -5.975289596375034e-10 6.386125607752293e-10 1.4538581542479914e-07 9.878619174518626e-07 6.810773587113961e-07
528 6.506683507362664e-12 6.504658626766456e-12 5.377944801025813e-11 -4.0749006088349174e-09 9.636628109626363e-08 -2.118666975946644e-08
529 -7.268090901247965e-11 -9.002457057287469e-11 4.337076549292905e-12 2.146021229427126e-07 -8.374780932134548e-08 -2.2046827958219287e-07
530 2.3848972803882206e-11 -1.3869718710170433e-11 2.1719923421317573e-11 1.49531568570031e-08 4.709539394437278e-09 7.728953404314408e-08
531 -4.1200841985834944e-11 -1.1974942626600114e-10 -6.391267549831545e-11 2.4553803696904263e-07 1.6524948898146128e-07 -1.9455975728252e-07
532 -3.207842918420718e-11 5.022702000461698e-12 -3.645350208726346e-11 -5.694110463070039e-08 -1.775348555413672e-08 1.4484200745260557e-08
533 1.9936886459510873e-10 -9.162456748005993e-11 1.778304920521434e-10 -1.351706526983622e-07 -1.4188495245988721e-08 6.552227533613095e-07
534 -5.466214980223863e-10 -2.1719094315024023e-10 3.03595429690799e-11 -2.497296660363708e-07 4.398802142509734e-07 -5.846784377161062e-07
535 1.5117214967964274e-10 -8.637620602678915e-10 4.3501093112474063e-10 -1.0716544019137403e-06 5.863638522615435e-07 -6.183977279724111e-07
536 1.454433003629906e-10 -8.605426934697332e-11 4.4841904022652796e-10 2.702362266730687e-07 -2.4617833928197796e-07 -2.8856051612372538e-08
537 6.749013566422952e-10 1.0704576934507509e-10 2.1986483872132516e-10 -3.3656881377510543e-07 3.0132494168450705e-07 8.60312448021583e-07
538 -1.1274976448186197e-10 -1.0776299802328562e-11 1.3010941749131919e-11 -1.3928564628779936e-07 2.336648669712923e-07 1.5510893787628113e-08
539 -8.177732565174713e-10 -1.0467907046527662e-10 4.995403128581088e-10 -4.662651197658696e-07 2.788810245622005e-07 1.0597886272642973e-06
540 2.3574815893237226e-10 -3.5180756426315765e-10 -8.724055530158704e-11 -1.245553030415963e-07 -1.836891920601709e-07 -7.636088992556265e-07
541 6.505762883580726e-12 -1.1110719866646809e-11 6.293535254209478e-12 2.0220849417568996e-08 8.77626354054172e-09 1.2604759533231767e-08
542 -4.207776608805571e-10 -9.317830701038694e-11 -2.285265603304506e-10 1.6681404580554364e-07 -1.698077411910112e-07 -1.8876996911422277e-07
543 4.4875192144413697e-11 -1.8474231900780629e-10 4.602249910292049e-10 1.1001860312297989e-06 9.885307623238056e-07 6.928465089656296e-08
544 -4.2557052046585284e-12 4.4200199854567394e-10 2.279583964546123e-10 1.5197918033912929e-07 1.0014124242757059e-06 8.838881574419903e-08
545 1.8134145242720164e-10 -8.0725450124545e-11 4.362141021653736e-10 -3.574984208796481e-07 -2.0814633771509028e-07 -1.2027111551505201e-07
546 1.20558083920705e-11 3.06821782686207e-12 -4.766800480762492e-11 -1.4134905064733384e-07 -3.370445643012685e-07 -1.4890787096836222e-07
547 -2.1654117142387744e-12 -5.969819501205672e-12 1.0800752941941368e-11 -9.051255563059876e-09 1.2862304283854285e-08 1.503426893454743e-08
548 -6.84749385484874e-10 4.3734136230809413e-10 2.2980371373467216e-10 1.5686166135775095e-06 -6.017381593768795e-07 1.026031284651646e-06
549 -1.6389085018475335e-10 -2.8427098728630486e-10 7.850607755050943e-11 2.952566666599821e-07 -8.71301765458274e-08 3.156714451962184e-07
550 -7.518561803275823e-11 3.862966622815199e-11 -3.6874786921355734e-11 1.333629828116822e-08 4.986588096981119e-08 4.082449253922374e-08
551 -2.688856585286529e-11 1.9310257600678303e-11 2.1683707184215407e-11 1.00383535203796e-07 -7.401435077265532e-08 3.7779501338099204e-09
552 -1.8164995180693783e-12 -1.1166499904816035e-11 4.374834223952177e-12 2.7952265893050173e-09 1.5478674498914408e-09 1.0818666692495603e-08
553 3.5190410170486093e-11 -1.831530793796133e-10 1.6913407376600485e-10 -6.776379365583288e-08 2.2311725214818166e-08 1.6405766450090172e-07
554 2.989172304747774e-12 -3.7253759855700064e-12 8.26312397764004e-12 -9.928376665985015e-09 2.5223172873178067e-08 2.436814745805251e-09
555 -1.496950992979461e-11 -1.0141569548690444e-09 1.096516928329054e-09 4.0326553738427687e-07 -1.7960813134796073e-06 4.944962815722095e-07
556 8.751200858506766e-12 -4.1337309384440255e-11 4.336661954080285e-12 -1.1876852170036663e-07 7.698665896822646e-07 1.5708339309344126e-07
557 1.3145827824230904e-11 -2.852351338957631e-12 4.338226443145301e-12 -1.9011232198836863e-08 6.731739322565749e-09 1.4790094461042883e-09
558 -7.780876718683346e-12 -1.0129993491984135e-11 -2.169436135094188e-11 -8.102749743280421e-08 1.2882636078520095e-07 -1.756314217646338e-08
559 2.6648101205407195e-10 1.2191151865706313e-09 4.0548242926736406e-10 2.292026048679043e-06 -9.843920643837598e-07 9.770495818634452e-07
560 -6.303608627166099e-10 1.0050595503539964e-09 1.605278034539222e-11 1.3443103216718532e-06 -7.244802188023831e-07 1.4289965426939423e-06
561 -1.2572621643756696e-11 4.642249656044517e-12 -2.1686683148106824e-11 7.786478012658762e-08 -1.0149351269685395e-07 6.113430633064727e-08
562 -2.442367549823555e-10 1.8373871125461068e-10 -1.055844932021305e-10 -7.783638874193842e-08 2.4788101288677704e-07 2.761000713085754e-07
563 -4.378374865035461e-10 -2.2334347761362384e-10 -1.6899305517789358e-10 8.333277702858882e-07 -4.816444778347774e-07 -6.730919439074399e-07
564 -1.229025853256279e-10 -1.4961249719204347e-10 -1.5252894738577365e-10 2.094195175553699e-07 2.438560222159629e-07 -1.4841507210001553e-07
565 -8.364864166076427e-11 -4.9000275320231583e-11 -4.033973109333038e-11 1.553699772696587e-08 7.348037937274108e-09 -1.5193629890621916e-08
566 -1.889404911684554e-10 3.7115014183010217e-10 -4.178233504640673e-10 5.224372833867811e-07 3.2523067968033877e-06 5.413908052233452e-07
567 1.7204146028478215e-10 2.8452810033719267e-11 1.8657605124227194e-10 5.469510891557279e-07 -5.306493750661e-07 -5.11365697603734e-08
568 1.865393617488548e-09 -7.227639003773619e-10 4.726989970791103e-10 -2.2099036332542905e-06 2.6702394125884153e-06 -2.6888301672894035e-06
569 5.108502719121929e-12 3.2862141412732077e-12 4.336742096393033e-12 5.390685364184955e-09 -7.287310772320912e-09 2.1862945013385636e-09
570 2.0922446377513052e-12 3.1357655279908992e-12 -9.137630377037357e-12 -9.79223964252962e-08 1.334865347895976e-07 -2.6741137883553926e-08
571 -6.675594187885178e-10 -5.939822838149693e-10 8.180969098593984e-10 6.976570066927289e-07 2.983590396307035e-07 1.324717008724256e-06
572 4.310641625964944e-10 -9.199800921447282e-10 2.411306147883292e-10 8.902833078621372e-07 -3.3678505074732285e-07 -4.608046100503687e-07
573 -6.421331543121441e-11 -1.2092126041071935e-10 8.239832010749337e-11 2.1377165385633345e-08 5.461628610465482e-07 -2.5404299284936523e-08
574 -2.3236737566128986e-10 2.384108238783637e-10 -1.3159268724670886e-10 7.417016061700434e-07 1.0255250670915403e-06 1.4049033356947282e-08
575 -6.5047151530767256e-12 -1.0953952669548233e-11 4.08338218023843e-13 -2.4091671783171778e-08 1.8760193469620853e-08 7.89307507178538e-09
576 2.9239590286386277e-09 -7.062977179026966e-10 -3.9133209188873477e-10 -9.464616588007225e-07 -4.786504971068182e-06 -2.428707854337014e-06
577 -3.289629189614268e-11 4.564245912948326e-11 -3.740559567267341e-11 2.113718122003683e-07 1.622803592914981e-07 2.060338384647189e-07
578 2.8198494136900902e-11 -1.517875100789624e-11 4.991172620483077e-11 -7.672359281303354e-09 6.774053617624395e-08 -2.1052990179418807e-09
579 -1.179480958709306e-09 4.106083601953606e-10 -5.975261403630052e-11 -2.918714763160024e-08 -6.355959377763552e-07 -1.4517588792524347e-06
580 3.204076073251213e-10 2.6964588017016495e-10 -2.8536425402240194e-10 -1.8953398909753219e-07 -1.986781336103329e-07 -1.5564035363202512e-06
581 7.233358787223149e-11 -7.0994580955662794e-12 -7.031577009751715e-11 1.9690373830254107e-08 5.969992389570562e-09 -8.406151766516896e-08
582 3.632127161847364e-11 -1.8013548777968753e-11 4.866114209703348e-11 -5.226408647604786e-08 2.8323197074639062e-08 3.93820103774555e-08
583 2.9261204016117635e-11 -3.5147680577738555e-11 2.47107694797652e-12 8.14243145236481e-08 -2.887779493557827e-08 5.908576526157607e-08
584 4.87195373349226e-10 2.9755775877890554e-10 -1.3435275588064965e-10 1.1332549200564008e-07 1.4925313277120872e-06 3.276213994384733e-07
585 -1.23935787098586e-10 3.761732571791058e-10 -2.5851125082401143e-10 -8.766341321297323e-07 -4.4220333779451474e-07 1.4243748946405393e-07
586 -1.9694129623074877e-10 4.279434354967448e-11 -5.74437174482712e-11 -2.349514520146515e-07 -3.844364217578969e-07 7.086959401257703e-08
587 1.0375977105163855e-10 4.42515330345937e-11 4.34784930925519e-10 -1.013634076467832e-07 -1.4192338351605857e-06 7.798671817512662e-07
588 -6.037258552434689e-10 -3.044211000727603e-10 6.516624012898952e-10 8.983032612382182e-07 1.462260926326352e-06 -4.084284815118658e-07
589 3.0936849192989595e-10 5.85375976161699e-11 -2.3873472792319914e-11 -2.322603106582309e-07 -5.465095950392353e-07 -3.327722176158075e-07
590 -5.819775121227324e-13 -4.882450461401631e-12 1.3010832046609115e-11 1.4244722505397779e-08 1.686699030457864e-08 -2.7708046353387206e-09
591 -1.6683673996151653e-09 1.824722947531479e-11 -3.148326675849453e-10 9.326754414391417e-07 2.5003423441772686e-06 -1.8987807970569183e-06
592 1.0186368264528268e-10 -4.229417232680606e-11 2.4723278072002884e-10 1.27129909108479e-07 4.188358065136319e-07 -1.7448197127787815e-07
593 1.2570798160209537e-09 3.7210829110573706e-09 4.18634700733158e-09 -2.5252688541259513e-06 6.892240382544273e-06 -8.894416243671985e-06
594 4.235407879266704e-10 -1.682634874983323e-10 -5.856375881625371e-11 -3.115482536156931e-07 5.563355410898838e-09 4.222268532016865e-08
595 1.2277889401915901e-09 -1.222956022974514e-11 1.6279749794939048e-09 -1.7661449130197362e-06 2.1341733274133785e-06 3.1559943900959294e-07
596 4.1886865823092847e-10 -3.4009732542361183e-10 1.0942499276521631e-10 -5.544694985020612e-08 -8.461588089937242e-08 4.877426684729284e-07
597 1.6627882247892333e-10 -9.69670008652567e-11 -1.0655846664790684e-11 2.892727149888509e-07 -1.721483183793235e-07 1.9352536706041464e-07
598 -1.603691350726109e-10 2.0945224068441768e-10 -1.19261254802091e-10 7.000317451827585e-07 -1.150394563921893e-06 2.7466951455914185e-07
599 -1.1086238357684593e-09 -1.7564868520929607e-09 1.9320858668025948e-10 -1.8959419818132493e-06 -1.120556328689559e-06 -1.4649987541063754e-06
600 1.0246784382977217e-10 -1.389321203371784e-10 2.2117632756497298e-10 -3.709655102383998e-08 -5.258931493525763e-08 -2.5324333346355315e-08
601 7.080219855522257e-11 -2.97134404325915e-12 3.903210735204202e-11 -5.89905525878802e-09 -1.1478251606327819e-07 1.470065148404859e-07
602 9.752777435420018e-11 -5.467191954376286e-11 -4.7704533832364134e-11 -3.8870590036719526e-08 -2.7839409987938013e-08 -7.888550637297742e-08
603 2.996755037553001e-11 -4.382992554494664e-11 2.1715923216360685e-11 4.891314929539158e-08 -3.9693376014463045e-08 -1.2413424122419786e-07
604 -6.5056455384839985e-12 -4.518127538774392e-12 -2.68661268979169e-13 8.07164519500037e-10 8.644835754697251e-09 4.8729281628805755e-09
605 2.8379683192682266e-10 1.2356305386486841e-11 1.3401450832027684e-10 -2.2855082527858373e-07 -4.756915923864622e-07 -1.9427800469225364e-07
606 -5.4560941787152216e-12 -3.910248496414125e-10 4.55324417762582e-10 -8.724090659262902e-07 2.4400336921773586e-07 -1.597385132246738e-07
607 7.399833295429403e-10 -2.1745682229710017e-10 -1.1727170331618938e-09 -6.075211329712674e-07 -4.297787538922281e-06 1.417156734386353e-06
608 1.0837529753304671e-11 -4.419007867661591e-11 2.9695559079164287e-11 -2.451938169697033e-08 -2.270008913741808e-08 6.301206000293251e-08
609 -1.580608996637881e-10 -1.1060712653440145e-10 -6.50253340518023e-11 -3.084721224856236e-07 6.947034811665804e-07 -2.461581045931011e-07
610 -2.8221761389755086e-11 -1.4772375611605798e-12 9.710368527528124e-12 -1.133507370777414e-08 2.660044811080502e-08 3.321889706753286e-10
611 9.310779222777078e-11 -2.226454292230356e-11 4.337306886360398e-12 -3.129720575403718e-08 -2.640117423442142e-08 2.8967954557935133e-08
612 4.687745105163714e-11 -3.8505606189911165e-10 2.3851340277132263e-10 -1.1096139305398581e-08 3.730658837557445e-08 -5.471541363473199e-08
613 3.530561388908801e-09 8.102983432714213e-10 6.966383935935034e-10 4.761831356784574e-06 3.065052848383913e-06 -1.7202433646071249e-06
614 -1.2852905828692347e-10 -2.1270869721853644e-10 -1.0368536571267343e-10 -2.893122619395149e-07 -4.5243041276385605e-07 2.504780252370444e-07
615 -1.0549016840295868e-10 1.0665163732913545e-10 3.0617568005904437e-10 -2.6874922231911554e-07 3.15510010373845e-07 -9.35704887338879e-08
616 2.3702635422901287e-10 -2.809223000177301e-10 1.1883607278678463e-10 1.330543445174641e-07 7.545111582407569e-08 -1.988491726816576e-07
617 -9.756580500699297e-11 1.7174440090948956e-10 2.6633995727548224e-10 -2.336594769425909e-07 9.269418677225832e-08 -2.145208688440321e-07
618 -6.774045733854994e-11 -1.1345341995735775e-12 -2.1133530224895194e-11 -1.0349585655546063e-07 -2.668765621434531e-07 1.2777411473291759e-08
619 -6.781595116739395e-10 3.8203857066539225e-10 4.216889979344564e-10 8.930195385097486e-07 4.479998613399437e-07 4.4719481698131263e-07
620 1.5180053988525924e-11 -7.531396962545295e-12 7.185670130582376e-12 1.0137100582003346e-08 3.5393880288698726e-09 9.25727126930152e-09
621 -3.090930099519841e-10 -1.625614563971591e-10 5.0300877509513226e-11 -1.116668577923772e-06 -4.73823946411087e-08 7.517101220995323e-07
622 8.461950762805319e-10 -3.88717624525255e-10 2.7733798898586707e-09 1.9987443877370997e-07 -4.623381411064947e-06 -4.129850097022961e-07
623 -4.467542553479154e-10 -2.2797052342339836e-10 -3.3830411163896757e-10 7.717500741764984e-07 8.066327017720721e-07 -4.893800260829493e-07
624 -1.360311755377388e-10 -2.818583349352816e-11 -9.239447935407569e-11 8.389094774459998e-08 -8.238590170548054e-08 -1.1014841835062816e-07
625 -4.457334788061882e-12 -9.641172039574569e-11 6.428976487201828e-11 5.773417006340869e-08 5.896252358831827e-09 1.2903357161820188e-07
626 -7.443795150078073e-11 -8.013795351217095e-11 -1.1735195081821396e-10 -3.533683632267321e-08 -1.4088209371903396e-07 2.0807226446526735e-07
627 -2.5033042613647306e-11 8.890386532759726e-11 -1.3444074232189582e-10 -1.4392494429528757e-07 3.035813487585525e-07 5.96976660360687e-08
628 6.505351220384098e-12 3.252549827562379e-12 1.0951788547857452e-12 -1.857924861081388e-08 -1.0040920516527292e-08 1.0851737106885432e-08
629 -8.18817241496009e-10 -4.139592778725106e-10 -6.735535629095077e-10 -2.6210430755069366e-07 -9.731746770226048e-07 -5.878526012033796e-07
630 -5.801338351370092e-11 9.84906280178484e-12 -4.770816547617096e-11 8.204560298175652e-08 -2.138209603870718e-07 4.522017346979117e-08
631 3.0619277456209313e-12 -3.3346987567038546e-12 9.833029131650105e-12 -1.8118491343106473e-08 -1.0790471580887776e-08 -2.6447310686658514e-09
632 -8.64031721380009e-12 4.22850849958205e-11 6.060513651641698e-11 1.0747460691136466e-07 2.477181823580699e-07 -1.9740622307900655e-07
633 -2.05995917144025e-11 -1.5178691986223382e-11 -1.6350450101281124e-11 -7.691041087966862e-09 -2.5814703955470275e-08 3.073867562965383e-08
634 2.3853130126235133e-11 -1.8063445914537304e-11 3.03584486563901e-11 -1.9019101417809383e-08 2.1601943695186365e-08 -1.2630425014019245e-09
635 -4.433274469169099e-12 5.367525456430526e-11 7.372569421667419e-11 1.7527960082414506e-07 8.57555815481734e-08 5.8799645409277664e-08
636 -1.3418770900339205e-10 -3.686281839536683e-11 -5.6198528006717075e-11 6.917641226635027e-08 6.745015947558386e-08 -1.0601574970483424e-07
637 2.168567714305742e-12 -1.4337175671696247e-11 1.5620956112476662e-11 -4.5851465848046e-09 -4.762491915135197e-09 -2.3263772577086841e-10
638 -4.307526996365641e-10 -9.920753813190504e-11 6.450556578867516e-11 6.562945646913928e-07 1.239535854309067e-06 -1.5861739089244305e-06
639 5.231021695545451e-10 3.4470980760272923e-10 4.087988485402863e-10 3.6395204335430045e-08 -1.1929247083224025e-07 -6.89092297947739e-07
640 -6.783299527571966e-10 1.2201002023792326e-10 5.764212160735962e-11 -1.761759433149346e-07 -1.18805093123386e-07 -2.3625853228928364e-07
641 2.276951199734427e-11 -4.6693268040866266e-11 2.5568027641273967e-11 -2.9168137359812503e-08 -8.208861822427278e-08 -8.067852985854216e-08
642 2.3853562309992243e-11 -3.4895792055053354e-12 1.3011353982245825e-11 -1.7481836707662852e-08 1.948345690052302e-09 1.0971796097360644e-08
643 -1.7565175243985206e-10 2.249368609664127e-11 -1.7779944273347979e-10 3.4463186612468084e-07 3.952761382674876e-07 -7.268536432187509e-08
644 1.1777415643389482e-10 -1.2830286289438128e-10 7.372441422187333e-11 1.7853531197991092e-07 4.4706324562725797e-08 -2.0697804847481827e-07
645 -1.0163940096404739e-11 -3.023996234268217e-11 4.609444702986094e-11 4.614998689811608e-08 7.10696261694772e-08 -7.827542868099114e-08
646 1.2392315350736427e-11 3.148288249616661e-11 7.372478003145452e-11 4.039440315328564e-08 7.235129421503948e-08 -6.806623132518378e-08
647 1.7867797786678115e-11 1.0841165348931564e-11 -4.336405458336158e-12 8.046272623580003e-09 4.1797301509777886e-08 -3.1769339553266116e-08
648 -8.456878561596492e-11 -3.362118405022276e-11 2.83657069774698e-10 -2.2543061962179354e-07 -5.510169258123802e-07 -6.614048954041783e-08
649 -3.939323809547988e-11 -9.303333982482909e-10 8.789452025912681e-10 7.420427750039342e-07 9.84186600239376e-07 2.6995972811683247e-06
650 -9.940977424570052e-10 -6.321752464015453e-10 9.917443220462837e-10 1.3133201544480123e-06 1.168325309762348e-05 2.551594880644072e-06
651 -3.2262210500362596e-11 2.1598396661288975e-11 3.662126312911948e-11 6.508948386376563e-08 4.696546896070203e-07 1.2494196670977522e-07
652 -5.3225525834024196e-11 4.010391122372594e-12 5.6378235681024854e-11 9.666168096022324e-09 -1.0623035201449011e-07 7.913805640484406e-09
653 -9.52365778802871e-10 -6.574683724123212e-10 -9.36837276300277e-10 2.1285199605419855e-06 9.768391828621872e-07 -3.2175978335723647e-06
654 2.1344409825653766e-11 -1.9768499353077726e-10 -1.6913559263468365e-10 -1.449070555081835e-07 -2.582529053917342e-07 7.12293819905282e-08
655 1.229232116720438e-10 -6.38156812670161e-11 3.9031398122844385e-11 7.731713939198336e-08 1.465932792628088e-07 8.363435291395204e-08
656 -3.3860871199621085e-11 -4.9234284975070256e-11 1.3292774734655574e-11 2.199824352619556e-07 4.073306140787424e-07 -6.971844889142948e-07
657 -7.216515168886293e-11 -3.1322130195675533e-10 1.7317791843877989e-10 2.888733480096843e-07 2.3213408146808767e-07 -3.569761984358312e-08
658 -3.267205730106577e-12 -1.0273856966738446e-10 2.6942772773587167e-10 3.3851848931033716e-07 -2.099412537970472e-07 -1.1051964298257266e-07
659 -6.945810382102311e-10 -2.2570798110642398e-10 -1.4908998669447456e-10 -2.2492431708818576e-07 2.0888537414241296e-07 2.2574537722862052e-07
660 6.981135185722562e-11 3.7645102890066286e-11 2.2112120867629179e-10 2.2202933588874726e-07 -7.982009221225709e-08 -2.6825918666393937e-07
661 9.495969624120486e-11 1.845644145293276e-11 -8.589544237461435e-12 2.269205340464785e-08 1.7317085534097233e-07 3.905553169186225e-08
662 6.783624058576768e-10 6.419961751669348e-10 -2.41734074296978e-10 -4.393415839507807e-06 1.3415774583531817e-07 -1.4019064472212391e-06
663 7.689996188258983e-11 1.5097963960610805e-09 -9.630821526762978e-10 2.266709216337819e-06 5.855130364073643e-07 2.4474070354491574e-07
664 -2.1666193297013783e-12 -4.2629138438207146e-13 3.7188338219137864e-11 -7.965087799008009e-09 1.7556266786083125e-07 -4.125752704075751e-08
665 -3.8300457015730826e-10 -2.014485438389974e-10 -9.974679170532267e-11 -3.5997252469236384e-07 -2.820287365148622e-07 2.0910288746531988e-07
666 7.29461191487884e-10 2.0995004257905103e-10 1.2073246811968765e-09 7.593049234959108e-08 1.8356367147159404e-06 -1.1562125220649782e-06
667 1.9652564224307967e-11 -5.854440495817562e-11 -1.3010123024192657e-11 6.8368178893025985e-09 3.850948060763325e-08 -1.1527855899244942e-08
668 4.2290762919019926e-10 -4.738726034388919e-10 9.180513556564106e-10 -8.38698978401333e-07 1.2057843016256322e-06 2.3043128616372453e-08
669 9.205869612916557e-10 8.722419015915227e-10 4.233013303762493e-09 -1.0906654586269234e-05 1.0383223030841962e-05 -1.7271450125017522e-06
670 -1.6622054192171375e-10 2.982570510274362e-11 1.341730236795503e-10 -3.954334799748874e-08 2.099162450810582e-07 -5.9296976830305996e-08
671 1.2366978594744024e-10 1.7802974643475564e-10 -8.888319987315302e-11 -7.650415489566063e-07 1.633761409174373e-08 -3.402177958506207e-07
672 1.3827607702647564e-10 -8.892292732858445e-11 -1.3011478163198382e-11 -1.1351207610143862e-08 2.6468200548835116e-07 -7.712067747433329e-08
673 7.967343529641209e-11 -1.5177960679054057e-11 6.244641362348009e-11 -1.0470958994720389e-07 6.2018573070567025e-09 9.069514487147758e-08
674 1.5112708824538814e-10 -1.8429446496994602e-10 1.685436300502997e-10 3.874482115611185e-08 7.117619669736752e-08 4.603209538513144e-09
675 4.775109843716612e-11 1.2201124987274926e-10 1.0837684522113437e-10 4.694702928143992e-08 -7.2126662861335e-08 -4.23988139310865e-09
676 9.772914291142372e-13 -1.4904188262360803e-11 -1.4504010740344886e-11 6.135060164884982e-10 -5.188651778946903e-08 7.771646463898967e-08
677 3.514644177437961e-11 -3.25259608878813e-11 4.7703506142671804e-11 8.840130654514977e-08 -2.3790605734640735e-08 -5.2279485036279374e-08
678 5.840793539004367e-12 -2.477652857988701e-12 4.337099678497521e-12 1.2152752045972391e-09 9.667260001740304e-09 1.3479517776850832e-08
679 1.517655602659002e-11 -1.2054523072348588e-11 -1.3344184734993884e-11 2.5289040697098717e-08 -3.915493400775708e-09 -1.8168785065804504e-08
680 4.3265256934695696e-10 5.087446608054089e-10 1.2054920084745036e-09 6.954304965399156e-07 -1.5648111655195486e-06 1.8402433061043476e-06
681 2.2945707289440425e-11 -6.093001193175544e-11 8.171403769045652e-11 1.2057915977490246e-08 -2.0415074289580564e-07 5.264111636748308e-08
682 1.6263723699782023e-11 -1.192731980320861e-11 1.332880056559344e-11 2.3920675499004045e-08 -3.258147758068946e-08 -2.140986402088263e-08
683 8.857549079966368e-12 -2.8207536151096256e-11 3.596623817960546e-11 -2.175038112884648e-08 3.6813895412887366e-08 3.598827712729098e-09
684 1.1611756864779437e-10 -1.2679472501704697e-10 7.846765166626199e-11 1.2831937160886483e-07 1.4367142680067925e-07 -1.491916886973918e-08
685 8.247999857156219e-11 1.0581381810970776e-10 2.6462771560155133e-10 -2.3066372813483325e-07 1.357549741537372e-07 6.709608651174682e-09
686 -5.722992795406079e-10 -7.640009856146528e-11 -1.5990119393548629e-10 5.978750064447121e-07 6.350794582817941e-07 5.203706772274649e-07
687 9.645468433463867e-11 -4.898642851884786e-13 1.1275458311558245e-10 -8.600286261441039e-08 -1.5837185648962866e-08 3.197883976783851e-08
688 7.033000249112399e-11 -4.553743928425863e-11 8.239320443469614e-11 -7.028415047873573e-08 1.0575501252328322e-07 6.849347595407653e-08
689 6.239730166292815e-12 -5.027651940547345e-11 3.0357929087764515e-11 -5.404602102873682e-08 3.151170182502077e-09 3.23870107553771e-08
690 2.8179309278784545e-11 -6.510470021231049e-12 1.3011677726040154e-11 1.7795105160726644e-08 3.049960411200888e-09 -2.081246400410805e-08
691 2.7242054487783335e-11 3.8909285063143064e-11 -2.6018642727456463e-11 1.355863295076785e-07 6.112116105065654e-08 -6.378194412498318e-08
692 8.428276114927172e-11 3.3282011930073924e-11 8.143503502081228e-11 -3.7092744709145676e-08 7.719025466449168e-08 5.593511538811649e-09
693 4.0116082722365384e-11 2.927518612238142e-11 4.421490202656455e-11 1.4033659915993515e-08 -5.345281147800619e-07 1.3247672634366645e-07
694 2.312584203644958e-10 -2.467108105578207e-10 2.1236481370323195e-10 -9.304711076885276e-08 3.639423217364564e-08 2.0759437212706878e-07
695 4.901950245391227e-12 5.4281055987445435e-11 1.4582643785572732e-10 -2.028664095450851e-07 2.715756728394979e-07 -1.2684504150322527e-08
696 6.288369607680936e-11 -4.9877532562838223e-11 -3.9325199563395044e-11 3.166743560435493e-08 7.652866031939895e-08 -8.645096775040087e-08
697 -1.149341861032879e-10 -2.673379062531525e-11 -5.038315797775232e-12 -7.462551927808859e-07 4.713670230845483e-07 3.575364912713209e-07
698 1.387537317499129e-11 -2.0928845221938476e-11 1.3009669494961133e-11 -1.0729671070213134e-08 2.0946874909249402e-09 8.0061729936549e-08
699 6.88310141889595e-11 1.6406844887730077e-11 3.1804441927829365e-11 -7.730370177940203e-08 1.0695433494347096e-07 -3.458949841328184e-08
700 1.9516726855602446e-11 -2.78843337949167e-11 3.904194957894614e-11 -8.161814364025518e-08 3.222396155522582e-08 1.2918508581435032e-08
701 2.0007739941010117e-11 -7.268359296965179e-11 7.806415681525894e-11 -8.255767689068751e-08 -8.849967576403573e-08 -6.273549366488802e-08
702 2.2275631818035072e-11 -1.1769048255444693e-10 3.81910196834428e-11 9.691228000060103e-08 -1.28767523767223e-07 -7.100717268313972e-08
703 1.735120837361547e-11 -1.070663490638372e-10 -2.167615233453713e-11 -1.929197246630275e-08 -1.0176277361185059e-07 -3.6415211171374535e-08
704 4.892524947797737e-11 -2.628136506185098e-10 -1.7780793497019959e-10 -5.302548532485386e-07 -2.0765529397674065e-08 8.421080455418681e-09
705 1.1298753680816619e-10 -1.2743250636909497e-10 3.5807572444783797e-10 5.186190211806442e-07 1.4549898073294675e-07 -1.1547591455230038e-07
706 3.81747533613174e-10 -8.171043187291743e-10 4.337163490849675e-12 -4.752275680917199e-07 -2.8761914480247943e-07 -6.29513619501678e-07
707 8.46020759656877e-11 2.0123198963409328e-10 3.035714327642451e-11 6.047416488774441e-07 -4.752983269498323e-08 -7.152614684294967e-08
708 6.482822306696976e-11 -5.76511569949973e-11 8.852631795976911e-11 2.316737895063779e-07 1.1181876827036734e-07 -1.1995898179386577e-08
709 3.581253545407072e-11 -9.744985771682957e-12 7.80646723524531e-11 1.4991063460680966e-08 -3.24051412291743e-08 1.5573415712153422e-09
710 7.678192969885468e-11 1.170801453185885e-11 6.071535891554464e-11 6.301519830130805e-09 -1.216752170796517e-07 -6.680415014668926e-09
711 1.5730062194739145e-11 -2.0423821078886607e-11 1.9036139901881178e-11 -6.737139915176222e-08 1.775601616154688e-09 -2.2292291107733742e-08
712 -4.4455877694155745e-11 -4.5806952725928193e-10 2.990407397445551e-10 -1.9670304624863982e-07 6.891841160997608e-07 3.0761714755577413e-07
713 2.6223202956555578e-11 -4.783797156090033e-12 -8.29869763045824e-12 -6.706523867449214e-08 1.0798422391760185e-08 4.5816163933734426e-08
714 -1.9520104235205146e-11 -5.451532065079612e-11 3.4829947938125245e-10 4.010289936823696e-07 -2.4795510922808464e-07 -1.759593201533782e-08
715 -2.172884382711105e-10 -9.757396305143501e-11 -1.7620981968562223e-10 1.8150095846576982e-07 2.5348755535548734e-07 -2.9118464520740486e-07
716 5.09573095036521e-11 -2.2884070584098816e-11 4.7617574504347156e-11 -8.79648987311088e-09 -3.217725816788539e-09 2.3101435227087312e-08
717 4.946631752393694e-11 -1.127422029279142e-11 8.840953828940803e-11 2.8784323448856383e-07 -1.6574301407091254e-08 -2.2586016818054964e-08
718 3.495896224382852e-10 -4.656832507707453e-10 2.401741746909904e-10 3.6569275159555793e-07 -5.106178388770168e-07 -5.353574402357234e-07
719 7.553540387237262e-11 -1.4851301745267587e-10 -1.1708697748855977e-10 -2.1870895438861172e-07 -8.868830327160626e-08 2.9375224426057103e-07
720 -3.972821989435969e-13 -4.5104024906966426e-13 1.3067902466622633e-11 1.3581677850047945e-08 9.213711790565404e-09 6.460442348078453e-10
721 1.0856907520719634e-11 -4.29242338757262e-12 1.138805775746594e-11 -1.0745376394231956e-08 1.2364428803839893e-10 -1.0829712882902092e-08
722 -7.89566868428617e-12 -2.8610692458454945e-11 2.939659529916361e-11 -5.943569207081343e-08 -2.4527633095409062e-08 -1.613149420484772e-08
723 3.495510321643261e-11 -1.490248789284126e-11 3.0356363701943005e-11 -5.193324042474896e-09 1.1725990477050362e-09 -8.818919174083087e-08
724 -1.5839195298593112e-12 4.55357619351103e-11 -4.33647394314934e-12 -1.3505411610841488e-07 8.664829889745889e-08 -4.2394442326243406e-08
725 -4.279026411916288e-12 -1.2128765506264316e-10 -4.217444910960917e-12 1.9322419151753788e-08 1.6084582651341884e-07 5.449021542534297e-08
726 -1.0841674860305833e-11 3.327005669142839e-13 -2.7183387188076718e-12 -4.056825429775483e-09 9.500652264133386e-09 3.6995822559216822e-09
727 -3.6876344805375966e-10 -3.0339441496977745e-10 -1.0133380257640521e-10 -6.722919727388603e-07 4.552490159098784e-07 6.105176146586723e-07
728 -9.15284539799803e-12 -4.033282234292467e-11 7.806282286787928e-11 -1.0066146118270149e-08 -4.0243866864377525e-08 -8.33925986505475e-08
729 2.276188695328639e-11 -8.257641996186236e-11 6.18142727232198e-11 -7.759262896638153e-08 1.0614278752223922e-07 5.379331166978389e-08
730 9.464542507535065e-11 -6.964262281813204e-11 -9.309714087342992e-11 3.7977932576378323e-07 3.9076156898513044e-08 6.187889154406927e-08
731 -1.9981924620046034e-12 5.018224462265151e-12 4.129667358744649e-11 7.271657967187214e-08 3.8039219196634266e-08 2.6537300820155687e-09
732 -1.2353069867415211e-11 1.5179667323573117e-11 2.0069566396194058e-11 -5.769524371849575e-08 4.904581937049636e-08 -6.370473653499095e-08
733 2.9035070206003527e-11 -4.792384180432842e-11 3.902741012671764e-11 -7.72303778656687e-08 1.8825998007392495e-08 5.00692764733644e-08
734 8.510741537876876e-11 -1.7259450391322036e-10 2.646123138363534e-10 -3.89904686340561e-08 1.9248887598243007e-07 -1.1221345912153276e-08
735 4.876592175740887e-11 6.607582208492112e-12 9.541335767528687e-11 5.048806296337288e-08 3.4054053118791635e-08 2.1299408995837e-08
736 1.3619065140049149e-11 -1.084344205095648e-11 4.7705570643422735e-11 -8.542074074967398e-08 -6.199233660641294e-08 3.425785458041382e-08
737 1.2780635515799575e-10 -2.447922467874987e-10 1.43104430224208e-10 2.3207922242796118e-07 -1.1807277647174608e-07 -5.9155557150974515e-08
738 -2.7674341686838738e-11 -7.018407419909649e-12 2.0264492813123012e-11 -2.4812885861052274e-08 -3.0071131034835493e-09 -1.0773722087591482e-07
739 -1.9785940115468096e-11 -2.266194218267036e-12 -9.047069075061693e-11 1.054868243852604e-07 -1.4293562840986386e-08 -2.7148333319318163e-08
740 -2.4938166238432774e-11 -2.173214937058752e-12 4.336815909476689e-11 7.567468059650392e-08 7.754166894969932e-08 3.149928777226202e-08
741 2.8921761931307417e-11 -3.775034789090663e-11 3.903074184559257e-11 -2.577070337871596e-08 1.0269854278489883e-08 1.2944721038770358e-07
742 1.309368888250355e-10 3.100932105378035e-11 1.1275772310825373e-10 -5.896234947703783e-08 -1.856923857411297e-07 5.564031848006747e-08
743 -5.007165154348842e-12 9.220517074605359e-13 -2.8888796321603806e-12 1.1309799752030798e-08 5.8509188085459565e-09 -1.0686718729831256e-08
744 5.520536730045372e-11 -3.2383841038234275e-11 7.80609567424466e-11 -1.1791583929509872e-08 -1.6556139499256804e-08 2.846453940662023e-08
745 9.460648670018586e-11 -5.4199566147518084e-11 -5.041996314644505e-11 -9.084001503124452e-08 -7.151789584556155e-08 -5.528444870093389e-08
746 5.248215077896537e-12 -2.087813331768993e-11 3.1429142165043875e-11 1.1796654442581745e-08 -2.6438780241039523e-08 -1.4488859859910022e-09
747 3.7501853000558654e-11 -3.7049224475436716e-11 6.344850341999648e-11 -1.161877362793227e-09 9.57398655905615e-08 2.0280993300960474e-07
748 7.979247439804126e-12 3.446497689555468e-12 8.673485833095902e-12 1.1281104136004264e-09 -9.66755481837223e-09 -1.3498451285815159e-08
749 5.0303687908473505e-12 -8.506884386746123e-12 1.971557286651612e-11 7.790869807753614e-09 -1.753392516557075e-08 -2.5343185000689346e-10
750 -3.629592517108985e-11 -3.711581026886767e-11 -1.1333313711224113e-10 -2.6409494010925365e-07 -2.2473199355528804e-08 1.598206834645678e-07
751 4.247149098263899e-11 -7.126465527825984e-11 1.4744905339568563e-10 -1.6662524232956906e-07 2.3666001220684017e-08 5.088926673515975e-08
752 -5.9989982746644995e-12 -4.119871255274117e-11 -9.506011919571198e-11 -1.508448396317763e-07 1.002926501561503e-08 5.393153205643687e-08
753 5.3930620451482194e-11 -3.9023836342435244e-11 1.0607398937487903e-10 2.1330350521566257e-08 4.169812287072697e-08 -4.8408009682039054e-08
754 5.369244707620593e-11 -6.463966025018015e-11 1.3019895135774207e-10 -1.6675032064280738e-07 1.316489737460961e-09 1.2789902426808863e-07
755 9.556396649911916e-11 9.522178297215087e-11 2.1178706120682563e-10 2.577371645645225e-07 -1.234539536797771e-07 1.3503354413724658e-07
756 1.5063649632024913e-10 -5.409903204001153e-11 1.2882576504435763e-10 1.6826870424718507e-07 -1.0047918221787898e-07 -8.66854584277002e-08
757 6.505090126702283e-12 -6.583832104811501e-12 1.3305714546468506e-11 -1.813691840109426e-08 4.496328437320488e-09 1.3777812855972712e-08
758 4.2208368943111165e-12 -1.2331393173040972e-10 8.742845213047974e-11 -3.0186245551237003e-08 3.7522178361962133e-08 1.4863173181617364e-07
759 2.3852659061816917e-11 -1.94530340698656e-11 1.6998513544739354e-11 -1.1804057497224411e-09 3.118063187010008e-08 6.94674793350059e-08
760 4.1609142632167973e-10 -4.199843718633053e-10 1.002176678253369e-09 -8.273493109464418e-07 4.940479028460603e-07 7.274291949476673e-07
761 6.505426073302208e-12 1.0805642099585995e-11 8.669880553876186e-12 2.316536856750583e-08 -1.0704852937514318e-09 9.95112685236364e-09
762 -2.275413877646279e-11 -2.8208853909342933e-11 -1.344414667990589e-10 1.8238414745936357e-07 -2.412413978963003e-08 -1.320462216264417e-07
763 -2.2978269729426233e-12 -1.3228789462183035e-13 9.806802108744883e-12 -3.0016202480561263e-09 1.3880544267727671e-08 -2.4682171920987207e-09
764 8.761979321181859e-12 4.566049111431594e-12 8.673454478648932e-12 -4.4499198747238414e-09 1.6581663461700058e-08 3.556510060422554e-08
765 2.83632472300571e-11 7.015990144160061e-12 -5.637813538209237e-11 7.13244118123189e-08 1.9396317867312844e-08 -8.548035857570609e-09
766 1.3874048295803502e-11 -1.8291407874944025e-11 -4.337615264708209e-12 -5.609995498740925e-09 -1.3187151491766796e-08 2.83328328798352e-09
767 2.1859287084946773e-10 -3.333966094701698e-10 2.446498222767103e-10 -6.637197819118985e-07 -1.953957176555349e-07 6.404436397989519e-07
768 2.7954719486976996e-11 -2.9486513155025825e-11 -9.107398766707578e-11 -1.2226701274479132e-07 6.2990974010421685e-09 8.467440432235245e-09
769 4.120019115105412e-11 -6.968314629129826e-11 1.474557063471083e-10 1.050384260039657e-07 -2.0449777204758547e-07 -1.1535642862083274e-07
770 1.2910427108473842e-11 3.5358625009949602e-12 5.603892206071918e-12 -4.302202956000408e-09 -1.1294850969225705e-08 -1.307218892717483e-08
771 -5.4207759356096055e-12 -3.5983026801344635e-13 3.859512215844514e-12 -1.0030025069959435e-08 -2.76173300530908e-09 -4.98619202953634e-09
772 1.4565694914849692e-11 2.168467109754442e-12 -2.5761955979031703e-11 2.3232828711843825e-09 5.30761187385279e-08 1.2336382150706117e-08
773 6.35426099187074e-11 5.637810115196515e-12 1.517881172623821e-10 1.796206084003072e-07 -1.3672155476327607e-07 -1.420244048867033e-07
774 1.6111509775461831e-12 -7.373666817954445e-12 2.6019806882854316e-11 1.1245401909020074e-08 4.8957863932514506e-08 2.292088323688552e-09
775 6.793285239204495e-11 4.5355079109568203e-11 -2.2072070438645284e-10 -7.71919395995355e-07 -2.8050114785074537e-07 -3.5172314726199296e-07
776 3.2528231775625175e-11 1.4550573337032852e-11 4.2766123417321585e-11 5.041210439089276e-08 -8.38282928401993e-10 -3.766003323575602e-08
777 -1.1156442842778511e-13 -3.2539868796616686e-12 -1.1014347989621854e-12 1.427022258757092e-09 -3.496930879081827e-09 4.893671200191909e-09
778 4.82599374446129e-12 -2.3343184277358842e-11 -2.601998423675657e-11 -5.5234123668785206e-08 -1.1970627838858147e-08 3.376043085444107e-08
779 -4.866495860132622e-12 2.8051670942842548e-11 -4.7705313143700354e-11 4.8673498356271794e-08 4.606835488687438e-08 9.625821842195601e-08
780 1.0299274425999685e-11 -1.330603794443669e-11 3.821813450280182e-11 2.8721255498306245e-08 -6.450743647485073e-09 2.1099359249228362e-08
781 3.0166211651159326e-11 -1.9338232302062959e-10 1.2468914660039865e-10 -2.541837631042658e-07 2.0032402201045738e-08 1.9551047623277e-07
782 -8.456783694030964e-11 -5.552146989281817e-11 -7.620274337394824e-11 1.8912469967240346e-07 1.5635115573116032e-07 6.917450430111657e-08
783 6.781242871328181e-11 -1.1964963722941077e-10 1.1709519837086467e-10 6.618339854357453e-08 1.3498873258967895e-07 -2.0363962178185402e-08
784 2.3022222068390794e-10 -1.5386765468720013e-10 1.0841752174673463e-10 1.888085521190736e-07 -2.625540919098111e-07 -2.591794393270784e-07
785 2.169735660645576e-12 3.652233121300826e-13 4.336929403965969e-12 -1.653014872576874e-09 4.127997314758164e-09 4.724436784758213e-10
786 5.01778743382375e-11 -7.878425273180327e-11 1.1709127385408436e-10 3.8026030232990615e-08 4.3515575339055435e-08 -1.0454452163860328e-09
787 1.1300530493945107e-11 -3.888943158276651e-11 8.435506170645944e-11 1.1996533350077418e-07 1.540830938073507e-07 9.709240527351655e-09
788 2.411323281181266e-10 -5.378046425169494e-10 2.732158212266338e-10 -6.691513518193595e-07 1.5561558867251615e-07 8.565006925840925e-07
789 2.5412936300578117e-10 -1.754611322249297e-10 6.969348070535384e-10 4.456679950126389e-07 -1.2531506635255124e-06 -1.1688678758441714e-06
790 8.725658219080156e-12 8.144767598186503e-12 4.337972156103858e-12 1.0865382586039228e-09 -3.4538414604738413e-09 -1.3451198161022544e-08
791 1.0841884476860565e-11 -3.4659285557059957e-11 3.9031214933219444e-11 9.795424402111299e-08 -1.5449504545320215e-08 -1.751697852428407e-09
792 1.30366488161843e-10 -6.423301490196649e-11 1.0841924598408855e-10 -2.794899908338732e-08 2.3543172474316166e-08 -7.596681833693939e-08
793 1.8795597855939067e-10 -3.8327064663524146e-11 -6.122392480711445e-12 2.372199665065641e-08 -3.52784327592816e-07 2.47113833369766e-07
794 -4.859893228600646e-10 -3.767120726502508e-10 -3.1891997409567514e-10 -8.798803200209298e-07 1.2373350263195366e-06 8.556738562914826e-08
795 -2.1670475163045844e-12 -5.304662175766301e-12 8.673021811588709e-12 2.8454497390347162e-09 -2.0811931878861017e-08 1.617571574147301e-08
796 -5.0813307828928794e-11 3.34719088258302e-11 -4.336927636630204e-12 1.8602478669827402e-07 1.0466189831807432e-07 -4.195000443434311e-08
797 3.312701717603742e-11 1.627007702650029e-11 2.8999464368373594e-11 -4.02636114140441e-08 5.845800708862598e-08 1.3072752993968154e-08
798 1.7895177305563932e-11 -5.85182148355235e-11 3.9040067591168065e-11 4.3532206745574304e-08 -8.960602829129095e-08 -5.00421636634902e-08
799 5.253862607011646e-11 6.147850558774853e-11 8.009655207049733e-11 2.4109270142079734e-07 4.3445847840205355e-10 3.141952702438799e-08
800 6.158994982659715e-11 3.887733767312869e-11 3.903153303560314e-11 -8.459330500587019e-08 -6.379227273587725e-08 8.881609637113766e-08
801 2.8192518297433712e-11 -4.749666647534609e-11 -4.382280291899105e-12 -9.885795259752065e-08 -4.262728178969685e-08 -7.587456286409735e-08
802 1.4081337614623526e-10 -4.1417564845413386e-11 9.353849685480954e-11 -4.210162879618773e-08 7.499771499982118e-08 -8.561746033922273e-09
803 -7.589663207249556e-12 -8.40325880778115e-12 -7.331637347704353e-12 -2.6842200470203157e-08 6.881483167133246e-08 -2.343556882005933e-08
804 3.25293159594112e-11 -7.063679928052887e-12 6.430312282599076e-11 -3.050173529297207e-07 9.6592715421176e-08 -6.671911188070142e-08
805 2.932605978547331e-11 -8.591836386472163e-11 6.022766279355722e-11 6.157460525155181e-08 4.732572182706946e-09 -6.117496466028064e-08
806 1.9113201954214842e-10 -2.2015684857231606e-10 -1.8408739458634965e-10 2.391230475433324e-07 1.4660944772870898e-08 -1.828261420191086e-07
807 -3.949521448259138e-12 -9.257597399961748e-11 9.54097133141369e-11 -5.269287437646436e-08 1.172074106499839e-08 1.5342334652175866e-07
808 -1.1605345694463301e-11 -7.745073606970454e-10 1.068883718504192e-09 1.6101973296627245e-06 1.2564601801637462e-06 1.0294014002622639e-06
809 2.5951846268410636e-11 -5.457555580350202e-12 2.6022059386445377e-11 -1.5827823985216836e-09 1.6564963683398783e-08 -1.3886596454682092e-08
810 -3.294725951022772e-13 1.297285488317005e-11 8.674974123053283e-12 1.3414440641454954e-08 2.527543493886668e-08 -2.2735923096118934e-08
811 2.376535236872535e-10 -2.3667212786119414e-10 5.279053430943986e-10 8.987226640064564e-07 -1.2010298987083392e-06 -6.905674323141014e-07
812 3.686187440230152e-11 -2.6477978178720344e-11 4.336833665469149e-12 1.8063190966706249e-09 -7.95662168735544e-09 -3.913647829250399e-08
813 3.348888249991777e-10 -3.0087454909211946e-10 8.243658368677837e-11 1.5606206079297649e-07 -1.0444198384944741e-07 -4.442684036392844e-07
814 2.8069303621807132e-11 -7.284269608832089e-12 2.179347897579563e-11 -6.20162236476961e-08 1.236303029211539e-08 1.708297713205387e-08
815 1.0223235677276604e-11 4.05843678201973e-12 4.336984495037937e-12 -2.6811536606677942e-09 5.756741518484217e-09 6.373057560267513e-09
816 3.5513612225944245e-12 2.1674776234061258e-12 -8.67236118815324e-12 2.8664326924269523e-08 8.078647180456809e-10 -8.963123540107195e-10
817 1.1115921656368133e-10 -5.4480944830563094e-11 -7.01989830156308e-11 9.783133606134043e-07 1.7911061022888287e-07 2.795903026182843e-07
818 2.3851035048449426e-11 7.057851366761758e-11 2.925006925311896e-11 4.8014667483812534e-08 -5.049565740961856e-08 9.503990144933195e-08
819 1.9515257759867672e-11 7.858498906270105e-12 8.673883098109065e-12 1.1069205290718503e-08 -4.586106279494116e-09 1.8336285606132268e-08
820 4.6077454216562594e-11 3.366195647788381e-11 3.0731056898357865e-11 3.766733642771686e-09 -2.2366546822564268e-08 5.117946469717432e-08
821 1.1218990086334008e-11 -2.168926629070723e-12 8.680703873818084e-12 8.547064066307372e-10 -1.1718272395627762e-08 -1.0565319051505896e-08
822 2.1395987603814422e-12 2.109471200693059e-12 4.335147940145955e-12 -4.181867164905314e-09 1.6748699383263518e-09 3.007799724209033e-09
823 1.254973939595034e-10 -4.975740827896911e-11 1.1478756159896509e-10 1.1276073101518774e-07 -3.0047543653017567e-07 -9.422551200536496e-08
824 -4.574307075436522e-11 2.6408711114862305e-11 5.574252688297429e-11 1.5044854761257383e-07 -3.731391615530468e-08 7.70133758681962e-08
825 7.881870358030374e-11 -3.216747692396206e-11 7.806614666585194e-11 -1.8191980425139907e-08 -4.2577880224142355e-08 -1.0930281365156329e-07
826 1.9847790758891614e-11 2.0045732136829305e-11 2.6019388426064293e-11 -7.271533398220511e-09 3.9264394199954515e-08 -3.3889075051223756e-09
827 -3.387304863049302e-11 -4.868558761428586e-12 -4.991118873557255e-12 -7.553539925078824e-08 3.2364849035550302e-09 -1.3014355200366974e-08
828 7.115067583034174e-11 -7.045259390886075e-11 -4.33668890279818e-11 -1.0332991004285057e-07 3.97433911386429e-08 -1.268476179943739e-07
829 -5.066684045247508e-12 9.575702077308287e-12 -1.245507192596657e-11 2.5608305127954555e-08 1.3553751003054542e-08 -7.1216425542392595e-09
830 4.553416946305398e-11 6.686100391003958e-12 4.336693978422663e-11 1.595880481389469e-09 6.1136388880978504e-09 3.980867916904026e-08
831 5.438984924437643e-11 -4.044920728407569e-11 8.674504965214887e-12 1.588555549264565e-08 3.565375103550948e-08 2.7069312568221977e-08
832 1.1261963005272778e-10 4.085170032890013e-11 1.6180717518676235e-10 1.870377624874292e-07 -1.3326638471943532e-08 -9.133823477707253e-08
833 6.505271295362434e-12 -6.092767603165705e-14 7.065486590033704e-12 7.428102624756225e-09 1.3672417778447929e-08 2.416443367716789e-09
834 5.389384051750531e-12 6.114739051313281e-12 -8.672039390884633e-12 2.9422470834662254e-08 -5.034324025288989e-08 3.398944452558067e-09
835 4.314560019661856e-11 6.940729517935171e-11 1.3010389331549723e-11 7.28018108338402e-08 -3.0315753727754954e-08 -9.839192085686044e-09
836 9.463130539841944e-12 7.076769784387254e-12 1.3603324284134188e-11 -1.5613782815207233e-08 1.889186842566333e-08 -1.363560290680701e-08
837 1.3352377903298237e-10 -1.0492673420215103e-10 1.3111187075895378e-10 -5.8294500281384834e-08 -4.881090383420128e-08 -5.1039722718737337e-08
838 1.518244521376858e-11 -1.1131878512612231e-11 4.937669566442255e-12 9.13698925115021e-09 4.935820961051643e-09 -3.8091847360519835e-09
839 1.4836797635712156e-11 2.046749613170877e-11 4.071135419462387e-12 -6.486094416968621e-11 3.846279718402312e-08 -3.8332098655254074e-08
840 2.2383706112901391e-10 -4.241324767447149e-11 1.16146628535395e-10 -1.0243298680858259e-07 -1.590568949811965e-08 -7.68712563039169e-09
841 -6.914028129438225e-11 -5.5484775154272456e-11 4.769255479750789e-11 -4.899471305331325e-08 -3.976199322158975e-08 -1.1550285432920724e-08
842 -7.895638961211008e-11 -3.686146257768668e-11 6.071514650659826e-11 -1.3067733170443307e-08 -6.43794518716209e-08 8.295181438469758e-08
843 -2.8504370677794693e-11 -1.095769070756931e-11 3.359221509794613e-11 -6.90655106879363e-08 8.177950927598053e-08 -3.960576377931755e-08
844 2.4734698588513773e-11 1.164457240805434e-11 2.94702183567963e-11 3.4912285679853303e-08 -2.752894297122142e-08 3.0081503275596795e-08
845 2.2175395594061453e-10 -1.919164056127516e-10 1.1708845903764988e-10 -2.4451322461403595e-07 -4.365519315600154e-08 3.6292586132878823e-07
846 5.22085042906205e-13 -7.151403531749519e-11 9.05804746790624e-11 -1.1725486730714465e-07 3.451392515655003e-07 1.5578544575818895e-07
847 7.434002742866386e-11 -5.920764528475861e-12 9.540746094108048e-11 2.6815191156649876e-08 7.687732538689716e-08 -6.553616935552603e-08
848 -7.502745121466175e-12 6.5065017869514694e-12 -2.6019685465194334e-11 3.011631572926887e-08 -3.808302404036567e-08 -1.0886794881894417e-08
849 -4.6473323603689214e-11 -2.0995273303064695e-11 -2.1683799815765703e-11 -1.095055804825159e-08 1.3832134233032798e-07 1.9178409181240108e-07
850 2.6545794933263616e-10 2.1566243750505039e-10 2.2868265418265735e-10 5.33972596333832e-07 2.1303660908575614e-07 -7.054142415646872e-07
851 2.577727511650469e-11 -2.3415449318973832e-11 2.6012497354186372e-11 -7.984522088688637e-08 -4.286739353281162e-08 5.6496547878300034e-08
852 -1.0844385112923784e-11 -5.259717737106909e-11 6.767735973373744e-11 4.203732195770061e-10 -1.0564970434457392e-07 -4.597679160018066e-08
853 -1.8427483921583113e-11 -1.843194698827592e-11 1.3011322459432449e-11 -9.035233408519629e-09 2.9726440323612325e-08 4.761634158968902e-08
854 3.279649169119317e-10 1.8259337916039206e-10 3.3133538144843566e-10 -6.994394943984803e-07 -1.1020763378034593e-07 6.086119845055905e-07
855 -1.3089386193939028e-11 -2.6208109599274042e-11 8.099834713218777e-11 2.9291406329163787e-08 1.1530178459515377e-07 3.798423393283098e-08
856 1.0496353200585283e-10 -7.214944778675678e-11 1.5155011749584072e-10 -1.468269577779937e-08 -5.7319478450745796e-08 -6.225596249319702e-08
857 7.533375160627523e-12 -1.3959731564821052e-11 4.699911895115018e-11 1.286077704344817e-09 -6.610348770276835e-08 -2.5804945862169778e-08
858 3.990441259684314e-11 -7.19123232844278e-11 3.2771804560518884e-11 -3.7514568650132995e-08 3.3647088887058316e-08 8.463938782334428e-08
859 9.65009929356263e-12 2.1450323960230562e-11 -3.0357328500982185e-11 -3.234135204458212e-08 -8.348176427048161e-08 -9.294313537939516e-08
860 2.425138706693385e-11 1.516318946119067e-11 4.9518880161275036e-11 -1.172289010358685e-08 2.369270737983665e-08 -3.805548193230453e-08
861 -3.1449375199896655e-10 -7.531439783231125e-11 -1.730771358210852e-10 1.7176865730856958e-07 3.3711726095397324e-07 -2.906906607128353e-07
862 8.94851433217706e-11 -8.681191043131411e-11 1.3010440420108526e-10 -5.474255536662837e-08 -4.5410424103148936e-08 6.171843915162114e-08
863 1.792362400048345e-11 -2.4631969365332294e-10 2.1638496541566317e-10 -3.8812348109168707e-07 2.071548007707447e-07 2.437546513362202e-09
864 3.2011674082151744e-11 1.6606712134750778e-12 4.467621726097811e-11 8.41913741084799e-09 -1.0836502159888596e-08 -2.9697391943883623e-09
865 6.940010045181884e-12 2.0545344732345695e-12 8.674404066564053e-12 -7.482965045694821e-10 1.4726828684319254e-09 1.0102009720204617e-09
866 6.504374443921125e-12 -4.980599054011957e-12 2.3407779970083673e-12 1.2678329358476428e-08 -6.1977187032540086e-09 -5.883581789780685e-10
867 2.353329640112562e-11 1.0940918328342396e-12 2.9383779739804617e-11 4.771215527110988e-08 -5.2314295371761555e-09 -2.8788190312919617e-08
868 3.744581134958855e-11 -1.951448499521447e-11 7.493353691979867e-11 2.1782213097544276e-08 1.2538180842725312e-08 -5.948740546089951e-08
869 1.2334067819909966e-10 -7.696897764252706e-11 1.6046169597141693e-10 -1.3401569609942135e-07 -1.7085981614692475e-07 2.0691142779126497e-08
870 1.575067818274921e-11 -3.370286348272759e-12 1.3010972438234698e-11 5.529939341742174e-09 -6.758130363085987e-08 7.606259033452827e-08
871 1.1802311125096625e-10 -7.021275575164857e-12 3.160652494416738e-10 2.66408637384952e-07 9.035904334887529e-08 4.302237360962711e-08
872 -2.233900660683498e-12 -1.3791938463134346e-10 -3.5473387579925642e-12 -2.0810191486343484e-07 7.741691784448363e-08 -9.19343036161029e-09
873 3.382897036140802e-11 -3.213228324666563e-11 1.0595146064631732e-10 -5.920144496217152e-08 8.521737023513903e-08 9.66364979948684e-08
874 1.7259310891377873e-11 -2.3851933777671373e-11 2.1684066442033908e-11 -5.4750702815379e-08 1.3674760454824824e-08 -7.024721824204643e-08
875 7.806896739303898e-11 -3.1442119562264614e-11 3.491560122016807e-11 -6.365140297575909e-08 -8.619965488948602e-09 1.1172037835272925e-07
876 1.9516904317900606e-11 -2.168930505894566e-12 4.337045544815215e-12 2.299964009253444e-08 -3.9535014196616716e-08 -2.1436090433849842e-08
877 7.53636372953418e-12 -7.15223549633662e-14 -8.675656809365909e-12 1.037312639950576e-08 -2.6113711465848238e-08 9.716850689306996e-09
878 -3.418527279469307e-11 -1.0622781715172384e-10 1.474535828571337e-10 -1.5513430955561264e-07 -2.1283819771300474e-07 -1.5641502763540892e-08
879 -5.037077679591518e-11 -5.477704660255251e-12 7.717365384479797e-11 -9.728667960628768e-08 -4.781228914985063e-09 -5.7654146576969503e-08
880 2.3850715180619248e-11 4.603076235306084e-11 -5.392979410541563e-11 -5.571284937437009e-09 1.6848106618707584e-08 1.4115594705537207e-08
881 1.1273548503863422e-10 -3.661718923257143e-10 1.3850290394656331e-10 -3.1925573413905194e-07 -7.196223174363867e-09 1.5262883545211968e-07
882 -1.367186281219119e-11 -1.1237771988319076e-10 5.638115857151028e-11 -1.6400756942218395e-07 1.1096192072892945e-07 1.6446968176959163e-08
883 7.64556509744447e-12 -2.163481943636171e-12 8.676131503649752e-12 1.995038048311127e-09 -4.155810858205758e-09 -8.407572294619805e-09
884 2.2850878236963228e-11 -1.3226060261907902e-10 5.944953960501658e-13 -5.664955589861371e-08 -4.773281201736894e-08 -1.7571364829138684e-08
885 3.794989135916914e-11 2.867974464765081e-11 1.4046051509892404e-11 -2.1130034589475128e-08 2.02488309526206e-08 -3.8887017764780554e-08
886 2.1680210023878504e-12 -6.806968867267395e-12 2.6292516661637676e-11 -2.806048161541267e-08 3.6506687861642347e-08 7.920539877466034e-09
887 8.753746424842532e-11 1.890177727611656e-11 -1.0842068236513393e-10 -2.775176394146032e-07 6.048957764738917e-08 7.183157637580087e-08
888 4.117615970120201e-11 -8.347830492905852e-11 1.954359940657564e-10 1.364289097883029e-07 -1.0546483162073647e-07 -1.4598460703861176e-07
889 -1.536054212253564e-11 -4.113111974905158e-11 2.1639613946751436e-11 -1.669987897317284e-07 -5.2227016353514164e-08 -1.2446135360250381e-08
890 1.9404879414043108e-11 4.736844263430965e-10 -1.0826122840505032e-10 2.9064771309026765e-07 7.760017942595136e-07 1.3839201309009144e-06
891 6.073088599729778e-11 -2.664571009286575e-11 3.0357481792826405e-11 1.0114388870490491e-07 -6.200870176094709e-08 -1.1888993885794849e-07
892 2.168565087418501e-12 -1.5253677349374203e-11 -8.671704310804997e-12 -1.7373901089765377e-08 -3.1871008456429626e-10 -1.0257159049682805e-08
893 1.4995096332110143e-11 -7.074614853509955e-11 5.3299504086243716e-11 -1.6250216343724261e-09 -1.8903410668187657e-08 -7.878442604671115e-09
894 1.36399015685804e-10 1.4260711297616794e-11 4.770505488848222e-11 -4.068969306638166e-07 -1.019268773277164e-08 -2.1129896572106258e-07
895 1.4096297827583995e-11 -8.02074920933878e-11 1.8188164006513105e-10 3.303503823355988e-08 -2.0385811502229768e-07 -2.278982847948551e-08
896 3.2547417144311964e-10 -2.3612057580765236e-10 2.7254664587819946e-10 2.6514939626202784e-07 -4.9144297447000395e-08 -5.626060029298182e-07
897 -1.5176711139871567e-11 -6.816282413708425e-11 -2.1682509543173753e-11 7.44266161580249e-09 5.0976082320064964e-08 -6.039886100861955e-08
898 -5.422863159523687e-13 -2.818962320190762e-11 4.469752804555649e-11 2.5668191478630247e-08 5.724337198919658e-08 4.0653779176872186e-08
899 8.12640692630597e-11 1.0054150841244642e-10 -4.337013212402755e-12 4.135400320827332e-07 -3.11776656457286e-08 2.4459336742428905e-07
900 2.2014581534989376e-10 -2.638031809096177e-10 -1.5031087463902385e-10 -2.1309340763076964e-07 -8.528391485635836e-09 2.2929948216614456e-07
901 9.020179102911524e-12 7.591787737662277e-12 8.969344472388364e-12 -5.711537010300142e-09 -1.924735231136816e-08 -7.441215190600608e-09
902 -2.385250171947155e-11 1.3290380577831414e-11 2.127205391973963e-11 2.561240374314712e-08 -1.2916034830744559e-08 9.212626752953197e-09
903 5.328188210313257e-12 6.955314159949078e-12 2.6016704085437778e-11 -1.1289257772388857e-08 1.8846308057189806e-08 1.67244893634222e-09
904 6.506186467366646e-12 4.726862628669276e-13 8.669803786212202e-12 6.703835568685988e-09 -2.221940581668391e-09 7.1308600866365485e-09
905 2.912104370008443e-11 3.3430162854924675e-11 1.0309714697378067e-10 1.4109556375192545e-07 -1.0248471973186474e-07 -4.7309138436977e-08
906 1.5731636163286695e-11 -1.5725606760480344e-10 6.071496577176691e-11 -1.1383974071487814e-07 -1.8584439893636042e-08 -2.5622804647538005e-08
907 -2.384409299233933e-11 2.0129569665825734e-11 4.33662936771988e-11 -5.8870406801315066e-08 -5.074805035961253e-08 4.552402661304989e-09
908 1.3867950691963816e-12 2.7096269329571175e-12 1.1547001127795504e-11 -2.9363992807579633e-08 7.387057344681917e-09 -1.3688231312867813e-08
909 1.573003072977164e-11 -1.0620194976051018e-11 1.756865376984579e-11 1.0963504095552489e-08 5.504762817126415e-09 -1.2513927863769184e-08
910 5.199990766530542e-12 -1.5178460061177208e-11 6.032219810655819e-11 -1.1313306546232428e-08 1.7833828538541156e-10 1.7944142783967368e-08
911 -2.816351471598462e-11 3.286077044824439e-11 6.071232348980522e-11 -2.2229080970058483e-08 5.7026372485879946e-08 -4.3823758220732165e-08
912 1.5374526832402868e-11 5.47262145198584e-12 -5.8536045597803875e-12 -3.3809119293255845e-09 3.4441460944460934e-09 -9.067040711778606e-10
913 4.922459697642358e-11 -1.3579797683235829e-11 7.805772748395033e-11 1.0326577783455307e-08 -7.146838189303845e-08 -9.568898178476377e-08
914 7.608724017789229e-12 -5.1324517958756394e-11 -8.820216693927645e-11 -1.919244620766342e-07 1.88574418383261e-08 5.974576786169216e-09
915 2.0996674469678746e-11 -2.0121883422924812e-11 7.806279010040236e-11 -1.3723808537780452e-08 3.8039680022149285e-09 -1.8300493705269318e-08
916 -3.143621363682683e-12 3.777029772692753e-12 1.7942219182893523e-11 1.428999229038509e-08 1.0679040668937423e-08 4.922721093050417e-09
917 1.345945104621196e-11 8.584596530942555e-12 2.602267188455305e-11 1.7510273765441174e-09 1.4212949122576058e-09 -3.2499579305589796e-09
918 2.1686190089140597e-12 2.6893213589181364e-12 -2.9476206738427124e-12 -1.625286591716749e-09 1.1091812238026888e-09 -4.763581827883828e-09
919 6.2527535261219526e-12 -2.1666588924506915e-12 8.773009930370867e-12 1.2771432469473993e-08 -1.127896463938359e-09 -8.444168401449537e-09
920 9.85391910156572e-12 -3.7698994465370227e-11 6.07155988791796e-11 4.239053708445946e-08 -2.56861729149928e-08 -3.3263725411885514e-08
921 4.905926621215918e-11 -4.5922335749031934e-11 1.0970841805378587e-10 -6.089061479384207e-08 -5.870102071932078e-08 3.496018724605226e-08
922 8.588365307107814e-12 1.337739226721164e-11 2.602042970858271e-11 -6.328285654713442e-09 -4.1121135377706925e-10 1.7216401650080177e-08
923 5.803338060327946e-12 -3.3910755728428442e-12 8.672084002603275e-12 -1.8349638311151246e-08 2.205915564001519e-08 -2.7750020215889508e-08
924 4.516793719972279e-12 5.908681228851422e-12 2.298967500120844e-11 3.317349056980252e-09 -2.7462821220001477e-08 -3.309318862588347e-09
925 1.3941271977610657e-11 -9.55023089046478e-13 5.2981928533384065e-11 -1.0867191070509126e-08 1.1081314389427038e-08 1.3477027468385892e-09
926 2.1685393522227195e-12 5.415457970924547e-12 3.612031552824676e-12 -3.977783073051269e-09 -1.632996467672978e-09 3.681274524387984e-09
927 1.3248419786784735e-11 1.3326821436765584e-12 4.337326372287986e-11 -1.6936868139820108e-08 1.110885087241817e-08 1.088965670749443e-08
928 -5.892805910494658e-12 -7.866308981839948e-11 6.071537732636408e-11 -1.466084517220151e-07 1.0433913791914094e-07 2.3836610936773334e-08
929 1.6295023804258673e-11 8.869727782475312e-12 2.602130957466264e-11 1.0638955356714794e-08 -1.4697989611058637e-08 1.6409609594477422e-08
930 1.0731564881182809e-11 -3.3032570356356925e-12 4.5199837673066466e-11 1.3619545871838838e-08 -6.73837523102642e-09 -1.630520030373742e-09
931 1.438257046272211e-10 -6.989012407693237e-11 2.1683767129739852e-10 -1.111001068873384e-07 -7.409549983645131e-08 1.5024110614238675e-09
932 3.3715249197839383e-11 -1.1966630954037062e-11 4.23213858253918e-11 3.8867376629274694e-08 -1.1976672401003294e-10 -4.039289890142079e-08
933 5.021987136288403e-12 -5.855171711019831e-12 8.672354392433331e-12 2.4707689214509744e-09 1.6102422404585912e-08 1.010597999276866e-08
934 2.16682214788713e-12 -1.9654387806329128e-11 4.912010969466732e-11 -6.8992837473895956e-09 -2.984708791607643e-08 -2.7358117939739446e-08
935 -1.505938489439925e-11 -4.3108537360086375e-12 -1.8736349399577596e-11 -1.7368665356446122e-08 2.5423476715129825e-08 6.687420009430069e-09
936 3.4450933898497626e-12 2.174715525752909e-12 3.5328120982606417e-12 -3.3381213142754454e-09 -2.6292154813198263e-08 5.694849575715945e-09
937 -6.4657137050893495e-12 -1.908258692044372e-11 2.6023517502377197e-11 -1.9452145636154276e-08 -5.0874437398091304e-08 -1.4264672174333282e-08
938 4.6250719282358196e-12 3.567233788114143e-12 8.674151070216205e-12 4.951523611007116e-09 -3.7158614952573998e-09 3.3652313330543283e-09
939 -1.9512373322254066e-11 -3.1976511086774437e-11 8.673210968057605e-12 6.27428594866089e-08 -9.38097769055332e-08 -9.879866609432845e-08
940 2.6567529417676336e-11 6.546461979646552e-12 4.151333770897939e-11 3.040803565658646e-08 1.3939582381723784e-08 -6.454535852019582e-08
941 6.753113412808355e-12 5.1854236623785955e-12 4.3362061681514966e-11 -1.457938429176462e-08 -1.8853594027726546e-08 -6.6206226803782525e-09
942 1.482012221439655e-11 2.984294741498691e-12 4.809224441692984e-11 -4.472828067704968e-09 -1.9612402361902473e-08 -2.4971860270249647e-09
943 2.7532305458636676e-11 1.0837883518532732e-11 2.21217338466637e-11 1.858820479491692e-08 -3.10339852554598e-08 -6.443425052133162e-09
944 -1.7436711812623812e-11 -1.7141579574225294e-11 -2.168404486724176e-11 -2.151873519590389e-08 -3.287852697847925e-09 -2.2919347157073154e-08
945 1.3105610186903531e-12 -3.5399647535656898e-12 5.1969826357589545e-11 1.6662881732970548e-09 1.5304736494456627e-08 -1.7200034807090092e-08
946 1.0844740683312343e-11 5.5577631248882055e-12 2.2342641369872884e-11 2.0337608694732652e-08 8.419843986427955e-11 -3.489232901178595e-08
947 4.995142313613759e-11 5.461071376190038e-11 1.8232493108023921e-10 -1.5291964976240522e-07 1.1158204063658068e-07 -8.60102040575016e-08
948 8.132929915231694e-12 9.629285065455615e-12 8.674671866524248e-12 -1.003190523046599e-08 -3.892271837449934e-09 3.209639391648541e-09
949 1.4249836736801899e-11 5.419894595659129e-12 2.4091162924028372e-11 1.0120647879348195e-10 -2.584337663667434e-08 1.905076304108286e-08
950 -3.5632622325362604e-13 3.793570946561107e-12 1.5298162945497438e-12 -2.0704234567892357e-09 -7.93147083133748e-10 4.057713003143181e-09
951 2.3734097873688272e-11 2.934875425698886e-11 6.071484374857783e-11 -8.03936075120693e-09 -8.721866821714552e-10 1.6043183939299554e-08
952 -1.0841111924488169e-11 2.476557656687569e-11 2.6020267175723286e-11 2.9572659516879185e-08 5.3162485975530865e-08 -4.4038934643188215e-08
953 2.0355353492570814e-11 -7.561022394925468e-12 1.3889904946689404e-11 4.895457760011778e-09 -2.311551830692464e-08 -2.3497717839502598e-08
954 1.3369405142100345e-11 -6.5054892429548784e-12 -8.673703788764877e-12 -2.2021040271334193e-09 -2.2357535302417386e-08 8.60679437594079e-09
955 1.333754198274187e-11 1.3121553258794173e-11 3.3895514718464874e-11 -4.20487926207271e-09 -1.144684863026957e-10 7.301458722428228e-10
956 1.7058755393693322e-11 -9.69416557870993e-12 2.602234461345801e-11 -5.0627819405768275e-08 -1.0330546807798628e-08 2.3291818631042132e-08
957 2.7515922352060755e-11 3.3068056440233673e-12 6.071461623520792e-11 7.966594628846715e-09 7.0019636529784e-09 6.571113460171366e-09
958 2.34279149100915e-11 3.979898774046767e-11 6.358174649584671e-12 -1.4157509444048005e-07 -3.18974643315213e-08 5.446914138595516e-08
959 1.0194300352408889e-11 -7.185205637733691e-13 4.978591654959324e-11 2.011899041340671e-08 1.933290855695504e-08 -3.1283387575641543e-09
960 6.328630505809451e-12 -5.834160343154753e-12 8.672595045035371e-12 -2.2181713109049896e-09 -1.4080939787728247e-08 -3.106121045890448e-09
961 6.648182160398333e-12 1.2524459299364699e-11 3.3266041792002645e-11 -9.711635102468412e-09 -1.3713103742059098e-08 -1.0258495757949854e-08
962 2.1683776931807945e-12 1.9656896797324228e-12 8.262322623214412e-12 -1.139288072521841e-08 3.7312136137257445e-09 4.5013799366147543e-10
963 1.0849443601256767e-12 4.6993056127971945e-12 -8.66868621095332e-12 5.636430352065451e-09 -6.900860074211987e-09 -3.6686948566560725e-09
964 3.6294407006755263e-11 -1.159375355871154e-11 7.765319406408841e-11 2.3750701637746858e-08 1.8250940683696642e-08 1.4589554249963374e-07
965 1.1612714707260638e-11 -2.3790325971275435e-12 1.7362522373547715e-11 -1.3089677512235897e-08 -4.094258069642614e-09 1.4108471434389441e-08
966 8.915398702847222e-12 -9.025851980736985e-12 2.938641413613815e-11 1.5763805616746002e-08 3.2557414007798615e-09 1.0936263536616474e-08
967 2.025766909474463e-11 1.518003761841225e-11 4.33614105926194e-11 -3.113111315790621e-08 -1.2430920815275361e-08 1.0535902892304328e-08
968 1.3978838439378442e-12 3.1664012715005763e-12 1.9515500602516687e-12 -3.890705485999463e-09 6.015044536016957e-09 -4.343298179897373e-10
969 -4.754020621927335e-11 -3.253591262814915e-11 1.5311969190041812e-10 -1.0384407156527466e-07 1.5335079495992738e-07 -6.275417304042669e-08
970 2.061072967209442e-11 4.759212399856458e-13 2.602125109856054e-11 -1.6821923472969964e-09 -2.4289462063717238e-08 1.0071078733285326e-08
971 1.2185821705375702e-11 9.754283651079769e-12 2.787038452664619e-11 8.737182954704774e-09 -8.533534969454483e-09 -7.010290770197144e-09
972 3.659729595721092e-12 -1.4234935033287806e-12 8.67316953160106e-12 -5.045358700734148e-09 2.033935764946195e-09 9.033566458985172e-09
973 -5.1556449272040805e-12 1.313770937409901e-11 -8.671463586948183e-12 1.1095012994063026e-08 4.73928094814171e-09 2.0579056168282315e-08
974 1.2109104514060166e-11 1.9491810280274537e-11 2.2195013367670856e-11 3.996296197182485e-08 6.16286314264147e-08 -2.1436569196024243e-08
975 2.0945093292597642e-11 -1.70299732178691e-11 6.071410668218169e-11 -3.695827346384465e-08 1.092616181629467e-08 3.3497684826597914e-09
976 4.842991802541083e-11 -2.194288056965125e-11 7.164608794992947e-11 8.619503581328302e-08 -4.188036932823114e-08 -6.948898210377446e-08
977 2.3084583045250917e-11 7.43007640719945e-12 2.6022957355088877e-11 -1.173971645182915e-08 -1.0703628621973467e-08 6.093936658301495e-09
978 2.4011737130016812e-11 1.1461620292285621e-11 7.805675198624529e-11 6.84693026948504e-08 3.933499895957722e-08 4.653523153818301e-08
979 -6.4846584069163154e-12 2.259774546515881e-13 2.6020099052305897e-11 -1.8074949248213928e-08 -2.546379547353199e-09 -4.0856225928610417e-10
980 7.05701199066756e-12 1.7116004831079217e-11 8.674702312677728e-12 8.823399950124823e-09 2.1197501217383193e-08 5.12405564150188e-09
981 1.951299980798854e-11 -2.5568317844522433e-12 2.6022408727054065e-11 6.618966033780456e-09 1.4942700111402942e-08 1.7582053839550427e-10
982 -2.1735464986286175e-12 -8.841414784612859e-13 6.522851654131643e-12 -2.03408785077442e-09 7.90690041098369e-09 -3.985542669947562e-09
983 -5.150401419189817e-12 6.5055515234347444e-12 8.673308059473523e-12 -2.8692030918735966e-09 1.517632061760969e-08 -8.28561148197879e-09
984 1.5178544326087134e-11 6.354035576282874e-12 2.602356554403519e-11 2.2438021373461697e-09 -7.069637625663872e-09 -3.3911136187877613e-09
985 -3.794646982240981e-11 -7.411279377104552e-11 1.3010075371628362e-10 -8.069312996514956e-08 1.7221616650563914e-08 1.8289956263813205e-08
986 6.510914781365856e-12 -1.9216806426454923e-12 8.67230922136697e-12 -3.618522840329324e-09 6.200884360571281e-09 7.484941141736339e-09
987 6.5070882678003675e-12 -2.013941525422631e-12 8.673204723847188e-12 2.115476834648139e-09 -3.802271746813577e-09 1.9926164763154155e-09
988 8.023039475318262e-12 -2.1687507916563294e-12 2.1082322897180354e-12 -9.844136675546534e-10 -9.397209700677396e-10 -1.5275710140894915e-08
989 4.627743123879481e-11 -1.2098869477542352e-11 4.9932276551579424e-11 1.5864019427465864e-09 3.115984524359065e-08 2.700838554007191e-08
990 -2.7106501652540613e-11 -4.0273887201775913e-11 9.540673742143637e-11 -7.290714733555907e-08 9.079339877914086e-08 8.687847185393429e-08
991 2.415427843132197e-12 -2.175987639714145e-12 -8.67016908407004e-12 -8.94959115034577e-10 1.316775558627569e-08 -2.3201763715154353e-09
992 -2.1245954058332294e-11 1.1978610603272992e-11 1.474503090129666e-10 4.385795290825583e-08 -9.033608994878923e-08 1.7699553430410975e-07
993 8.549127072503695e-12 -6.5045853432997005e-12 9.75164853097664e-12 6.255422862085678e-09 4.590908856906671e-09 -8.31493467726779e-09
994 -4.42546742941452e-12 1.7639266220402125e-11 1.803229413490422e-11 -2.3821756169805553e-08 3.756614313601674e-09 -3.6102363916074644e-08
995 2.38531171952914e-11 -2.056758024439076e-11 -4.3365488606034174e-11 1.8542823123314103e-08 4.910876438200816e-08 4.003199986825405e-08
996 2.160999848049761e-12 -3.679954479141447e-12 8.674244933166062e-12 -2.1079284961486898e-09 -1.8326330168115302e-08 -9.364104286776476e-09
997 2.4023394077868747e-11 -1.1351657286931238e-11 4.336969053095595e-11 -1.0873009316614479e-08 -2.5945210596387437e-08 2.450415110769006e-08
998 6.63587735481382e-11 -2.0968773448766015e-11 1.2015860990445662e-10 -8.312203926404946e-08 -8.907999484661052e-09 1.045839749104534e-07
999 1.5439361013759788e-11 2.5501161604278473e-11 4.780667977357088e-11 -2.454848858603732e-09 2.449788296751968e-08 -1.2764092678506804e-08
1000 6.800186652735747e-11 2.376914731793066e-11 -6.055067918156353e-11 1.367100408548146e-07 -8.606645359022161e-08 1.994849957523575e-08
1001 1.5177261347378342e-11 6.493356011835488e-13 2.2270155652692753e-11 -1.6641171372576846e-09 1.3214664942604229e-08 -1.102882990037844e-08
1002 2.3672428582896115e-11 1.6192743033874527e-11 4.336639597653087e-11 -1.0379129377284304e-09 -2.04082886442369e-08 -1.0425198459677587e-08
1003 -1.324153260141501e-11 -6.4648169854439055e-12 -1.014515717991861e-11 4.971247747164725e-09 -8.93173598324562e-09 -8.044681603349036e-09
1004 6.504009072368376e-12 -6.506327042696482e-12 8.682418624695128e-12 5.637220836513024e-10 1.1577396315986384e-08 7.819409988229561e-09
1005 6.504914698798163e-12 -1.0843678871768073e-11 8.674502371842764e-12 -7.9089204553416e-11 2.7776072008794777e-09 4.213416470205559e-09
1006 3.488795812614459e-11 1.7287118241086907e-11 3.246162231172156e-11 -1.0780235303519047e-08 -1.4107711762544298e-08 -2.9935079600697646e-08
1007 -4.007065824972268e-11 -3.132395666054061e-11 4.368582408064206e-11 -2.9920693953369654e-08 3.2972967849994015e-08 -6.579050562086599e-08
1008 3.0780340405883364e-12 2.168168756550164e-12 8.672724347874774e-12 9.9262645102257e-09 3.9706972077346084e-09 -4.997242444155458e-09
1009 -1.3498356894239203e-12 2.1675034063577834e-12 -8.577979475745044e-12 4.156630299289048e-09 1.768237542369493e-08 -8.452563255407774e-10
1010 1.3246783000252691e-11 1.5178086585838733e-11 2.6020674598051246e-11 -2.513020748874163e-08 9.666203129814272e-09 1.0127042211251268e-08
1011 7.496601749415327e-12 5.23160840991603e-12 8.631941719982417e-12 1.2339305655369683e-09 -7.157603509975394e-09 4.857760690385104e-09
1012 4.434505573911746e-12 -4.891063115933216e-13 8.672347043813562e-12 1.96296345742018e-09 6.809556547652014e-09 3.1721957808939396e-09
1013 1.8505667781352175e-11 1.663899328915615e-11 6.071437365151458e-11 1.8324901024786403e-08 3.050501399709021e-09 1.942268158357045e-08
1014 9.763684131312356e-12 -9.891576615011029e-12 1.3836261789551696e-11 1.031947709518741e-08 5.863486866489891e-10 -5.6801371541454935e-09
1015 1.5178259866872347e-11 3.6083480365533953e-12 2.6022697054780007e-11 -1.177287942117089e-08 1.4966188658278276e-08 -1.7996201059238287e-08
1016 2.2239588389112872e-11 8.152991761619736e-12 4.3367853637420684e-11 -1.8038411225359896e-08 -8.82378766291645e-09 1.3054751581321154e-09
1017 4.9138051592171515e-11 1.3935238699551134e-11 8.973512739399026e-11 -5.000986668770752e-08 1.1496163996901352e-07 -5.934822551261275e-09
1018 -6.501567381339213e-12 2.129325864884258e-11 4.336737050501952e-11 4.562250121605661e-08 -4.042076265008071e-08 2.0143877208705678e-08
1019 -8.859763548029032e-13 4.726830757828674e-13 4.3369429879202086e-11 -7.42944057509342e-08 -3.6660527050645272e-09 4.801950770880551e-08
1020 5.421553829897383e-12 -1.3535438795877816e-11 4.342594044590468e-11 -1.4405448434247352e-08 1.2531786907951718e-08 1.7954749793343e-08
1021 6.504201463640035e-12 1.6951372472621206e-12 4.851352424015493e-12 5.6304644358395346e-09 1.4873766684507488e-08 7.77972665378777e-09
1022 1.7559253464822126e-11 1.772265399183394e-11 2.0460262699731883e-11 4.225654745619816e-09 2.4442704807050584e-08 -3.625043070748441e-08
1023 3.151340567261145e-12 2.818586327604713e-11 2.5879941787180188e-11 -1.0520700776899654e-08 -1.0158235828984728e-08 6.547300302339037e-10
1024 6.473549190543585e-12 1.8795526232026103e-12 -6.196944478593288e-12 -3.8729112950258344e-11 -1.2312803257928147e-08 3.2153449446331787e-09
1025 3.372123465008585e-11 -2.83175570366831e-11 4.336810862750285e-11 -8.257054025425747e-08 1.7702876986915952e-08 6.634844918186635e-08
1026 1.0258999769453826e-11 -1.3519097373391732e-11 1.4445448598355848e-11 3.2035454797919722e-09 9.746423637224414e-09 -1.959647959764328e-08
1027 1.3456324125765835e-11 8.159542208732064e-13 4.873498240919165e-11 -1.7024822160019777e-09 9.986214683473777e-09 1.885380932432789e-08
1028 -1.084150634160678e-11 -7.649444366920926e-12 -1.1017997527685415e-11 -3.463607527108281e-08 4.018088460284603e-08 -7.279250937261075e-09
1029 5.3339728393287034e-11 3.778062495428966e-11 6.071718143801173e-11 -9.170163549324416e-10 -5.137791060376964e-08 -3.921312054791712e-08
1030 -9.762198780274159e-12 -3.962795513337904e-11 4.6973354754432467e-11 -6.725002162150291e-08 -4.5262663747283384e-08 -1.110621421154103e-07
1031 -2.1359832012933548e-11 -2.7675013451647247e-11 8.660033434911684e-11 -4.206800860819647e-09 -7.505313629358425e-08 8.755089346466324e-08
1032 4.845477517843099e-11 -4.880143171963404e-11 -1.3085811134713583e-11 -3.4490616430653405e-08 -4.5604512910624204e-08 1.429391286502149e-07
1033 3.053162180916867e-11 3.364954589283063e-11 6.071290473441449e-11 -2.1951252195962667e-08 4.949575528414392e-08 -4.279100461035191e-09
1034 2.4953638480203696e-11 -3.2710978001082007e-12 6.071711812999367e-11 -4.947625378325315e-08 3.291699990283801e-08 2.959731278394424e-08
1035 2.1690852511554628e-12 2.893858806443756e-12 -1.2189420810581622e-12 4.179755625096456e-09 3.811714063607082e-09 2.7104282865412267e-09
1036 1.532409550290626e-11 2.0113241888761287e-11 2.6016521696338714e-11 9.983286340103165e-09 6.233733823425473e-09 -6.1982416759984765e-09
1037 7.147997292369158e-11 9.31444520651844e-12 7.806300200006873e-11 -1.4316083791124532e-09 -8.562189398962202e-08 2.981783541910209e-08
1038 -2.6339558200546488e-11 -3.0383502912869177e-12 7.806165014795216e-11 2.039988387635578e-07 1.69620978575935e-08 1.1692334982702847e-07
1039 1.0058635693347341e-11 7.595251008874808e-12 5.566424940792929e-11 -4.058976166571477e-09 -1.9550889002306757e-08 -1.690289197008518e-08
1040 3.674451516300885e-12 1.0430683673999227e-11 8.673810428096524e-12 -2.1124671776014885e-10 3.2234130397615814e-09 -1.067324570600224e-09
1041 1.517963702709111e-11 -5.427565337715655e-12 7.650647167295487e-12 -3.4543112222334446e-09 -1.9804948007458894e-09 -1.1579147262834972e-08
1042 1.843167841775966e-11 1.0861459899820886e-11 4.3371618229743617e-11 -1.8813288571054668e-08 9.902173045852061e-09 2.395577718160892e-08
1043 -2.6705233033600017e-12 -1.414131316740774e-11 2.6021687923823816e-11 3.3788671218195123e-09 -1.2291426499248368e-08 1.5887458405198975e-08
1044 1.3452324695040618e-11 1.768126430205932e-11 4.336802833184939e-11 -5.0115225344355684e-08 -2.1163642623883486e-08 -1.1181605508488816e-08
1045 6.667903353691948e-12 -2.162320266723848e-12 -8.672499206481877e-12 -3.6057913236541724e-09 8.452740561908045e-09 -2.4982008715833687e-09
1046 2.1645046247647275e-12 4.38600486447224e-12 8.669806637445018e-12 -1.2707659488782333e-08 -1.141423650950714e-09 1.0789717590504865e-08
1047 4.9714594599446085e-11 -6.6245468490718976e-12 -4.3368919460012236e-11 -7.235066212667779e-08 -5.9481724716575514e-08 -1.399146636553679e-08
1048 2.3928077043609807e-12 -6.505206187315223e-12 8.662790031469465e-12 3.680506958751581e-09 2.5883963188334053e-09 5.782534367369899e-09
1049 2.3857625097816357e-11 -9.744785286803674e-12 1.0126713110037442e-11 -2.1051025257938512e-08 -1.1298816412115435e-08 1.1692054695296638e-08
1050 5.312248763295844e-12 -6.86303810321581e-13 -4.173596484871288e-12 6.092109955685451e-09 9.888888691204815e-11 2.3459519795701187e-09
1051 -3.2745560259255095e-12 4.0302820636868045e-14 3.8709234395127285e-11 -4.2224221528187196e-08 -1.25399306579962e-08 -3.742141677552465e-08
1052 1.1327073993234303e-11 -3.375696227795181e-11 8.94268226765765e-11 5.5623135687940295e-08 7.221545116059296e-08 3.2088726187094976e-08
1053 2.1712065627284146e-12 1.0841142718274824e-12 8.671137314733768e-12 2.0230498398210627e-09 4.6513259720873e-09 -3.166446406740204e-09
1054 2.979665789533062e-11 6.783463915030296e-12 4.336805912538492e-11 3.423713462772871e-08 -1.4259761815981604e-07 5.432532427810129e-08
1055 2.087664006341771e-11 -4.15415998818631e-12 6.071531515977409e-11 -1.1323378402848642e-07 -1.2841938131964544e-07 -7.059524356944497e-09
1056 -2.606685947207837e-12 -2.9524574164229766e-11 -1.301032571874374e-10 -3.504667460032312e-09 1.4543765801436513e-07 1.5814170631738947e-08
1057 3.276324675931085e-11 -5.755048757271184e-12 2.7741330002541766e-11 1.117118540389423e-09 -5.58073988087675e-10 3.282946112450199e-08
1058 -4.8433339299674425e-12 -2.3648668381994583e-12 2.4746916581665405e-11 1.2361956583885634e-08 -2.5096567189755978e-08 3.6493566296931946e-09
1059 -2.164159168752919e-12 2.481436539367729e-13 7.461351533870956e-12 1.8333642002727024e-10 7.2591448294421635e-09 -1.2558685450423307e-09
1060 1.9093685411825697e-11 -1.7670875147476706e-11 3.6834502249902506e-11 -6.45804646819969e-08 -1.2617051866229117e-07 2.39869290541182e-09
1061 6.530922670066491e-12 -2.387994553523255e-12 1.5090192480435196e-11 8.841039920436434e-09 -2.3296684492013065e-08 -3.259203050547207e-09
1062 -3.628872992970234e-11 -5.4300880256166404e-11 1.99496481299509e-10 4.9613028538899134e-08 -2.2330867186746275e-07 5.1412375923810285e-08
1063 1.5528957216398966e-13 -1.1126108648530699e-12 1.2678692179967786e-12 -5.97657425226059e-09 2.1438478214260854e-09 1.865371879900659e-09
1064 -7.286644371464487e-12 7.50023972125123e-12 3.7940777573159136e-11 2.6816168363621997e-08 1.21622920996011e-08 -5.800358125658642e-08
1065 2.8750538371261307e-11 -3.8458816052300915e-11 1.3009959906682294e-10 9.051155178128058e-08 -7.524516934952423e-08 -8.204872964644981e-08
1066 9.325533788593693e-11 -1.9002115736096678e-11 8.899665124188931e-11 -3.335854928570473e-08 7.186178891868121e-08 1.744868098807069e-08
1067 2.2560186557264275e-11 -1.0842280463542809e-11 7.490849153628648e-11 5.17353592711506e-08 -1.1353757667754661e-08 -4.523261660729519e-09
1068 3.9524721822883446e-12 -2.16841755124741e-12 1.1153504929181533e-11 1.441668038753841e-08 4.189392266003531e-09 -2.899294359570413e-09
1069 -9.193870117047435e-12 2.985947758477298e-11 4.2590471832242996e-11 5.66497509798411e-08 7.607353742477102e-08 1.8518176965898567e-08
1070 -1.7495576815969094e-11 -1.3599552392135419e-11 -8.678984425560016e-12 -2.0909158605861282e-08 3.63297551387855e-08 -9.203554794680682e-09
1071 -2.170312933122951e-12 1.0682403653330483e-12 6.05459569621373e-12 -7.141828455822493e-09 -9.357408529156046e-09 2.3385247742743738e-09
1072 5.876602188308492e-12 4.0315131054695796e-11 9.752856509454773e-11 6.829356227645852e-08 6.152828210098424e-08 -7.694203238608289e-09
1073 4.142170284017301e-11 -9.559006478489466e-12 6.613815363633361e-11 -1.6406748356553412e-08 -1.753790743548961e-08 -1.8281423344608708e-09
1074 6.555047270587203e-11 -5.232255567045257e-11 8.538899771124892e-11 -4.138863735161824e-08 5.07504412228868e-08 -1.7553434588623475e-08
1075 7.138262957492753e-11 1.6531551593363443e-11 7.806517854004816e-11 4.312484791776612e-08 -2.6224036320506718e-08 -1.3379564615076313e-07
1076 2.5567295739952796e-11 -2.124187257533155e-11 6.082154546042113e-11 -5.9578643366011985e-08 -8.59051883381302e-09 8.994116062533241e-09
1077 -1.3583092841515054e-11 -1.9271370417992142e-11 -2.6027145963317677e-11 -1.263150074921798e-08 6.908919371449323e-08 -1.635534345361101e-08
1078 6.50548912364268e-12 -1.1894618312701047e-13 4.124085228750988e-12 3.3387126764715725e-09 -5.339513807690905e-09 2.8468127466645713e-09
1079 -8.653627148424567e-12 -2.6578822102899755e-11 6.071888394994403e-11 -4.9995035868968765e-08 5.303531572046555e-08 -1.991422702872793e-08
1080 1.1167398742957849e-10 -2.1745728103274622e-11 1.4744988511638705e-10 -3.284470524799302e-07 -5.3329267755650404e-08 6.314106718772663e-08
1081 -1.5416446941562447e-10 -4.5536060250828697e-11 1.301030250274576e-10 9.259139790299269e-08 3.939076275825483e-08 8.349107366662069e-09
1082 -1.1018086198349847e-11 1.8600711764710963e-11 2.6021695851111953e-11 -1.256395450355149e-08 -2.512702363817093e-08 4.781120796193338e-08
1083 2.616310256601141e-12 3.929772090548505e-12 3.3095431385865028e-12 1.0297764905789111e-08 -2.0096706767708987e-08 1.0363706941007975e-08
1084 1.2553662644612814e-11 7.659667937945183e-12 5.3165585796297805e-11 -4.746224377446403e-08 -3.171751387670315e-08 6.276389061932433e-08
1085 2.1689117541928554e-12 1.0428647894464905e-12 7.02003823965122e-12 -1.0487104899953645e-08 3.415053146652802e-09 7.818387693702481e-10
1086 -5.30422781384063e-12 5.156956730026169e-12 -5.45810169211717e-12 2.585615771336647e-08 3.929827955146118e-08 -2.0216164167037164e-09
1087 2.8868559014573086e-12 -1.623187913210728e-12 8.670997667607741e-12 5.815294260923529e-10 5.082244461226269e-09 3.023185017457153e-09
1088 4.69784348331626e-11 -4.11282389152618e-12 4.336889033924551e-11 1.5451065682929563e-08 4.506483295507541e-09 -7.4212092117159194e-09
1089 -3.24481769962589e-12 -4.8942370263655315e-11 7.804894987990779e-11 -4.8659106671444294e-08 2.8117970339427504e-08 3.401365400184975e-08
1090 1.5179288177451385e-11 -1.8540145529924578e-11 2.425668940175434e-11 -2.029876347670194e-08 2.2082309060630868e-08 1.4120741033159693e-08
1091 -6.505288231644263e-12 5.1408372461475385e-12 1.2618592816418964e-11 7.603968549486239e-09 -1.462012139056258e-08 -8.786438510601909e-09
1092 1.4483492823324363e-12 1.0525820102477474e-12 4.657924928135278e-12 -7.0516119849276555e-09 8.500479146902053e-09 3.8309443836650306e-10
1093 1.0842886131625417e-11 4.3501981193588397e-13 2.2304281908128717e-11 1.2054856173096874e-08 6.549684435882335e-09 -1.1736459094231294e-08
1094 2.818275385473987e-11 -8.236976136919279e-12 2.6022628507990842e-11 -2.503296976266218e-08 8.676719518129492e-09 2.0847912624374297e-08
1095 6.7785596736684835e-12 -1.0682890941534611e-11 4.336772338935731e-11 -2.4397009092375115e-07 -9.01050212436387e-08 3.179810736185093e-08
1096 1.907273825971756e-11 2.005945963629273e-11 1.1275841333296691e-10 2.68449361087802e-09 -2.3253095184351616e-07 2.281413788644057e-08
1097 3.8922541971409026e-11 2.8830014694205155e-11 4.1134310337818027e-11 1.8345477479906018e-08 1.1370311483903698e-08 2.3808481798404337e-08
1098 2.911213897711444e-12 -4.941775875033166e-12 2.5992184855520915e-11 1.18690234335492e-08 -4.831848950129616e-09 -1.0231102929505627e-08
1099 1.9515904444350983e-11 -5.4209280599782556e-12 1.4392961701120513e-11 -1.8273666461199094e-09 3.193566946823518e-08 8.624438406755009e-09
1100 7.292590820024943e-12 1.606546985761633e-12 6.503626007871484e-12 -1.2276992717009441e-08 -1.1767517565967043e-08 4.755994706562866e-09
1101 -6.6697596243321105e-12 -3.2072384915146e-12 3.726910456965673e-11 3.225735577907663e-08 6.51056716368321e-09 1.423584049354762e-08
1102 2.187031836918625e-12 -3.2601251426267295e-12 7.174103781892221e-12 -1.3221495762603231e-08 7.908102505322523e-09 5.3419263651505306e-09
1103 3.252483863026298e-11 -3.705458355331421e-11 1.3110751879221597e-10 -1.6383153649711788e-07 1.6735864006884274e-07 7.592673575273684e-08
1104 6.501786188009883e-12 3.2536973393998782e-12 1.5801059199391997e-11 -2.5292449131720965e-08 2.3508630566543595e-08 -5.0896739373164044e-09
1105 7.269295858636675e-11 1.81188615564214e-11 7.806416938132916e-11 1.5313051492356935e-08 -6.622019433745389e-08 7.197034091098335e-09
1106 1.0843466808040339e-11 -3.260584933472996e-12 8.67548575505375e-12 9.686890082214953e-10 8.23450334093745e-09 -5.605134239276721e-09
1107 5.426803976221657e-12 2.168909186533646e-12 8.673428183410044e-12 -3.1704624605276097e-09 -1.5858561359912663e-08 1.3910456562278812e-08
1108 3.109239423089306e-11 -1.6352545724061753e-11 9.540949708878777e-11 -2.1625859471947928e-07 1.1631141743537187e-07 -1.363977848205209e-07
1109 2.7861424119134713e-11 2.92978842489894e-11 4.337108256138903e-11 1.7570944892127978e-09 -2.366681312191167e-08 -2.941224880678221e-09
1110 6.50399658127779e-12 4.750254725419191e-14 8.673294402112123e-12 3.1868738650990246e-09 5.86891121511328e-09 -1.1588455013875725e-09
1111 -3.315379466452894e-12 -2.1676683749156337e-12 -2.8317438928786943e-12 -1.3002693646348442e-08 2.4606933444330113e-08 -8.305988058980598e-09
1112 6.070237002979059e-12 1.1166451338733154e-13 8.67334701604861e-12 1.2578728341803656e-09 -2.307137529281924e-10 -1.5907352284736957e-09
1113 3.1478993683902466e-11 -1.4007743412855034e-11 4.8573111097243895e-11 1.5519785378359586e-08 2.0864196180362577e-08 3.1813480642083574e-08
1114 5.3129311994278365e-11 -2.6441458803424327e-12 6.071896974506491e-11 -1.6138481431880904e-08 1.0374408093473964e-08 6.48080629179916e-10
1115 3.143907813915177e-11 -2.8048631671885153e-11 6.071365959303944e-11 4.6727176875899045e-08 -7.208910763801148e-11 -2.0793837688052885e-08
1116 2.4551997597168346e-11 -2.3428255802658007e-11 7.262450871016472e-11 -6.866393055952604e-09 -1.375286125329411e-08 6.159749006406072e-09
1117 -1.5318437923015611e-12 -1.8115942825471075e-12 2.50666325150916e-13 -5.833938979992991e-09 -7.015495508252585e-09 -1.4028426110043388e-09
1118 1.599145472795317e-11 -1.0115104309130359e-11 2.049525723584206e-11 1.5054241121377907e-08 -5.490104237932564e-09 -5.0574979453525525e-08
1119 1.793208399631896e-11 7.541946773249756e-12 2.602146746955422e-11 -1.2686221740154727e-09 3.384178853377023e-09 -2.68373817697148e-09
1120 -2.2896985549141324e-12 1.2981426254784128e-12 3.1875026162079956e-12 -1.5494067138792715e-09 -3.1720792328552473e-09 -1.5966049038044073e-09
1121 2.0444175140248356e-12 5.605471235484061e-12 2.6026600374984454e-11 -1.467315648472594e-08 1.3723629586754349e-08 -1.4538765248295498e-09
1122 1.0894559368489391e-12 -6.780212927328017e-13 2.4968368863331856e-11 -7.009806751502893e-10 -2.340190049704685e-09 2.7446859859866806e-09
1123 3.649814863875358e-12 1.2210994709920238e-12 8.672924687876194e-12 1.2808034540146302e-08 4.7889484533641824e-09 -2.616935853756318e-09
1124 -5.998085543491292e-13 -9.046752811399995e-13 2.601934208578164e-11 8.833565636566739e-09 -4.3007257496075e-09 -7.166854222951188e-09
1125 -2.1669405698811765e-12 -1.8982406829294145e-12 8.672997476177808e-12 7.27573704094335e-10 4.246403738797756e-09 6.413797393582578e-09
1126 -1.8699440109110215e-12 -4.132751460474088e-12 8.67351877985715e-12 4.54419423770386e-09 -4.648239552031793e-09 -1.8647985986991803e-09
1127 1.0857315407764559e-12 -7.561044739673484e-14 -1.8759320992377923e-12 1.056072530658154e-08 1.3201219114365062e-08 7.237941321925475e-10
1128 7.215542018874878e-12 1.083583992773156e-12 9.793794852437822e-12 1.0767466584042574e-09 9.691663081307952e-09 -2.604658139546249e-09
1129 2.8597436823125482e-11 1.210805805413453e-11 6.071578235477972e-11 1.977994040801773e-08 3.57828336538601e-08 2.005137123732464e-08
1130 6.013062478760512e-12 -3.2438678998620074e-12 2.6019629616927954e-11 3.966297226993142e-09 6.211493707371935e-09 -1.535705142745954e-08
1131 -2.1689728347680864e-12 -1.0801296965883475e-12 7.369972486644183e-12 -6.6017009165730805e-09 -7.697465063733335e-09 -6.372820072319345e-11
1132 6.623088919646751e-13 -1.5308094641364974e-12 2.673291851385259e-11 -1.9096469836251076e-08 -2.677638150459411e-10 -1.330793027130831e-08
1133 1.0749900099284139e-11 6.459568864858546e-12 3.9722305923563587e-11 1.1356469633345604e-08 5.683765257567934e-09 4.466250506303897e-09
1134 5.880744900058457e-12 3.800707800750062e-12 2.603247051729232e-11 -4.98954790400695e-09 -4.900455818390806e-09 -1.0182185220731504e-10
1135 5.047191985610263e-12 2.1672430971239994e-12 8.603060612309726e-12 2.7236196014688846e-09 -7.675636941024162e-09 2.3778401457167117e-09
1136 1.0792741039248093e-12 2.1677426544577956e-12 5.80560860585724e-12 -2.8517129333138535e-11 -1.9823163114201555e-09 4.11738299288107e-09
1137 2.4537255454014915e-12 -2.1978267865429896e-13 1.366726759840208e-11 -1.4116328239513213e-08 -2.7846080691463267e-09 2.003372458867872e-09
1138 1.3737044735520167e-11 2.4639240712605485e-12 4.3372349389007604e-11 9.620465246427254e-09 -1.129432778858926e-08 -6.7254104319864605e-09
1139 5.42447511151642e-12 2.4317495903442833e-12 4.443574237287043e-12 -6.237563717531585e-09 1.3610760956686598e-09 9.269658888362664e-09
1140 5.920393019109975e-12 1.4596751802942327e-12 6.071468260706391e-11 -1.732892294887747e-08 1.2316006438497467e-10 2.2119051098717734e-08
1141 2.6757342531514345e-12 5.094213206085929e-12 8.671990765053178e-12 3.246817364603108e-09 -1.033493257833584e-08 -8.443055708807964e-09
1142 3.242416171353208e-12 -2.756466714746041e-12 4.3362709519045985e-11 2.058748407785236e-09 -1.8784725883458627e-08 -1.5208774044072247e-08
1143 5.060913009462466e-12 -3.4929939768893463e-12 3.721443714987986e-11 2.5545403585512532e-09 7.41922404922668e-09 4.271872408874889e-09
1144 7.575577858341772e-12 6.535121718821504e-12 2.601771419335946e-11 -1.9670887779298153e-08 -1.1007406458762212e-08 -9.011382025126716e-09
1145 1.6311023687654779e-12 2.1683367893691158e-12 6.678518275670108e-12 4.851057833585397e-10 1.9330887748925958e-08 -3.1830550709878463e-10
1146 -1.6107706329914462e-12 -2.169152754996333e-12 1.7994756548111642e-11 -2.2295936381008677e-08 -5.343145538424139e-10 -6.649140493800547e-09
1147 6.906211601472416e-12 5.531009040283261e-12 2.6025408510527313e-11 2.7855904538956983e-09 -7.126535533704491e-09 -3.0874672659926445e-09
1148 8.852979128197624e-12 -2.1632916143677765e-12 1.5207319182859925e-11 1.5530985253058876e-08 1.4743386839375256e-08 -9.895147015780481e-09
1149 4.370200168060129e-12 7.443059422906067e-12 8.679703866390782e-12 1.602597567598814e-08 -1.7152130804288897e-08 -5.3276334788698305e-09
1150 -4.860627212814741e-11 -3.4049248361001313e-12 2.6021367518298604e-11 -5.6910577268577576e-09 -2.9573910083413047e-08 -3.8976564623978274e-08
1151 -1.0828385865387552e-12 2.1686048447708766e-12 6.272179388424721e-12 -4.5542437658049025e-09 5.816661683031558e-09 -3.0719679305323765e-09
1152 1.1861265238131272e-11 2.168020256429295e-12 3.3258956837801206e-11 2.633443049654451e-08 3.163524227467603e-08 -3.7047763407093197e-09
1153 4.3400818370237965e-12 1.6252549533168242e-12 5.6165879247605866e-12 -1.014029477940976e-09 6.5280791740824125e-09 1.3354641102672057e-10
1154 2.174205457415176e-12 1.3067609234694701e-11 1.5375066803313387e-11 -4.917577628374264e-09 -7.490760572668039e-09 -1.0835405846867861e-08
1155 2.9508225916409025e-12 -2.168220801883791e-12 8.670703768441791e-12 -6.456659251487347e-09 -1.5906404469461213e-09 -3.616792489447272e-10
1156 2.1683365151300798e-12 5.4225531316954975e-12 7.801456302752756e-12 -1.0398117086131208e-08 -1.905222146540607e-09 6.834604503041541e-09
1157 5.102011056468521e-12 7.677669521623454e-12 8.673329173550608e-12 6.25839480007707e-09 -2.598293023905274e-10 -7.89223368678762e-09
1158 1.649124555512764e-11 1.6999497955014074e-11 4.336233580502742e-11 1.6541842216190134e-08 5.468165802017841e-10 -2.876640545756514e-09
1159 6.185251508798955e-12 4.334709946457744e-12 2.6021967389367216e-11 -1.4658790150060782e-08 6.568799252433958e-10 7.197150888992165e-09
1160 -1.0834437468958927e-12 -1.3093477751391392e-12 2.921185138620158e-11 1.2597197410751039e-08 -8.289470089684836e-09 -2.9373923002300334e-09
1161 5.415622121228847e-12 3.218616419453666e-12 2.602202956318016e-11 6.485896506893698e-09 6.462151572307139e-09 7.287971655587621e-09
1162 5.357026437428525e-12 6.50527471892859e-12 8.67736564780421e-12 -9.822135784075978e-10 -5.390826738276846e-09 1.4235981958397851e-08
1163 -6.489302786074627e-12 2.1680619569794546e-12 8.670040301599051e-12 1.1836854821754973e-08 3.3815850447755825e-08 -6.559248382428944e-09
1164 5.377338647772948e-12 3.922634068962399e-12 2.602046550899963e-11 9.338772228403032e-09 -6.3876470754912695e-09 -1.4768923658257278e-09
1165 -2.5689639421773043e-13 -2.3770809021064598e-12 2.3982985818480035e-11 -2.1710113339692125e-08 9.745021526128026e-09 -2.458664704058422e-09
1166 1.5673354482681226e-11 1.2936937460095147e-11 6.071413483195356e-11 2.9064414008383477e-08 -2.771999856563537e-08 1.7499402662159684e-08
1167 5.330535286584927e-13 2.1590247345287314e-12 2.6137645841443805e-12 5.0543582143175097e-11 -2.920001379917766e-09 6.847797112009009e-10
1168 9.197138656322182e-12 -1.8302515132643398e-12 4.144127176010019e-11 -8.886759393131473e-10 -1.527434134598383e-08 -1.681546601495555e-08
1169 6.60483636619822e-12 -2.0437208376170034e-12 2.5959331892874775e-11 2.9505666353820153e-08 -1.2831835178339375e-08 -1.0221463456972152e-08
1170 -2.7360253881943427e-11 -2.283568786127709e-11 4.479336476695458e-11 -1.0528856614746826e-08 3.6377422871427593e-09 3.23861508740486e-08
1171 -7.597821441531184e-13 1.0044051676794185e-12 2.2453601630311063e-11 -3.867557578376649e-09 -1.130132286509526e-09 -4.615547351636008e-10
1172 -1.362873861304248e-13 -9.506749724074508e-13 2.60208203503458e-11 8.400977991563818e-09 -8.288257262860666e-09 1.7712369613743621e-09
1173 5.76060228797862e-12 3.1010704575248207e-13 3.642385486475589e-11 7.931680663432764e-09 3.5882347424601834e-09 -1.1505290529917747e-08
1174 -2.6740686439304728e-12 -2.1679071158035026e-12 8.672553754504814e-12 9.570577252849351e-09 -6.7857207568251415e-09 3.576002820470752e-09
1175 4.444326332598173e-12 -1.8984896363409363e-12 8.673724170384277e-12 -1.8301694840114164e-09 -9.036211444032237e-10 3.1813512341672233e-10
1176 -5.419136864077968e-13 6.500509943199277e-12 2.359779828218489e-12 1.4690926793893969e-09 -8.723696034577514e-09 -4.954657936639492e-11
1177 1.7131678699738982e-11 6.446860207269745e-12 1.9452975088666084e-11 -8.19082200733389e-08 -4.6508960174638093e-08 -1.2462733199219684e-08
1178 2.6461952453473512e-12 -1.6233430632611776e-12 3.536366079360616e-12 -2.37701465849075e-10 8.553038507789837e-10 2.3788417767665487e-10
1179 1.255795548904216e-12 -2.038062205468423e-12 2.272482517183074e-12 -3.1248107308746515e-09 9.178635992040134e-09 -2.381794116449261e-09
1180 2.027456132388221e-11 -2.360165455455015e-12 2.6230216507429996e-11 -8.805474961763241e-09 1.187174896588135e-08 -4.981792922007524e-10
1181 -1.0839900293169895e-12 -2.168053963898968e-12 -7.295100378747301e-13 2.144645358923646e-09 -6.966204549494505e-09 3.0959736173554366e-09
1182 1.3369581667507892e-11 -2.7226661606951957e-12 5.497370344774857e-11 2.201444200692044e-09 -4.3743783716642695e-09 -2.321348506175118e-08
1183 -1.0748425742180316e-12 3.100459906411027e-12 2.6020006356117204e-11 -3.0858012318819415e-09 1.1905876977683935e-09 1.083789705323418e-10
1184 7.45774857417507e-12 -6.213836604522561e-14 2.6027715888774716e-11 7.016964212669196e-10 6.7714360406931915e-09 1.3395785291011021e-09
1185 -1.0055813203901026e-11 -1.3665581816298556e-12 8.673568589809003e-12 3.1398527701415966e-09 -6.187634156068499e-10 1.791769990696737e-08
1186 2.1870244386246125e-12 -6.959767552891627e-13 1.4611152004833265e-12 -6.281811063483041e-09 -1.8089554589211364e-12 -2.774083360767523e-09
1187 1.6035971394310325e-12 1.4409824744186097e-11 3.725975924783462e-11 -1.068972037807665e-08 1.0958598030144447e-08 -1.0155182529636241e-08
1188 -7.215665878258732e-12 4.606404410063688e-12 8.673688835049587e-12 -1.0620677059674377e-08 3.818246858952269e-09 -1.5170250103171306e-08
1189 5.79219981921136e-12 -5.554772832013661e-12 2.6029391691392944e-11 -1.1855705873102961e-08 7.870563532525157e-09 1.179164069727399e-08
1190 -3.2490413190142436e-12 -3.8985818824035844e-13 2.601934061675877e-11 1.2736532667947234e-09 9.488265914337243e-10 9.240161702988427e-09
1191 7.588376834664159e-12 1.5789750447492602e-12 1.2020666341245957e-11 6.9185066893779336e-09 -1.4557689918465152e-08 2.4458870032886235e-08
1192 -1.4397114402863324e-12 2.143259624730571e-12 2.6021675007872742e-11 -1.6810152070213549e-09 -1.2587300058847199e-08 -4.060778292265281e-09
1193 1.8422522823533814e-11 -1.517824754098117e-11 3.930373782589732e-11 2.1084357357432088e-08 1.4458387688445755e-08 -8.912986150012178e-09
1194 -1.629394461481423e-11 -1.518851365678181e-11 3.5752478383937324e-11 -1.9260687475869442e-08 2.929302471606277e-09 -1.8642287519756044e-08
1195 -9.596652169044673e-14 9.248328641502779e-13 2.6014316559332744e-11 -6.623052627343946e-10 -6.796937062973042e-09 -2.2558604540461852e-08
1196 -3.2531643284154587e-13 2.810675776183446e-12 2.6021519827059514e-11 1.268582561574354e-08 -2.4316765490860748e-09 4.372703027055982e-09
1197 5.417233775492175e-12 1.4447196973610975e-11 1.1355113783117197e-11 -1.0316003829214445e-08 1.7384630707348265e-08 -2.3430054231314394e-08
1198 1.0852752342386561e-12 1.7990883455583764e-13 3.664712913093819e-11 -6.785567600773562e-09 9.373714849769558e-09 -8.783892817227232e-09
1199 5.171651388214576e-12 -5.9357067952822975e-12 4.4267017703271196e-11 -2.0007307335493275e-09 6.78400617631408e-09 8.685958121241914e-09
1200 1.111323703356142e-11 -6.0340248547297e-12 4.336670969885267e-11 -1.704344100755506e-08 -1.6578885458739497e-08 1.6501458088538233e-08
1201 2.163079562236109e-12 -1.756433772426564e-12 8.673700836104994e-12 -9.351997282010727e-09 -7.678119735596877e-09 2.0243297449392826e-09
1202 3.257366630771601e-12 -8.075237438366833e-13 8.670646199062219e-12 -1.8956098796907256e-09 -1.1749025978068983e-08 -7.013632030056349e-10
1203 5.587935027712069e-13 6.03407378559222e-12 8.672540604652468e-12 3.361407442365377e-09 1.3336421426326847e-09 -8.714089005934144e-09
1204 7.37899884865049e-12 1.9535999772425695e-12 -2.801036108092746e-12 5.244891599583988e-09 3.4447757032674164e-09 6.1300097799978215e-09
1205 2.9215730379641652e-12 -2.1686824831622873e-12 8.016638277538746e-12 5.8438881960738245e-09 6.324893087502943e-09 1.6171438759633534e-09
1206 5.280322210643329e-12 6.18614434854128e-12 3.736760889775381e-12 -1.3243002026945656e-09 -7.342968292301804e-09 9.772003978574572e-09
1207 3.242129496596123e-12 -2.1665430154466067e-12 -8.67166305448511e-12 4.424836053868462e-09 -1.1591980426154884e-08 6.321314771098661e-10
1208 2.1607962747501407e-12 9.422062480978597e-12 2.5892001047930643e-11 1.944340414043548e-08 8.388764524133998e-11 6.9019813237856614e-09
1209 2.1675202013383077e-12 9.13752904832056e-13 5.703735619196502e-12 4.947359418522037e-09 3.795459185562938e-10 -3.775617383495223e-09
1210 5.4236767888969254e-12 8.076089826656457e-12 2.6018477832221342e-11 2.9560041600896826e-09 -1.19047540520154e-08 -8.578712469381764e-09
1211 2.6389136895054984e-12 1.0615717705632783e-11 2.601903872116408e-11 1.439101950433612e-08 6.704052614153009e-09 -9.247684267366353e-09
1212 9.158700944039167e-12 -5.0092522673891164e-12 2.602040215012143e-11 1.0287067593308875e-08 -1.6251949071648425e-08 -5.84051830475414e-11
1213 6.911675544762865e-13 9.694433794919994e-13 5.812319690240438e-12 2.520062212730874e-09 4.717545665482905e-09 -3.436090855430766e-09
1214 5.535395108900493e-12 -7.520457892401377e-13 7.612575004605378e-12 -1.3328011716773142e-08 -5.9753628608280014e-09 6.459909729699914e-09
1215 4.560726171166929e-12 -5.998374782623436e-12 2.602204239970988e-11 2.0275476325595565e-08 -1.282870910067289e-08 8.833452209564185e-09
1216 -2.1688880979758125e-12 -2.1129770729416585e-12 4.5465582039974635e-12 1.2300858376146644e-08 4.7881381138021006e-09 -7.401270037132189e-10
1217 2.167122965065496e-12 -2.190770979315767e-12 8.67271901265371e-12 3.4681141539337732e-09 1.0658411115831157e-08 2.111603226493606e-09
1218 7.118211317120696e-12 -7.517247850907618e-13 4.336821097069709e-11 -2.6389911459991298e-09 -2.8764794496866915e-09 1.0647835746920885e-08
1219 1.1895047310124816e-11 -7.521755076038791e-12 4.5198118820019014e-11 -1.5375857771538223e-08 -1.7895078187381308e-08 9.9344119570904e-09
1220 8.993171688332766e-12 -7.589381640876731e-13 1.465087358666762e-11 3.2129981762162867e-10 6.115116489175218e-09 -1.638634515236806e-08
1221 5.4197579298026574e-12 7.528097163307574e-12 2.2276706263582422e-11 -1.0357506477550838e-08 2.448412655806263e-08 4.220757854138242e-09
1222 2.3730601153726767e-12 6.505295776571551e-12 1.2317446727200146e-11 -2.355400739691889e-08 -8.6593513819179e-09 8.181551827009743e-09
1223 1.2565516054527479e-11 9.708688136667123e-12 4.3367390481240375e-11 4.772906259619293e-09 -1.2264370001837918e-08 -4.246927607071536e-09
1224 -1.7755199583430536e-12 2.1684445042633856e-12 1.460355418561941e-11 -7.203440143483551e-10 -1.709272202420052e-09 2.836401166492285e-09
1225 1.0195749561549275e-11 1.0738315936362931e-11 2.6020621553330894e-11 -1.2713744920784227e-08 2.418818878382969e-08 -3.5086342325920434e-09
1226 -6.93086366154028e-12 6.497683993675643e-12 8.67307456125762e-12 -2.676144134680633e-08 -2.4007707462272646e-08 -1.1113989170794019e-08
1227 1.2647504666375314e-11 -2.4384780015109803e-12 4.3367266956953915e-11 -1.795379656887615e-08 9.104234192983267e-09 8.631036713937361e-10
1228 2.2434401984791926e-12 3.716149244615134e-12 2.011697522969051e-12 -5.032098215868282e-09 -2.334475834735774e-09 -2.701410663836183e-10
1229 -7.589034418225548e-12 2.2827316302101227e-12 1.4248560999884623e-11 1.151710136483688e-09 -3.91997722226824e-09 -5.310071159600108e-09
1230 7.182209071367345e-14 7.280232543891776e-13 2.6022995625874848e-11 -1.1550395684651274e-09 1.0959505359980527e-08 2.145093070276234e-08
1231 2.8324119062639172e-12 2.1679083303778675e-12 8.672260337515289e-12 -5.935574922051631e-09 -2.158234629495238e-09 4.889395957290674e-09
1232 3.523690459124047e-12 3.2495187636448868e-12 4.336725101815961e-11 4.09024473442329e-09 1.5202482375645617e-08 -1.418482969048236e-10
1233 8.22763459949615e-12 1.3791897994827864e-11 2.722196457646086e-11 -3.101798312072397e-08 -2.1826834356671328e-08 1.8346215832405813e-08
1234 5.3731414935423956e-12 -1.397781241303968e-12 2.6020825755388727e-11 -5.586153524790839e-09 6.8945752532137995e-09 2.359530378426288e-09
1235 1.079918760171961e-11 8.869848919879169e-13 1.9985359045387807e-11 7.832520887896878e-09 2.336166498676578e-09 -1.1162429660668113e-08
1236 1.7132959331008286e-11 1.4157059906484162e-11 5.777552954369301e-11 3.0063071591160654e-08 -3.268004932746041e-09 1.1272410905667903e-08
1237 -2.4982682403238575e-12 9.553145713689432e-12 8.672568829418975e-12 2.2463055896045534e-09 -1.2180036929715087e-09 -8.812134560403815e-09
1238 8.271415035999956e-13 -1.7313146179200697e-12 -3.5511837484218807e-12 -3.941685296602072e-09 -1.0273893061537512e-08 2.299035932137963e-09
1239 4.3035564107341744e-12 2.1675303779537497e-12 2.7023556585832834e-12 -2.905115080779206e-10 -3.283501443540894e-09 2.1277714293434613e-09
1240 -3.231512985835175e-12 -9.072673500385425e-13 2.6019156254160518e-11 3.905926851612736e-10 5.7970772026427274e-09 2.2678823601177583e-09
1241 -4.07015956040622e-12 1.4653271691481249e-12 2.6019230026764132e-11 -4.062498325699363e-09 3.6898116054548486e-08 8.993095772601047e-09
1242 -4.29440153248675e-12 2.167305917803135e-12 5.766128410110705e-11 -4.472175282172748e-09 -1.201142243570827e-08 1.2823252113485017e-08
1243 1.8439949341880715e-12 1.4424661403643174e-12 3.7016230671278044e-11 1.0296414551631988e-08 -2.945749011535448e-09 1.0792869007655784e-08
1244 1.806253303107405e-11 3.0423455515016136e-12 4.922410174821381e-12 8.025628937270597e-09 -1.1525412416471396e-08 9.556310184884832e-09
1245 2.1663539306325985e-12 5.452216998915456e-13 4.0247427285003865e-12 5.992277330740447e-11 2.670127088633665e-09 -6.891566505277075e-10
1246 3.1942082356569666e-12 2.331848305193483e-12 2.0680861720463724e-11 -3.8976509603582214e-10 9.280380008601194e-09 -1.5828609158313684e-08
1247 2.08680531226119e-12 4.5444628069167476e-12 1.3164424325304513e-11 1.7384787069576322e-09 3.911363790140423e-09 1.8238048664292609e-09
1248 3.710277007452576e-12 -7.142444212709936e-12 3.238277891210207e-11 9.794103860417603e-09 -1.5503100421405788e-09 -1.2611532005027417e-08
1249 2.1014182455010397e-11 -9.659109286250677e-12 4.4405125777613755e-11 2.6793086299935172e-08 1.1047406083619463e-08 -9.371303767432195e-09
1250 1.0823166300484373e-11 6.40184156296715e-13 1.932128942886468e-11 -1.450170865442234e-08 9.833854082000979e-09 -4.613942173838587e-09
1251 1.62444179048194e-12 6.610849500866892e-12 8.675047190958557e-12 2.235008807926086e-08 -1.0186445476074187e-08 1.0846639241056045e-08
1252 -1.2850944305309112e-11 6.506154603702696e-12 8.673831721348697e-12 -7.09731221946262e-09 -2.1884095130838416e-08 8.102870827192027e-09
1253 3.243015629504335e-12 1.5457319989196248e-13 8.674647374213355e-12 5.20798149317902e-09 8.543438356522513e-09 -6.026474696907023e-09
1254 -2.168656860152509e-12 -1.4010308967973116e-12 8.672964774571928e-12 -3.6328311061542735e-09 -9.169894827137385e-09 -2.8125440322171533e-09
1255 -1.393544947669846e-12 8.978626476856229e-13 -7.613608582582314e-12 8.10821045782016e-11 -1.250749836794555e-08 -1.846744398721104e-09
1256 -3.361243163892235e-12 1.0891046021639593e-12 6.88842807430035e-12 9.757137519663599e-09 -4.882383650843368e-10 4.22394838692034e-09
1257 2.168807839127295e-12 -2.1363208145801153e-12 2.530649263822416e-11 7.0413013953779076e-09 -1.1904034951099923e-08 -1.0035298992411564e-10
1258 6.511678095102784e-12 2.3432008420736727e-12 8.675525230467474e-12 -9.666254494646355e-09 -3.140897092050076e-09 2.189717652861482e-09
1259 9.826873672202411e-12 -1.6714714245592631e-12 3.4938008933028374e-11 -1.0281733584931865e-08 1.1738783586193231e-08 5.45801467323776e-09
1260 4.582168104844739e-12 1.033410610116308e-12 1.5432195856082913e-11 1.5706801450223022e-09 2.0931709913093436e-09 9.36302975650555e-09
1261 2.0730988379092336e-11 1.7137747242996642e-12 4.3368317163565995e-11 1.0361384762982478e-09 2.601197349118859e-09 1.3442723941359785e-08
1262 2.6918410106585404e-11 1.19253678936331e-11 4.3368319430534823e-11 -4.3719352089432114e-10 9.532634942392544e-09 8.555716881008879e-09
1263 6.557287608300684e-12 1.6818067695848758e-11 8.672855473891252e-12 -2.711598261683853e-08 5.028257045791038e-09 -3.703064095658123e-09
1264 1.5379119761033876e-11 1.088515074340344e-12 6.071458507466512e-11 1.95524783808137e-09 -2.2463394164793076e-08 -1.3319522201950286e-08
1265 5.1772109188466245e-12 8.639995522270372e-12 2.601964585830137e-11 -7.6623547545107e-09 1.1197228795694678e-08 9.114204756250087e-09
1266 6.506709239182474e-12 -1.2940099721651865e-12 8.940029265643028e-12 2.927987162233029e-09 1.46186091978742e-09 6.110302170347187e-09
1267 3.3587875783875177e-12 -1.3559399057526725e-12 2.6021168411899074e-11 -4.686321166442256e-09 -6.3156436731887485e-09 7.841989330743595e-10
1268 8.911249547559238e-12 5.2933919659351064e-12 2.6025879974480938e-11 4.119802697442624e-09 -2.6257094510586413e-09 5.18241140083388e-09
1269 -4.850709975455135e-12 1.817845067571114e-12 2.6019948264764517e-11 -2.6355277653402684e-09 -3.881829651179448e-09 1.3213672628849998e-08
1270 -3.9346135905011386e-13 2.1682282687624242e-12 9.698563287539498e-13 2.8208142140789147e-09 -4.6778551610272795e-09 -8.126486764863812e-10
1271 1.723363823706608e-11 2.4291737486135098e-11 6.533283108197044e-11 -3.141319557639208e-08 2.0359422179623616e-08 -2.733044393435202e-09
1272 1.4093505472616222e-11 2.1102226531497056e-12 3.971075677622042e-11 2.6121395311132827e-08 3.894479475922537e-09 -1.145759267917303e-08
1273 2.1684824688373634e-12 -1.0832312641937197e-12 6.281242980802531e-12 4.91880750546131e-09 4.906568950659266e-09 -9.504183241418588e-10
1274 -1.084151501372803e-11 1.0846065974845563e-12 1.183733091676612e-11 -8.150354542131744e-09 -1.234359098939352e-08 1.1228582357404938e-08
1275 3.9122405668352785e-12 -6.509443626390067e-12 8.85705774598133e-12 9.145470138541322e-09 -4.696002033588344e-10 -5.634576213966407e-09
1276 -2.0004943433231853e-12 -3.4836170125908662e-12 8.669581378782182e-12 5.65589138115302e-09 1.6299116884843314e-09 -6.082166168099922e-10
1277 4.698791633123723e-13 -2.2544705411305988e-12 5.215259560285701e-12 -4.961154853522873e-09 -9.694967833859922e-10 4.1049204258492587e-11
1278 -2.1694151518630586e-12 2.9160052015576003e-12 2.60191649078676e-11 9.064298356188824e-09 1.580754001189639e-09 4.248136227441416e-09
1279 3.252072977534473e-12 2.8718258828508467e-12 8.67464102128824e-12 2.700217377693778e-09 2.482348626700879e-10 -9.935957178312519e-09
1280 -3.1728459996642994e-12 2.1679183915837864e-12 6.461651119224045e-12 3.01560257297315e-09 -4.850652618008098e-09 6.718215713204417e-09
1281 2.2631138783540876e-12 -3.1608206615542755e-12 8.671646656388099e-12 1.2829450404365926e-09 5.9832175017370325e-09 -3.8256751482339525e-09
1282 1.2357043364883074e-11 -2.255885199556894e-12 6.04076216671696e-11 1.6694572627921347e-08 -2.799657309925184e-09 -4.569511419216666e-09
1283 1.4033439316752642e-11 -1.4803406109336703e-11 1.3894436120694128e-11 4.778079595472021e-09 2.7701988340683693e-09 1.2691762440118322e-08
1284 6.505139871455828e-12 5.42029495674144e-12 2.0434319370902238e-11 -1.7865207592748582e-08 6.787081605289554e-09 1.2143660365914696e-08
1285 6.5046172641590854e-12 6.3232969374950856e-12 8.67783755750282e-12 -2.121992816069116e-08 -1.1250087299553903e-08 7.049873382223229e-09
1286 1.9482035994636652e-12 3.2597063073763645e-12 8.673713039913248e-12 4.584436852809714e-09 1.5299506371792906e-08 -1.306872077910415e-08
1287 -7.595292457853091e-12 5.973553399872101e-12 2.602111585454825e-11 8.379756200758126e-09 -4.4467605220257425e-09 -3.882383203388338e-10
1288 2.3188599726678674e-13 -9.036985904937727e-13 4.0314684396355116e-11 -7.803638754512574e-10 -4.1844164528129385e-09 2.1036279989240344e-09
1289 1.5589646669222022e-11 1.0842085490207868e-11 1.3585158416361896e-11 -1.8422312034209296e-09 1.0453105101897666e-08 5.060181940784952e-09
1290 -2.1708149207914667e-12 -7.295757824314438e-12 8.673332895911038e-12 7.943803050532897e-09 -9.641877368852293e-09 -1.012525895660786e-08
1291 3.538734084287695e-12 6.510885000354954e-13 8.673717740146494e-12 -7.753490516051343e-09 1.0370869792704895e-08 -5.295337011577993e-09
1292 9.574448878875883e-12 8.14870144085415e-12 2.0619646352722694e-11 -9.152606078416538e-09 2.996310595629154e-09 1.2843286008488221e-08
1293 1.0844787298658479e-11 -5.992113526056419e-13 1.3027037498446501e-11 -1.1635598343186352e-08 -1.9216072682966154e-08 -3.406561735548887e-09
1294 3.974588700710191e-12 7.298226873437853e-12 2.030219389592809e-11 -6.154873963476406e-09 -1.8413883645826704e-08 1.972059996839109e-09
1295 2.166930542525815e-12 5.036744245290622e-12 2.6050514505345026e-12 -3.6994160770514745e-09 -3.763011795505271e-09 -5.441926878918074e-09
1296 2.3884002232422875e-11 -2.9535144397054155e-12 6.0715418772003e-11 9.454769603178632e-09 -1.4719088524854204e-08 -6.376301086183635e-09
1297 6.505394354716604e-12 1.2258123593981086e-12 1.0545548480278491e-11 2.5439829532255437e-08 -1.0338362417224045e-08 6.498422395941936e-09
1298 2.5961496829037514e-13 -1.320109679299499e-12 2.6021375094132627e-11 -1.7304933110035646e-09 1.0275922093465664e-08 2.8925307241658553e-09
1299 1.4170019885078223e-12 7.253344335161733e-14 6.129456855500903e-12 -3.362105743467058e-09 4.478296113908156e-09 -1.6431354539343888e-09
1300 -3.934760108640577e-12 1.5596881362726535e-12 2.6021239866768894e-11 -1.980176527885008e-08 -7.983235428991808e-10 4.724721213949376e-10
1301 7.582153494803015e-12 -2.959663181795143e-12 2.6022652697098222e-11 -7.530034533464953e-09 1.2080465337434783e-09 2.1115806180623426e-08
1302 1.0516944825122467e-11 1.3428997558960118e-11 2.8114039849037153e-11 -7.170420566568152e-09 -1.0715587472527205e-08 -3.7947044310325154e-08
1303 1.7850130231059913e-12 1.8914486787589846e-11 6.07152439277968e-11 -5.1321370195124805e-08 -4.834564560089836e-08 -6.332557215443665e-09
1304 -1.080022953127865e-12 5.983699818769878e-12 2.069264059845605e-11 1.1193024275877055e-08 -2.0912919215807525e-09 1.9634888456342207e-08
1305 -2.1684954464094344e-12 1.2208991567167992e-12 -5.7868408639015534e-12 -4.916555261873397e-09 5.687036550173004e-09 2.5144283984036513e-09
1306 8.397918086088869e-12 1.0879280776731685e-12 1.7085595298341657e-11 -2.407791280406548e-09 9.201934564494823e-09 6.2609173424335894e-09
1307 8.013452697084579e-12 -2.780781875895565e-12 2.5066757070707892e-11 -1.6484270104382543e-09 -1.556774293054989e-08 1.0671949463517644e-08
1308 -4.982583991733711e-13 2.1688645851253865e-12 1.0079118016578652e-12 1.7260711935363474e-09 7.628848266826919e-09 1.5915912337665576e-09
1309 1.3850151307855772e-12 -6.504953253285529e-12 2.674183960563149e-11 3.575072446294822e-08 1.0458086771643292e-08 7.123956876559354e-09
1310 7.625540316668407e-13 1.3428129235206881e-12 9.44535297495595e-13 1.9687662756452717e-09 3.857930115243205e-10 -5.122468335713703e-10
1311 3.3626266244247995e-12 4.6222284496012744e-12 2.6012189583295094e-11 5.583889560676595e-09 8.249036405351475e-09 1.138765439290395e-08
1312 -1.0856297626674039e-12 -2.323065068356555e-12 8.674139162460688e-12 1.7967587410027994e-09 -4.902398635782961e-09 2.177300051183931e-09
1313 2.1975297605661104e-12 2.190288888823151e-11 2.6013992717080495e-11 -1.48373826224923e-08 -5.0384267649421e-09 3.492583774728944e-08
1314 3.2553472472986515e-11 9.770643564235685e-12 3.472163607076001e-11 -1.2098636984824013e-08 3.456334048456526e-08 -1.7158937096736633e-08
1315 1.0619144411691833e-11 3.850438808069906e-12 7.20720141277084e-11 -3.1340618830820394e-07 -5.6496987001791904e-08 3.116644500820954e-08
1316 1.2243565697976338e-13 2.462224422545837e-12 2.5963215991308256e-11 -2.6436772416602766e-09 6.994893599671359e-11 1.802317907961701e-08
1317 7.19356279497737e-12 1.1961670695024604e-11 4.3368250735851846e-11 3.639404071670207e-08 -5.190561190757383e-09 -1.1386744022703033e-08
1318 1.697987351615274e-12 9.760466630419653e-12 2.6025616162473047e-11 4.794554299667156e-09 1.1546793088233598e-08 6.342007422368648e-09
1319 1.0862519628236458e-12 -1.951424950420714e-11 3.8655284909191477e-11 1.5159063987302097e-08 -2.8718181668705236e-08 -1.2648183375359946e-09
1320 1.0332110236246529e-12 2.168642180866674e-12 2.391144331783927e-11 -3.4776635689875774e-09 -9.818030957471059e-09 -3.4146332138733095e-09
1321 -4.799645114777442e-12 -9.919703880912397e-12 9.319480948452464e-12 3.5844981149712066e-08 -2.6184388047731884e-08 -1.5964235992937812e-08
1322 3.098849544194013e-12 6.489646489671391e-12 8.67289853441875e-12 -7.481327855907076e-09 1.2500830105357403e-09 -1.5386584092953747e-08
1323 -2.3717297832346516e-12 1.9249220691469385e-12 2.6022661921838065e-11 -2.4217784963787532e-09 -1.169762875686482e-09 -8.169536399606844e-09
1324 8.268669559598402e-13 -4.298062444129784e-12 8.673410519273517e-12 4.845709285719283e-09 4.61407062470576e-09 4.835864280898732e-09
1325 2.1667338468206156e-12 -1.5067505495938948e-12 6.446255270909726e-12 -1.3267364772139645e-08 -7.85317268877617e-09 -1.1358308440502233e-09
1326 3.054131905956314e-12 2.1478686267557864e-12 4.4588184205815e-12 -4.340289238560385e-09 1.5005119593928923e-09 2.5575183085834075e-09
1327 9.169103144415558e-12 8.145448288596811e-12 2.6026774986693755e-11 -1.949357830632729e-09 -1.7420173225223107e-09 5.4680579511402445e-09
1328 1.3450284854836506e-12 -5.886308400776791e-12 8.672683333405848e-12 7.653583872789911e-10 -2.962734227915837e-09 5.323817208262078e-09
1329 -2.1669988316763965e-12 2.8875813502059398e-12 1.469918981982259e-11 1.8564344325085234e-08 -6.530905972705099e-09 -1.3654032650991616e-09
1330 -5.757897446836407e-13 -3.0185287660389838e-12 6.156409217936251e-12 4.748416675948668e-09 2.9230861229072177e-10 -4.804657452449511e-09
1331 7.543358995178745e-12 1.0738580734091468e-11 1.5980050599908105e-11 -8.292518924330041e-09 -2.5598783362533074e-09 -4.351410010846943e-09
1332 1.0841517615624214e-11 3.39375282441217e-12 3.6510640339165635e-11 2.57964063151552e-08 1.8244277668498407e-08 -3.104370776128117e-08
1333 -2.169485866094226e-12 7.961090509589749e-12 6.8661470735402654e-12 -2.392549993441713e-08 5.930111837568481e-09 5.715804365420312e-09
1334 6.383293512016639e-12 5.013271155367298e-12 2.148461875973871e-11 -1.4750547641678917e-09 5.880236766202711e-09 2.2023419313665743e-08
1335 -5.041087751212154e-12 2.1676079346843845e-12 8.684944174717483e-12 9.740319188492846e-09 -8.39112984562007e-09 7.269467520741021e-09
1336 -6.2556801226619614e-12 1.738029261820362e-12 -2.0891394170420278e-13 -2.865035594422012e-09 9.365954453288253e-10 8.563174264859796e-10
1337 2.1683327255592006e-12 2.0993472390634796e-12 2.932287805269386e-12 7.882393161715982e-10 5.627560807848993e-09 -1.6323931811196097e-09
1338 3.397942387692315e-12 2.169363416219043e-12 3.174629751865994e-11 9.215226714547916e-09 3.948561253518999e-09 -3.855071313830891e-09
1339 1.598266352066703e-12 -1.5794254254226413e-12 7.354333413993731e-12 4.989314672359014e-10 -6.477060904441011e-09 -1.0722848110850223e-08
1340 9.767057019914284e-12 2.708811341821451e-12 1.7501264567924053e-11 -7.446949527105852e-09 5.127529368877941e-09 2.908089610689672e-09
1341 3.111695605618664e-12 -2.3599148052507036e-12 8.673718752951835e-12 -1.2927190867403618e-08 5.98709896858832e-09 -1.1115018229189177e-08
1342 9.84768965080072e-13 -1.3964843727407506e-13 2.5914003259437588e-12 -1.0921476864090634e-09 -1.7693524671805114e-09 3.1772637125031654e-10
1343 1.3932829394429925e-12 2.1387550033376033e-14 2.5966795383906154e-11 1.740283054662329e-10 4.179581546171787e-09 -6.704140852415177e-10
1344 -7.454234991380715e-13 1.7745655507038815e-12 2.6021855435241428e-11 7.983856162209307e-09 -2.422877740226239e-09 -1.042429545485069e-09
1345 1.9429437983932267e-12 3.0915446390720958e-12 1.6984374015601163e-11 1.7546015422936862e-09 6.753188816256566e-09 -4.409305544700059e-09
1346 -1.0840942133936025e-12 2.169289491858394e-12 6.6310310109503596e-12 -9.261143323878212e-09 2.79812526979093e-10 -2.442656039450659e-09
1347 1.2743927935971576e-11 1.5055957361453432e-11 3.0358470951324475e-11 -5.130249263189829e-08 2.100774393421531e-08 1.4895378925987709e-08
1348 1.019290344932504e-11 5.325887936473526e-12 1.4672042960972975e-11 -1.5757826498599773e-09 1.3460242274496546e-09 -9.523378775660945e-09
1349 -2.669697062697958e-12 2.1681333049383388e-12 3.5142019154376556e-12 1.723439134150913e-09 7.82323216863978e-09 -1.7208176593706116e-10
1350 -1.1700525606189874e-12 -4.278721000603938e-12 2.6021936632356282e-11 -3.6890044392396646e-09 -8.017502792680877e-09 -8.467247742010577e-11
1351 -3.387507812341576e-13 2.167173381123184e-12 3.622234924836684e-12 1.950055220585385e-09 -1.322585806287493e-09 -1.5744032999192863e-09
1352 4.896692808571636e-12 5.0929127112616e-13 2.602058335146076e-11 -2.4532390650076166e-09 -1.4932283626623252e-09 -1.424814000529373e-08
1353 2.169375486913309e-12 3.442881627718703e-12 2.3913138712985124e-11 2.1209186077107816e-08 3.4141373958683436e-09 -1.7600174780350838e-09
1354 9.380402920157945e-13 -2.167583734343031e-12 8.671593256949249e-12 4.551871274803831e-09 -1.061035251586383e-08 1.5707757872153325e-09
1355 1.0001993995652794e-12 -2.2923200486748822e-12 3.0280519421199147e-11 1.4247596241313914e-08 -9.01325902877399e-09 -3.4585915141830363e-09
1356 2.2539252799549887e-11 9.397934971243569e-13 6.071377797781707e-11 1.3826910407396037e-08 -8.153366236634466e-09 1.1117733314687168e-08
1357 1.922695374671037e-11 1.2627021454243943e-11 8.676748585048093e-12 -1.9927431413549257e-08 2.5471272491499233e-08 -5.597277107628014e-08
1358 5.8959934751475994e-12 1.0864343742642214e-12 8.67398913684885e-12 1.3393328153199352e-08 1.1297352141423597e-08 -2.3171884935788073e-09
1359 -6.312951011307774e-13 2.169712729136232e-12 4.400088388190796e-12 -4.335764274265409e-09 -6.2080261824735145e-09 -1.8008395117544615e-09
1360 5.932375395597001e-12 4.799123427237206e-12 2.7103341683250632e-11 -1.7195792392692e-08 7.787988627705625e-10 3.845468836936964e-09
1361 1.7341716245127888e-12 4.028453835257018e-12 8.671473670942402e-12 -6.427584079405993e-10 4.641007212328433e-10 -4.784997358588596e-09
1362 -2.161679850980716e-12 1.0758808216263515e-12 8.633213372107233e-12 8.344195461071609e-10 6.891013009120934e-10 1.5206765561136207e-09
1363 -1.8616051760013246e-12 -2.816127867527055e-12 1.297642039964264e-11 -7.777965731841083e-09 1.3638079234789043e-08 -1.6627684668444882e-09
1364 6.502503805488567e-12 -3.902231410585433e-12 8.672924979539432e-12 4.1536883065262363e-10 4.408792009476261e-09 2.2346029320062068e-09
1365 -1.0309164491032276e-12 3.2151213535677844e-12 1.3449755754407881e-11 -4.545176302657283e-09 -1.4675378860462457e-08 -4.1979299309246946e-09
1366 2.1704637563994272e-12 3.0869385977141617e-12 8.673514959551783e-12 1.9192792375783095e-08 1.1032045786414485e-08 -3.766120623467342e-09
1367 6.1000264084501356e-12 1.0838699713192691e-12 2.5292093554311526e-11 -7.045231267248891e-09 -6.615224482904219e-09 -2.569908743769241e-09
1368 -2.167456351230935e-12 1.0843919606763825e-12 2.4795635214824157e-12 -5.775687255169554e-09 8.437098671959675e-10 8.668992734032545e-10
1369 -8.835995604391767e-13 -5.095760654786654e-13 7.121278347248579e-13 -4.368216783226266e-09 4.161802537964514e-09 -1.8836037607407524e-09
1370 1.0871920236461403e-12 1.0805068562150977e-12 1.8412566112661853e-11 1.6619244667880974e-10 9.584135498603633e-09 -2.428370018741389e-09
1371 5.488659004300128e-13 7.43396177932388e-13 8.673354734567943e-12 1.869454337659332e-09 -6.275904536230923e-10 1.94760484853503e-09
1372 2.806501210026733e-13 1.7315526642730826e-12 2.6021410916159385e-11 6.231994853142947e-09 -2.5744873112752305e-09 -3.4967800282295125e-09
1373 -3.2429256815469016e-12 2.245047030906331e-12 2.372963852752242e-11 1.1798346772224123e-08 5.25145913174004e-09 1.0862390278880984e-08
1374 3.2596312537281335e-12 -3.395270496570198e-13 2.2581656415831485e-11 1.227688517050915e-09 -9.738205934406811e-09 -6.632457497905098e-09
1375 1.078502482602123e-12 -2.7183632834236923e-12 2.6266760164163745e-11 -1.7186261092544548e-09 -1.6261285664681027e-09 2.4625002225027585e-09
1376 1.890782637763089e-12 1.7450055401101047e-12 8.676366745845192e-12 5.468982700104132e-09 -6.226964436450226e-09 8.962281831368858e-09
1377 -2.8166688276287942e-12 5.727487186870435e-13 2.6023180061775375e-11 -4.369409039053003e-09 4.584543484543337e-09 -5.235179991526426e-09
1378 6.388688918020047e-13 -6.814018440710014e-13 8.672749119801327e-12 1.3164594307031808e-08 4.529859894605934e-09 2.9351388304117906e-09
1379 -2.1721908137944984e-12 2.7810214571974215e-12 5.0598139813273395e-12 -8.449279612843e-09 1.34162638536035e-08 7.229766710899599e-09
1380 1.3598153504622816e-12 -1.0824880459449519e-12 1.320930138933918e-11 -1.0476093970027107e-09 -2.145180160216584e-09 5.065237108622967e-09
1381 -2.891511408307407e-12 2.1709456428284112e-12 1.9282422338127626e-11 -1.1239623936450707e-08 1.2339213435141701e-09 5.761175699454664e-10
1382 7.090097276801085e-13 -2.2982319872064332e-12 8.675960820604231e-12 1.4317068052679938e-09 -1.0023803411842882e-08 -4.133725693678777e-10
1383 7.59843502095692e-12 2.738541450642582e-12 1.2403294890473354e-11 3.7667479818406855e-09 7.3917116957883884e-09 -4.82387857949514e-09
1384 9.26327629318916e-13 -2.166354595987892e-12 8.674536041973458e-12 1.264404501824947e-08 3.0668063726397044e-09 -8.22777329081013e-10
1385 -2.817659962709559e-12 -3.5345038453585633e-13 8.673276244122724e-12 7.58667845940586e-09 2.301626591362325e-09 -5.448042273627242e-09
1386 -3.42495984097408e-12 2.1058961856220403e-12 2.602089476226081e-11 3.04434984706786e-09 -2.965105036047557e-09 -6.429545351094809e-09
1387 -2.1090924121820247e-13 2.3614771503001026e-13 8.027962216291842e-12 -5.5217716265509555e-09 -6.799880715625555e-09 -1.969000235975461e-10
1388 9.727891724751348e-13 4.199094050952527e-12 8.674365868443026e-12 -9.803399133159285e-09 -6.631138952663375e-09 4.4206260282176365e-09
1389 -2.859498920704448e-12 -1.3173346165692537e-12 8.674490427741873e-12 -4.222095324966056e-09 -5.236605969548402e-09 -6.232503870878136e-09
1390 6.0302948414875955e-12 4.9387895696322186e-12 2.6016177999105655e-11 -1.444597597910463e-08 -9.396297705826343e-09 3.1415332242109253e-09
1391 2.537929958212624e-12 -2.1171525822194417e-12 1.2138631808349157e-11 1.0459054306715934e-08 1.577590728633179e-09 -4.874730491516687e-09
1392 7.925911739543495e-13 2.2005801301955222e-12 2.6018739292055176e-11 3.827638536130599e-10 6.240462172885154e-11 5.2103627663068515e-09
1393 1.1302453900950073e-12 -1.0896083244034864e-13 2.292552830481733e-11 1.6867943090115327e-09 -4.988801144127164e-09 -4.337559217706446e-09
1394 -1.392872218676661e-11 1.5178951502669217e-11 8.674475929980461e-12 -6.115030975579386e-10 -2.1340491985950254e-08 1.0126111371913911e-08
1395 -9.272687956526154e-13 2.1706992485171083e-12 8.669409172340907e-12 2.5293244542763863e-09 -3.3309732036287383e-09 4.104338429657715e-09
1396 8.613041741918346e-14 5.163796121903396e-12 2.6021084474326576e-11 -5.990994753240831e-09 -3.0212947184036675e-09 5.968690197717657e-09
1397 5.780926531728411e-12 -4.842133719420499e-12 8.674692085412675e-12 4.099199578690044e-10 -4.1187664084938054e-10 5.377712714050842e-10
1398 7.0550777063808354e-12 8.647211273821585e-12 2.602145201422587e-11 8.781285077570468e-09 -1.598843893938288e-09 -5.341482569811565e-09
1399 -1.0550964644266095e-13 1.6663983647561286e-12 7.645788896854432e-12 4.808433058004265e-09 2.566596630978592e-10 -5.154767751826242e-10
1400 1.8249323314044125e-12 -1.2980888015845243e-12 1.909744592979369e-11 -2.7346813494966307e-09 2.7061665610505404e-09 -3.809714867119922e-10
1401 -2.1573393471546015e-12 1.4784364196643242e-12 1.9873004057598186e-12 -2.1517506719630303e-09 -1.9589649337444405e-09 -2.262424697016359e-10
1402 -3.109371447804132e-13 1.661376455948252e-12 8.673750365044615e-12 -2.4454143689695004e-09 8.608661580366718e-10 -1.1246311242099236e-09
1403 -2.1681463367551716e-12 -5.252924334564157e-12 1.4781761427485905e-11 -2.6866685058484384e-09 1.5742749638933732e-09 4.960987779840084e-09
1404 6.485647502693078e-12 1.168830772978832e-13 8.672777337830336e-12 -1.0471260544679474e-08 -4.954240147424097e-09 1.8552514490780447e-08
1405 1.8113413238340423e-12 4.629812505828855e-12 1.6869055027946057e-11 -9.04463851391096e-09 -4.356449349468242e-09 -3.884523981842751e-09
1406 -2.534870574149072e-12 2.258360788883535e-12 8.674297769529694e-12 1.1744050609432388e-09 2.3888031840648767e-09 -2.6672347944476885e-10
1407 6.4617901647496495e-12 5.94482981805895e-12 2.601460083996409e-11 4.474955969953441e-09 -2.0343048736073715e-10 -1.3209979201546676e-09
1408 7.5925684074574e-12 7.732390483406467e-12 2.6021353859553712e-11 4.30461139250673e-09 -1.1309857027323942e-09 -5.650779050514894e-09
1409 4.8883963193453e-12 1.1633557873381876e-12 2.602065401300388e-11 -6.666006322989564e-10 -3.194606314489756e-09 -5.588770309416701e-10
1410 2.1686352073440714e-12 -2.168330712329448e-12 2.0736037815390874e-12 4.539147042857722e-09 -2.7500970201757314e-09 4.206474190818028e-10
1411 3.927969978340661e-13 -2.172067919483135e-12 1.5125724902762358e-11 1.7500907463646214e-08 8.921590471952493e-09 -5.582865189405839e-09
1412 -6.500880549095467e-12 -1.2988268499326716e-12 8.671901920029993e-12 -5.891006342776569e-09 2.773987508292101e-09 1.8663562399419873e-09
1413 2.164843429789024e-12 -6.588497549876868e-13 8.671736845352423e-12 -3.102544766548467e-09 5.700121241760146e-09 2.310547957942151e-09
1414 7.100292266997923e-12 1.0820653093519705e-12 2.599974579319409e-11 6.667370516116325e-09 -2.2466205747958055e-09 -1.2676745019508002e-09
1415 1.2089948886835806e-12 -1.681503490420563e-12 1.7100086092470135e-11 1.4368756908601607e-09 -2.6944398485180745e-09 3.7614081296154804e-09
1416 -2.1689566623046066e-12 -2.168585648443418e-12 1.0627376781173971e-13 -7.481061944155778e-10 3.1439607100594586e-09 -1.9419313135429324e-09
1417 -5.596679050820177e-12 -2.1808997190989468e-12 8.675118665590447e-12 -2.875450125199695e-10 8.812450315294772e-09 -1.0927296419711315e-09
1418 1.0579304609296117e-12 1.042527897038042e-12 2.601681958364247e-11 -4.7844847770885106e-09 8.690446193788792e-09 6.8820839444411985e-09
1419 -1.086228768497272e-12 2.1698098812523722e-12 8.672559439711644e-12 4.730852666320647e-09 -6.967007276398235e-11 1.0677985586765255e-09
1420 8.949485206301899e-12 1.6324696210313035e-12 2.463425579269146e-11 2.807214048584492e-09 3.2967494444525348e-09 2.8020020430577464e-09
1421 1.2548853656818444e-12 3.241409756270077e-12 2.064294553874496e-11 -1.1838028572559975e-08 -9.521827009102582e-09 5.35032736459278e-09
1422 -2.4404767177794046e-12 -2.9427822464201354e-12 8.674066077349215e-12 1.4480622645352423e-09 2.4520410795481745e-09 2.3846328923014226e-09
1423 -2.079794672903509e-12 2.7110045753237505e-13 -1.538608178157774e-12 -1.3672272408610987e-09 -3.265580345610387e-09 1.8361628361797598e-09
1424 2.1713829821736537e-12 4.729346087903845e-13 5.869967139381885e-12 1.7809786945757764e-09 3.1401022216601473e-09 -2.129244060242382e-09
1425 -5.3898404423833074e-12 -5.855210482243283e-13 1.6280627405899482e-11 -5.588273169502968e-09 -6.033547046444398e-09 2.9714287133653845e-09
1426 4.721835166393414e-13 7.370199648550643e-13 3.412358949302256e-11 -6.299438859056043e-09 4.082059871913548e-09 -5.406935274911164e-09
1427 1.0142970374901515e-11 3.3573297615897334e-12 3.9447749116901994e-11 1.4271596699798026e-09 1.5411803270286562e-08 -4.491606011337821e-09
1428 2.1932179807139236e-12 1.4579952052549793e-11 2.6020991610357747e-11 1.4261796379263959e-08 -5.539996528324808e-09 2.247094108265237e-09
1429 1.468668643619037e-11 9.360052397321076e-14 7.719569776496798e-12 2.387263775889804e-09 1.2920879852521054e-08 2.6838461697007977e-09
1430 -1.2755202933067705e-12 6.512435197534408e-12 2.5916701992401398e-11 -1.9656493020062094e-08 8.031165542354396e-09 1.5342321927388955e-09
1431 2.8793576697820423e-12 -1.66094675940494e-12 2.408981993495011e-11 -8.664685297936664e-10 2.2826056973188724e-09 -1.9581626236622775e-09
1432 -1.042136114397535e-12 -2.108383218029076e-12 5.9553293576331305e-12 -4.547037455249205e-09 -4.870965217089903e-09 -1.923697240466845e-09
1433 -1.2486946338373348e-12 -6.656817971354323e-13 1.0733054070134765e-11 -1.1905338738295903e-08 2.6824312552930297e-09 -8.052237700079272e-10
1434 1.0155266712823467e-12 -1.084033240570722e-12 2.602158626562123e-11 4.687166310229258e-09 -3.739004286426207e-09 2.0278763737204483e-09
1435 -2.7231809920154237e-12 1.0795025349096698e-11 1.1075010607504568e-11 -8.076172674809766e-09 -1.0269950892087615e-08 1.5343462218310833e-08
1436 -6.651666369061866e-13 -4.429542770335044e-12 2.240166699897919e-11 1.8389570888452938e-09 5.080796371043817e-09 3.2419972106548197e-09
1437 2.3354434242347246e-12 -5.420180088127747e-12 2.6016364645354923e-11 -2.8275145244002685e-09 9.775128210663252e-10 4.932274269018572e-09
1438 2.7141652444708934e-12 2.661088965761032e-12 1.3103453701140101e-11 -2.0397115314251037e-08 6.886242235367921e-09 3.025497654574662e-09
1439 -1.4317471088516936e-12 6.506268030221853e-12 8.677074329705208e-12 5.825472724403344e-09 8.989654757558608e-11 -1.9341278154173754e-10
1440 2.1685519928656585e-12 1.5446145731959715e-13 1.3076211122884813e-11 6.699260652757948e-10 8.002535866848697e-09 -8.046942729232982e-10
1441 2.182351834726436e-12 -3.3743950766290856e-12 9.961422525159388e-13 -3.1273561229258143e-09 -5.419411137213913e-09 -4.6576965857065865e-09
1442 2.1648910691939416e-12 2.167187584799488e-12 -8.162945604355358e-13 -3.0508620569613086e-09 -4.072289736178048e-09 2.566798074322695e-10
1443 1.626065322246079e-12 2.1685187854276765e-12 -6.905040475942031e-13 7.891652292100497e-10 1.636190329888144e-09 2.056199261445983e-09
1444 -1.0924384724609096e-12 3.251829900132978e-12 8.673867098826929e-12 -3.6067902555323043e-10 1.2808431137025126e-10 8.412187255947427e-10
1445 2.9897350377545173e-12 4.562238040625071e-12 2.4436652688340287e-11 7.031518176546451e-09 -4.718895892248984e-09 5.3184175372849196e-09
1446 -2.4712555775242527e-12 -4.46940707019258e-12 1.7263348394545472e-11 1.3239977420337063e-09 -1.039213779061939e-08 -1.901804132418041e-09
1447 2.1691168156645585e-12 -1.046101456876579e-12 -5.7349489901409e-12 -8.51628183629115e-09 -5.733591034460873e-09 -2.210689807203526e-09
1448 6.501243987058237e-12 1.7447324737113053e-12 8.675204164823802e-12 -4.4160465863127595e-09 -7.440694243156301e-10 4.837076387503886e-09
1449 1.0756965689670713e-12 2.167304562187435e-12 4.413341595674389e-12 -4.300490544455526e-09 2.894871314209009e-09 -6.184075308345572e-10
1450 5.213486626578906e-12 -3.875503473880509e-12 8.672375576096313e-12 5.426331693639477e-09 1.6504351531968845e-08 4.479516864840458e-09
1451 -1.6922537754690216e-13 -7.333344143824289e-13 2.2375577453386706e-11 1.0472707969481332e-10 -1.634438233989394e-10 -2.685646461426329e-09
1452 7.036302581909519e-13 -7.474855328159358e-12 2.602184659675951e-11 -3.2136405441946055e-08 -6.011713962732263e-09 -1.0148810038123113e-08
1453 -6.502974837443872e-12 -1.3206990048295678e-12 7.999658693456917e-12 -3.1027425623105576e-09 -5.160647582208171e-09 6.610466406672475e-09
1454 1.3571388751334576e-12 4.476846860332567e-12 4.063960583684502e-12 -4.415714172778366e-09 -2.885098030990412e-09 4.708672031547007e-09
1455 3.924347174569475e-13 -2.5989934875676956e-13 -2.382255842553857e-13 2.9539197596129265e-09 -1.1023571067126497e-09 4.358737108992043e-10
1456 -1.1146646303535802e-12 4.636809599301249e-13 2.154535641351286e-11 4.329854918657115e-09 -3.69048814937553e-09 8.820680106655162e-09
1457 -2.648180083351326e-13 -2.1683387644510676e-12 8.670126398205774e-12 8.21186867895733e-09 -3.499913036124847e-09 8.949681843314054e-10
1458 -1.083991152118818e-12 -3.0744062520315595e-13 -1.3949029590729598e-12 5.1234581274543e-09 3.9985052858122556e-10 -4.675362387392729e-10
1459 2.1653619020423112e-12 -1.53409046361102e-12 7.18700336143502e-12 3.0078605686150352e-09 6.273508914971308e-09 1.2868473086616782e-09
1460 -7.032424723967518e-12 -2.096884768621193e-12 8.674118736486784e-12 -1.0731805044784458e-09 -6.70317365594306e-09 3.019807333877499e-09
1461 -1.6536547834712021e-12 -2.6405440530840136e-12 3.2051079296107575e-13 1.0322515847727227e-08 5.954141741032375e-09 7.695541022920552e-09
1462 2.3678848990247385e-12 -6.971531542865977e-13 8.675687816051826e-12 -6.318687008049071e-09 2.9330601625396613e-09 5.303195908068791e-10
1463 4.617676769506044e-13 2.1660736498606883e-12 5.177292617356415e-12 -4.183409424184129e-09 3.326799100881608e-09 -1.3275404075095853e-09
1464 3.0326488028172375e-13 2.167691667693626e-12 8.663016201650864e-12 1.0519806662726431e-09 -8.97464804221043e-10 1.6266186914954061e-09
1465 1.3889240014905235e-12 3.2525595302965923e-12 2.1667199137025987e-11 1.1786909914855614e-09 8.761124304105929e-09 2.7090221122963066e-09
1466 -4.130094092453362e-12 1.0844182713007039e-12 1.7906621806766565e-11 5.099934609124967e-09 -1.8589578202688703e-09 -1.2675269741400056e-08
1467 -7.674607815507658e-13 2.169712164348199e-12 8.673503788086293e-12 -4.182934447861114e-09 6.665774802058872e-11 -6.415311958746684e-10
1468 1.744778341416464e-12 -7.924873136004619e-13 8.6735769671384e-12 5.212055454166252e-09 -8.116023715146515e-09 -1.9698684302997269e-10
1469 2.168472264926421e-12 -1.0778496100688353e-12 8.431991995895848e-12 -3.8518973861536474e-09 2.230591873306909e-09 7.296771041110329e-11
1470 3.4776999047300194e-12 3.992686583881092e-12 2.6021493528052445e-11 1.2514532851587283e-08 1.769934393995432e-09 1.2671518732681103e-08
1471 1.4053863792607886e-12 1.0852214148815543e-12 7.029901474764884e-13 -3.820933955378799e-09 -2.8073263682558304e-09 -7.107334344216264e-12
1472 -6.367916730208085e-12 1.593093585816398e-12 6.197372411192183e-12 -1.2531208077333223e-09 5.96331702014462e-09 5.506767278284658e-09
1473 1.0857996898835091e-12 4.759129070861122e-12 2.60211904610798e-11 -5.281541268906716e-09 4.869419319093835e-09 6.943681889782178e-09
1474 2.166040997745668e-12 -4.7886823057426795e-12 8.676976930871961e-12 -5.206795588492466e-09 5.498515322654188e-09 1.0547412414584428e-09
1475 -4.034803556673672e-13 9.759128870706837e-14 8.67433307553145e-12 2.7259207835416443e-09 -1.1311306242274995e-09 9.295002214366384e-10
1476 6.947453231571287e-12 6.054160963962603e-12 2.6016737183554704e-11 -8.597060239775587e-09 2.384513444756822e-09 1.2839366548628038e-08
1477 -6.646048217494385e-13 2.1696812298632452e-12 7.095985767213173e-12 -1.3213804850994665e-08 -1.794275647610072e-09 -2.1287998719708368e-09
1478 1.1332484992864267e-12 -1.4621456730843274e-12 5.43527970202948e-12 8.951264648000998e-09 2.7977828931030432e-09 6.064671110107278e-10
1479 -1.6324293066137413e-12 5.352675021791209e-12 2.602045200894811e-11 2.4258028254550988e-09 9.10062663684925e-10 2.724055951496983e-09
1480 1.5383658214152525e-11 -1.0847907109795018e-11 4.336945251880744e-11 -1.2402673734976072e-09 1.9872312366663666e-08 -2.410051587867075e-09
1481 6.501666153449164e-12 5.421543656643292e-12 1.4183266499930097e-11 6.037288094105751e-09 -1.5823333233759017e-08 -9.479709852334208e-09
1482 2.1665286272788067e-12 -4.174730760376162e-12 8.673078172565409e-12 2.6229363475086767e-08 7.3423970662927884e-09 5.220740793017927e-09
1483 -1.1223858203569729e-12 3.258253942582943e-12 8.672755553127051e-12 -7.963754732149113e-10 1.1296115966573579e-09 -1.1568987410051026e-09
1484 1.3678252595284897e-12 -2.1691624387233906e-12 8.67389197139949e-12 -1.7296157685214133e-10 1.0943124890236115e-08 2.0832128691693598e-09
1485 2.168338584166077e-12 -9.77692086723052e-13 -2.0406229840636263e-12 -4.454711355214226e-09 -1.523765510582061e-09 -8.299857738555702e-10
1486 2.115085246166329e-12 -1.2484043764142086e-12 2.121354916691e-11 -6.575304407669114e-10 -2.5009539618167082e-09 3.718678190102281e-09
1487 2.4579143738434146e-12 -1.7283207128444343e-12 2.3229467949001847e-11 9.326096866941283e-09 6.551333949525138e-09 -6.795316744176625e-09
1488 -1.0819548215222266e-12 2.168327052928668e-12 6.324404144132155e-12 -2.1651785403962516e-09 5.71366064538909e-10 6.600015963859816e-10
1489 2.6869905312896656e-12 2.506562795646823e-12 2.6012734266266865e-11 7.358642790081025e-10 4.5888725546977925e-09 -4.62154534004876e-09
1490 -8.891860498861465e-13 3.912881053610024e-13 8.675877389730474e-12 -2.6133954506054047e-09 -1.8213097194973132e-09 1.5129285562740527e-09
1491 5.975856980860923e-13 -2.144133833389917e-12 8.67109530670114e-12 4.805897084922978e-09 -8.377549067329042e-09 -7.473224650721016e-10
1492 6.79051523330508e-12 5.806494294307798e-12 2.6020550270892117e-11 -2.2022464281162032e-09 -2.359137728878281e-09 -5.209110295550925e-09
1493 -4.638140559776078e-13 3.374473480334056e-12 8.673194056565852e-12 9.626336203395171e-10 1.2057820671518795e-09 -1.1454621083223284e-09
1494 2.5254569102151723e-12 9.804219968231612e-12 2.6170248264679798e-11 1.4181976266025775e-08 9.225977913080287e-09 9.665399378539599e-09
1495 -9.726962884060127e-13 -2.1678854105888062e-12 1.8769742492923535e-11 4.776805333308845e-09 3.3652210911309604e-09 -5.663961540661321e-10
1496 -3.712507719464713e-12 1.741918256975175e-12 2.106346409187407e-11 -1.7563473313351805e-09 -8.685223932186134e-09 2.6152848757981813e-09
1497 1.5759599277576271e-12 -2.1602531721075227e-12 4.360204379530593e-12 1.457337431694574e-09 2.328757382965527e-09 -5.649948332493769e-10
1498 2.006879994862172e-12 3.232826568253225e-12 8.802053861934295e-12 -2.3968127826033025e-09 5.959154629141632e-10 4.546957860306688e-10
1499 2.163650583192824e-12 -2.167943544904646e-12 3.29732339502107e-12 -2.3546022918315596e-09 5.3497080736538785e-09 2.1202271883168863e-09
1500 -8.482574831519054e-13 5.229690940198855e-13 8.673666942182673e-12 -4.937169922044114e-09 4.909920600545814e-09 -1.7514654702679944e-09
1501 -2.1664938871275533e-12 -3.2523111601671966e-12 1.733287068434652e-11 3.2662378107487863e-09 -1.0273748844976903e-08 -2.681541839848987e-09
1502 6.041235014246204e-13 3.2434627227996753e-12 8.67344973429908e-12 -1.148245281838558e-09 -1.525301540064554e-08 9.739886111590552e-09
1503 -2.897416597982637e-13 3.251768601309272e-12 2.602101666902611e-11 -2.462745681216772e-09 -6.402040439161075e-10 -6.860457093522591e-09
1504 -6.500013926907885e-14 9.132460613570257e-13 -2.3847044609004466e-12 5.146860255171197e-09 -3.731996319943495e-09 -4.196569992539831e-10
1505 1.5157528967461513e-12 2.170557309585731e-12 8.673702621868049e-12 -3.944066789054799e-09 1.7749232203988968e-10 -1.4471159712096115e-09
1506 1.8188137202396591e-12 -1.7662868266798386e-13 9.030518827935594e-13 5.311772747317342e-10 2.0894166171777154e-09 1.406299700054434e-09
1507 -1.7896511747951985e-13 2.168146998876486e-12 6.5029910571751865e-12 -4.7815652352894305e-09 5.714429548858242e-09 -2.974048106724101e-09
1508 4.8688378463764615e-12 2.8338980157212347e-12 2.6019948889721916e-11 -6.076387213111094e-09 6.093513521887277e-09 4.861208315328439e-10
1509 2.170013178831888e-12 -7.82931257866038e-12 1.3998963483878077e-11 5.306981522715564e-09 -3.073894266244459e-09 -1.9741540482314853e-09
1510 2.423752120893194e-12 -2.1702866851201745e-12 8.672311574194494e-12 7.226734406175401e-10 -9.285036870890216e-09 -6.087429048363419e-09
1511 3.250529606805265e-12 2.186018544365868e-12 2.411010371367786e-11 3.181134655498047e-09 -9.247156945601798e-09 -1.876883532568802e-09
1512 4.696224592163679e-12 1.9053692922367924e-12 2.4292491841247046e-11 3.9737734997836645e-09 1.8280738567410403e-08 3.035479626614213e-09
1513 -2.1506758571975605e-12 8.676296724633943e-13 1.2480476387718845e-11 3.493410961248561e-09 -1.7992384859867616e-09 -1.1127989929661088e-09
1514 -2.898910377403008e-12 -1.0870008092282937e-12 8.671477390130343e-12 -7.260479527638107e-09 2.3541732979046673e-09 -1.5352268482383027e-09
1515 2.7528822037430883e-12 3.3897986486692485e-12 2.6023875230369547e-11 2.0286490050257963e-08 8.466146745513815e-09 4.320120000010058e-09
1516 -2.159707656231515e-12 -5.687017592639957e-13 8.67270562182826e-12 2.9308568264264785e-09 -3.4286936425748418e-09 -1.0925964043455173e-09
1517 2.168243220607384e-12 2.1673916037443625e-12 3.83129201044227e-12 3.4588365458655926e-09 6.379237217132011e-09 2.47081619460375e-11
1518 4.485720967141833e-12 2.166325397160171e-12 2.6019633554668573e-11 2.0135917616869306e-08 -1.7055538831073456e-09 -9.807628153082853e-09
1519 1.812837937650036e-12 7.515780555705258e-12 2.1233600549948375e-11 6.994631919429976e-09 -2.2339232313906653e-09 -2.504853233226062e-09
1520 1.5115331576646814e-13 2.1687082575869763e-12 3.204737693846922e-12 -2.657379025585491e-09 -1.3940444902446395e-09 -4.572026000337933e-10
1521 1.7152473577445539e-12 -2.1681633943448463e-12 2.4824987874015425e-11 3.006781618648167e-09 -2.8284266601559e-09 -9.949116647927194e-10
1522 2.168184814783549e-12 2.1666113330098744e-12 9.116716484339478e-13 1.2502818700225845e-09 -6.355459394480371e-10 2.0965632819223716e-09
1523 -2.168591275783629e-12 2.1441776998169646e-12 5.514253040790412e-12 -2.708891835434861e-09 -6.523303180286827e-09 -1.4694619048785322e-09
1524 -2.1681640300958973e-12 2.304156534410578e-12 4.5453007726086574e-13 -3.593667710553886e-09 9.788902282222258e-10 1.7968935849731627e-09
1525 3.805371385387475e-13 -3.676738220288128e-12 2.601907977829683e-11 -1.2395364204024832e-09 2.1794823643488576e-09 -4.723717464058144e-09
1526 2.3713924282626297e-13 -1.666665500978783e-12 6.29294113812221e-12 4.875155817217144e-09 9.649417594211965e-10 1.2550882765289992e-09
1527 3.0774167741360912e-12 5.456443204428541e-13 8.674535519543142e-12 2.290440734693269e-09 -2.8072302440229058e-08 -4.001910072344845e-09
1528 2.9467274105352373e-12 5.414003776092003e-12 2.602708631173369e-11 -9.225588920310516e-09 -3.679222327700034e-09 -1.1310570652967685e-08
1529 2.1646127805409412e-12 8.505146210687469e-13 7.477836698797677e-12 -3.577145497362349e-09 2.7267349548918362e-09 2.25472444191085e-09
1530 2.167640568568583e-12 1.086299118747007e-12 2.028267736495754e-12 2.4655275072406745e-09 3.417220193804178e-09 -1.9101375396224846e-10
1531 6.208527676695531e-12 1.0867312770395815e-12 1.165140381844842e-11 2.157628163931282e-08 4.362678579540935e-09 1.463322229118384e-11
1532 3.242759679619248e-13 -1.2568228404648236e-12 2.5971998979365074e-11 3.5018281132027413e-09 -4.543324480320451e-09 3.797865803842684e-09
1533 6.025377814134462e-13 1.5963644172299286e-12 1.1381429315787016e-12 -2.7625319974952328e-09 1.065504009467675e-09 9.594555244958224e-10
1534 6.393534746032628e-12 -3.5666599697388074e-12 2.601556925018237e-11 -5.869616607589079e-09 -2.4027301171716856e-09 -1.7003725528580418e-09
1535 5.048247295392836e-13 1.2067153001382932e-13 8.62641341572395e-12 -5.379637032584818e-09 -4.8024302736703204e-09 6.913236446262187e-10
1536 3.1713395611845145e-12 1.4408166150729424e-12 2.5324449980821633e-11 -3.3380406866350604e-09 -8.38887512602351e-09 6.364458734945169e-09
1537 2.1680796596903033e-12 -1.08743126444135e-12 4.286685282170261e-12 2.501722279015295e-09 3.6294013372777437e-09 6.372984890429252e-10
1538 -7.994760737889563e-13 -1.0855185616706652e-12 1.5069589751471076e-11 3.897210571927248e-09 3.2630536958857374e-09 -1.9100604975562103e-09
1539 1.3612341750940983e-12 1.5785268926406512e-12 2.4483004704385183e-11 5.551162855941972e-09 2.1147339210709237e-09 -1.6340729301831526e-09
1540 -6.106306411430854e-13 2.8246923272976273e-12 8.672499826686838e-12 7.895309243592342e-09 5.575175921521641e-09 -7.541126672996907e-09
1541 6.284954821087844e-12 -1.5189281919533793e-12 8.675791198398261e-12 -3.4472571874427657e-10 1.2576993667713248e-08 -1.0542672085951315e-08
1542 2.6771983960712033e-12 1.0820090634577758e-12 5.981174453082628e-12 9.278136785770778e-10 6.214269742458342e-10 -7.685744549916176e-10
1543 2.3323094288948084e-12 1.3424802553502467e-12 1.8463792379958475e-11 -8.316459010436696e-09 -5.322182311983869e-09 5.430251654618319e-09
1544 -1.646169329471624e-12 1.0949550605541897e-13 3.4471427935934443e-12 3.14276764358119e-09 4.241427892765628e-09 -1.1657228708431625e-09
1545 3.3078067008913626e-12 1.08682089654854e-12 8.676618169276834e-12 1.363278045703265e-09 4.0906196043984605e-09 -2.479112102444053e-09
1546 7.613468609406073e-13 -1.0852672549926488e-12 2.159477800121434e-11 -1.7243131615364332e-10 1.9113315213573045e-09 4.993212144339156e-09
1547 1.0862456705198093e-12 -1.8127014778717463e-12 8.672834271908805e-12 1.483400391980534e-09 -2.075974937775692e-10 -2.604218178451466e-09
1548 -8.684142617628631e-13 2.1685518273312162e-12 -1.994826190075062e-12 9.265943157637505e-09 2.4779963182205464e-09 -6.166910030745799e-10
1549 4.753613368535723e-12 1.0643620401243352e-12 8.673286186091538e-12 -6.071405831856262e-09 -6.502609296994067e-09 -2.5312415221042054e-09
1550 -4.603349974899277e-12 -2.168687216768596e-12 8.671798224044536e-12 -1.887239934808288e-09 -1.149174511084875e-09 -2.5684597563001206e-09
1551 -2.167101461978012e-12 -1.6356833353581833e-12 8.675159754905075e-12 -7.180232413572434e-09 -1.6270321939737795e-09 1.3586640675678324e-09
1552 5.332404561910119e-13 -1.3734400402953132e-12 5.194224611697915e-12 2.0345081346301062e-09 -7.356451731066237e-09 -1.6950152497523948e-09
1553 -2.16819318039285e-12 2.168308190652022e-12 8.671766141546286e-12 1.1457442518425048e-08 3.2240607290655654e-09 3.392774335654665e-09
1554 9.061531813402478e-13 -1.0153634912236658e-12 2.60196268734408e-11 3.5226042451385097e-09 -8.80577441367637e-09 -3.985832807109906e-09
1555 2.16823923434569e-12 2.426823077990508e-12 1.2351754300559277e-11 1.216392680758973e-08 7.805786858027433e-09 -4.4158761503258586e-09
1556 -2.168397928100667e-12 -6.904674203884418e-13 6.156114507035818e-12 6.282452889320828e-09 3.153072381078435e-09 2.075895089851666e-09
1557 -2.1665577404430362e-12 -5.0118978639862e-12 1.263473991852283e-11 -3.469503954365397e-09 -4.4865364318964535e-09 -3.72604769779376e-09
1558 2.1676512320357562e-12 1.1578225505383713e-12 3.802069379863215e-12 -6.1587496086838235e-09 -7.137538434198463e-09 -1.0538681684131947e-09
1559 5.0737011982965095e-12 3.870159447946802e-12 2.958286257135217e-11 1.5258632951955292e-08 -2.9727741323182897e-09 8.549435719151773e-09
1560 4.113464726508647e-12 3.0483271394830154e-12 1.4660791103283777e-11 -2.327072686467285e-09 4.694452948590897e-09 -1.1433456654176072e-08
1561 -2.1675848022751513e-12 -2.041762268013667e-12 3.807010114867742e-12 1.6358954413318177e-09 -4.230418072203081e-09 -4.514536271927838e-09
1562 -2.0830338832183064e-12 3.2318732627388095e-12 6.153300129204058e-12 2.059157559818351e-09 -3.721261104393416e-09 1.426256070960981e-09
1563 8.916191457865589e-13 1.0002479680116946e-12 8.850967051234816e-12 -1.6698309729065838e-09 -4.45795753473094e-09 -4.861458896979773e-09
1564 2.8702401882335365e-12 1.8694186240558613e-12 1.4549983232848721e-11 -1.6385503971908655e-09 -5.432697215935339e-09 4.228654878648167e-09
1565 5.569309205174407e-13 -3.4966854918091417e-13 8.6698512267914e-12 -3.95306933957207e-09 -2.2335202973895553e-09 -1.6463387503882868e-09
1566 4.94158202580829e-13 -1.4529155006971028e-13 2.601876462116521e-11 3.112493840987479e-09 -7.64874424853811e-09 3.095749212474664e-09
1567 5.718598530655758e-13 7.386488253797974e-13 2.6021331558090785e-11 -3.868492680123021e-09 1.0913331395290856e-09 1.7160457706576506e-09
1568 4.2872466817914194e-12 1.0855166121916869e-12 1.684094543919585e-11 -3.795002349150877e-09 1.4740706382566227e-08 -2.3781546785090375e-10
1569 -2.6437002406594247e-12 -2.168318082500522e-12 3.709978691691463e-12 2.3365833575112066e-09 1.7666258758394405e-09 2.2658667778577394e-09
1570 -1.9767322300466478e-12 2.020320024401434e-12 5.496670642367419e-12 2.0323545116865244e-09 -3.8454394624760775e-09 1.3190127751757104e-09
1571 -1.2515724688890892e-12 -2.1664231865419154e-12 2.694988647957038e-12 -3.750227364809063e-09 -2.3390520120806755e-10 -2.8720563900889607e-09
1572 2.73802267007732e-12 -6.5091689853556046e-12 1.7344001226109728e-11 5.837742303190165e-12 -4.630983080314452e-09 1.0545271081344126e-08
1573 -5.472018810705802e-12 5.412744614005149e-13 8.675294128736631e-12 -1.5786264733875535e-09 8.92849914544713e-10 -2.9871106812147095e-09
1574 4.0052338818965823e-13 3.408489959731293e-12 1.7348437998676847e-11 2.7936401063174988e-09 -6.559870386464702e-10 -2.795996234125233e-09
1575 2.9843474462732194e-12 -1.352562109560231e-12 1.9585520186265693e-11 1.981685787182326e-09 -7.531011058125032e-09 4.262293567153045e-11
1576 1.6608438911301841e-12 -2.0675232929533275e-12 -3.3546483977673668e-12 -3.976897388320913e-09 4.236264577442744e-09 2.028741639833797e-09
1577 4.528093118022482e-12 -2.172184906921631e-12 9.559016961858978e-12 -4.2520576797373275e-09 -5.050058232021926e-09 2.447969584123188e-09
1578 2.1687088313990435e-12 -4.202408688435737e-13 1.3301350687676847e-11 -2.1936444912501133e-09 1.0579785451846473e-09 -5.889070425677381e-10
1579 9.631713707621465e-12 5.622062994327294e-12 1.7346339298742414e-11 8.494479541354391e-10 6.565013425941506e-09 -6.370869848479838e-09
1580 -2.167128063425314e-12 1.082782002295466e-12 1.1594108612010584e-11 -4.0903944905180516e-09 -2.867015954929578e-09 1.4304557370543376e-09
1581 5.421303437402898e-13 1.268281557863329e-12 2.394532840224278e-12 -9.244064695090265e-09 -2.090675398827636e-09 1.1838114157492977e-09
1582 4.494614064169191e-12 -3.2855184329873834e-12 2.4247995922721353e-11 4.413965916450387e-09 -8.493769793150781e-10 -2.769898833154479e-09
1583 2.142345122799891e-12 -2.8369154510377387e-12 5.286851648894989e-13 -1.831979373483098e-08 -3.4121338161038994e-09 -3.622733268715612e-09
1584 -6.972358670349958e-13 -8.194413359982578e-12 1.7347761532702182e-11 -4.054924998672121e-09 2.3438489299936186e-09 4.018793430994113e-09
1585 -2.571882004241756e-12 -2.5889575595999933e-12 1.7344525732028223e-11 7.692114701482381e-10 2.674921493815757e-10 -2.745818875103323e-09
1586 6.947535037613809e-12 -4.136893014997234e-12 2.6020882664525817e-11 -1.4570202297969476e-08 -7.571153993622042e-09 1.3696154866668925e-08
1587 -1.4773867121987249e-12 -3.031926874493822e-13 1.733915619201608e-11 -5.584085780812191e-10 -1.7367430976230654e-09 1.943667747314502e-09
1588 -2.169052490557284e-12 -8.917067122141497e-13 8.67286391159061e-12 3.1660715420694932e-09 -4.910933099103999e-09 -8.867413627086289e-10
1589 -1.0387052694514542e-12 -1.6205926333115085e-12 1.734418689316138e-11 -3.454096125502483e-09 -1.6192918505186427e-10 3.814491953734084e-09
1590 2.1686282989338062e-12 -9.402898583257869e-13 1.3024564426511444e-11 1.6988951117109672e-09 8.517437198603264e-09 1.7115655318173996e-10
1591 2.168002302309801e-12 2.1422279571511394e-12 2.2770466905778e-12 -2.7369828180321972e-09 8.541384206897893e-10 8.422382414723514e-11
1592 3.2512845189188663e-12 -7.21127973725542e-13 1.7350177099026827e-11 -3.526661627433277e-10 -1.234279655013454e-09 -1.6540517536901448e-09
1593 6.925711414859529e-13 8.373427015748577e-13 8.680651082269371e-12 3.860212281903781e-09 -5.7675015546972145e-09 1.252712575861571e-08
1594 2.4162189086365057e-12 -2.771276473755879e-13 8.682428381877543e-12 -4.1455651845439604e-10 1.2579650461194352e-08 2.1169386069716787e-09
1595 -2.176116728371615e-12 -2.350395522852473e-12 1.4960794766978465e-12 6.551278487330478e-09 -1.2100614629930903e-09 1.1589506898373419e-08
1596 1.504341913130584e-13 8.478992162038223e-13 1.7348137304786488e-11 1.3799792803886987e-10 5.901755250917713e-09 4.09840183091728e-09
1597 7.304605443760296e-13 1.079991195396354e-12 1.0549789065345315e-11 -1.3950643523883067e-09 -1.7095543443563814e-08 -1.1207049714228523e-09
1598 5.668349383940341e-12 -3.7182956651914106e-12 1.734625981900187e-11 3.888609278277635e-09 -2.3354610517329778e-09 3.8758971624002e-09
1599 1.0060866787348022e-12 7.073153144747454e-13 2.2378830357006902e-12 1.7871313321547012e-09 9.446919992852658e-09 5.368909216144438e-10
1600 -1.993822474824638e-12 1.7504751572794116e-12 5.821842693098225e-12 4.794547528399807e-09 4.940857124627249e-09 4.538041501083965e-09
1601 2.1682110869973718e-12 6.98420162246191e-13 1.5622527972823027e-12 3.563859697785408e-09 2.0941067620504574e-09 -3.3992779364677177e-09
1602 -5.49093876133014e-13 -4.166334172866778e-12 1.734590867554276e-11 7.994398122060612e-09 1.0428584361737228e-09 -3.90843067263992e-09
1603 1.2866882668215634e-12 -2.1687356847826376e-12 1.4437090240892929e-12 1.8485214879697943e-10 4.78736472419374e-09 -2.6647112898690355e-09
1604 -2.078030739328423e-12 -1.0804036628434246e-12 1.7347383460177776e-11 1.5258439127863342e-10 -6.781970653923051e-10 5.023906852733265e-09
1605 3.0071666991130367e-13 5.2156969522785e-13 2.04898243290511e-12 -3.092167739124621e-09 2.06949109469818e-09 -4.623326172244883e-10
1606 2.168503249748101e-12 3.0318708293606904e-12 1.6832468920538166e-11 -4.977128989047324e-09 5.684126219582379e-09 -2.32465516351654e-09
1607 -3.0894367793918516e-12 5.027330664144998e-13 1.1046858181857132e-11 3.1029594050428797e-09 -1.914155504081391e-09 -1.0158458480263653e-09
1608 -2.166646841428603e-12 -2.029449656499684e-13 1.7673238240587987e-12 8.093002590915325e-11 -3.401180589960784e-10 2.737322031014012e-10
1609 -1.1221506220971609e-12 -1.848460842919632e-12 1.7340563705939022e-11 9.656717304111115e-10 -8.597820786378786e-10 9.904428982544936e-10
1610 -2.168827151793109e-12 1.31125847498001e-12 8.970317654907722e-12 -2.4689491700051662e-09 -3.462803710971878e-09 -1.0807801254213235e-09
1611 2.697009793612373e-12 1.9196286717439623e-12 8.661016381484292e-12 4.006566953584704e-09 1.1839714130002136e-08 -2.239986599285948e-09
1612 3.473377766465876e-12 -3.132275579172714e-12 8.673815970116399e-12 1.218104322323713e-09 3.2059010008547466e-09 1.5217928042053404e-09
1613 3.830333247041677e-12 -1.0999505117577218e-12 6.543815703353642e-12 1.3643262002203863e-10 6.690671969261669e-09 4.716865381909436e-09
1614 -1.1534395502016654e-12 9.82623352946361e-13 8.864107252546969e-13 7.071719803009167e-09 2.0049221822646765e-09 7.998267091321098e-10
1615 4.954480016448362e-13 1.0840859210614897e-12 8.67302683056363e-12 -4.345107075960854e-09 2.8814679175969927e-10 4.665689922357023e-09
1616 1.0280352145777981e-12 2.168654787210959e-12 -9.605191277316538e-13 4.324152888449507e-09 1.880803480145513e-09 8.287003860396659e-12
1617 -2.1973953146558803e-12 -2.277811749124722e-12 8.673579766733831e-12 3.5857739680243654e-09 1.4009423029510878e-09 2.8195428493445678e-09
1618 -1.4065263131971863e-13 -4.444691755054487e-12 1.734865231198923e-11 3.5734181165348033e-09 3.1986392270276552e-09 -6.471468179758231e-09
1619 3.970864973493303e-12 -2.2197895210693414e-12 1.73428340516116e-11 2.7105915699049115e-09 4.557243110471878e-09 -4.099809225221387e-09
1620 4.166805057013367e-12 -2.1667260206159736e-12 8.673504370871075e-12 6.23325547158082e-09 1.4795821718074555e-08 -4.699766286361489e-09
1621 -4.314590123670919e-13 -2.6106523365934134e-13 4.171573070402971e-12 -4.570563224105866e-09 4.260674264598879e-09 -3.1280135684035416e-10
1622 2.2927842979928865e-12 -3.2377899263316728e-12 1.7346954205302098e-11 -5.251622050572852e-10 -7.066032126701375e-10 -2.102347450733592e-09
1623 -4.767008381490348e-12 -9.60262042664693e-13 8.672271199975973e-12 2.817686955108907e-09 7.167077884336576e-09 -1.2027214623393746e-08
1624 -2.0079646642111294e-12 1.1558307966179018e-12 1.5357028705930678e-11 2.897011786967079e-10 1.5902713388393278e-09 -9.46218713554206e-10
1625 -2.168592456767099e-12 -5.6330152400902756e-14 8.671122880532423e-12 -6.349553792424614e-09 -8.52660375941505e-09 -2.6984539800861123e-09
1626 2.168422193452129e-12 -1.0837148698774732e-12 1.1515414476816128e-11 -2.383827425465432e-10 -7.64250197005931e-09 1.264297122105925e-09
1627 8.576754602055576e-13 1.804941826635158e-12 1.1248108626481885e-11 -8.737294343425209e-09 3.118043021221283e-09 4.3674187405680075e-09
1628 -4.223902972776221e-12 2.576210045034794e-12 1.3300772691351304e-11 -4.591673154023689e-09 2.8835476986237077e-09 2.0061160135946175e-09
1629 -1.813643181868196e-12 9.679751237998872e-13 9.556760743602774e-12 4.593341113267409e-09 4.316971033167318e-09 3.6551871693419684e-09
1630 -1.1222296103462276e-12 -1.5396901805439804e-13 1.7347434510439684e-11 -5.436462078232763e-09 1.182841432787014e-09 -6.796213004118482e-10
1631 2.142192417126398e-12 -1.760854776984347e-12 1.734690140055622e-11 -5.39062370740461e-09 -6.541654366968461e-09 1.5509103252232863e-09
1632 2.1675420535939473e-12 -1.469409812053111e-12 -8.999086272063433e-13 3.856591849892033e-09 5.277643973119531e-09 -1.8880490337975625e-09
1633 3.3609129943934086e-13 1.3617803713777917e-12 1.4301169791606133e-12 -1.9720345301253567e-09 4.5489796580332746e-09 1.034070552403902e-09
1634 9.90156801554642e-13 -2.128606690918101e-12 1.7347032216011134e-11 2.181946621784591e-09 2.0144623500100856e-10 4.018772439215634e-09
1635 -2.168269698921726e-12 1.6577148153890171e-12 3.067333362769031e-12 -7.58891741056941e-10 -4.5365660526305784e-09 -3.4778380964423373e-10
1636 3.285538853136116e-12 1.5107176906233173e-13 1.2479407057656893e-11 5.247427120001797e-09 1.078225166808601e-08 5.2746616969249385e-09
1637 1.3075101371039442e-13 1.9305379943717206e-12 1.0535257627602687e-11 -6.363746858999648e-09 -2.1099952897293038e-09 -2.5230152676308973e-09
1638 9.6508810523382e-12 -4.491242825713748e-12 1.7342301683643213e-11 -7.80859336501077e-10 1.3408446566147422e-09 7.581239456567339e-09
1639 1.0598154090337061e-12 5.357413728501682e-13 1.333210553477926e-12 9.718092360553453e-09 -4.936026070390137e-09 9.768254099197594e-10
1640 -2.1683695600966652e-12 -6.498259480287654e-13 -2.7844446029867784e-12 5.435385283086474e-09 1.2641469980165773e-09 -1.0872398668512012e-09
1641 6.5024778606263264e-12 -2.8378125190893977e-12 1.733925200969313e-11 9.6777717017771e-10 -7.115940814068344e-10 -2.035414152710989e-09
1642 2.1680738774227675e-12 -9.33425365762176e-13 3.869826124705494e-12 -5.089737380023606e-09 -7.531301279130198e-09 -2.356893843034983e-09
1643 7.589502203781963e-12 -4.59376418772743e-12 1.7347387673029e-11 4.561543615232075e-09 6.925714533274883e-09 -2.9792064147732346e-09
1644 2.16668285534396e-12 3.244678337026564e-12 1.0302841866856036e-11 5.271537928968668e-10 -1.1071442942590239e-08 1.9231665158381866e-09
1645 1.2773301070373754e-12 -1.0739733673373573e-12 8.671260497782207e-12 -5.146540819049926e-09 -4.5975493929137045e-09 2.416706983940483e-09
1646 2.168033514198037e-12 -2.167213550661989e-12 4.685467253659375e-12 4.513263274337971e-09 1.2739814781109364e-09 -1.329284228238027e-09
1647 2.16718555772849e-12 1.6520447160920548e-12 5.965136117052943e-12 1.4187499048190538e-08 3.0416246561203874e-09 -7.945896483437481e-10
1648 7.645128576621806e-13 -6.675160137317777e-13 2.008374602270124e-11 2.4122815410508925e-09 1.8113876834584662e-09 -1.5840797923181433e-09
1649 -5.790010309369207e-13 1.0171646396346738e-12 1.8219665930459485e-12 -9.914158763883271e-10 -4.301063706631468e-09 -3.919228100008258e-10
1650 1.0855200983493886e-12 1.3894487946403388e-12 1.3726210070937548e-11 3.0880760972959414e-10 1.0753695529441215e-09 -3.4932378148734e-09
1651 -2.1669247968437605e-12 -1.5456699913684854e-12 1.639798717453215e-11 3.973536587836937e-09 -2.4350443275977823e-09 -1.482344562736879e-09
1652 2.2329341875751303e-12 -7.563390301037589e-13 1.734691363892857e-11 -4.153793587587083e-10 1.043498601352798e-09 2.8261663575734015e-09
1653 -1.5338732543091898e-12 2.102342309080094e-12 1.2270057151544265e-11 -3.6544477589718603e-09 -6.844732867868718e-09 5.0261022801771096e-11
1654 -2.5076613355216854e-13 -1.5106441089169915e-12 8.675246806575763e-12 7.81601865948671e-09 1.310636328544113e-08 -1.3088880673105682e-10
1655 3.944185974659769e-12 -3.262399314139816e-12 1.7343295190771008e-11 9.018138200103898e-11 -8.365119735655107e-11 4.558586180125557e-09
1656 2.167468795120124e-12 -3.0593375407390646e-13 8.605520001681583e-13 -2.4658095854226747e-09 -6.29057067269419e-10 -9.345369861104558e-11
1657 -6.577594928728638e-13 1.5917780806453473e-12 1.8472998274598916e-11 -5.943556268750343e-09 2.0494501098577085e-09 -1.1585153917368787e-09
1658 -2.1667163945452776e-12 1.3356697806170848e-12 2.0096502549663255e-12 9.033132678585061e-09 -2.3748733341583025e-09 1.5154070912919572e-09
1659 -1.1529225059768015e-12 -2.2430216935696203e-12 1.732373502695607e-11 1.984809483734949e-09 -2.089191904715837e-09 5.404794068019213e-09
1660 1.085792810800006e-12 1.0834543506002687e-12 1.7348424292648793e-11 -2.2973816440074167e-09 -1.214502048128115e-09 -1.7674248512254575e-09
1661 -3.7619139677589846e-13 -8.135764880311404e-13 -2.1400800479451157e-12 3.981743472509924e-09 -2.1437766567460404e-09 1.7611411829300694e-09
1662 3.701711382811331e-12 -2.1663515878691553e-12 1.7343876025065333e-11 5.562992204588649e-09 9.16765970310683e-09 -7.588141346598484e-09
1663 6.493210744914169e-12 -2.5427632056534885e-12 1.734313551431573e-11 -6.839444592989926e-09 -4.095009728998738e-09 -4.267571781552475e-09
1664 -2.168435246887928e-12 -1.7516501053409945e-13 8.671656661665735e-12 -1.2149469796207038e-09 5.253039330966391e-11 1.6341947509030817e-09
1665 -1.636981300454959e-12 -1.0179364043832504e-12 1.7340938348316738e-11 7.390020851180949e-10 -3.43085019421239e-09 -3.955033766774542e-09
1666 -8.007568943268436e-16 -2.167262052033182e-12 5.124246633991847e-12 2.038229988554741e-09 -2.984831256041278e-09 -3.0041647381181477e-09
1667 9.71176864291155e-13 1.5983133097498749e-12 1.673050042562273e-12 -4.4126128473140047e-10 4.158518341477001e-11 2.0300921055248653e-09
1668 1.0950741991346482e-12 -1.7494383603339948e-12 -1.332699444047786e-12 4.369938427999302e-10 -3.4566103155218132e-09 1.2480449564181576e-10
1669 -1.1477644813650859e-12 2.1691166388529755e-12 9.584671139320284e-13 -1.442272142694087e-09 1.2197810349753327e-09 -9.159347900267127e-11
1670 -5.77057809624909e-13 4.982247267574497e-13 3.5552757040248776e-12 2.187740488604174e-09 4.58414316106632e-09 -8.621831725308889e-10
1671 -1.3557235736334114e-12 5.394715330831807e-13 1.734592263630543e-11 -1.0211868244443632e-09 6.504465339720973e-10 -1.594717125290699e-10
1672 3.245753090639863e-12 -1.2055354878423774e-11 1.734268732361574e-11 1.3478318514280215e-08 3.5605361157578624e-09 -1.728593464447645e-09
1673 1.9439980915268953e-12 1.0828612132081468e-12 7.024703573137097e-12 -3.900565133078376e-09 1.674322491917168e-09 -6.605750427164074e-10
1674 -2.167453736512158e-12 7.161750446297882e-13 2.7979480383798224e-12 3.33227709316052e-09 -3.540519489079197e-09 3.2074958402220543e-10
1675 1.4640154811182748e-12 -1.985346685349073e-12 1.734583502500027e-11 4.123786484872968e-09 -2.3617500944870795e-09 -1.7027439018326953e-10
1676 1.2777423102596355e-12 -2.1679510104606085e-12 2.3499094230251646e-12 3.2129602780836343e-09 -1.103217920405177e-09 -3.0772642837632696e-09
1677 3.2948687153168983e-12 -5.00589053883604e-13 9.157204436832452e-12 3.1695018347445465e-10 -1.468612984016351e-08 -3.0431642513920393e-09
1678 -1.0867033743236879e-12 -2.169801678545455e-12 9.664169284113403e-12 5.360632800033735e-10 1.3185808310992393e-09 9.683536311561625e-10
1679 2.1682145748168978e-12 7.8864199104268e-14 4.4605664795700006e-13 -2.3531777955339837e-09 -1.8324564131081465e-09 1.5797185009423371e-09
1680 -5.095219679778943e-13 2.166826845362878e-12 -2.153087604466695e-14 -2.7740726373961424e-10 -2.199481331026158e-09 -2.662521324586189e-10
1681 2.1687381043607722e-12 -1.0842134843779046e-12 1.4564297012260372e-11 6.980321124315466e-09 -4.5710239779606695e-09 4.901363742768877e-10
1682 1.2541403827865443e-12 1.8466802597274712e-12 1.824899838742766e-11 -1.1508850829269516e-08 -4.32299091039557e-09 -8.764820566413458e-09
1683 -2.0774828493907744e-12 -6.053399221632405e-13 1.9604197348100758e-12 4.3829503914662636e-10 -1.8253985189505613e-09 4.4504905731654e-10
1684 2.9576362369870722e-12 4.879105551747223e-13 1.7349453982518722e-11 3.357122715346175e-09 1.444755706841973e-09 4.49462431733697e-09
1685 5.360626870834941e-13 -2.1550260374350034e-12 1.6724790901176595e-11 -6.55709049092712e-09 -4.806751137137509e-10 -3.971370291165461e-09
1686 3.5907154845969503e-13 -2.167377489605651e-12 6.427249204301283e-13 1.877217535916836e-09 1.0441455956932319e-08 -2.2018192759273343e-09
1687 2.12930169439293e-12 -2.6145045853965548e-14 -1.6586852646479273e-12 -3.4648156253244e-09 -4.721684882726013e-11 -1.0762376983667915e-09
1688 -2.5833902794926983e-12 -1.017606185539921e-12 1.7345875212475283e-11 3.4531353333894185e-09 -2.5136197820963095e-09 -4.6756178159606325e-09
1689 1.7823306477717288e-12 2.3776408710568484e-13 1.1762476328586452e-11 -6.328288138588849e-10 1.3247234412127735e-08 -1.2331542929305242e-09
1690 3.2749893027008186e-12 -2.1682402425396478e-12 1.6192388978880015e-11 4.681867254152042e-09 -1.736065682904644e-09 -3.4858409346510524e-09
1691 -3.624809779907167e-12 -6.502071195310098e-12 1.1680919688174711e-11 5.260173723308488e-09 5.0434631140385e-09 7.983529590886147e-09
1692 2.16938065169702e-12 1.1519102106664952e-12 5.899091274219306e-12 5.130169497333649e-10 9.60947818150718e-09 6.186999816011739e-10
1693 6.131283047153087e-13 -1.0826738327770385e-12 7.315392805955035e-12 4.47735520249662e-09 -2.195566007080316e-10 4.726798152875663e-09
1694 1.1206561488392315e-12 -3.2247791453912697e-12 1.7347128772744793e-11 -2.4440874743301984e-09 -2.8913563323307505e-10 -1.3380954517681866e-09
1695 1.8038720839071199e-12 -2.0955384276682913e-12 6.2401516401025396e-12 1.4533681824955102e-08 -3.2152037090647516e-09 8.237275468050799e-10
1696 1.0841918099400968e-12 2.1685358786453155e-12 -1.0998809598619458e-12 -9.52076474147916e-10 -5.981870060966271e-09 4.5517039786872936e-10
1697 1.2261800362982745e-12 7.215126515073141e-14 8.670393870165938e-12 -3.5341112111035567e-09 3.731015029524453e-09 6.024923389583777e-10
1698 1.7266411263167969e-12 -1.0771929914533584e-12 2.243273497276172e-11 3.702691345991984e-09 -1.9022816972572448e-09 -1.00730047817299e-09
1699 5.489361685122051e-13 2.1673622526882973e-12 5.735129917554821e-12 -7.973058779667398e-09 3.4695802726898434e-10 -4.392666603099307e-09
1700 3.777942368977797e-12 -5.368722143334258e-13 1.734625474776278e-11 -1.0006754665486606e-09 -2.0418540988356502e-09 -2.2810412193975497e-09
1701 -1.8936800933672023e-12 1.0695068092333334e-12 2.2830313530784567e-11 1.1185684122333814e-08 1.1019402484501736e-09 -4.2181407479321e-09
1702 5.975627053480228e-13 -2.458817335004841e-12 1.9422094122907875e-11 2.3076435849221903e-11 -7.19557641507944e-09 -1.7668214080902788e-09
1703 -2.1734663905937395e-12 2.750626422429248e-13 1.363407375841336e-11 -4.076950889022217e-09 -6.120075836953045e-09 2.665733902304054e-09
1704 -1.5275683702222789e-12 -2.3563323049724016e-12 2.601942573258117e-11 1.1246478254213821e-09 -3.909100192267591e-09 8.49744741400129e-09
1705 2.1682238388789933e-12 -3.6196873080197395e-13 1.5574881117369039e-12 -8.564803832499085e-10 1.6827385511841073e-09 1.7438134502881517e-09
1706 2.0006482327720603e-12 -3.2520783827939703e-12 3.854857586195046e-12 -7.65363036654466e-09 -2.292465434591065e-08 -8.619802047453704e-09
1707 -5.421166185062327e-13 -2.1680997986354152e-12 2.329765355022084e-12 -1.5296982976416662e-09 8.64221968752823e-09 3.931201816701322e-10
1708 2.167462701547675e-12 8.803880642314148e-13 1.2738654983140415e-11 2.1204830373537607e-09 -1.1551509464627207e-09 2.5712584494097744e-09
1709 2.33191335068664e-12 1.1276070327021305e-12 1.6819819532101502e-11 -1.2894538235596349e-08 3.410583717215891e-09 -1.0899361546566847e-08
1710 -2.602193347449298e-12 1.2298317175817116e-12 1.7328765888975526e-11 3.03892856941367e-09 6.271139449904746e-09 6.439659512377329e-09
1711 1.0157324868720352e-11 6.740851473541245e-12 1.7345686146633953e-11 -9.882615045109032e-09 3.233021981171016e-09 4.02826315872475e-09
1712 -2.658447334183016e-12 -1.932004709100152e-12 1.7348164785230704e-11 1.2011503708725092e-08 -9.125658303688807e-09 4.823820175620974e-09
1713 3.948426741607409e-12 -2.1384193896902355e-12 1.7309468768062314e-11 -2.2598236051223698e-09 -4.653632706120584e-09 4.316336712732202e-09
1714 -7.948185057576757e-13 2.041907305540356e-12 4.302807799627986e-13 8.118456346967842e-10 -6.321056403575797e-09 -1.9235519414349644e-09
1715 3.3617318879659413e-12 1.4868331797058124e-12 1.1178498344778853e-11 1.4545113410646825e-09 5.059605144407245e-09 -4.638694280456911e-09
1716 -6.135247764559153e-12 -1.583501644226655e-12 1.7347944125380062e-11 4.567319371008554e-09 -3.5401016706444548e-09 1.2670953326344336e-08
1717 1.2517531870953433e-12 -3.1157768276036762e-12 1.734717645160919e-11 6.578078819714582e-09 5.266635782974078e-10 3.5397757469167147e-09
1718 -2.1700981296730154e-12 2.167735322279862e-12 5.56361991943115e-12 -2.5306219679918437e-09 -5.780855323594328e-09 -1.084538421531848e-09
1719 -2.1667903121107777e-12 -1.6555431315232445e-12 8.675389310552524e-12 -2.024491686331994e-09 -6.6317697173284375e-09 1.2001559533649607e-09
1720 1.853392375152769e-12 -1.911192308634664e-12 1.7345682814566718e-11 2.8389237755580337e-09 -1.7167629549653868e-09 2.0189344612090678e-09
1721 -1.0835870270014878e-12 1.2699636478276104e-13 1.866043742649329e-11 -2.244157951845438e-09 -5.968843309879874e-09 1.093843087801818e-09
1722 1.0093189033586346e-12 2.1681509507515545e-12 1.2065391710174805e-12 -2.1395413419631193e-11 -4.6476186478402245e-09 7.222873848936084e-10
1723 -3.339425981744429e-12 1.348992644405203e-12 1.7342032560315502e-11 -4.013147332640042e-09 3.576903131385567e-10 4.5192618375481745e-09
1724 1.4954811492967685e-13 2.168651469536525e-12 4.7212770005167655e-12 -2.9843751532242844e-09 -2.5114872177435568e-09 6.328051816148348e-10
1725 -1.6318801314772965e-12 2.0952872619593027e-12 1.4794048251908435e-11 -1.0156339981765876e-08 -4.828241234816115e-10 -9.459080006854327e-10
1726 2.694964511779805e-12 1.1871239334389456e-12 2.6020231132257438e-11 5.527825401147232e-09 -3.944761350821779e-09 -2.6711391905371337e-09
1727 1.6051598629404536e-12 2.167349112018221e-12 4.07075251349929e-13 -3.0948945478191057e-09 -8.777841588429058e-09 -2.0958923271500598e-09
1728 -1.6521004778001636e-12 -2.169271645776625e-12 1.7338998263777107e-11 4.716660544427832e-09 -1.502939161959933e-09 1.569869870078286e-09
1729 5.435184714416446e-13 2.168349250246361e-12 1.5460456828758944e-12 -4.900805515333651e-10 6.602264473257307e-10 9.279892650313572e-10
1730 1.3939071897722083e-12 -2.553799474712622e-12 1.272887166134442e-11 9.130206796635095e-09 2.6905346294294807e-09 5.209954897956889e-09
1731 -6.505467048709389e-12 7.183130845792536e-14 8.679020663598004e-12 5.281817077010535e-09 -8.649354603865419e-10 -8.846130322934783e-10
1732 5.337565395148153e-13 2.1627833982660297e-12 1.7348968762712882e-11 -2.6975049038597295e-09 3.611931966267902e-10 2.1488640692093966e-09
1733 -1.0782175311925334e-12 -4.742248590707619e-13 2.3918054809751808e-11 -5.734977839357834e-10 1.0067535800487e-09 2.071892823552793e-09
1734 1.0782926293189947e-12 2.16822690342448e-12 3.4484050645448323e-12 -1.846952741761547e-09 2.2828376614436343e-09 -5.165171756025244e-10
1735 1.274310572857339e-12 -2.169729661400267e-12 2.111889568147109e-12 -2.156682704764736e-09 5.0313867013456e-09 4.967219685248318e-10
1736 2.1680509651566004e-12 1.0875317503422009e-12 5.175776570570302e-12 7.705654129874179e-10 6.0704357068154106e-09 -2.555852201282807e-09
1737 -3.054717169372967e-13 2.4999005857231904e-12 1.7346992089493962e-11 -6.15056869354041e-10 -1.31416903824004e-09 -2.000148831767664e-09
1738 -2.169875601147827e-12 -1.0911011234935049e-12 8.672965816258075e-12 -1.4913639404596932e-08 -5.481037763087242e-09 -2.3392797402115666e-09
1739 2.7166420361112227e-12 3.2518956415765672e-12 8.811547213270456e-12 -2.31005983512475e-09 -3.3915610517157493e-09 1.9033298828791806e-09
1740 -8.260692189050413e-13 1.1863504448856024e-12 1.7345019091587674e-11 5.071520704807421e-09 -2.3502013832926337e-09 -1.973995170523759e-09
1741 8.031513793046143e-13 -1.0308651325437362e-12 1.7344414721182368e-11 -8.69505554859563e-09 -1.2672155952823145e-09 -4.524543271793575e-09
1742 3.4778744123351274e-12 -3.8061072708766285e-12 1.7342370084411148e-11 -7.252045504087681e-09 -2.908765690092838e-09 -1.1041043788831678e-09
1743 -2.1644108530867102e-12 1.0852121823754439e-12 1.837796217373693e-13 1.6545713677905883e-10 -2.889303399307669e-10 1.228103204323156e-09
1744 -3.4140322245239406e-13 -3.949962071500538e-12 1.734821461144518e-11 3.213054705679524e-09 -7.973196088042112e-10 -4.511563823178483e-09
1745 1.6403776341470777e-12 3.703709110264639e-14 1.7341953488145463e-11 -3.942607930188044e-09 1.3119366778829945e-10 -4.710551244302474e-09
1746 1.8260964312460103e-13 -3.2812823976472755e-12 8.671102260146095e-12 1.043156470099105e-08 1.544140018942543e-09 -6.070540841458384e-09
1747 6.913606204964025e-13 -1.0490279598363153e-12 6.649321264519458e-12 -5.110160921852755e-09 -6.436800723661524e-09 -1.2272572160166485e-09
1748 -1.849210995674838e-12 -2.053154790914612e-12 1.7346767668405205e-11 -4.714980949634362e-09 2.296203710042209e-09 -9.25270593623552e-10
1749 8.677510113417624e-13 7.623038133274483e-13 5.562631443195313e-12 -6.3955255452255515e-09 4.9018066685103676e-09 7.040427477295643e-10
1750 6.506302831375129e-12 1.083628735406749e-12 1.734358833892319e-11 -6.739455936324218e-09 -6.9628008627146e-09 1.3587224998794846e-09
1751 -1.0844495226138994e-12 2.164436692641233e-12 1.7345933171406575e-11 -3.189383213936451e-09 -8.980622020911897e-09 6.923124398102384e-09
1752 1.0876389168462032e-12 -4.970170341668321e-13 8.673713544424936e-12 2.11642457216269e-09 1.4899019998252862e-09 -2.57662641194782e-09
1753 -3.0180395496424638e-12 -3.2273816974583206e-13 1.730151908044018e-11 -5.737509963791704e-09 -7.2265241710225095e-09 -6.547065087921813e-09
1754 5.952126271866106e-13 -2.167756313870923e-12 -2.9532488270187867e-13 2.043093695382495e-09 -5.523163231353887e-09 -1.6172060890517395e-10
1755 2.1659891765815835e-12 -3.287871169576339e-12 1.5230821996875708e-11 9.667919130409024e-09 -1.2079224327389497e-09 2.6274063096919716e-10
1756 2.1655492736316476e-12 6.336930261749129e-12 1.7346394171214324e-11 6.011693969932807e-09 -3.859879527657307e-09 1.0565187299533764e-08
1757 2.1621295117319688e-12 -3.558445625300828e-14 1.0079618583906424e-11 -7.025622948692769e-09 1.803098702702736e-09 2.54557099802829e-09
1758 -1.3181953310035415e-13 -2.1689450152331343e-12 1.63655371801407e-11 5.013159548562764e-09 1.6194459942640842e-09 -1.5392428840195303e-09
1759 -7.374885346707665e-13 1.0844404709130234e-12 8.672176126018915e-12 -5.987965517284163e-09 8.816798761832666e-09 1.6748875605883038e-09
1760 4.721017752212411e-13 -2.1596982680487772e-12 -2.4707915178999866e-13 -2.360453598920025e-09 -3.856517205500599e-09 -2.312461747891647e-09
1761 -1.2425164112081909e-12 -1.243125010788258e-12 6.770249438379042e-12 7.405586400087901e-09 -2.0352590658822213e-09 -8.91130771147173e-10
1762 -3.565266854658617e-12 1.6256492464244242e-12 1.295188316994963e-11 2.251613643064338e-09 -7.969529819097574e-09 -4.651846486834395e-09
1763 -2.167498861244562e-12 2.166938595298377e-12 -1.1702412010251728e-12 7.878372179165488e-11 1.6706842532353496e-09 3.187765574557602e-09
1764 3.2541318939763834e-12 -3.900729450956467e-12 8.673321586268537e-12 -7.790936184071853e-09 -3.1694362279352035e-09 -2.577544611994479e-09
1765 -7.663885945259462e-13 -1.646851428643899e-12 8.671787412415104e-12 1.9297010387862652e-09 2.066063460467432e-09 1.6750203677150085e-09
1766 -1.826437853028411e-12 -2.166405605744892e-12 5.719742976120079e-12 4.751603298177974e-09 -5.361028719967924e-09 2.0054928572031313e-09
1767 5.17042446340405e-12 -1.5575502898215644e-13 1.7347277126684092e-11 -1.08904163749973e-09 7.146129003393229e-10 -2.192648475372129e-09
1768 2.9700727998364845e-12 -3.0724796866059006e-12 1.884174122986413e-11 -1.01481999852617e-08 -4.342472871145495e-09 -2.501186918257605e-09
1769 6.41339001908858e-13 1.0835290395752948e-12 4.040703185808142e-12 -5.130083123592799e-09 2.0712296004539017e-09 -1.6730100773191578e-09
1770 2.1787880878720026e-12 3.4445290567596076e-13 9.68507816114784e-12 7.697950609846198e-09 -1.5431382789417694e-10 -8.816024190522347e-10
1771 -1.0842635509032323e-12 8.340981312570581e-13 8.671735770512198e-12 -4.1050694061464956e-10 8.74477472033264e-10 -3.7614749068643316e-09
1772 1.2747986738503282e-12 -2.169222790211173e-12 3.5001168125029343e-12 6.890227104033242e-09 -2.5766307742880207e-09 2.8093352050740883e-09
1773 3.611466907988901e-12 2.012215212836292e-12 1.734605771759943e-11 -1.827628141794598e-09 -2.361778499062664e-09 -2.37380782327965e-09
1774 2.247249281286804e-12 3.244162436043232e-12 1.3345978583501866e-11 1.0883841617533925e-08 1.976902364292971e-08 -9.49137913225559e-09
1775 -1.0836590023236253e-12 -2.1682790332131522e-12 1.8267866360824974e-12 3.6039968183927197e-09 3.4189265405065065e-09 2.028020737089148e-09
1776 -4.576389114855728e-12 1.6229379376102557e-12 8.670709200098433e-12 8.218099316446392e-09 3.541335809973522e-09 -7.32744447494044e-09
1777 5.534765502520287e-13 -1.677194136587708e-12 1.7347214304287976e-11 -3.757383320627368e-09 4.450397639204283e-09 -2.3634383315299872e-09
1778 -9.195115632053337e-13 -1.084806122596849e-12 8.673638700838095e-12 5.056757770159385e-09 4.997191883855346e-09 -1.7104072277438956e-09
1779 1.0846757490553902e-12 -5.49806775580177e-13 8.671817096505483e-12 -1.6442394363915655e-09 -7.281399098641848e-10 3.3316649824505423e-09
1780 -3.189865909728091e-12 2.7880978654772773e-12 1.7351837758905265e-11 -2.2916531251449115e-09 -9.821855086703479e-10 -1.0092769544988955e-08
1781 2.174117374052469e-12 2.660442467585627e-12 9.424360447055428e-12 4.753546572729309e-09 3.293763758476329e-10 -2.0917095464892596e-09
1782 1.556637143103207e-12 5.914340228087364e-14 1.4372973977660109e-13 1.9334627038990863e-09 -2.657120924437374e-09 -5.604065321140097e-10
1783 2.025888902184998e-12 1.5653518293843075e-12 1.9709795730958644e-11 -2.177359397831748e-09 6.859349866132588e-09 3.3474303955671424e-09
1784 1.8896877358121817e-12 -3.8885944022974883e-13 1.652205090250877e-11 3.869136016143457e-09 7.614714929761451e-09 6.989551486647841e-09
1785 2.188689825676841e-12 -9.524411209807613e-13 2.3602533238038614e-11 1.6435930481707283e-08 -1.8023524375453088e-08 7.506948300221678e-09
1786 -2.1655349182102345e-12 -5.396891859319771e-13 3.892510578101853e-12 3.769989697832421e-09 -2.784601023416017e-09 -5.661261187301667e-10
1787 -5.0604704459947034e-12 -7.248400410168398e-13 9.454017188378882e-12 6.815562159338236e-09 6.048425973531621e-09 -1.0575035933009165e-09
1788 8.938799564659062e-14 1.0789785496049357e-12 1.734635045576673e-11 -2.6629483478527774e-09 -5.008199007269934e-09 -4.125720819184147e-09
1789 -1.0773781861288457e-12 -1.5485347682678052e-12 8.673661852884426e-12 -2.126418840011357e-09 -2.0987741361975273e-09 -3.295011184268284e-09
1790 -6.673572996560142e-12 7.029961472333746e-12 1.7344388356213086e-11 -4.256287024026027e-09 -3.6877515745307643e-09 3.800699677958687e-09
1791 -2.1681509397088565e-12 4.7658214194375e-13 -8.179769868449267e-13 -2.5705175289695603e-09 1.6341751741271612e-09 1.993803308613382e-09
1792 1.5530841953518576e-12 6.323536369178551e-13 3.9547904778530964e-12 -3.542340429093558e-10 4.1427680296061275e-09 -6.405686517879392e-10
1793 -5.077885693529409e-13 2.1641113832177616e-12 3.965535059920024e-12 -3.266420270388913e-09 -1.9557258437278635e-09 1.0412146312053206e-09
1794 3.367725423877614e-12 -1.3569354718192323e-12 1.7347855242979936e-11 -8.701115743874077e-10 2.1586909319891166e-09 5.623695925895157e-10
1795 5.203733039457271e-13 -3.121391591584178e-13 4.0763321317694013e-13 -4.558212489322757e-09 -2.131945823944452e-09 2.6756870556187986e-09
1796 1.0778237201167543e-12 -3.7296359445010474e-12 1.7344717048832456e-11 -3.831600290993067e-09 -4.741971213531376e-10 6.011166471954544e-09
1797 -8.198372073276255e-13 -1.0413121468000596e-12 1.7345724322314652e-11 -1.1839976751115274e-09 4.202085753173758e-09 -3.1146551497028322e-09
1798 -2.1681030917562075e-12 -1.4727711497479285e-12 7.219037378116469e-12 1.2529047067909097e-08 -3.740215332902757e-09 -9.30789727758814e-10
1799 -1.0809484277319468e-12 -3.731500535887717e-13 2.9330884466438862e-12 1.3855208999195026e-09 -6.9122001386068926e-09 1.1307084472020045e-09
1800 -1.0807009663649844e-12 2.1680850611280728e-12 1.3533018541505971e-11 -8.356906158962496e-09 -5.960075570591404e-09 -1.870438782860467e-09
1801 4.075124494328978e-13 1.1571824607547498e-12 1.7343046808392063e-11 3.694296162636576e-09 4.675448748808161e-10 -4.185211515355454e-10
1802 -2.1364547389197095e-12 -1.5925791799040586e-12 1.7342766659374762e-11 7.562763993508104e-10 -2.3027709004898297e-09 1.0124503596343409e-08
1803 2.3414053148862064e-12 2.14302979600389e-12 1.7346461185801496e-11 5.907445064369759e-09 1.984529303501877e-09 1.3759340102905622e-09
1804 -2.168439111840545e-12 -4.710456139700511e-13 1.4203013582898152e-11 3.17920021152767e-09 -6.050818551556753e-09 -1.8027389300528822e-09
1805 2.168261916643857e-12 1.3314344945470892e-12 3.9708579746383827e-13 6.219796401452933e-10 1.5617386411284568e-10 -2.613375209169916e-09
1806 6.757280580839291e-12 3.4293489625958087e-12 1.7346674524250758e-11 -3.0324753493111095e-09 1.893836590707771e-10 5.21253018473792e-09
1807 -5.42113763608783e-12 -5.366795404772168e-12 1.734664698761955e-11 2.895240101879832e-09 -3.041965907783393e-09 -1.3111358960540135e-09
1808 -2.167978045311679e-12 -2.947959787631447e-12 1.5253385485009757e-11 -7.561192194745223e-09 -2.51962481641857e-09 2.2260624816353166e-09
1809 3.2464783306259304e-12 -1.3785984353843653e-12 1.7181380369126393e-11 7.727431360966357e-09 4.047484679137417e-09 2.8291573027627156e-09
1810 -1.4163224993370168e-12 -7.02346053444704e-12 1.201509056169728e-11 1.0490779790686287e-08 -7.59162064990972e-09 -1.0739075914079704e-10
1811 -2.168358479202942e-12 2.167645291815383e-12 1.770683706258126e-12 -1.45611682853725e-09 1.7233205117879887e-09 -4.099956782077852e-09
1812 -2.8061272877610647e-12 2.1684602948598367e-12 6.717582464427998e-12 -9.412979784346365e-10 2.3963280087351926e-09 6.76103224821834e-10
1813 2.168498257312237e-12 4.307581111199391e-15 2.193982924816888e-12 4.45582507906193e-10 1.847054064502505e-09 9.448037839281093e-11
1814 -9.495639829730068e-13 1.7552382786222105e-12 1.1833124482052559e-11 -2.379622272665504e-09 -1.1154175866082847e-08 -2.5649884270332064e-09
1815 -3.766424589688473e-12 2.2217833084752717e-12 7.439551605200317e-12 -3.0949188314849553e-09 -2.5815988619377154e-09 -8.713094754854978e-10
1816 9.83293181699407e-13 -5.971593116748315e-13 6.958948384806691e-12 -6.188998768883368e-09 4.430497489347212e-09 2.358299753502459e-10
1817 5.389384155266001e-13 -2.1680335440001513e-12 1.734501214846791e-11 5.767684344994423e-09 -5.6352328259013695e-09 6.719861787739122e-09
1818 3.1920522462627103e-12 2.168591969987645e-12 1.1864678448030633e-11 -1.363265968046818e-08 1.0392848413901922e-08 1.6595279548619008e-09
1819 -1.6611634558103072e-12 2.1787080450518987e-12 1.732366256175289e-11 -1.0360939406506004e-08 -3.5929087791093164e-09 1.9793484177684725e-09
1820 -1.787906794355742e-12 1.161705911665852e-12 -1.507459714318937e-12 -1.5029065986079764e-11 1.903521501294844e-09 1.2932216534025815e-09
1821 2.166444667093962e-12 1.055003858902675e-12 3.1493092511412984e-12 3.621045120799127e-10 3.981044846152866e-09 -2.321959236896302e-09
1822 1.1893630390958483e-12 -1.0957613026025026e-12 1.7344382839817378e-11 -5.236423878186837e-09 9.921060386642941e-10 6.569623468442386e-10
1823 1.9527891598113283e-12 -2.2962179562420924e-12 1.7347232889745832e-11 9.963621116479776e-10 4.607267259208304e-09 -4.221060670070522e-09
1824 2.165132134583169e-12 2.1679847469668577e-12 1.401007413889809e-11 1.1216070714020146e-08 1.3334210387369824e-08 -4.639075554557541e-09
1825 -2.1691210626572243e-12 1.8745482884839925e-12 4.636066416367218e-12 4.213899418937271e-10 -4.1886520314706086e-09 -2.8328298428000854e-10
1826 -5.378199520288088e-12 -8.983382639867363e-12 1.7347175030993053e-11 -7.33275893092258e-09 -3.247326443869665e-10 1.885021739742838e-09
1827 -1.0538484668006682e-12 -2.1671766961716197e-12 1.3173674079805105e-11 1.0738881006087306e-08 6.861235740461134e-09 1.3900287283002892e-09
1828 2.0179531264139906e-12 1.0855152191381348e-12 1.7278492400480882e-11 -4.0912996440083086e-09 -2.862333019726523e-09 4.303774364806734e-09
1829 -1.966262429652683e-12 -2.166847361926289e-12 1.5866086467344613e-12 3.7421325139726997e-10 -1.0400733639649003e-08 2.369043964726566e-09
1830 -6.49238697627933e-12 6.228984055868564e-12 1.734408916677688e-11 -5.804256527369085e-09 -8.651393602358258e-10 -3.655195014188461e-09
1831 1.6034526002467774e-12 1.0905109026492384e-12 1.7343975850180853e-11 -9.408706123494647e-09 -1.5620763805228446e-09 -7.345773400384175e-09
1832 -2.1661976011375483e-12 1.933544408686456e-12 1.7314421190251155e-11 2.5473772526511506e-09 -5.4527105844172745e-11 -3.6460243083648043e-09
1833 1.0830761635221859e-12 -2.169058713821639e-12 8.336321089292011e-12 1.3085827855955339e-08 -2.696511862658926e-09 8.290029538855724e-10
1834 7.435612024642025e-12 8.045141105119128e-14 1.7346754462855223e-11 3.60799505725073e-09 -7.72696866436433e-10 -1.7870517638987526e-09
1835 1.0249981000872462e-12 -6.5044314782052086e-12 1.5559722043711988e-11 1.6798113474001125e-08 1.1156525080060832e-08 -1.9691006058991274e-09
1836 7.654509686221353e-12 -1.698386240048804e-12 3.524384299738884e-12 2.7963036113056873e-09 1.264319425827798e-08 4.440011502788285e-09
1837 2.712939713003939e-13 -2.174492703377349e-12 7.065881188215171e-12 3.160838941450543e-09 -1.379175805545265e-08 2.0340081673538877e-09
1838 6.706935264027813e-12 -1.6347048184508357e-12 1.734346170241919e-11 -4.863206977349999e-09 2.512476947230654e-09 1.4400618232200213e-09
1839 -4.038305903687706e-12 2.744224235525717e-12 7.786575748705274e-12 -1.8532797809778723e-09 -7.648697917264468e-09 7.986376885113851e-10
1840 1.857685124051564e-12 8.955274663855658e-13 1.7347830474557845e-11 3.5680064620289693e-10 -7.678224292555861e-10 3.5979080897071793e-09
1841 -7.510812917678536e-12 8.067972159709013e-12 1.734663296189728e-11 -3.0838491643161555e-09 -4.647968155348161e-09 -5.462656878218082e-09
1842 -3.078510023434404e-12 9.506370870016572e-13 1.7346392095308262e-11 -2.0245921808519354e-09 2.054426377954846e-09 -1.018026338610233e-08
1843 -2.1741535414322413e-12 -8.14322106084946e-13 8.650047499979662e-12 -1.1150421600605347e-08 -2.530261866258721e-09 8.10628931034097e-10
1844 -4.983422066166842e-13 2.2273263719054134e-12 4.231129514828687e-12 1.4079117696323947e-09 5.800572564476744e-09 -3.510233964892739e-09
1845 3.2953482734767703e-13 4.191674926884176e-14 3.577371042534036e-12 -4.86774962370143e-09 -1.600257110982844e-09 -2.6184324240450377e-10
1846 -3.459944238650567e-12 -7.808134772818016e-13 1.5732456107172434e-11 -6.4445147331511275e-09 -9.371717690245779e-10 -3.559471893814052e-09
1847 -1.7275486606038917e-12 1.0901065667383468e-12 1.73468359728878e-11 -3.535645923189567e-09 1.4501888767413694e-09 -6.498658683876925e-09
1848 3.0930690851231843e-12 -6.502128465501184e-12 1.5860986110958206e-11 1.0903788261341616e-08 -1.699858004329844e-10 8.65977040841966e-09
1849 -2.34025556784913e-12 -1.0882104152770025e-12 1.059806573982194e-11 2.3233530148396892e-09 5.1012969318529685e-09 -8.177801340152945e-10
1850 2.1680152006169018e-12 -1.2246441198798274e-12 9.775858885015463e-12 1.9747002800981307e-09 1.521020702887738e-08 2.8415900322319916e-09
