LAMMPS data file via write_data, version 22 Jul 2025, timestep = 4000001, units = si

1850 atoms
1 atom types

-0.008 0.008 xlo xhi
-0.008 0.008 ylo yhi
0 0.07 zlo zhi

Atoms # sphere

1 1 0.0016 1600 -0.00649222490214934 0.003113713439412471 0.0007995813375173807 0 0 0
2 1 0.0016 1600 0.005587460514456128 -0.0014051416973150505 0.004066473457674365 0 0 0
3 1 0.0016 1600 -0.003969223299344879 0.001587457319036883 0.0036781767761249846 0 0 0
4 1 0.0016 1600 -0.002173461507670423 -0.00686490337265317 0.00552006714351065 0 0 0
5 1 0.0016 1600 -0.005060361216279709 -0.005122520016607728 0.000799591650907668 0 0 0
6 1 0.0016 1600 0.006463809613191248 0.003173132075902204 0.001508603213610141 0 0 0
7 1 0.0016 1600 0.0037448402712609917 0.0005608136060708706 0.0007999358558857912 0 0 0
8 1 0.0016 1600 -0.004945326109946268 -0.0035270169625145477 0.0007996708706877357 0 0 0
9 1 0.0016 1600 -0.0022613461705000967 -0.0016446037437960659 0.003382909434582022 0 0 0
10 1 0.0016 1600 -0.007200402719324956 -9.110259875095519e-06 0.0007996227471496157 0 0 0
11 1 0.0016 1600 -0.004150112735606799 0.0017828696286044995 0.0021005701752289394 0 0 0
12 1 0.0016 1600 -0.0011295212157239442 0.00577912895259913 0.0017132406105500124 0 0 0
13 1 0.0016 1600 0.006429111525772241 -0.002813491975966168 0.0007995483987823972 0 0 0
14 1 0.0016 1600 -0.002729474855753673 -0.006662934684756567 0.0036963317949622273 0 0 0
15 1 0.0016 1600 -0.004732119172056849 0.00030667831873746145 0.0018987635897657399 0 0 0
16 1 0.0016 1600 0.0028818755306565173 0.005326640849536164 0.0034528756788512805 0 0 0
17 1 0.0016 1600 9.47914450333836e-05 0.004954690110865569 0.0023295022508606792 0 0 0
18 1 0.0016 1600 -0.002935942476800789 -0.003989226044562161 0.002172716023321297 0 0 0
19 1 0.0016 1600 0.005660617365000825 0.0016778210957411493 0.0023124880882459905 0 0 0
20 1 0.0016 1600 0.0025196225867360864 -0.0013268633818461768 0.006360045991969763 0 0 0
21 1 0.0016 1600 0.003069619015915269 -0.00018212762602203906 0.002062308712148415 0 0 0
22 1 0.0016 1600 0.0030486762006484837 0.004044310567342232 0.002446864213350028 0 0 0
23 1 0.0016 1600 0.003014462327686778 -0.001161392619203194 0.0007991580937169781 0 0 0
24 1 0.0016 1600 -0.005758227860778646 -0.001807120462934396 0.0032576334664923077 0 0 0
25 1 0.0016 1600 -0.006103838196294635 -0.003819864488784929 0.004865006783170928 0 0 0
26 1 0.0016 1600 4.6312632020593175e-05 0.004281402215580546 0.006226169938487134 0 0 0
27 1 0.0016 1600 0.005351599554622095 0.0048174378000367234 0.0023010562113034224 0 0 0
28 1 0.0016 1600 0.005463638731289459 0.0011956890079031339 0.0007998241148411022 0 0 0
29 1 0.0016 1600 -0.003889717442636792 -0.00394414008646108 0.0035313390530135355 0 0 0
30 1 0.0016 1600 0.006697416054449566 -0.0026435161100158717 0.003930609889519634 0 0 0
31 1 0.0016 1600 -0.004777415517383942 -0.001278054477463226 0.0021101609989392636 0 0 0
32 1 0.0016 1600 -0.0013011682657321465 0.0006728815231933781 0.0035555521702736767 0 0 0
33 1 0.0016 1600 -0.0002926660570026694 -0.00048231418458886656 0.0029095855740475414 0 0 0
34 1 0.0016 1600 0.00567121359847899 -0.004383162288819378 0.0007997622987079417 0 0 0
35 1 0.0016 1600 0.0002951936589235709 -0.00291648953237858 0.005324721283521223 0 0 0
36 1 0.0016 1600 -0.0023064157185105827 -0.00159394759536828 0.0050256631363902165 0 0 0
37 1 0.0016 1600 0.0014612146231650362 0.004495397285865141 0.0007995155380011029 0 0 0
38 1 0.0016 1600 0.0006214860085825804 0.0007589705077378219 0.0037850837658234436 0 0 0
39 1 0.0016 1600 -0.005562990224845041 0.0020628026406682896 0.0034962808308152743 0 0 0
40 1 0.0016 1600 0.005835197529701097 0.0028176142784191115 0.0043164695297550435 0 0 0
41 1 0.0016 1600 -0.005461687949368374 -0.0046920462264859195 0.0033722036685880008 0 0 0
42 1 0.0016 1600 0.0030069311437517492 0.00327965940619281 0.0007995581414711759 0 0 0
43 1 0.0016 1600 0.0048271864793507716 0.0030340117357088607 0.0024735050243017095 0 0 0
44 1 0.0016 1600 0.006850423050299482 0.0022169416245316487 0.0032362483652902617 0 0 0
45 1 0.0016 1600 -0.001327432946534529 0.007076767324876789 0.0007993483295392609 0 0 0
46 1 0.0016 1600 0.002273142714965961 -0.006832239806865826 0.005271725620677841 0 0 0
47 1 0.0016 1600 -0.0014767671336428905 0.00557676786245974 0.004499031142427187 0 0 0
48 1 0.0016 1600 -0.004068171792214279 0.004050867197077492 0.0018657322422033613 0 0 0
49 1 0.0016 1600 -0.00679865145521102 -0.002371238202544596 0.002181852271839206 0 0 0
50 1 0.0016 1600 0.0034808444926419002 0.002674890144056395 0.003259848877496268 0 0 0
51 1 0.0016 1600 0.002764947138289969 -0.003773290188867773 0.0036190689269039946 0 0 0
52 1 0.0016 1600 -0.004311618852748179 -0.005766460003122085 0.0036665867332005084 0 0 0
53 1 0.0016 1600 0.0028039459788737923 0.004040461148025484 0.004400899922687994 0 0 0
54 1 0.0016 1600 0.007194384635052044 -0.0002917171383548305 0.005045057795240945 0 0 0
55 1 0.0016 1600 -0.006935980073896868 0.0019335969078426195 0.002683960288253173 0 0 0
56 1 0.0016 1600 0.0027631766441869876 -0.0027415158037966477 0.0007999379930666327 0 0 0
57 1 0.0016 1600 0.0007602575699990465 -0.0003338335117307131 0.0013663943781564573 0 0 0
58 1 0.0016 1600 0.00570638577363244 0.004391060876561737 0.0007997916184692174 0 0 0
59 1 0.0016 1600 -0.0015873857585268672 0.003334134589951959 0.0034943301500307534 0 0 0
60 1 0.0016 1600 -0.00037465223091680456 0.004413077344497968 0.0046886427731986985 0 0 0
61 1 0.0016 1600 0.0035141341836576233 0.0011229440749952679 0.0028729919993559067 0 0 0
62 1 0.0016 1600 -0.004019562099281406 -0.0006503248952370922 0.0007999358558857912 0 0 0
63 1 0.0016 1600 0.004161420320809246 -0.003312566388174524 0.0023126489777860145 0 0 0
64 1 0.0016 1600 0.005266699169141785 -0.004910469097646075 0.0025213779715754685 0 0 0
65 1 0.0016 1600 0.0036275777268223084 0.005632368219375669 0.002071046685311747 0 0 0
66 1 0.0016 1600 -0.000958801067065831 -0.0057553918442928885 0.0018503490681603234 0 0 0
67 1 0.0016 1600 -0.0029241445408467732 0.00506562006819448 0.004947963854549411 0 0 0
68 1 0.0016 1600 0.005565918049511171 -0.001734577350209539 0.0016105776217375173 0 0 0
69 1 0.0016 1600 0.007178782072555955 -0.0005543225410780024 0.002184106089505963 0 0 0
70 1 0.0016 1600 0.0044716390479739385 0.005643885883208486 0.0034295938212245865 0 0 0
71 1 0.0016 1600 -0.004266626109307447 0.003647774135402076 0.0042396631597720075 0 0 0
72 1 0.0016 1600 -0.00022168850200868557 -0.004779403806210154 0.0033681439900094534 0 0 0
73 1 0.0016 1600 0.001460735776543244 -0.0054105506374676334 0.001682002756870972 0 0 0
74 1 0.0016 1600 -0.0020118423745277224 0.00691375495763324 0.0024149004756734084 0 0 0
75 1 0.0016 1600 -0.002393773329334268 -0.0033724576412426117 0.0007996620302130314 0 0 0
76 1 0.0016 1600 0.0002066822188268315 0.0008842991720577464 0.002245263737656983 0 0 0
77 1 0.0016 1600 -0.0010721764160384198 -0.000829139070448371 0.004262903935706325 0 0 0
78 1 0.0016 1600 0.0041100174969563134 0.005637758255143615 0.004987648033954155 0 0 0
79 1 0.0016 1600 0.001758984119475756 0.0033105555050238085 0.0034347324934096528 0 0 0
80 1 0.0016 1600 -0.0024252850192035026 0.0017840454992848612 0.0033072953470482946 0 0 0
81 1 0.0016 1600 -0.0007623771531739075 0.0013056147175128058 0.0007996931516634283 0 0 0
82 1 0.0016 1600 -0.003408953616065986 -0.0025997867408589993 0.0028086476414301265 0 0 0
83 1 0.0016 1600 -0.0032657803212911424 0.004932651952707075 0.0007991438200922952 0 0 0
84 1 0.0016 1600 0.0024840737127754062 0.006758344789795828 0.0022275469430928087 0 0 0
85 1 0.0016 1600 -0.007198244969808093 0.00017288765356228837 0.004766834520141315 0 0 0
86 1 0.0016 1600 -0.0023724572587175002 0.001181784341984402 0.006379848355007781 0 0 0
87 1 0.0016 1600 -0.002307698323731072 2.0930345749083314e-06 0.0007999358558857912 0 0 0
88 1 0.0016 1600 -0.006281489345559034 0.0007041292659650539 0.0018973511222680477 0 0 0
89 1 0.0016 1600 0.00023388042334338452 -0.005935129205962374 0.000799670335500863 0 0 0
90 1 0.0016 1600 0.0037382581882505215 -0.0033784309512663244 0.004825681880820899 0 0 0
91 1 0.0016 1600 0.0014060551026150293 0.002474772976751344 0.0061304289909374435 0 0 0
92 1 0.0016 1600 -0.00140279126946844 0.004495208272093169 0.0007994138584323659 0 0 0
93 1 0.0016 1600 -0.002324841301890536 0.0016485839199134964 0.0007997670692705465 0 0 0
94 1 0.0016 1600 -0.007019507554363953 0.0016034288201674193 0.000799713077220836 0 0 0
95 1 0.0016 1600 -0.0013228313274392107 -0.004580407662012436 0.0007993657407862598 0 0 0
96 1 0.0016 1600 -0.001035611849867329 0.0018563160492232474 0.002512061514046972 0 0 0
97 1 0.0016 1600 -0.002485350166804238 -0.005389022843512162 0.0015426871141446025 0 0 0
98 1 0.0016 1600 0.0018277064507232932 0.0011321783263655398 0.0020493673467065847 0 0 0
99 1 0.0016 1600 0.006961010964893703 0.0018284940088982768 0.000799325582478501 0 0 0
100 1 0.0016 1600 0.0039468475110966865 -0.002375773799911949 0.003596565954206896 0 0 0
101 1 0.0016 1600 -0.006367241259033052 0.003361439408590201 0.003972130580487908 0 0 0
102 1 0.0016 1600 -0.00031405405449869 0.0029717825256213738 0.0053812681169874204 0 0 0
103 1 0.0016 1600 -0.00045974002782351285 0.007185577178061125 0.002138375963607427 0 0 0
104 1 0.0016 1600 -0.0026410029585004578 -0.0015829835764928114 0.0007993539361934849 0 0 0
105 1 0.0016 1600 0.0006938634356219873 0.002177914425833549 0.0030499601431059307 0 0 0
106 1 0.0016 1600 0.003710871500174346 -0.006170654986676368 0.005503811931540383 0 0 0
107 1 0.0016 1600 -0.005307436971570875 0.0013401455683612412 0.0007994980018257407 0 0 0
108 1 0.0016 1600 0.001986718781250623 5.058092165544234e-05 0.0032162126518669827 0 0 0
109 1 0.0016 1600 0.001487373171434865 -0.0016413717706889464 0.0007997732189491001 0 0 0
110 1 0.0016 1600 -0.0009003251208526927 0.0037091433861777125 0.0020990475602848916 0 0 0
111 1 0.0016 1600 -0.005008491957275193 -0.002947627182368063 0.004091575304758036 0 0 0
112 1 0.0016 1600 0.0018880823450459746 -0.0008704299973862356 0.0045199245584236275 0 0 0
113 1 0.0016 1600 0.00156383521827594 -0.0038005002024188534 0.0007995869320122106 0 0 0
114 1 0.0016 1600 -0.004145306271440302 -0.001400570330183426 0.0035741843715855594 0 0 0
115 1 0.0016 1600 0.00042218492893285033 0.007177985740154 0.0007999358558858076 0 0 0
116 1 0.0016 1600 0.0040118958374836325 -0.005978772494143433 0.003090936479285159 0 0 0
117 1 0.0016 1600 -0.0012846486516758923 0.00036684597623501023 0.001985258311441728 0 0 0
118 1 0.0016 1600 0.0020163743178264223 -0.006912079282483071 0.0036951446703347574 0 0 0
119 1 0.0016 1600 0.0010970048776913423 -0.004153170671670841 0.002601838835489205 0 0 0
120 1 0.0016 1600 0.006195906081067314 -0.003668200237752667 0.002131146821201309 0 0 0
121 1 0.0016 1600 0.007195846991112876 0.00024603556287062194 0.0007993622608089363 0 0 0
122 1 0.0016 1600 -0.002360603657144674 -0.006802122942611129 0.0007995129533837584 0 0 0
123 1 0.0016 1600 0.0032246126374374713 -0.005208497283787357 0.004308756997151488 0 0 0
124 1 0.0016 1600 0.002635280793748928 0.0017198447869487014 0.0007996811947470706 0 0 0
125 1 0.0016 1600 -0.006980343251540609 0.0017662206880490092 0.004274146268172976 0 0 0
126 1 0.0016 1600 0.0028959464220199333 -0.002026903954086812 0.004972016262921303 0 0 0
127 1 0.0016 1600 -0.0019346622939346138 -0.006935574919062977 0.002335326034848269 0 0 0
128 1 0.0016 1600 -0.005424695829175189 0.004735312769774934 0.004055293182060511 0 0 0
129 1 0.0016 1600 -0.0008002940696717744 -0.00715567312620272 0.0007993875049840468 0 0 0
130 1 0.0016 1600 -0.006682898832873979 0.0026804786172228163 0.005552464893833827 0 0 0
131 1 0.0016 1600 -0.0034857415662360655 0.0037339593159804144 0.005632649559858948 0 0 0
132 1 0.0016 1600 0.007124186973485297 0.001044387811561885 0.0021834602401838883 0 0 0
133 1 0.0016 1600 0.0021803254977360194 0.0017681319998528026 0.003475139663445428 0 0 0
134 1 0.0016 1600 -0.006849112313352098 -0.0022205566373347634 0.004352459822579195 0 0 0
135 1 0.0016 1600 -0.001380590698631542 -0.004303587685167067 0.002373709401297981 0 0 0
136 1 0.0016 1600 -0.005644272695662982 0.004470238636984161 0.0007997597240260782 0 0 0
137 1 0.0016 1600 0.002031891319000166 0.005229326179846057 0.002100859824237346 0 0 0
138 1 0.0016 1600 0.00258497818677745 -0.003749634795266226 0.0020297907190145593 0 0 0
139 1 0.0016 1600 0.003241623077700837 -0.0009464235204089581 0.0034572777237119054 0 0 0
140 1 0.0016 1600 0.00477331574120283 0.0017413638865935424 0.0036422771699440976 0 0 0
141 1 0.0016 1600 0.001143338694140023 -0.00451472681710127 0.004159446528000331 0 0 0
142 1 0.0016 1600 0.00019365977129442644 -0.003287013793692985 0.003772054610951238 0 0 0
143 1 0.0016 1600 -0.00594611718354397 -0.004060586420525763 0.001970238915840699 0 0 0
144 1 0.0016 1600 0.004257161411953784 -0.002168891250333605 0.0007996517057017122 0 0 0
145 1 0.0016 1600 0.0034558025786474915 -0.0018857899524217436 0.002154926176596904 0 0 0
146 1 0.0016 1600 -0.005650555356792187 -0.00040550555098339266 0.0007996909852149296 0 0 0
147 1 0.0016 1600 -0.0030540345627621647 0.006520462537726367 0.0035631416031413035 0 0 0
148 1 0.0016 1600 0.0004408104593867509 -0.007186534567844397 0.0037224192234281365 0 0 0
149 1 0.0016 1600 -0.0023922198904958924 0.006791457621226378 0.004993920912830695 0 0 0
150 1 0.0016 1600 0.005587601173551917 0.004541495577369031 0.004194940346649269 0 0 0
151 1 0.0016 1600 0.0032419892648025894 -0.006429235640034009 0.0007994951863637224 0 0 0
152 1 0.0016 1600 0.003013726652040174 0.004880838839062729 0.0007994414107136633 0 0 0
153 1 0.0016 1600 0.0014595924878538895 -4.640471516298861e-05 0.005975952623522239 0 0 0
154 1 0.0016 1600 -0.0028572329594749187 0.006609025922202432 0.0007997295468115172 0 0 0
155 1 0.0016 1600 -0.00161755878423425 -0.0011972853299476007 0.00196636380783911 0 0 0
156 1 0.0016 1600 -0.00718687452835696 0.0004362828982759749 0.0031888571399799367 0 0 0
157 1 0.0016 1600 0.0008308413578289023 0.0011600726120448554 0.0007989244230371146 0 0 0
158 1 0.0016 1600 0.00309770220750537 -0.00011330533917462582 0.005411246450730274 0 0 0
159 1 0.0016 1600 -0.006362577636311079 -0.003370489999232105 0.003352017839054032 0 0 0
160 1 0.0016 1600 2.9309215956081116e-05 0.003782753031659612 0.0007993602182919474 0 0 0
161 1 0.0016 1600 -0.0028866409013696753 -0.0043415660004110495 0.004711667696584641 0 0 0
162 1 0.0016 1600 0.0031474963206839612 0.00647575475894112 0.0007995664905190818 0 0 0
163 1 0.0016 1600 -0.0025701240750684714 -0.0002781658385176151 0.004155270288413399 0 0 0
164 1 0.0016 1600 0.004177654997704123 -0.0010949082697111266 0.0047555759581663125 0 0 0
165 1 0.0016 1600 0.003993310511285547 0.001973109796432553 0.0016061603935409875 0 0 0
166 1 0.0016 1600 -0.0024793548371243364 -0.005187306436996606 0.0031298332203712163 0 0 0
167 1 0.0016 1600 -0.004940927860159394 -0.0029019302088958915 0.002425070797127191 0 0 0
168 1 0.0016 1600 0.006245524310680451 0.0035830994282523253 0.005659508009583706 0 0 0
169 1 0.0016 1600 0.001426103682114038 0.007055207275742982 0.004704117613336 0 0 0
170 1 0.0016 1600 -0.003586666866128669 -0.004497926377350208 0.000799445941828983 0 0 0
171 1 0.0016 1600 -0.004653014329331684 0.003012039251549793 0.0007992963970337985 0 0 0
172 1 0.0016 1600 0.0016780545552824609 -0.00676695463877009 0.000799900207338009 0 0 0
173 1 0.0016 1600 0.00596067038528984 -0.00403911185501394 0.0036692668618800626 0 0 0
174 1 0.0016 1600 -0.0039112575233183474 -0.00241477021955222 0.0013016328527827015 0 0 0
175 1 0.0016 1600 0.005408675422158052 -0.002558756368527798 0.002972595558382698 0 0 0
176 1 0.0016 1600 0.0068851415332433 -0.0021068172814875537 0.00243521508476866 0 0 0
177 1 0.0016 1600 0.002363735527952929 0.0026374299244208838 0.002115812059917539 0 0 0
178 1 0.0016 1600 -0.004434174236707359 -0.004549031144788733 0.0021548000015231745 0 0 0
179 1 0.0016 1600 0.00018231824749296387 -0.004419545644788251 0.0013166579570694338 0 0 0
180 1 0.0016 1600 -0.00025919848759794047 -0.0031705263267789428 0.00224252254693422 0 0 0
181 1 0.0016 1600 -0.0037551802632626737 9.341482930971591e-05 0.0031471860622363334 0 0 0
182 1 0.0016 1600 -0.004966957945891101 -0.004944954447296965 0.004872376566361401 0 0 0
183 1 0.0016 1600 0.0015949706628748074 0.006089574671250783 0.0007995123108627737 0 0 0
184 1 0.0016 1600 -0.004985874136167708 0.0022130543796645826 0.0049804575586905875 0 0 0
185 1 0.0016 1600 -0.0053661440598855355 -0.0019797613670465425 0.0007993142489593674 0 0 0
186 1 0.0016 1600 0.0052569016404147495 -0.00039078699632756137 0.0007996311478529754 0 0 0
187 1 0.0016 1600 0.001240874172561052 -0.00709269524635089 0.002304066089221743 0 0 0
188 1 0.0016 1600 -0.007154404826608975 -0.0008090678245598345 0.0021844631835134386 0 0 0
189 1 0.0016 1600 -0.002421844283134873 0.004342224190005182 0.0020228063897343327 0 0 0
190 1 0.0016 1600 0.0037571575758145897 -0.0048377921271877495 0.0019987243253499105 0 0 0
191 1 0.0016 1600 -0.005607735481745813 0.0024220767520884896 0.0019386115910150546 0 0 0
192 1 0.0016 1600 0.005071036760939541 0.0028358976912583106 0.0007990919504258235 0 0 0
193 1 0.0016 1600 0.002160899009157691 0.00019188962028869342 0.0007993852856187012 0 0 0
194 1 0.0016 1600 -0.007020520097965588 -0.001598669849351705 0.0007993870574788929 0 0 0
195 1 0.0016 1600 0.002475141429698563 -0.005170634070240077 0.0028957895067689256 0 0 0
196 1 0.0016 1600 0.0009890770868846723 0.0036533304415189566 0.0020753361453925362 0 0 0
197 1 0.0016 1600 0.0027026726865914123 -0.00492340897929672 0.0007994535038586194 0 0 0
198 1 0.0016 1600 -0.0005863767070580505 0.00219697656096656 0.004008814907622059 0 0 0
199 1 0.0016 1600 -0.0038043578286104476 -0.006113058511290984 0.0007995766159445092 0 0 0
200 1 0.0016 1600 -0.0008569999087969691 -0.007148952154051523 0.004656860694711527 0 0 0
201 1 0.0016 1600 0.0019563776288250238 0.0007243229108128024 0.004665935615022891 0 0 0
202 1 0.0016 1600 -0.00035546792947111085 -0.007191456439380939 0.0023351230836610552 0 0 0
203 1 0.0016 1600 -8.365471250247351e-05 -0.001620305685093383 0.001804401472674951 0 0 0
204 1 0.0016 1600 0.0010809299723233722 -0.0015768715401368021 0.00570685071720921 0 0 0
205 1 0.0016 1600 0.002778624335688967 -0.006640383623539904 0.0023156121741781262 0 0 0
206 1 0.0016 1600 0.00717561466306016 0.0006037702774452386 0.0037198301416707636 0 0 0
207 1 0.0016 1600 0.0013779968918262004 -0.0027003061271578927 0.00199393123316558 0 0 0
208 1 0.0016 1600 -0.004460278426660994 -0.00017864741826305864 0.004557085231176946 0 0 0
209 1 0.0016 1600 0.004581427398271336 -0.005554411692963033 0.0007999325581364366 0 0 0
210 1 0.0016 1600 0.00013992106937994053 0.002382705813454061 0.0015641784302765926 0 0 0
211 1 0.0016 1600 0.007072591028466755 -0.00134895642827641 0.0007997610682572222 0 0 0
212 1 0.0016 1600 8.079773803536899e-05 -0.005846300370347935 0.004520996062734419 0 0 0
213 1 0.0016 1600 0.00459521096067259 0.005542878018605066 0.0007999358558857864 0 0 0
214 1 0.0016 1600 0.004257901018539867 0.004075251229029138 0.0014004435916647158 0 0 0
215 1 0.0016 1600 -0.0005146159638761624 -0.0014884000522095299 0.005630785325437029 0 0 0
216 1 0.0016 1600 -0.002812824668226771 0.0008291712492852758 0.0020841201060021767 0 0 0
217 1 0.0016 1600 -0.0013381348440446726 0.004920953401926485 0.0030470036674121142 0 0 0
218 1 0.0016 1600 0.0014744392728274934 0.002820550813474139 0.0007990958543961757 0 0 0
219 1 0.0016 1600 -0.001001768737235321 -0.006179823115401068 0.003392046326224348 0 0 0
220 1 0.0016 1600 -0.003567368481189169 -0.006254530180735386 0.00499611573808466 0 0 0
221 1 0.0016 1600 0.001245626899024451 -0.0012266180725626252 0.0026019791040752 0 0 0
222 1 0.0016 1600 0.00013975301081434397 0.005417412646773468 0.0007993591305976481 0 0 0
223 1 0.0016 1600 -0.0056919288719044754 -0.00021169248176114167 0.003068357416051941 0 0 0
224 1 0.0016 1600 0.0023203671022899866 -0.0022339594468811707 0.003226059872435755 0 0 0
225 1 0.0016 1600 -0.0037586931206845917 0.000939422061928011 0.0007990879636887662 0 0 0
226 1 0.0016 1600 -0.004615100697805235 0.005527139512541578 0.001418398518646896 0 0 0
227 1 0.0016 1600 -0.0007254608383366893 -0.0005526548676474638 0.0007999358558857875 0 0 0
228 1 0.0016 1600 -0.0025224717813840123 0.0011898579671044361 0.004788164682843234 0 0 0
229 1 0.0016 1600 -0.006491383887935615 -0.0031162545433262427 0.0007997629684208047 0 0 0
230 1 0.0016 1600 -0.002275940231058498 0.0027495565499476215 0.0020418063424745858 0 0 0
231 1 0.0016 1600 0.004687751536949879 0.00037652528307763615 0.0020827181763569086 0 0 0
232 1 0.0016 1600 -0.003109244876835101 0.005781737734383342 0.002145444556443008 0 0 0
233 1 0.0016 1600 -0.0030880993827474465 0.0033432608599623203 0.000799179768359047 0 0 0
234 1 0.0016 1600 -0.004999414482843816 0.005181503671192462 0.005650735306169679 0 0 0
235 1 0.0016 1600 0.0029313711278254806 0.006576659566237089 0.004449917272729365 0 0 0
236 1 0.0016 1600 0.00711281353708088 -0.0011195336333430592 0.0036788190684619586 0 0 0
237 1 0.0016 1600 -0.001174342594247379 -0.0022220588834298894 0.0007998448970578748 0 0 0
238 1 0.0016 1600 -0.0012740279364662776 0.002854897245881641 0.0007994458302780311 0 0 0
239 1 0.0016 1600 -0.0052841391794778685 0.003700030036367191 0.0028442865626309034 0 0 0
240 1 0.0016 1600 0.0003187335685619345 -0.002796725109468144 0.0007989652153396134 0 0 0
241 1 0.0016 1600 0.004038194502507276 -0.003816870068313663 0.0007996131737558328 0 0 0
242 1 0.0016 1600 0.0009274077437754267 0.006379714508581559 0.002223681807820848 0 0 0
243 1 0.0016 1600 -0.002320726229646125 -0.0015401358938972691 0.009780345987192832 0 0 0
244 1 0.0016 1600 0.0062906370147413435 0.0035035324473662206 0.00845057356252956 0 0 0
245 1 0.0016 1600 0.004296376668927539 0.000682502053139089 0.007679906000229233 0 0 0
246 1 0.0016 1600 -0.004304197859055008 -0.003544399390560407 0.00539805510250015 0 0 0
247 1 0.0016 1600 0.0023936572910895878 0.006790929848719183 0.00595001095824539 0 0 0
248 1 0.0016 1600 -0.005754814148556114 0.0007438212500460583 0.004380391802607237 0 0 0
249 1 0.0016 1600 -0.00599205622060015 -0.003991984285638436 0.007736492162261542 0 0 0
250 1 0.0016 1600 -0.004101926672436781 -0.003979322381513901 0.00712745563764377 0 0 0
251 1 0.0016 1600 -0.001418861132313841 -0.0002711470198841643 0.010148693090195468 0 0 0
252 1 0.0016 1600 0.002762495778298969 -0.0019159668527505165 0.010086789151247498 0 0 0
253 1 0.0016 1600 -0.005484795398386278 0.0037038738177326753 0.005276548386257422 0 0 0
254 1 0.0016 1600 -0.002554299456319886 -0.003068124635948189 0.005620276278583145 0 0 0
255 1 0.0016 1600 0.002575254259427883 0.0025169698945727618 0.004832718514340822 0 0 0
256 1 0.0016 1600 0.0006137854963628143 0.0011849574944238605 0.00540402217205611 0 0 0
257 1 0.0016 1600 0.005789197611809004 -0.002755716830444954 0.009884123190590156 0 0 0
258 1 0.0016 1600 -0.0009627330844866749 0.001129266178986749 0.0051388515354708186 0 0 0
259 1 0.0016 1600 0.0068589115985082235 0.0021132996807298483 0.007895206245530487 0 0 0
260 1 0.0016 1600 0.00560247716014168 -0.00013475102057462158 0.007010960507089951 0 0 0
261 1 0.0016 1600 0.0030875448506288692 0.005369652293140592 0.006188095437383222 0 0 0
262 1 0.0016 1600 -6.98135492299158e-05 0.005678927422385803 0.0037457706606145824 0 0 0
263 1 0.0016 1600 -0.001817262699470155 0.0024280667409357906 0.00551546563420303 0 0 0
264 1 0.0016 1600 -0.005777402052337993 0.004296941128355405 0.006733294996276747 0 0 0
265 1 0.0016 1600 -0.0060669230803244946 -0.0009346954465455867 0.009267234548636429 0 0 0
266 1 0.0016 1600 0.006576842132352891 -0.002930338693451815 0.005499751406270399 0 0 0
267 1 0.0016 1600 -0.0024927856832711597 0.004761441270389862 0.009177483982007816 0 0 0
268 1 0.0016 1600 -0.007098410057820111 -0.0012086025750395399 0.005567278158395162 0 0 0
269 1 0.0016 1600 -0.0018068933579118017 -0.0027735533971277432 0.002161911856528871 0 0 0
270 1 0.0016 1600 -0.0010054597141660288 -0.0030654895713101283 0.0075412334322290196 0 0 0
271 1 0.0016 1600 0.0003898432539606047 0.007190022417558022 0.0034932749598724964 0 0 0
272 1 0.0016 1600 0.0010228101812118737 -0.005531175489412282 0.007274143106704197 0 0 0
273 1 0.0016 1600 0.006841380383452902 0.00224437922656286 0.006301205710402208 0 0 0
274 1 0.0016 1600 0.005099540383926432 -7.608216589021581e-05 0.00883670904575524 0 0 0
275 1 0.0016 1600 0.00040903278922072445 -0.002678152520025003 0.006902086139717412 0 0 0
276 1 0.0016 1600 -0.005101068765589991 -0.005081312519996448 0.010041693242669368 0 0 0
277 1 0.0016 1600 -0.0025757555718532487 0.0058679655446797485 0.006286753133594564 0 0 0
278 1 0.0016 1600 -0.003546072767762575 -0.002558628845136996 0.009300435825637091 0 0 0
279 1 0.0016 1600 -0.005492485814603533 0.0021824867739268362 0.0064974878875797325 0 0 0
280 1 0.0016 1600 0.005023995471653471 0.002586706684125544 0.008113599254560986 0 0 0
281 1 0.0016 1600 -0.003514340430688185 -0.00048075208880216135 0.009672941379559857 0 0 0
282 1 0.0016 1600 -0.006082874716255289 0.0008760019196202716 0.00720645017672725 0 0 0
283 1 0.0016 1600 -0.0029950203736588653 -0.0049026593227318 0.007837531190690993 0 0 0
284 1 0.0016 1600 0.0003448390052433907 0.003014075196576171 0.007198819438408664 0 0 0
285 1 0.0016 1600 0.0011671367712643831 -0.005973622021005133 0.008804194273829589 0 0 0
286 1 0.0016 1600 -0.005314743015891449 -0.0020335672148285495 0.005368292049749742 0 0 0
287 1 0.0016 1600 0.001512980930158015 -0.0007006677983618385 0.0074341902885739 0 0 0
288 1 0.0016 1600 -0.0010503523168268135 -0.003464456821567396 0.005993242463949357 0 0 0
289 1 0.0016 1600 -5.387990073926441e-06 -0.005930113583346107 0.006115950868029429 0 0 0
290 1 0.0016 1600 -0.003848400719724284 -0.0013957254904785963 0.005400697542129193 0 0 0
291 1 0.0016 1600 0.004611904902371173 -0.0026737171380482854 0.007607787268515192 0 0 0
292 1 0.0016 1600 0.002977772442116843 5.082895076568773e-05 0.00703109909631786 0 0 0
293 1 0.0016 1600 0.0023094852924998993 0.00682016739385046 0.008666098646571708 0 0 0
294 1 0.0016 1600 -0.0037679908671090917 -0.0025369284326202 0.006519093136228766 0 0 0
295 1 0.0016 1600 0.003892288346696293 0.004133445403597483 0.0055692949337984065 0 0 0
296 1 0.0016 1600 -0.0025697857320951547 -0.003519927756170868 0.00715406244977416 0 0 0
297 1 0.0016 1600 -0.004350761910698087 0.005184515606682779 0.0029582618559629505 0 0 0
298 1 0.0016 1600 0.004343639073622176 0.004823083432072002 0.007013895976274463 0 0 0
299 1 0.0016 1600 0.0032359455539976404 0.0018575410718305214 0.0073375250419984404 0 0 0
300 1 0.0016 1600 -0.0017142748977900103 -0.002052144422617428 0.006526322304489972 0 0 0
301 1 0.0016 1600 0.0012118345714978195 -0.0016878798502322112 0.009766683241363688 0 0 0
302 1 0.0016 1600 -0.00040047270531822686 0.0017937709646802518 0.006481167598650137 0 0 0
303 1 0.0016 1600 -0.0015450290350668332 0.0011307428171050842 0.009374195760975665 0 0 0
304 1 0.0016 1600 -0.0035173617525105084 0.002134910713372009 0.00561015191949542 0 0 0
305 1 0.0016 1600 0.0019527796650864507 0.0053526518043846795 0.0047708306546973295 0 0 0
306 1 0.0016 1600 -0.005285931964358404 -0.003033124030031389 0.00661678660466352 0 0 0
307 1 0.0016 1600 0.00034249858745193535 0.005709958231557148 0.005290471335261877 0 0 0
308 1 0.0016 1600 -0.0017472841022621558 -0.000196850119328047 0.005568061282050703 0 0 0
309 1 0.0016 1600 -0.0070995781641647795 0.0011992934460713274 0.005990310229587463 0 0 0
310 1 0.0016 1600 -0.00719794719630941 -0.00019675753576147163 0.006802075754847661 0 0 0
311 1 0.0016 1600 -0.0027560698823616537 0.0012253005202179407 0.010414261940386709 0 0 0
312 1 0.0016 1600 -2.110206496205018e-05 0.007200007850950067 0.008164489366577984 0 0 0
313 1 0.0016 1600 -0.004448408918231514 0.004586949203505493 0.007575342929140784 0 0 0
314 1 0.0016 1600 0.004831093837683973 -0.003527451266097032 0.00627303493434241 0 0 0
315 1 0.0016 1600 0.002225525099036537 -0.004937801155544327 0.00814620447046272 0 0 0
316 1 0.0016 1600 -0.00015987374164540619 0.0071990493597310625 0.004995153469575382 0 0 0
317 1 0.0016 1600 -0.00519069615017401 0.003314013057688411 0.008197283095168355 0 0 0
318 1 0.0016 1600 -0.0017109197730790378 -0.005553448397559497 0.008768771034408802 0 0 0
319 1 0.0016 1600 -0.006450704227740829 0.0031995481031665677 0.009175669025807643 0 0 0
320 1 0.0016 1600 -0.006717731909566385 -0.0025915806006543366 0.007470148681829854 0 0 0
321 1 0.0016 1600 0.006392181912731994 0.0006126889094396603 0.008194771260348711 0 0 0
322 1 0.0016 1600 -0.0029872364039946805 -0.0021465898651701638 0.00785971443310563 0 0 0
323 1 0.0016 1600 0.0017712683486101617 0.005676150310909452 0.009645797717392149 0 0 0
324 1 0.0016 1600 -0.0018238007420406073 0.0008052385385274541 0.007833612053919801 0 0 0
325 1 0.0016 1600 0.004239530193462876 -0.0006859348048329848 0.006380172201123797 0 0 0
326 1 0.0016 1600 0.0018482715596253104 -0.002264112712898815 0.007468973788729304 0 0 0
327 1 0.0016 1600 0.005234750763549687 -0.002899508522504206 0.004525755072244016 0 0 0
328 1 0.0016 1600 -0.00038448988420832636 0.004319340051764105 0.00776781602511001 0 0 0
329 1 0.0016 1600 -0.0071872343191578415 0.00042926365948762026 0.00827443025792526 0 0 0
330 1 0.0016 1600 0.002390327443397931 -0.0051037718412378615 0.006563064418050718 0 0 0
331 1 0.0016 1600 0.0023168553470396397 -0.004228319532990171 0.005207879887671035 0 0 0
332 1 0.0016 1600 0.004202217262347682 0.005847192475590247 0.0083391862613392 0 0 0
333 1 0.0016 1600 0.0024122410052185763 0.001231651222866875 0.006112336621643352 0 0 0
334 1 0.0016 1600 0.0018851839351509312 0.004080373329375455 0.009659655800920942 0 0 0
335 1 0.0016 1600 -0.0029326499350857344 0.006576214416130589 0.009266278450887655 0 0 0
336 1 0.0016 1600 -0.0007077762144892467 -0.001993684372126621 0.0032286684652439524 0 0 0
337 1 0.0016 1600 0.005744082475398828 0.0007280215260252838 0.0044210730544851605 0 0 0
338 1 0.0016 1600 -0.004104521044293246 0.005916055995958002 0.0067546230524866135 0 0 0
339 1 0.0016 1600 0.0007084210776404305 -0.007165069160909031 0.005299650321762821 0 0 0
340 1 0.0016 1600 0.004760244306651865 0.003174910434131748 0.006510823612842953 0 0 0
341 1 0.0016 1600 -0.0019626487142475483 -0.004777843930806475 0.005942825116118853 0 0 0
342 1 0.0016 1600 -0.006668104800808217 -0.002717622738815781 0.00587684866851366 0 0 0
343 1 0.0016 1600 0.005903260811484737 -6.931324784041024e-05 0.0030224455657207137 0 0 0
344 1 0.0016 1600 -0.0018776152010851713 -0.003982793080262884 0.008519136912735292 0 0 0
345 1 0.0016 1600 0.005301023460792604 0.0048729644810177625 0.005733388027973348 0 0 0
346 1 0.0016 1600 -0.0007212327819957539 -0.0030478285801762827 0.009115806557836033 0 0 0
347 1 0.0016 1600 -0.0011627326382459386 -0.004191758160762206 0.0045206718757339935 0 0 0
348 1 0.0016 1600 5.829271349298334e-05 0.003609183702673182 0.003375554416284497 0 0 0
349 1 0.0016 1600 -0.0031936799373951563 -0.0010775983072813763 0.0022129480072115206 0 0 0
350 1 0.0016 1600 0.00542948734543291 -0.0011978978982152358 0.009938798604466004 0 0 0
351 1 0.0016 1600 0.007043235773305498 -0.001496346014063215 0.007676359168941663 0 0 0
352 1 0.0016 1600 -0.0019131623880974512 -0.00560298251011977 0.004572991961171234 0 0 0
353 1 0.0016 1600 -0.0010174561159361074 0.002187753920165612 0.007903736687094083 0 0 0
354 1 0.0016 1600 0.0030414616021063323 0.004959474934648747 0.008989059320803574 0 0 0
355 1 0.0016 1600 0.0063476082963288515 0.0007543447442233422 0.005909120273226446 0 0 0
356 1 0.0016 1600 -0.0012655350023019379 0.005679587240208181 0.008012971250006159 0 0 0
357 1 0.0016 1600 -0.007106240308979152 -0.001162407494753989 0.0080738113479298 0 0 0
358 1 0.0016 1600 -0.00029344635147166996 0.00010109121536608731 0.006165793617658986 0 0 0
359 1 0.0016 1600 0.007200398166893154 -5.9954327459336396e-05 0.006989737045571241 0 0 0
360 1 0.0016 1600 -0.0035628012732095535 0.0029979356083353306 0.0029588490394982753 0 0 0
361 1 0.0016 1600 -0.004347384733764991 -0.005739460202931831 0.007170142850390742 0 0 0
362 1 0.0016 1600 -0.0054863391338477565 -0.003754114881092226 0.009235576659791916 0 0 0
363 1 0.0016 1600 -0.00019895241787593065 -0.005198138359870311 0.008385067122218013 0 0 0
364 1 0.0016 1600 0.0035313401793281027 -0.0025959978778220985 0.006325552438294743 0 0 0
365 1 0.0016 1600 0.004406200209488352 0.00014276667038913413 0.0037683877364027116 0 0 0
366 1 0.0016 1600 0.002957969249317303 0.002561621159985645 0.008746013204334727 0 0 0
367 1 0.0016 1600 0.0015065281193709136 0.005527829782562847 0.0063711853221044435 0 0 0
368 1 0.0016 1600 0.005619442791531645 -0.0005916291231503073 0.005443623079005929 0 0 0
369 1 0.0016 1600 -0.0014869450680609622 -0.0005762305824366044 0.0071000868044076935 0 0 0
370 1 0.0016 1600 0.001161449294483208 -0.004080801611826709 0.006613806588316094 0 0 0
371 1 0.0016 1600 -0.00023857659992092758 0.0007008354101962317 0.0076478604877600114 0 0 0
372 1 0.0016 1600 0.0027883049143050177 -0.006638633971521027 0.0067735421034969346 0 0 0
373 1 0.0016 1600 -0.0046333356441596325 0.0009646147634761154 0.005916590240569395 0 0 0
374 1 0.0016 1600 0.004784560175759951 -0.005381033252314276 0.004619426935057621 0 0 0
375 1 0.0016 1600 0.0042924422977365494 -0.004248305887287829 0.0036032508750350805 0 0 0
376 1 0.0016 1600 -0.0037499737202853485 -0.004954998539635031 0.0059102541517910105 0 0 0
377 1 0.0016 1600 0.002579946765340703 -0.0036676625687251337 0.007240909646773235 0 0 0
378 1 0.0016 1600 -0.003318166838395099 9.643198673178756e-05 0.00564240868189797 0 0 0
379 1 0.0016 1600 -0.00044683820081617984 -0.007186164264974631 0.009252223267855084 0 0 0
380 1 0.0016 1600 -0.0013844412414134304 0.00486197454703415 0.006643024729904632 0 0 0
381 1 0.0016 1600 0.0003767609624083739 -0.00043840768184202943 0.004817149270864432 0 0 0
382 1 0.0016 1600 -0.0030513866759059737 0.004416997959266806 0.0034914205508194338 0 0 0
383 1 0.0016 1600 0.0019895921044471286 -0.0028624937587016204 0.00599099744156424 0 0 0
384 1 0.0016 1600 0.004269636302245831 0.0028911216332767552 0.004634331737007613 0 0 0
385 1 0.0016 1600 -0.0036889958941121407 0.0016855939944611076 0.0071357836230162 0 0 0
386 1 0.0016 1600 0.005846823961918473 0.00420228722212282 0.007079289198449032 0 0 0
387 1 0.0016 1600 0.003812462661777476 0.001958616475237343 0.005849882575835037 0 0 0
388 1 0.0016 1600 0.0010191288423447788 -0.005770744000325706 0.003176779761330249 0 0 0
389 1 0.0016 1600 0.0010179145524546612 -0.00712825391143307 0.00990066561493396 0 0 0
390 1 0.0016 1600 0.0015400105692138409 0.003963156286647963 0.0067008050815484475 0 0 0
391 1 0.0016 1600 -0.0034805841076694446 -0.002593725338159268 0.004406313158295797 0 0 0
392 1 0.0016 1600 0.0037323826015557967 -0.004608872888197855 0.005847581649417208 0 0 0
393 1 0.0016 1600 0.004959180108676636 -0.0019993845201670395 0.005818968569879261 0 0 0
394 1 0.0016 1600 -0.003605353365322967 0.003460823132605254 0.0083517086567806 0 0 0
395 1 0.0016 1600 0.004535510198002283 0.0005869820110087907 0.00545855177396439 0 0 0
396 1 0.0016 1600 -0.003530439034755862 -0.00627561250580233 0.002367048387358256 0 0 0
397 1 0.0016 1600 0.00013511166804042846 -0.004506057773270774 0.005401223094437841 0 0 0
398 1 0.0016 1600 0.0034595035771569577 0.001234486355801431 0.004467704268899396 0 0 0
399 1 0.0016 1600 0.005819712096484512 -0.004239971079837588 0.007308788746636411 0 0 0
400 1 0.0016 1600 -0.001153689350071174 0.003280310192468543 0.006707264492547445 0 0 0
401 1 0.0016 1600 0.005573302280803166 0.0014635067685148954 0.007115938108274477 0 0 0
402 1 0.0016 1600 0.004553884575518019 0.005577224994062399 0.01054652338970831 0 0 0
403 1 0.0016 1600 0.006200536103454742 0.003660990831432129 0.0030084001584451845 0 0 0
404 1 0.0016 1600 0.004178969444473903 0.00010409995397825886 0.010131600913979409 0 0 0
405 1 0.0016 1600 0.001905208757503491 -2.5289019810915364e-05 0.009520259438325232 0 0 0
406 1 0.0016 1600 -0.0021476872723693897 -0.0031290545625431584 0.009844049275799707 0 0 0
407 1 0.0016 1600 -0.00555495709482917 -0.004580964734281277 0.006314826744500303 0 0 0
408 1 0.0016 1600 0.00503484001295027 -0.005147538515370889 0.008366732530599443 0 0 0
409 1 0.0016 1600 -0.0017810393661939292 0.004017674770323251 0.005340123685686998 0 0 0
410 1 0.0016 1600 0.0012471101660138104 0.0048259440758006335 0.003435093030412903 0 0 0
411 1 0.0016 1600 -0.001468652898545766 0.007048835059977443 0.008828456506688764 0 0 0
412 1 0.0016 1600 0.0013793183009117615 -0.005511441927421671 0.005392627159248451 0 0 0
413 1 0.0016 1600 0.0029542900206850665 -0.003479037544670561 0.009806326923091722 0 0 0
414 1 0.0016 1600 -0.005080887038416453 -0.0051019375575718446 0.008441178894575307 0 0 0
415 1 0.0016 1600 -0.0022116151217524056 -0.003515229759888073 0.0035200059204052525 0 0 0
416 1 0.0016 1600 -0.0011835356895914483 0.007102273725658609 0.0037700729755406944 0 0 0
417 1 0.0016 1600 0.003513059473466242 -0.0014021642756379988 0.007611947650717539 0 0 0
418 1 0.0016 1600 -0.004221422959739068 0.005833484776600706 0.004414365225391612 0 0 0
419 1 0.0016 1600 0.0016233874124537474 -0.0030091958843884267 0.004438867935976954 0 0 0
420 1 0.0016 1600 0.002873800096672843 0.0031619165831880875 0.006329468022435128 0 0 0
421 1 0.0016 1600 -0.0028289769669767543 -0.004731966851632741 0.009564619565234692 0 0 0
422 1 0.0016 1600 -0.002707350196783728 0.0029040576540069448 0.006756539941063593 0 0 0
423 1 0.0016 1600 -7.622110781313896e-05 -0.006674842701554031 0.0077822232409258865 0 0 0
424 1 0.0016 1600 -0.00111997697107173 -0.0025983959259947356 0.004650460552407693 0 0 0
425 1 0.0016 1600 5.3154302745653545e-05 0.005667095920066836 0.007025438064108501 0 0 0
426 1 0.0016 1600 -0.005951049635249216 -0.0008391676280867209 0.004516059111048358 0 0 0
427 1 0.0016 1600 0.0006812173416453927 -0.0017793080515521775 0.003993270016875657 0 0 0
428 1 0.0016 1600 0.005394994696091796 0.002006340207504271 0.005622085521789941 0 0 0
429 1 0.0016 1600 -0.0003357827629846372 -0.004546350555269727 0.006929624562972748 0 0 0
430 1 0.0016 1600 0.004689963520823846 -0.0010830437573988623 0.002780128377136032 0 0 0
431 1 0.0016 1600 0.0011708891620010149 0.004002315409209319 0.005123175418824414 0 0 0
432 1 0.0016 1600 0.004813173673321862 -0.0053556975678269265 0.006759780074049267 0 0 0
433 1 0.0016 1600 0.004195660257730052 0.004074018899077368 0.003560810412391896 0 0 0
434 1 0.0016 1600 -0.005965496820703299 8.366707456705056e-05 0.005822016288197794 0 0 0
435 1 0.0016 1600 0.0015391603605762368 0.007033618874790089 0.007280461058837062 0 0 0
436 1 0.0016 1600 -0.004150933162117741 -0.0011822155724731547 0.008384284707579915 0 0 0
437 1 0.0016 1600 0.0005385176856266252 -0.0020211606925762196 0.008354583138360875 0 0 0
438 1 0.0016 1600 0.001986501654895386 0.005456482559566006 0.007894866631647735 0 0 0
439 1 0.0016 1600 -0.003750227514524167 0.0001595860749704938 0.007610851234030711 0 0 0
440 1 0.0016 1600 0.003421520515752769 0.00633585462057773 0.009708928695355714 0 0 0
441 1 0.0016 1600 -0.0010699609213482536 0.006241019093050551 0.0058961357639307176 0 0 0
442 1 0.0016 1600 0.007157379426481572 0.0007873167084467943 0.009588319043264019 0 0 0
443 1 0.0016 1600 -0.007038435224808832 0.0015203653608196004 0.009482744002281485 0 0 0
444 1 0.0016 1600 0.006946547316387152 -0.001486118073825343 0.0060797723975855545 0 0 0
445 1 0.0016 1600 8.092132637384953e-06 -0.0011451668472969058 0.007122591921893605 0 0 0
446 1 0.0016 1600 -0.004512680658517204 -0.002684857542089118 0.007972856848188766 0 0 0
447 1 0.0016 1600 0.005780570549180817 -0.004292884444441328 0.005238235632609852 0 0 0
448 1 0.0016 1600 0.006973864114672201 0.0017906038089781208 0.004773157030511716 0 0 0
449 1 0.0016 1600 0.0009935863582739702 0.002506038105685556 0.0045859194372338645 0 0 0
450 1 0.0016 1600 -0.0028437922683312205 -0.006012984521156494 0.00669599661980071 0 0 0
451 1 0.0016 1600 -0.000968893558549458 -0.007135191035750291 0.006536967815679141 0 0 0
452 1 0.0016 1600 -0.002848495709597555 0.002922138810009803 0.004388456427398357 0 0 0
453 1 0.0016 1600 -0.003989368262957008 0.005033759325259153 0.009673178112569203 0 0 0
454 1 0.0016 1600 0.003513052926775794 -0.00024767747031869346 0.008719611499074246 0 0 0
455 1 0.0016 1600 -0.0025925764714240652 0.002193027763110151 0.008184437255713328 0 0 0
456 1 0.0016 1600 -0.0067922267125359315 -0.002389260071879986 0.009054835465860927 0 0 0
457 1 0.0016 1600 0.003950138468908946 0.0036828598555621365 0.009307207710421565 0 0 0
458 1 0.0016 1600 -0.005402012319672191 0.0047602013956308566 0.008848229002165559 0 0 0
459 1 0.0016 1600 -0.0032025369616266747 -0.0064488857871896664 0.008192448908832568 0 0 0
460 1 0.0016 1600 -0.005973819421554381 -0.0014116015881709763 0.0066867672166213065 0 0 0
461 1 0.0016 1600 -0.0029562617198983327 -0.001056916189490348 0.00668949424265834 0 0 0
462 1 0.0016 1600 -0.0007654754531372283 0.005543818281460341 0.011333118215357665 0 0 0
463 1 0.0016 1600 -0.0010043140751555513 -0.00033121398263642456 0.00860515004040854 0 0 0
464 1 0.0016 1600 -0.005902897462558293 0.0018996070712890697 0.008421771115504663 0 0 0
465 1 0.0016 1600 -0.003034206266617148 0.0008217395264470431 0.008879180514646777 0 0 0
466 1 0.0016 1600 -0.002953806168686856 -0.002320641739548825 0.012428138832045356 0 0 0
467 1 0.0016 1600 -0.0069475643679626185 0.0018899560603612647 0.01373303785546435 0 0 0
468 1 0.0016 1600 0.001823009233872691 0.0024164736505321535 0.011343804728350492 0 0 0
469 1 0.0016 1600 0.0010892027344073835 0.0023716948922591786 0.009922894849914673 0 0 0
470 1 0.0016 1600 -0.004544883268371185 0.003533939102932807 0.009644452187551807 0 0 0
471 1 0.0016 1600 -0.006404736120272718 0.0032910835225094847 0.013123912907799701 0 0 0
472 1 0.0016 1600 0.006326907227493833 0.0034374141210690465 0.010813810035611937 0 0 0
473 1 0.0016 1600 0.0037537372202936744 -0.002715141920195394 0.01156614692659598 0 0 0
474 1 0.0016 1600 -0.003966526053941804 -0.003989029726500056 0.00872095653105932 0 0 0
475 1 0.0016 1600 -0.0021016830091106662 0.0054283698101331 0.012205467736625578 0 0 0
476 1 0.0016 1600 0.004606723830156673 -0.0004603236130762747 0.012157094609645943 0 0 0
477 1 0.0016 1600 0.00377547386339925 0.0035084394316722348 0.007726489831868212 0 0 0
478 1 0.0016 1600 -0.002212769257312969 0.002548234807009635 0.009697067545902731 0 0 0
479 1 0.0016 1600 -0.001593992682807203 -0.007022520579179448 0.008148978057790583 0 0 0
480 1 0.0016 1600 -0.004886899029950434 -0.0009494978776216723 0.010346478152711575 0 0 0
481 1 0.0016 1600 0.0019758054940950368 -0.00633108016437404 0.01090357325181739 0 0 0
482 1 0.0016 1600 -0.0060253279255950455 -0.003942321971982092 0.014568651216333045 0 0 0
483 1 0.0016 1600 0.005020138606915565 0.0044750060567934 0.00842087363162438 0 0 0
484 1 0.0016 1600 0.0024209650682150948 -0.003453438802460195 0.012052708695820357 0 0 0
485 1 0.0016 1600 -0.001586353928331318 -0.00396217906329007 0.011089143624513497 0 0 0
486 1 0.0016 1600 -0.003228991471846187 -0.006435560848422085 0.012575229181891795 0 0 0
487 1 0.0016 1600 0.00033738199837126027 -0.0037147043502003116 0.00811874206078816 0 0 0
488 1 0.0016 1600 0.005349090292648409 0.0029800581451977187 0.009633323145238232 0 0 0
489 1 0.0016 1600 -0.0013628471342277248 0.0015448250428814817 0.013475126105279284 0 0 0
490 1 0.0016 1600 0.005825135118092909 -0.0006645957101150656 0.013173056678241124 0 0 0
491 1 0.0016 1600 -0.0010499913694936762 0.0016809379642412877 0.010792160378781307 0 0 0
492 1 0.0016 1600 -0.0007935282049022068 0.007156232885941568 0.011676005697920483 0 0 0
493 1 0.0016 1600 0.005849655179717281 0.0018733435954357673 0.010674341724459326 0 0 0
494 1 0.0016 1600 0.0029148982296841697 0.005014964087805912 0.010582332847855657 0 0 0
495 1 0.0016 1600 -0.00315522051830219 0.0036110101261736653 0.010433256212207344 0 0 0
496 1 0.0016 1600 0.004398054409260369 0.00570087908359789 0.014058145775101972 0 0 0
497 1 0.0016 1600 -0.005856843799198063 0.0041881713552537805 0.010284561890734569 0 0 0
498 1 0.0016 1600 -0.005252219351934857 0.0021164262754681503 0.009866571281380717 0 0 0
499 1 0.0016 1600 0.006266679896413196 0.003545267821802355 0.012408765126160905 0 0 0
500 1 0.0016 1600 -0.004563622916966647 -0.005569091805251352 0.012740327881729482 0 0 0
501 1 0.0016 1600 -0.00703374971456167 -0.0015400918293778695 0.010388547115342522 0 0 0
502 1 0.0016 1600 -0.0034376535867355193 -0.0038151983294108225 0.011811021849759573 0 0 0
503 1 0.0016 1600 0.00017354633924822395 -0.004330768824375812 0.01083159901408226 0 0 0
504 1 0.0016 1600 -0.005779289298265517 -0.0016721461247657036 0.011459515437422147 0 0 0
505 1 0.0016 1600 -0.00040567934543342854 -0.0014899983511578929 0.009531384895520674 0 0 0
506 1 0.0016 1600 0.006882370793342669 0.0021152331553662587 0.011872080020843116 0 0 0
507 1 0.0016 1600 0.004542601252441434 -0.0033549652829037565 0.009080473575236335 0 0 0
508 1 0.0016 1600 0.007191139947677198 -0.0003626376168753519 0.012382579034117956 0 0 0
509 1 0.0016 1600 0.006552353759372497 -0.002985715861828988 0.012166263358109325 0 0 0
510 1 0.0016 1600 -0.0009156095122862711 0.004933294817914909 0.009383967744289594 0 0 0
511 1 0.0016 1600 0.005435690028424202 0.0014530543748114833 0.009164347183019636 0 0 0
512 1 0.0016 1600 0.00313153279391317 0.006483585575395156 0.007335582970656332 0 0 0
513 1 0.0016 1600 0.002616697681297988 -0.006707694483845533 0.008627969890738727 0 0 0
514 1 0.0016 1600 -0.0012709047943533353 0.0034847634648132652 0.008805559070131018 0 0 0
515 1 0.0016 1600 -0.0018411682904642217 0.00048147363139286226 0.011495564452381856 0 0 0
516 1 0.0016 1600 -0.001410845164278542 -0.0038458572949913827 0.013754845469858343 0 0 0
517 1 0.0016 1600 -0.004172524467215312 0.0019208252870597847 0.01298304786081133 0 0 0
518 1 0.0016 1600 -0.0026993532212609543 -0.006675405401406502 0.011084987830727602 0 0 0
519 1 0.0016 1600 -4.5681152388765384e-06 -0.005780864368249315 0.009876326331446986 0 0 0
520 1 0.0016 1600 -0.006123405376217304 -0.002856308241824418 0.010430714970887947 0 0 0
521 1 0.0016 1600 -0.004063598439163771 -0.0014152395882709797 0.011636154318930407 0 0 0
522 1 0.0016 1600 -0.0016770949066728911 -0.0014062165470941673 0.012797417489820695 0 0 0
523 1 0.0016 1600 0.003345093983743177 0.001993486993656649 0.013804349465314171 0 0 0
524 1 0.0016 1600 -0.003968056780851348 0.00016803457870109072 0.013735177687887666 0 0 0
525 1 0.0016 1600 0.004223664413465525 0.0021314240530524243 0.010389685613472269 0 0 0
526 1 0.0016 1600 -0.00011960075333169881 0.0006025884667803101 0.011526210444741572 0 0 0
527 1 0.0016 1600 0.0022665841422303988 0.003861807081942183 0.008121780308225777 0 0 0
528 1 0.0016 1600 0.00011517073646361428 0.007199423359426324 0.006570738127347064 0 0 0
529 1 0.0016 1600 -0.0005099835161535562 0.007182254562695861 0.010101771137140227 0 0 0
530 1 0.0016 1600 0.004421242174290545 -0.003603653902189737 0.013611952575368999 0 0 0
531 1 0.0016 1600 0.0036434730864859793 -0.004675901021496113 0.008999355436944047 0 0 0
532 1 0.0016 1600 0.001598161669721721 -0.003627902742974375 0.010641935177395758 0 0 0
533 1 0.0016 1600 0.0060759503848135206 -0.002559023581676317 0.006973040786330751 0 0 0
534 1 0.0016 1600 -0.0015140140895016536 -0.0018382792003976162 0.00843174679595163 0 0 0
535 1 0.0016 1600 0.0011867458384903907 0.0009352136140007217 0.01066499969701418 0 0 0
536 1 0.0016 1600 -0.0025503399587260504 -0.0006252002788787346 0.008319280670990341 0 0 0
537 1 0.0016 1600 0.0060012577174119765 -0.003979087382200743 0.008876280385695589 0 0 0
538 1 0.0016 1600 0.005653279951310465 0.0013816161240762191 0.013694786680861574 0 0 0
539 1 0.0016 1600 -0.002333854067257289 0.002494668095098753 0.011291070631904926 0 0 0
540 1 0.0016 1600 0.0024380668921412463 0.0008606808090175279 0.008300333481565279 0 0 0
541 1 0.0016 1600 -0.0005257113559921047 -0.0043315012389354346 0.012270521734271081 0 0 0
542 1 0.0016 1600 -0.004622201316535717 0.0009751850019391079 0.008675095515827846 0 0 0
543 1 0.0016 1600 -0.001203988126830475 -0.002188095609881772 0.01072889428322749 0 0 0
544 1 0.0016 1600 -0.0009629683532189742 -0.0045089114611877035 0.00972105198313171 0 0 0
545 1 0.0016 1600 -0.004649514146003126 -0.0005366994665868343 0.0064863829606051585 0 0 0
546 1 0.0016 1600 -0.0023829137246019544 -0.006794642075918737 0.009521723924475582 0 0 0
547 1 0.0016 1600 0.001351173874594101 0.004782688303161845 0.010993759199239176 0 0 0
548 1 0.0016 1600 -0.006529412702292004 0.003035213454676371 0.007367251571590232 0 0 0
549 1 0.0016 1600 0.004341750330642608 -0.0038391747936021743 0.010592128808991737 0 0 0
550 1 0.0016 1600 -0.00087207666827722 0.007147463203696513 0.014011914679419242 0 0 0
551 1 0.0016 1600 -0.0004423763108645504 0.004031315241992776 0.011740217174031807 0 0 0
552 1 0.0016 1600 -0.00400044636189097 -0.003946114973333826 0.010319464773091086 0 0 0
553 1 0.0016 1600 0.0032225906551160027 -0.0027659130650455064 0.00839560542861354 0 0 0
554 1 0.0016 1600 -0.007192554278937162 0.00033186236991954924 0.014000671699883433 0 0 0
555 1 0.0016 1600 0.004169349580868404 0.004123816275890629 0.013917501631379376 0 0 0
556 1 0.0016 1600 -0.004078356423537037 0.005934053194804291 0.008353886890646995 0 0 0
557 1 0.0016 1600 0.005224497670377653 -0.0021633288876141223 0.01125797036156528 0 0 0
558 1 0.0016 1600 0.0029267285664921613 -0.004601781919618086 0.010945614748314868 0 0 0
559 1 0.0016 1600 0.002317599820480969 -0.001317361667037609 0.00867159408331535 0 0 0
560 1 0.0016 1600 -0.004745896945588915 -0.0028741569573149215 0.011243786961248255 0 0 0
561 1 0.0016 1600 0.00456889804436413 0.000961472076464587 0.011424492630107306 0 0 0
562 1 0.0016 1600 -0.00024794046702522897 -0.007196045603333993 0.010876140630973752 0 0 0
563 1 0.0016 1600 -0.0013569604051515396 -0.005742145731791394 0.007220292017838622 0 0 0
564 1 0.0016 1600 0.0018029063628451226 -0.0034379665060306247 0.008696417801485962 0 0 0
565 1 0.0016 1600 -0.007104921999922344 -0.0011664278427865153 0.013446990438102945 0 0 0
566 1 0.0016 1600 0.003840155866931841 0.0012738053304399012 0.009094638606048174 0 0 0
567 1 0.0016 1600 -0.003914066156444213 -0.006043139871404376 0.0095666626213017 0 0 0
568 1 0.0016 1600 0.0015111328190987009 0.004103066390130475 0.013530213439402639 0 0 0
569 1 0.0016 1600 0.0009449227824470265 0.0071378317017728515 0.009437973490694106 0 0 0
570 1 0.0016 1600 -0.006175436132352756 -0.0037023167427099467 0.011787407400831076 0 0 0
571 1 0.0016 1600 0.005494025094837733 -0.0014213031699074935 0.008067125992460572 0 0 0
572 1 0.0016 1600 0.0055918162987345305 0.004536258999321382 0.009913166844742407 0 0 0
573 1 0.0016 1600 -0.00016124101694656466 -0.003016362301308 0.013199197821099788 0 0 0
574 1 0.0016 1600 -0.0009749841995045772 0.00014799897484053448 0.012799220856026604 0 0 0
575 1 0.0016 1600 -0.004275414584785457 0.00487364947624278 0.012775202827348902 0 0 0
576 1 0.0016 1600 -0.004900558914430897 0.005274965229542131 0.010965943884012796 0 0 0
577 1 0.0016 1600 -3.5768944043801554e-05 0.0006885241744113903 0.009663383984425428 0 0 0
578 1 0.0016 1600 0.002526161050834596 -0.0067429694889541356 0.013503994835250848 0 0 0
579 1 0.0016 1600 -0.004515331237547708 0.00031246274747436724 0.012238718859372655 0 0 0
580 1 0.0016 1600 6.067647601225273e-06 -0.007200141295139626 0.012677085196407251 0 0 0
581 1 0.0016 1600 -0.0020963175237749395 -0.0002822442400740175 0.013855555294992116 0 0 0
582 1 0.0016 1600 0.0003962183242032567 -0.000563425341478258 0.010559622651459663 0 0 0
583 1 0.0016 1600 0.002383955503912748 -0.0053992980519020324 0.009669443000929525 0 0 0
584 1 0.0016 1600 0.0038535152502429237 -0.006082028885779739 0.007828835139573151 0 0 0
585 1 0.0016 1600 -0.004971766086803202 0.003132626459548817 0.011133214281582687 0 0 0
586 1 0.0016 1600 0.006881657187554939 -0.002117911646111148 0.010863555065391434 0 0 0
587 1 0.0016 1600 -0.003227137602929857 -0.0025412311991750204 0.010867436919882702 0 0 0
588 1 0.0016 1600 -0.005655599478366491 -0.004456396409850855 0.013099519881717706 0 0 0
589 1 0.0016 1600 0.0008581650001675409 -0.004520996655735472 0.009398564155098836 0 0 0
590 1 0.0016 1600 0.0008575120060535205 0.0033471617969391774 0.00867674743977463 0 0 0
591 1 0.0016 1600 0.007120836629671179 0.001069590441514178 0.0131405997960601 0 0 0
592 1 0.0016 1600 -0.002280387239210301 0.004108237214127155 0.007732538457176827 0 0 0
593 1 0.0016 1600 0.00031746071497214994 0.004104957206696201 0.009978081371930604 0 0 0
594 1 0.0016 1600 -0.0007528182724000311 0.006057805752754325 0.01284740266500576 0 0 0
595 1 0.0016 1600 0.002089722060531829 -0.0007099995807201177 0.010953266103386112 0 0 0
596 1 0.0016 1600 0.001822108299715452 0.006135835337172607 0.0117050103799385 0 0 0
597 1 0.0016 1600 -0.004309145409762493 0.0008638481400176098 0.01029047707331351 0 0 0
598 1 0.0016 1600 0.00257130593110371 -0.001289228528214916 0.014534607852722873 0 0 0
599 1 0.0016 1600 0.0004900808045400707 0.005218555563466083 0.012269635655211875 0 0 0
600 1 0.0016 1600 0.00406669725130497 -0.004175839326837719 0.007540076755353361 0 0 0
601 1 0.0016 1600 0.003353106838888014 0.006372103921110065 0.011306444832923123 0 0 0
602 1 0.0016 1600 0.005513064400627264 0.004631321307201602 0.011507725650929399 0 0 0
603 1 0.0016 1600 0.0014645391733464769 -0.00704971309267546 0.007571884075610659 0 0 0
604 1 0.0016 1600 -0.005792137723873343 -0.00062568158139443 0.01266941737483323 0 0 0
605 1 0.0016 1600 -0.0051044778526385965 -0.002207228864679756 0.009380507121906554 0 0 0
606 1 0.0016 1600 0.001202758319840025 -0.0021823524371258427 0.0128535263072632 0 0 0
607 1 0.0016 1600 -0.0014994440904003402 -0.005831683765959473 0.010444044931591425 0 0 0
608 1 0.0016 1600 0.00024361172899816465 0.005761620431368778 0.010111537398325283 0 0 0
609 1 0.0016 1600 0.0016388031261686808 -0.004442837686166105 0.013041781610779797 0 0 0
610 1 0.0016 1600 0.00394570667829441 -0.0012569973919400435 0.010937769025919907 0 0 0
611 1 0.0016 1600 -0.005473892798345539 -0.0004494535336181072 0.007863020205551907 0 0 0
612 1 0.0016 1600 0.0035333852048665664 -0.006273387955383247 0.011264846921487328 0 0 0
613 1 0.0016 1600 0.004167570551685845 0.004054397556051856 0.010847777579518821 0 0 0
614 1 0.0016 1600 -0.001040690627125198 0.003377226914638548 0.010408648992084437 0 0 0
615 1 0.0016 1600 -0.003348836937473988 -3.533781625622627e-05 0.011200328647592135 0 0 0
616 1 0.0016 1600 0.006730778218960395 0.0025580008923415556 0.013578748040696266 0 0 0
617 1 0.0016 1600 -0.004281973810061436 0.003150805051595229 0.00689129367178796 0 0 0
618 1 0.0016 1600 -0.00028855602083083427 -0.005716593070764124 0.011482869398607215 0 0 0
619 1 0.0016 1600 0.0033638672718234093 0.0004498826313294745 0.012587788861923977 0 0 0
620 1 0.0016 1600 0.0024039895532638684 0.001472683934932276 0.00977747858993332 0 0 0
621 1 0.0016 1600 0.0017711132524497342 0.002404751949204998 0.007685715379080908 0 0 0
622 1 0.0016 1600 -0.0037564752257573525 0.002184267069488708 0.009303804604951626 0 0 0
623 1 0.0016 1600 -0.0016894051198451181 0.006102963279297647 0.010153681912688027 0 0 0
624 1 0.0016 1600 0.0012764508384574987 0.0009602345302731711 0.007205338320068523 0 0 0
625 1 0.0016 1600 -0.0031066838904533034 -0.0006676176044462963 0.012677077083665764 0 0 0
626 1 0.0016 1600 0.00015558702193358098 0.002653742930903257 0.011190346623678014 0 0 0
627 1 0.0016 1600 -0.0014166447029005586 -0.007059442530375672 0.011959682569799788 0 0 0
628 1 0.0016 1600 0.003476063133249979 0.006305401943480586 0.012899583141815942 0 0 0
629 1 0.0016 1600 0.0002342951541228826 -0.002798797021390332 0.010374670499603373 0 0 0
630 1 0.0016 1600 0.000554337779982793 0.005755702931732681 0.008542165642969585 0 0 0
631 1 0.0016 1600 -0.0025779708545355276 0.0023906229510874716 0.012868791171784221 0 0 0
632 1 0.0016 1600 -0.004841488346273171 -0.0045494360036550125 0.011539300026885798 0 0 0
633 1 0.0016 1600 -0.002113021025030925 0.006882992769166735 0.013017048654617124 0 0 0
634 1 0.0016 1600 0.006808206073632854 0.0023442286043867085 0.009477166341509241 0 0 0
635 1 0.0016 1600 0.0018197695466378272 0.0004959442712034054 0.01206685432800237 0 0 0
636 1 0.0016 1600 -0.005771205895668406 0.0005725498843387712 0.009712439919112647 0 0 0
637 1 0.0016 1600 0.0026460464338794528 -0.005564668906140635 0.012428313172970164 0 0 0
638 1 0.0016 1600 -0.0028551374516090403 0.0012879299936513417 0.013994334109084038 0 0 0
639 1 0.0016 1600 -0.004828082493931105 0.0033754780241169228 0.01287020388834689 0 0 0
640 1 0.0016 1600 0.005057822548520801 -0.005124857878745065 0.009965909568583087 0 0 0
641 1 0.0016 1600 -0.0025701323197172745 -0.0027557992285835876 0.013918769183563206 0 0 0
642 1 0.0016 1600 0.0014705214977669356 -0.0049501899316317785 0.011533915605357003 0 0 0
643 1 0.0016 1600 0.006951892129974319 -0.001874712764228684 0.009227888584097283 0 0 0
644 1 0.0016 1600 -0.002807713066225024 0.006630523442721725 0.007673046154681711 0 0 0
645 1 0.0016 1600 -0.0026074210633752334 -0.005470560076416776 0.013689270670571328 0 0 0
646 1 0.0016 1600 -0.0019675128561747013 0.004639241255316852 0.01073574508796213 0 0 0
647 1 0.0016 1600 0.003942533612109283 0.004479327122136084 0.01237347709663705 0 0 0
648 1 0.0016 1600 0.0005879491748245564 -0.00043541193021438753 0.008711432576151165 0 0 0
649 1 0.0016 1600 0.007168103144391092 -0.0006668863328497352 0.010254388724062587 0 0 0
650 1 0.0016 1600 -0.006791628323879813 -0.00239188130867518 0.012466860501498683 0 0 0
651 1 0.0016 1600 -0.007200094706266526 3.9402354817615745e-05 0.010195340999701272 0 0 0
652 1 0.0016 1600 -0.003327883756540238 -0.0040608820575162435 0.013387416680981262 0 0 0
653 1 0.0016 1600 0.0028806959965018216 0.0029942135227171546 0.010283996024877196 0 0 0
654 1 0.0016 1600 -0.00042809334828825424 0.0022745658772044654 0.009425166444922719 0 0 0
655 1 0.0016 1600 0.005775734016905383 0.0003317391795405161 0.01025366726856098 0 0 0
656 1 0.0016 1600 0.0060177989975367325 -0.003953075292931459 0.010920350767260004 0 0 0
657 1 0.0016 1600 6.178678937813988e-06 0.0032410186885943196 0.013194504382097053 0 0 0
658 1 0.0016 1600 -0.00713956595365056 -0.000934107302557717 0.011864739276073137 0 0 0
659 1 0.0016 1600 0.006978849281448564 -0.001771387846154359 0.013116488764897351 0 0 0
660 1 0.0016 1600 -0.005777575486542764 0.004296505639290989 0.011878846386865684 0 0 0
661 1 0.0016 1600 0.0038202471103953545 -0.006103191528365166 0.009700080790854434 0 0 0
662 1 0.0016 1600 0.0016897271869348027 0.0025222959169444855 0.013305741863669392 0 0 0
663 1 0.0016 1600 0.005019570944743691 0.002908137736145248 0.01156844344377041 0 0 0
664 1 0.0016 1600 -0.001335013477900561 0.007075494327803096 0.007234725246570982 0 0 0
665 1 0.0016 1600 0.004199158745713916 -0.0016703583450917838 0.009032127204306087 0 0 0
666 1 0.0016 1600 -0.005561749782849364 0.0016642431982570112 0.011368988844469232 0 0 0
667 1 0.0016 1600 0.006017118387191127 -0.0007793196389181252 0.011379066917985906 0 0 0
668 1 0.0016 1600 -0.0008443828322000837 -0.0008236492264442239 0.011535429346038158 0 0 0
669 1 0.0016 1600 0.0025912196614930527 0.0038358249058930223 0.011613062333629742 0 0 0
670 1 0.0016 1600 -0.006597608464217 0.002668380321523605 0.010677176005053511 0 0 0
671 1 0.0016 1600 0.0037086735967743643 -0.004363296644702475 0.012320688207464776 0 0 0
672 1 0.0016 1600 0.0007354914912792864 0.0015757461162164465 0.00857900726648858 0 0 0
673 1 0.0016 1600 0.0071661805567641845 0.000698235198301348 0.011185418958669154 0 0 0
674 1 0.0016 1600 0.00520235383390273 0.0029024219861867465 0.013902391302072383 0 0 0
675 1 0.0016 1600 0.005600610234965417 -0.0018394462561052661 0.01735708671175214 0 0 0
676 1 0.0016 1600 -0.007177335418356418 0.0005660023784261061 0.012418305231723934 0 0 0
677 1 0.0016 1600 -0.00717905457781162 0.0005534511938987203 0.01711465277877283 0 0 0
678 1 0.0016 1600 0.00636507540027676 0.003365756022800212 0.014910221799506459 0 0 0
679 1 0.0016 1600 0.0015319049980971051 -0.005639865031819318 0.01409770648144507 0 0 0
680 1 0.0016 1600 0.005482996811726793 -0.004666838405162823 0.015866254177831395 0 0 0
681 1 0.0016 1600 0.005258675413559014 -0.0008081736333420202 0.018531572707923626 0 0 0
682 1 0.0016 1600 0.0009692249492010563 -0.0010089060714624576 0.014297299942576726 0 0 0
683 1 0.0016 1600 0.003229554072191609 -0.002635246937947336 0.013164087853296473 0 0 0
684 1 0.0016 1600 -0.004042262859873773 -0.005958332329579554 0.01420194734099215 0 0 0
685 1 0.0016 1600 0.0014919187868933672 -0.0021600086060343375 0.01126948520687029 0 0 0
686 1 0.0016 1600 -0.0002050871791575785 0.006484433421458506 0.015306027662854722 0 0 0
687 1 0.0016 1600 -0.003811965987922882 0.0018756934617423764 0.011424919223233241 0 0 0
688 1 0.0016 1600 -0.002390495344575846 0.001187759999905887 0.017300143505905228 0 0 0
689 1 0.0016 1600 0.002044128763120271 -0.000637811492314247 0.013172363434898984 0 0 0
690 1 0.0016 1600 0.0024507011202642196 -0.0032371670602853344 0.01559747860841275 0 0 0
691 1 0.0016 1600 -0.003964082067454693 -0.00413938267496794 0.017539352714885 0 0 0
692 1 0.0016 1600 0.0053299257032802805 0.004841280389174954 0.013082612747646044 0 0 0
693 1 0.0016 1600 0.006544796012143482 -0.0030027808539758957 0.015508276155449512 0 0 0
694 1 0.0016 1600 0.0020864304230996567 -0.006891202876391951 0.016642777656984523 0 0 0
695 1 0.0016 1600 0.007035746782855644 -0.0005045854619694436 0.015571793730259187 0 0 0
696 1 0.0016 1600 0.003416810655245923 -0.005514728291956521 0.014010227995635833 0 0 0
697 1 0.0016 1600 -0.003961314591611871 0.003596077013085536 0.015617934386046904 0 0 0
698 1 0.0016 1600 -0.003906095923545997 0.0029973367103687297 0.014135729759714508 0 0 0
699 1 0.0016 1600 0.0011203352180577547 0.005710705717627784 0.013655050439155162 0 0 0
700 1 0.0016 1600 -0.005651017463272021 0.0013120299191977784 0.012926441718097896 0 0 0
701 1 0.0016 1600 0.0026995743093268655 -0.0011866704600786411 0.016125574769596893 0 0 0
702 1 0.0016 1600 0.0014694175126385518 -0.0019728361452538406 0.01547188949918144 0 0 0
703 1 0.0016 1600 -0.004148801652018828 0.0016026189373815468 0.014881099862142326 0 0 0
704 1 0.0016 1600 0.00518982176786009 0.0014409254652197041 0.01665487591915739 0 0 0
705 1 0.0016 1600 -0.0017569151066495626 0.0010295356066485767 0.015128070230154656 0 0 0
706 1 0.0016 1600 0.0021323267307686387 0.006877614245664322 0.01693415360536061 0 0 0
707 1 0.0016 1600 0.0006151875450707943 0.0003147846229979932 0.013116458663355455 0 0 0
708 1 0.0016 1600 0.005093465844027261 -0.005088819279429588 0.011564937944325344 0 0 0
709 1 0.0016 1600 -0.0012848383925642048 -0.00530718301457375 0.014574566988312356 0 0 0
710 1 0.0016 1600 -0.0011077081288502788 -0.002103992152891186 0.014119173559832601 0 0 0
711 1 0.0016 1600 0.0071347967974127475 0.0009706217990234884 0.01473686517846265 0 0 0
712 1 0.0016 1600 -0.002175774564260171 -0.006863709542205589 0.01657361323453015 0 0 0
713 1 0.0016 1600 -0.00557656620511501 0.004554987161084186 0.01364931252688186 0 0 0
714 1 0.0016 1600 0.004858302834677383 0.005314368057069674 0.017195489282946508 0 0 0
715 1 0.0016 1600 0.00449043814690304 0.0012272850285633145 0.015219027934371895 0 0 0
716 1 0.0016 1600 -0.0012500152951261034 -0.003242984950962535 0.016804832970903405 0 0 0
717 1 0.0016 1600 -0.002737226985560584 0.006659497160319543 0.016742764026545086 0 0 0
718 1 0.0016 1600 -0.0010446185688327378 0.002507041361260721 0.01223754016309056 0 0 0
719 1 0.0016 1600 0.003907408797959468 0.0029419547282598657 0.014963276873228078 0 0 0
720 1 0.0016 1600 0.0038718679389979777 -0.004256982638736203 0.015167312947120938 0 0 0
721 1 0.0016 1600 -0.007056911787875321 0.0014295437122923264 0.018446845869999326 0 0 0
722 1 0.0016 1600 0.002497721882726702 -0.006752879963217402 0.015103225198093838 0 0 0
723 1 0.0016 1600 -0.00304853037533373 0.0009149706825879148 0.012451162210027102 0 0 0
724 1 0.0016 1600 -0.0011696842422713068 0.002700685872988876 0.017590471552308647 0 0 0
725 1 0.0016 1600 -0.0057367437180273415 7.61506461874397e-05 0.01123282987226978 0 0 0
726 1 0.0016 1600 0.004847218520479365 -0.00165256070512401 0.014275115966181097 0 0 0
727 1 0.0016 1600 0.0009338334022210493 -0.00698588998046364 0.015537125856676765 0 0 0
728 1 0.0016 1600 0.0029160163653008135 0.001006938248245822 0.014987644487722728 0 0 0
729 1 0.0016 1600 0.005925103274114307 0.0005966409233022814 0.01218964442769625 0 0 0
730 1 0.0016 1600 0.003960622592257841 -0.0023595624275954104 0.01626591901232894 0 0 0
731 1 0.0016 1600 0.0006520004056175653 0.002238765102038282 0.016003470347387496 0 0 0
732 1 0.0016 1600 -0.0031096731668920127 0.004287874567884908 0.01732936963790552 0 0 0
733 1 0.0016 1600 0.0030189109622585798 0.003385231507605382 0.013086739487639809 0 0 0
734 1 0.0016 1600 -0.0034633907258326464 -0.0014335772018404538 0.014035686004593545 0 0 0
735 1 0.0016 1600 0.0009264338335136866 -0.0008307714025816447 0.012044354349989581 0 0 0
736 1 0.0016 1600 -0.0005321013191908866 -0.006625609459640303 0.01406975441017023 0 0 0
737 1 0.0016 1600 0.0031483729846165194 0.003191819393602171 0.017074584887212783 0 0 0
738 1 0.0016 1600 -0.004141445329866399 0.004564331913074471 0.014356436623627023 0 0 0
739 1 0.0016 1600 -0.001526876771847873 -0.0005409149527491865 0.015327426375670266 0 0 0
740 1 0.0016 1600 -0.005401915300633865 0.002439596389353126 0.014033532699659733 0 0 0
741 1 0.0016 1600 0.003578022901122906 -0.0025179695153280226 0.014720552656474751 0 0 0
742 1 0.0016 1600 -5.337125720679287e-05 -0.002179994977671096 0.011840078491463481 0 0 0
743 1 0.0016 1600 0.0010289131270861996 -0.00371853444565184 0.016149218975419398 0 0 0
744 1 0.0016 1600 -0.001585427898044373 -0.004587122790567822 0.016004676780540926 0 0 0
745 1 0.0016 1600 0.002238739695228562 0.0056349004053582305 0.017934996518364575 0 0 0
746 1 0.0016 1600 -0.002618378855124526 -0.005110038880769885 0.017108484453272253 0 0 0
747 1 0.0016 1600 -0.0009859966000790852 0.004504375820746033 0.013168405522361768 0 0 0
748 1 0.0016 1600 -0.0027093594255858276 0.0027488471378767122 0.01715901768535835 0 0 0
749 1 0.0016 1600 0.002252482836005378 0.0022909158534423187 0.015829997380414577 0 0 0
750 1 0.0016 1600 -0.0006032545972112611 0.004810830807206256 0.015647231894370416 0 0 0
751 1 0.0016 1600 -0.004049777152111047 0.005952109658974278 0.017324036628718894 0 0 0
752 1 0.0016 1600 -0.0013468358675888094 -0.0016819494438177027 0.01643402148095121 0 0 0
753 1 0.0016 1600 0.0007921780605954507 0.007156602776506959 0.011030156327909546 0 0 0
754 1 0.0016 1600 -0.0030665704748655074 0.0001130547212816256 0.015064489172395834 0 0 0
755 1 0.0016 1600 -0.0023655261121221815 -0.0012865072789522965 0.011358915455182573 0 0 0
756 1 0.0016 1600 -0.0011032101240285308 0.0029024071233108868 0.016005539715757015 0 0 0
757 1 0.0016 1600 -0.006882669973225987 0.002115147004492883 0.012150603589761515 0 0 0
758 1 0.0016 1600 -0.0002483609615033185 -0.004256029429921386 0.01519141562624236 0 0 0
759 1 0.0016 1600 -0.0008532333686174955 0.0027166428074893757 0.0144371538169062 0 0 0
760 1 0.0016 1600 -0.003614736960268932 0.006227580116030053 0.010669887125493048 0 0 0
761 1 0.0016 1600 0.004204071303563464 -0.005846076888646506 0.01265813406405118 0 0 0
762 1 0.0016 1600 -0.006845572318424182 -0.002232641859019391 0.015603548055396467 0 0 0
763 1 0.0016 1600 0.0005088836579523033 0.007182177371683648 0.012604119794601328 0 0 0
764 1 0.0016 1600 0.005033907593117355 -0.0034871298748858333 0.01213559816618728 0 0 0
765 1 0.0016 1600 0.000979852734376318 -0.007133347589096742 0.013944690139489955 0 0 0
766 1 0.0016 1600 0.0021873098652306997 0.0009152555410963881 0.013566158213130784 0 0 0
767 1 0.0016 1600 -0.006359240467753085 -0.0033773252117233928 0.01660949226406121 0 0 0
768 1 0.0016 1600 -0.0071572132099917375 0.0007893505184664491 0.015532969764476654 0 0 0
769 1 0.0016 1600 -0.0018803127247466033 0.004157768351287673 0.01444896291431013 0 0 0
770 1 0.0016 1600 -0.004105283121709369 -0.0059151289042632055 0.011149889957034032 0 0 0
771 1 0.0016 1600 -0.006716039386559708 -0.002595550913112013 0.01405136867112956 0 0 0
772 1 0.0016 1600 -0.004990371183862064 -0.0012173873772261896 0.014557045902123504 0 0 0
773 1 0.0016 1600 0.0008662613932042894 -0.005356813223348209 0.01552478338204878 0 0 0
774 1 0.0016 1600 -0.001982245576578293 0.0038217651202844235 0.012119526323880353 0 0 0
775 1 0.0016 1600 -0.004496860830095368 -0.0043924274594615165 0.014427356056378451 0 0 0
776 1 0.0016 1600 -0.004644508203377454 0.0001419419744982389 0.015325827858303142 0 0 0
777 1 0.0016 1600 -4.846525576628247e-06 -0.002498227969600885 0.016130706254596137 0 0 0
778 1 0.0016 1600 -0.0009858205731105238 0.0014088993967149043 0.016566997798177916 0 0 0
779 1 0.0016 1600 0.00017324534840573334 0.004576678778051116 0.014268411344624012 0 0 0
780 1 0.0016 1600 -0.0019802172927977737 -0.006922642373948046 0.013450227670703066 0 0 0
781 1 0.0016 1600 0.00640998973892228 -0.001683414637475071 0.014614311613290697 0 0 0
782 1 0.0016 1600 -0.006885420297959649 0.0021050193198183607 0.01640187464189272 0 0 0
783 1 0.0016 1600 0.005799201380878245 6.739198964591209e-05 0.014595423377820065 0 0 0
784 1 0.0016 1600 -0.0035021961675950767 0.0033445065326994706 0.011976958352037362 0 0 0
785 1 0.0016 1600 0.0014382836444707073 -0.0024301813852578708 0.017004534990726156 0 0 0
786 1 0.0016 1600 0.002442645241088333 -0.00030916630585195947 0.017438390254246074 0 0 0
787 1 0.0016 1600 -0.004992765820815235 -0.0022637957433561976 0.015766971814580494 0 0 0
788 1 0.0016 1600 -0.00470347611577834 -0.0017277803210316333 0.01306849490780889 0 0 0
789 1 0.0016 1600 -0.0011100671018410043 0.005591392791631841 0.014335354140210081 0 0 0
790 1 0.0016 1600 0.001971407014942122 -0.002720726598723324 0.014148713231765492 0 0 0
791 1 0.0016 1600 -0.004279746198258368 -0.005790015923352641 0.01796061424091838 0 0 0
792 1 0.0016 1600 0.001584360566043583 0.00527567462645429 0.015122820323127423 0 0 0
793 1 0.0016 1600 -0.0024023065742737517 -0.0018775502896909281 0.015245457236723013 0 0 0
794 1 0.0016 1600 0.0016659216955191138 0.003848417694384049 0.015840901735766147 0 0 0
795 1 0.0016 1600 0.002899657936419317 -0.004003823962228161 0.01392296062786867 0 0 0
796 1 0.0016 1600 -0.0023364413990540045 0.006810514639903557 0.011434465513932889 0 0 0
797 1 0.0016 1600 0.004572528351205054 0.0055619221704540376 0.01564177161935475 0 0 0
798 1 0.0016 1600 0.006553205344147496 -0.0029833668233448895 0.017943429805168266 0 0 0
799 1 0.0016 1600 0.005762777924074998 -0.002735218231015017 0.013534612756710047 0 0 0
800 1 0.0016 1600 0.0025697828224502017 0.005131835267022465 0.016375061082564906 0 0 0
801 1 0.0016 1600 0.003525404503863837 -0.00627823671172469 0.016977836983962397 0 0 0
802 1 0.0016 1600 0.0010713738115233368 0.0036298034512176444 0.012066658920576533 0 0 0
803 1 0.0016 1600 -0.003895371766435313 0.006055342229843087 0.013831172600794254 0 0 0
804 1 0.0016 1600 -0.0024347729633656806 0.002673924300420701 0.014674132004999941 0 0 0
805 1 0.0016 1600 0.001203812202196516 -0.0008565028071965262 0.016586607523931422 0 0 0
806 1 0.0016 1600 -0.003602997671533094 0.006233872722335773 0.012269017693926972 0 0 0
807 1 0.0016 1600 -0.0014733089724124882 -0.0029110155608954268 0.01228987651463418 0 0 0
808 1 0.0016 1600 -0.0024093059289210725 0.0038225781082598517 0.015930920138777855 0 0 0
809 1 0.0016 1600 0.00020687268724649532 0.0017039506405133688 0.013797022238965057 0 0 0
810 1 0.0016 1600 -0.0036278351882025406 -0.0031359837971613484 0.015056865638385328 0 0 0
811 1 0.0016 1600 -0.00458893532831757 0.0036499606744092657 0.01709223077275752 0 0 0
812 1 0.0016 1600 -0.004600448337639879 -0.0032975994173220302 0.012779593792156863 0 0 0
813 1 0.0016 1600 0.005959836754666225 -0.0040404120060229 0.014438351474829433 0 0 0
814 1 0.0016 1600 -0.006021477122871623 -0.0018443624469756791 0.01691818224083558 0 0 0
815 1 0.0016 1600 -0.00613419921904215 0.003770504544835607 0.016653734450910222 0 0 0
816 1 0.0016 1600 0.0007174241750232061 0.007164319597750493 0.0141897358362856 0 0 0
817 1 0.0016 1600 -0.007097414973988765 -0.0012114261222839799 0.017918914484436315 0 0 0
818 1 0.0016 1600 0.0028298329360783602 -0.001873661059311128 0.0175640023379465 0 0 0
819 1 0.0016 1600 -0.0010467460324329243 0.0012140294761130513 0.018167544009371345 0 0 0
820 1 0.0016 1600 0.0032336771716686493 0.006433250551268052 0.015722777661298273 0 0 0
821 1 0.0016 1600 0.005477177296315705 0.004673700122930141 0.014666532665936743 0 0 0
822 1 0.0016 1600 -0.0057027452217099945 0.0013272165903957212 0.015142490516326426 0 0 0
823 1 0.0016 1600 -0.005718917161111949 0.004374294302456489 0.015232038972663208 0 0 0
824 1 0.0016 1600 -0.005601241946744816 0.00016910613109898445 0.014044124945060747 0 0 0
825 1 0.0016 1600 0.0001801795378754091 -0.004580122682997613 0.013684570879753395 0 0 0
826 1 0.0016 1600 -0.005047637268284681 -0.0038612388761475776 0.015832138840354493 0 0 0
827 1 0.0016 1600 -0.003011190348170859 0.004059335561585841 0.013321471279250461 0 0 0
828 1 0.0016 1600 0.0030306718078404677 0.0007340883757811022 0.011049648428337203 0 0 0
829 1 0.0016 1600 -0.002095853506028525 -0.00454454812955674 0.012489332996123223 0 0 0
830 1 0.0016 1600 -0.002832004957151879 -0.00580618445352054 0.015237314139975552 0 0 0
831 1 0.0016 1600 -0.0033851749782040966 0.004848544138826847 0.01144637660905093 0 0 0
832 1 0.0016 1600 0.00020255194848578832 0.0037010252294433377 0.016470397451481416 0 0 0
833 1 0.0016 1600 0.0007280721774235326 -0.005730928969119309 0.01271771365955593 0 0 0
834 1 0.0016 1600 -0.0007780611801381242 -0.00017252932638546885 0.016692491068623996 0 0 0
835 1 0.0016 1600 0.004368332500247052 0.0004395923694853217 0.013832417868270339 0 0 0
836 1 0.0016 1600 -0.0012426645258384811 0.004172797619386767 0.0169679325033438 0 0 0
837 1 0.0016 1600 0.0015450842054686171 -0.007032826663115479 0.012274627683934574 0 0 0
838 1 0.0016 1600 0.0007721634986699545 0.001681724669691276 0.012300654026164507 0 0 0
839 1 0.0016 1600 0.00571821418429127 0.004375209178506637 0.01621977104843454 0 0 0
840 1 0.0016 1600 0.0023911109947806473 0.0032411531674230456 0.014550850738555538 0 0 0
841 1 0.0016 1600 0.006965617060655688 0.0018231160302057381 0.017578673896423244 0 0 0
842 1 0.0016 1600 -0.00039939023975487883 -0.00015230361396602148 0.014261427886917503 0 0 0
843 1 0.0016 1600 0.0049210018404062745 -0.005256186800068019 0.0144892608851027 0 0 0
844 1 0.0016 1600 -0.0017598996037104667 -0.006976612423890214 0.015033425933583531 0 0 0
845 1 0.0016 1600 0.003044421627236861 0.004653001440620549 0.014924113202885196 0 0 0
846 1 0.0016 1600 0.006295331633961757 0.0034957016440761487 0.017839423225387712 0 0 0
847 1 0.0016 1600 0.004615918085826204 -0.0019691101928743637 0.01272415071166731 0 0 0
848 1 0.0016 1600 -0.0037996681173088193 0.0005881130127060355 0.016608497121713747 0 0 0
849 1 0.0016 1600 0.00047150665891236397 -0.0029279042543683656 0.014665400597153573 0 0 0
850 1 0.0016 1600 -0.00355786048344312 -0.004413886943486969 0.016016929831236173 0 0 0
851 1 0.0016 1600 0.0006089985857813029 0.005579106473814991 0.01635381804016653 0 0 0
852 1 0.0016 1600 0.001769902253339813 0.00697916501283267 0.015379613254331402 0 0 0
853 1 0.0016 1600 -0.005127288074078214 0.005055916638458867 0.016552733692079918 0 0 0
854 1 0.0016 1600 0.0026813474589314134 0.006065656858154935 0.014267200277896025 0 0 0
855 1 0.0016 1600 0.0033797077875285645 0.0024471574356380995 0.011711649325684808 0 0 0
856 1 0.0016 1600 0.003565856324987136 0.006255024705896168 0.017277499311479018 0 0 0
857 1 0.0016 1600 -0.0025614348709013584 -0.00429389408773112 0.014771727065301124 0 0 0
858 1 0.0016 1600 0.005949835630802479 0.0018751918442108508 0.015315656789488458 0 0 0
859 1 0.0016 1600 0.0008101534321074707 0.0029952351251347972 0.014555749699704421 0 0 0
860 1 0.0016 1600 -0.006507684502498606 -0.000838288959602903 0.014894380755509 0 0 0
861 1 0.0016 1600 0.0008228619944108868 -0.0035036984760139895 0.012036215574088977 0 0 0
862 1 0.0016 1600 0.0024793239438930647 0.005049695493244438 0.012678347162329497 0 0 0
863 1 0.0016 1600 -0.00016242620559893007 0.0010976792220107688 0.015231085333420668 0 0 0
864 1 0.0016 1600 0.0003123798908947582 0.0016778331219502358 0.017463217075263614 0 0 0
865 1 0.0016 1600 0.002877823308270459 -0.0014897772966615775 0.012105458403041752 0 0 0
866 1 0.0016 1600 -0.001089016783604983 -0.005728589161636463 0.012867844493618512 0 0 0
867 1 0.0016 1600 0.004763616415942373 0.003737981619857355 0.017449222781147057 0 0 0
868 1 0.0016 1600 -1.3601716269859778e-05 -0.0010041532700949323 0.015559443561843732 0 0 0
869 1 0.0016 1600 0.007187210457176341 -0.0004376691357297418 0.013980491762542837 0 0 0
870 1 0.0016 1600 -0.0017454460930184919 0.006985460193022897 0.01534184298911604 0 0 0
871 1 0.0016 1600 -0.0029356532016456636 0.0017765681940253417 0.01590925705059048 0 0 0
872 1 0.0016 1600 0.0036251584094593326 -0.0009070301246244178 0.013393892904998112 0 0 0
873 1 0.0016 1600 0.004508939693122562 0.0019112401544062023 0.012710313539101284 0 0 0
874 1 0.0016 1600 -3.2512264851365675e-05 -0.007200462931166035 0.0168095231925226 0 0 0
875 1 0.0016 1600 -0.007149054004063977 -0.0008563330550993646 0.016359843094788874 0 0 0
876 1 0.0016 1600 0.002009217265425099 0.006914480319174118 0.013089805787807725 0 0 0
877 1 0.0016 1600 0.0066115645942824534 0.002850860506676288 0.016404768947260177 0 0 0
878 1 0.0016 1600 -0.005090356631254382 -0.003003572322860983 0.01750877768225292 0 0 0
879 1 0.0016 1600 -0.0027353580383019903 -0.005076898023622999 0.011123427270719095 0 0 0
880 1 0.0016 1600 0.0054455331536987514 -0.004711002984506524 0.013079856805009784 0 0 0
881 1 0.0016 1600 0.0013662922012007616 0.0013820630065278462 0.01485682978451418 0 0 0
882 1 0.0016 1600 -0.0001245001212746929 -0.0012817513537987165 0.013162396188406915 0 0 0
883 1 0.0016 1600 -0.004965153684010102 -0.002787317597803376 0.01425112235498156 0 0 0
884 1 0.0016 1600 0.006968151400993284 -0.001812975455352048 0.01649014136404488 0 0 0
885 1 0.0016 1600 -0.0014921429430380612 -0.0031938007159124505 0.01522462826596487 0 0 0
886 1 0.0016 1600 0.007024911268095526 0.001578187520805104 0.019158626999421946 0 0 0
887 1 0.0016 1600 -0.0021652138046827324 0.006867190685854178 0.0197455838645499 0 0 0
888 1 0.0016 1600 -0.0019650834120804143 0.003856108262481315 0.018359578634618564 0 0 0
889 1 0.0016 1600 -0.0011121859254870363 -0.005743930175633735 0.017002583115180627 0 0 0
890 1 0.0016 1600 0.00027019048948826965 0.001414615494987347 0.019053632374690762 0 0 0
891 1 0.0016 1600 0.0039213347473258655 -0.0005645638009010175 0.014994450656691029 0 0 0
892 1 0.0016 1600 -0.005553161878180455 -0.001791323704004562 0.02035119335993971 0 0 0
893 1 0.0016 1600 -0.0028636728113209864 0.005168276313077567 0.019378704044364415 0 0 0
894 1 0.0016 1600 0.004259137465546696 -0.002028650598509986 0.01826476380201328 0 0 0
895 1 0.0016 1600 -8.158144082899908e-05 -0.007199585396032161 0.018946409630279274 0 0 0
896 1 0.0016 1600 0.003868796705204613 -0.006073115766245601 0.019121186815977215 0 0 0
897 1 0.0016 1600 0.00680247881203363 -0.0023611474432416887 0.019795115946395964 0 0 0
898 1 0.0016 1600 -0.0066252927990053815 0.002819756980262903 0.014994301392238316 0 0 0
899 1 0.0016 1600 0.001784885496415655 -0.006975358063890967 0.021032822166749954 0 0 0
900 1 0.0016 1600 0.0030612730630553368 -0.005127627456282296 0.018114999283850304 0 0 0
901 1 0.0016 1600 -0.0041908591554320135 -0.003773077858275858 0.019079703263823144 0 0 0
902 1 0.0016 1600 -0.0009092788206043973 -0.005802467686642879 0.018735991552785904 0 0 0
903 1 0.0016 1600 0.00553502891048432 -0.001234385259713504 0.0208507356326983 0 0 0
904 1 0.0016 1600 0.003904789814297052 -0.006049253611837954 0.015437049905112408 0 0 0
905 1 0.0016 1600 -0.003785778515874035 -0.002451307794470393 0.018252252188577418 0 0 0
906 1 0.0016 1600 -0.005390961049940492 -0.002710785027794592 0.01905213805654705 0 0 0
907 1 0.0016 1600 -0.0013913124115540359 0.0056750494561332585 0.01901174883968484 0 0 0
908 1 0.0016 1600 -0.0041191622630808175 0.004809656616284544 0.018454887073185055 0 0 0
909 1 0.0016 1600 -0.0012476660970074912 0.0019815150457892115 0.02183304449003693 0 0 0
910 1 0.0016 1600 -0.0006312614933635807 0.0017801435423267739 0.02032678573417252 0 0 0
911 1 0.0016 1600 0.0036460057841309224 0.0018063331759837222 0.016447746540026544 0 0 0
912 1 0.0016 1600 0.0054710201125551935 0.004681125730123358 0.018530195180707854 0 0 0
913 1 0.0016 1600 0.004060136393277501 0.0007129918281427747 0.017675793363780234 0 0 0
914 1 0.0016 1600 0.0006251708455907768 0.007173147413262818 0.01648701902271887 0 0 0
915 1 0.0016 1600 -0.005258791620747464 0.004918773423757392 0.021237437727775307 0 0 0
916 1 0.0016 1600 -0.005358043256020499 0.001847010179712766 0.017899039888157307 0 0 0
917 1 0.0016 1600 0.0022621328439490235 0.0012253998673777164 0.017023395077306065 0 0 0
918 1 0.0016 1600 -0.004180087276878966 0.002122434393227276 0.01685262534818625 0 0 0
919 1 0.0016 1600 0.0019853467373989273 0.004261592956013956 0.01871572713831501 0 0 0
920 1 0.0016 1600 -0.007097044559718597 0.0012170434985798702 0.020031423968107375 0 0 0
921 1 0.0016 1600 0.002031731687223033 -0.002911783851079324 0.01848276336779952 0 0 0
922 1 0.0016 1600 -7.569659354917428e-05 -0.003700258027156763 0.02007658515403 0 0 0
923 1 0.0016 1600 0.004583888682542418 0.0005278653138145957 0.01917613946709498 0 0 0
924 1 0.0016 1600 -0.004707150867256924 0.0034199925800073184 0.021319456594123994 0 0 0
925 1 0.0016 1600 0.0017411765367893724 0.0003949488492391432 0.020547013907440223 0 0 0
926 1 0.0016 1600 0.004020415353778484 0.004405887695109967 0.019393670057528744 0 0 0
927 1 0.0016 1600 0.0011164843688873374 -0.005702327461069593 0.01868583697115617 0 0 0
928 1 0.0016 1600 -0.0014043288293969945 -0.004477998854937234 0.01793710726525715 0 0 0
929 1 0.0016 1600 -0.0003741591141587632 0.005910592322167694 0.017571453044987095 0 0 0
930 1 0.0016 1600 0.006441618077544572 0.00321725164198469 0.019407963603659737 0 0 0
931 1 0.0016 1600 -0.002625477785504084 -0.005166496139449961 0.01870690347151213 0 0 0
932 1 0.0016 1600 -0.001242668570788792 -0.00709275738192542 0.01785207636966606 0 0 0
933 1 0.0016 1600 -0.0008364066861418962 0.002841858969169957 0.01914833910940053 0 0 0
934 1 0.0016 1600 -0.0004390792048586734 -0.0002574985554162766 0.018321731600105244 0 0 0
935 1 0.0016 1600 0.0048564284747646255 0.002173939599950683 0.021215634686683065 0 0 0
936 1 0.0016 1600 -0.0031224846224724868 0.006487954416147965 0.0185123591832054 0 0 0
937 1 0.0016 1600 0.0005440006430257834 -0.0059923034726652525 0.021516069259471204 0 0 0
938 1 0.0016 1600 -0.0047621939193674195 0.005400448905310708 0.019795127335052013 0 0 0
939 1 0.0016 1600 -0.005883766267151807 0.002117893112609984 0.02176133156387663 0 0 0
940 1 0.0016 1600 -0.0001878409519150509 -0.004434769812962626 0.01689987749450285 0 0 0
941 1 0.0016 1600 -0.0059324014668174375 0.002092293410437518 0.019371287481154263 0 0 0
942 1 0.0016 1600 -0.001957294130169111 -0.0021392571408427852 0.02166558150187312 0 0 0
943 1 0.0016 1600 0.003993860496065751 0.004144943905295982 0.01610712463993148 0 0 0
944 1 0.0016 1600 -0.004873090711527527 0.0009131604648477573 0.019155178485797845 0 0 0
945 1 0.0016 1600 -0.0004726803058961412 -0.006227561122010218 0.015618131111107622 0 0 0
946 1 0.0016 1600 0.0015053821675481693 0.005139092644454089 0.01996417436883086 0 0 0
947 1 0.0016 1600 0.0034685320949038667 0.004656801711242621 0.01763817097318141 0 0 0
948 1 0.0016 1600 -0.003558846085465226 -0.0012133270335952823 0.017229572210519174 0 0 0
949 1 0.0016 1600 0.002099219841505182 0.0018146953583974724 0.019899380574314424 0 0 0
950 1 0.0016 1600 0.003073979673182893 -0.0031649340500029418 0.02014384656206418 0 0 0
951 1 0.0016 1600 -0.0009186757170547887 0.006813178688668469 0.02077916913417643 0 0 0
952 1 0.0016 1600 0.005115433303326734 -3.3565085539282466e-05 0.016038305596202198 0 0 0
953 1 0.0016 1600 -0.0027353030411582592 0.00016625971327078733 0.018482592219537873 0 0 0
954 1 0.0016 1600 -0.002685608366799198 -0.003609894530089695 0.01834191518224789 0 0 0
955 1 0.0016 1600 0.005336246004376105 -0.0015998070325877085 0.015797490703413297 0 0 0
956 1 0.0016 1600 -0.007199796805398349 -5.672731155967149e-05 0.01902159496288793 0 0 0
957 1 0.0016 1600 -0.004523508858967878 -8.722145632631058e-05 0.02041444611896608 0 0 0
958 1 0.0016 1600 -0.002956660108829986 -0.00019288352781068787 0.022005487725512408 0 0 0
959 1 0.0016 1600 0.0001989463379279605 0.004210508527339338 0.01974808708262434 0 0 0
960 1 0.0016 1600 -0.0036113757492050942 0.00509724467934328 0.016044675733668506 0 0 0
961 1 0.0016 1600 0.004262111252975261 0.005803458488325728 0.02021802025502121 0 0 0
962 1 0.0016 1600 0.004144816221385868 -0.003407051760294085 0.017461188964931873 0 0 0
963 1 0.0016 1600 0.0007843171563412416 0.007157175443552817 0.02021490077490239 0 0 0
964 1 0.0016 1600 -0.005614586469771282 0.004508031980278858 0.017974635262610228 0 0 0
965 1 0.0016 1600 -0.005213526496513052 -0.0034187657829909688 0.02168420840591322 0 0 0
966 1 0.0016 1600 -0.005234004505482984 -0.004944773959815884 0.016994082258139954 0 0 0
967 1 0.0016 1600 0.0025635110930269343 -0.005166299984823094 0.015317537444722282 0 0 0
968 1 0.0016 1600 0.0012002189418628703 -0.00420648818047796 0.017663120636256826 0 0 0
969 1 0.0016 1600 0.005630480315065624 0.0006435724841735013 0.017971559895755482 0 0 0
970 1 0.0016 1600 0.004311899230612552 0.0038290738784797222 0.02124088460929537 0 0 0
971 1 0.0016 1600 0.002215872281877239 0.00019854913319812323 0.0189385833234996 0 0 0
972 1 0.0016 1600 -0.0021069494433947865 0.005349542474863391 0.01556277799394733 0 0 0
973 1 0.0016 1600 -0.0016284971154980012 -0.0006408961770799512 0.019434202056426583 0 0 0
974 1 0.0016 1600 0.0018557803374134984 0.006957122146374392 0.021892109324596395 0 0 0
975 1 0.0016 1600 0.005036795545073653 -0.0051454852700233795 0.017327546510251993 0 0 0
976 1 0.0016 1600 0.0019503684105456093 0.006931049280538077 0.018826936497099506 0 0 0
977 1 0.0016 1600 0.002558530216621525 0.003374702709668338 0.020136401311866652 0 0 0
978 1 0.0016 1600 -0.002090751356017404 0.0024276332716873543 0.020423352973966302 0 0 0
979 1 0.0016 1600 -0.0022956321002892835 0.0021423697515704026 0.018580581015814567 0 0 0
980 1 0.0016 1600 0.0008080410736515324 0.0032799485520603206 0.020897694662791517 0 0 0
981 1 0.0016 1600 -0.006609859662744417 0.0028552900437084656 0.01787616289518164 0 0 0
982 1 0.0016 1600 0.0028982368983742094 0.005678877029156101 0.019391568920553968 0 0 0
983 1 0.0016 1600 -5.2730355819967185e-05 -0.0014750127583314768 0.017359106952443713 0 0 0
984 1 0.0016 1600 0.003251832409432152 0.000671049419760604 0.02009871707863006 0 0 0
985 1 0.0016 1600 -0.005024035643564598 -0.005157472303991505 0.019227527551156098 0 0 0
986 1 0.0016 1600 -0.006394131249233313 -0.0011658681606448896 0.021559572717467213 0 0 0
987 1 0.0016 1600 -0.0062012246119263 0.0036594140765242077 0.019197257233078607 0 0 0
988 1 0.0016 1600 0.001502701924001083 0.0008067443711549752 0.022074369372537483 0 0 0
989 1 0.0016 1600 0.004290514141734258 -0.0008588005247246306 0.01991830846589811 0 0 0
990 1 0.0016 1600 -0.003046662097962995 -0.006524302788058079 0.02081715378912054 0 0 0
991 1 0.0016 1600 -0.0036569524803208102 -0.0010521413484423712 0.019017500388313544 0 0 0
992 1 0.0016 1600 0.007121779140944547 -0.0010630125394777584 0.02095768578307889 0 0 0
993 1 0.0016 1600 0.0010147700188073887 0.0002591386583345615 0.017883336169829882 0 0 0
994 1 0.0016 1600 0.0011298062486404454 -0.0071112982644026485 0.017905569607923985 0 0 0
995 1 0.0016 1600 0.005572749260217886 0.0015272226732837724 0.019939764089900343 0 0 0
996 1 0.0016 1600 -0.0005115683508991722 0.007182240994682107 0.019277019449847117 0 0 0
997 1 0.0016 1600 0.0006241280396679939 -0.005786385605559688 0.017165966196976433 0 0 0
998 1 0.0016 1600 0.0005257584200960814 -0.0004082488083241593 0.021313570160335648 0 0 0
999 1 0.0016 1600 0.005228367190710641 -0.004950434186600496 0.022304970607716433 0 0 0
1000 1 0.0016 1600 0.0020962972159255574 -0.005249256881749939 0.016845087881037436 0 0 0
1001 1 0.0016 1600 -0.0029319669154416537 0.0034970219655960704 0.019582174895806735 0 0 0
1002 1 0.0016 1600 0.0013468405867274116 -0.0012876786406157393 0.018120453928566406 0 0 0
1003 1 0.0016 1600 0.001981663905599999 -0.004406687737218995 0.01904978474429061 0 0 0
1004 1 0.0016 1600 -0.0005090862327889464 0.004518230326447174 0.018347069125006568 0 0 0
1005 1 0.0016 1600 0.0005549356615787404 0.007178701637597842 0.018084938273401015 0 0 0
1006 1 0.0016 1600 -0.0053753892401086426 0.0008636464710672119 0.016637758548741735 0 0 0
1007 1 0.0016 1600 -0.003637256452022957 -0.006213885996520117 0.01655828718081012 0 0 0
1008 1 0.0016 1600 -0.007002598884353485 -0.001674440502905876 0.019447389473945337 0 0 0
1009 1 0.0016 1600 0.0014933277231073958 -0.0014467772355654365 0.019705316451720883 0 0 0
1010 1 0.0016 1600 -0.0020977544949113214 -0.0038378396433379615 0.021239875495350714 0 0 0
1011 1 0.0016 1600 -0.002895572909747893 -0.006592116380669715 0.01797631862372733 0 0 0
1012 1 0.0016 1600 -0.0013689566290816194 -0.0070686716112296835 0.02072137378102544 0 0 0
1013 1 0.0016 1600 -0.0009618643271686231 0.007135877442605511 0.016728081434416467 0 0 0
1014 1 0.0016 1600 0.0002890008105239177 0.0031628854113319844 0.018057015656172945 0 0 0
1015 1 0.0016 1600 0.0016480553855167512 0.005536933788229009 0.022598057637238527 0 0 0
1016 1 0.0016 1600 -0.004163056186464263 -0.004047407365045862 0.020655332730584078 0 0 0
1017 1 0.0016 1600 0.0050376321384258465 0.0029326093522612662 0.01609499185983199 0 0 0
1018 1 0.0016 1600 0.00010226179014045593 -0.003043235812996631 0.01763581532157051 0 0 0
1019 1 0.0016 1600 0.0018195713032806325 -0.0001112791492283263 0.015312317358675134 0 0 0
1020 1 0.0016 1600 0.004213713451839869 0.0022941347294224714 0.017861096573022088 0 0 0
1021 1 0.0016 1600 0.005808561514102137 0.004255221599473228 0.021612821629521623 0 0 0
1022 1 0.0016 1600 0.002551888412174967 -0.004631213528511488 0.02076144759424583 0 0 0
1023 1 0.0016 1600 -0.004675048436120438 -0.005476312357930935 0.015590049277790612 0 0 0
1024 1 0.0016 1600 0.005993944328801486 -0.003989951670524084 0.021279877805571678 0 0 0
1025 1 0.0016 1600 -0.0005811459711064609 0.00018134979795442246 0.02032093975245701 0 0 0
1026 1 0.0016 1600 -0.0019915939091726615 -0.006919089219546038 0.01925520397851301 0 0 0
1027 1 0.0016 1600 -0.004628678043175515 0.0036985041400706964 0.01948696408754579 0 0 0
1028 1 0.0016 1600 0.0029759181610268495 -0.0018572044587332353 0.01922788748618596 0 0 0
1029 1 0.0016 1600 -0.00379873063137065 -0.0011947328350659435 0.015624392206809007 0 0 0
1030 1 0.0016 1600 -0.002325070432043795 0.0038650153949270284 0.021085845131702727 0 0 0
1031 1 0.0016 1600 0.0014205729383545542 -0.007058854733661695 0.019477630122627012 0 0 0
1032 1 0.0016 1600 -0.007197904980030324 0.00018084849154365355 0.021245413422930993 0 0 0
1033 1 0.0016 1600 0.0009589549959750704 -0.004917163378636682 0.02016905686221364 0 0 0
1034 1 0.0016 1600 0.0015742593648965866 0.002913373826664405 0.017138072098059287 0 0 0
1035 1 0.0016 1600 -0.0016498823124953973 0.00700856303128477 0.018166591032428854 0 0 0
1036 1 0.0016 1600 0.0020044545629106106 -0.0007352352991489065 0.021828033621917788 0 0 0
1037 1 0.0016 1600 0.0020649888282360837 -0.003407643847217768 0.02166923049956713 0 0 0
1038 1 0.0016 1600 -0.0028860497111234244 -0.001580923978014086 0.02039965534236887 0 0 0
1039 1 0.0016 1600 -0.003781685345753573 0.003011390822136922 0.01831674809850643 0 0 0
1040 1 0.0016 1600 0.0005858229192222423 -0.0026190543028902615 0.01910073810263889 0 0 0
1041 1 0.0016 1600 0.001500501031909713 -0.004152430403322526 0.014683994039370535 0 0 0
1042 1 0.0016 1600 0.005565972580128599 -0.0033240861891578846 0.01673182336352 0 0 0
1043 1 0.0016 1600 -0.005035571760653366 -0.0014613470807567234 0.018118400479086364 0 0 0
1044 1 0.0016 1600 -0.004263357361981146 -0.0014365750530942474 0.021233489598185367 0 0 0
1045 1 0.0016 1600 -0.005713167636142169 -0.0043821334720625165 0.020445390137916096 0 0 0
1046 1 0.0016 1600 -0.006577189121974926 0.0029305950188881417 0.020570969642541494 0 0 0
1047 1 0.0016 1600 -0.0035322632627362302 0.006274037318388788 0.020327748961797065 0 0 0
1048 1 0.0016 1600 0.004560410411982691 -0.003417880172027117 0.019006042464505532 0 0 0
1049 1 0.0016 1600 0.0025876811216447933 -0.003598681135520978 0.017149480751835276 0 0 0
1050 1 0.0016 1600 -0.00664590376776631 -0.0027712549304940554 0.01806247275170538 0 0 0
1051 1 0.0016 1600 0.0009098991275728343 0.0006983893874457608 0.01634886218467609 0 0 0
1052 1 0.0016 1600 -0.0024397310996982454 -0.00025373623186548884 0.01660869308613387 0 0 0
1053 1 0.0016 1600 0.004967197975877532 -0.0030952495161496465 0.015263169952171899 0 0 0
1054 1 0.0016 1600 -0.0004067719402963624 -0.005745997266684256 0.020253696646382057 0 0 0
1055 1 0.0016 1600 0.003423676301507331 0.0002299297044957519 0.01629040021843402 0 0 0
1056 1 0.0016 1600 0.0036597315813410927 0.002217219868058823 0.020054512675343708 0 0 0
1057 1 0.0016 1600 7.4703679252553255e-06 -0.004492628281840892 0.018689572533169274 0 0 0
1058 1 0.0016 1600 0.0007128380678684975 -7.927349275139645e-05 0.01941733881806952 0 0 0
1059 1 0.0016 1600 -0.005269697528172076 0.002702277021840696 0.015835077438674863 0 0 0
1060 1 0.0016 1600 0.0016323533066085179 0.0018670667657764923 0.018346862174206464 0 0 0
1061 1 0.0016 1600 0.0032058324679526697 0.0032279912845089615 0.01868037251437403 0 0 0
1062 1 0.0016 1600 0.006759098689877365 0.000898132745379768 0.016289943885969972 0 0 0
1063 1 0.0016 1600 -0.0017964163605926316 -0.0009801414538060538 0.017879965025698004 0 0 0
1064 1 0.0016 1600 0.00021282501690960862 -0.007197397446042617 0.020518372665688338 0 0 0
1065 1 0.0016 1600 0.0046825534093322945 0.00043955981665408914 0.02077555374142522 0 0 0
1066 1 0.0016 1600 -0.0032418677027702494 0.006429843253802166 0.015242001964232539 0 0 0
1067 1 0.0016 1600 -0.004955773890338035 -0.000679560275259886 0.016662624663043354 0 0 0
1068 1 0.0016 1600 0.0031392756007118006 0.004762338637833045 0.020680751678881403 0 0 0
1069 1 0.0016 1600 0.004228361691058387 -0.000960413068538427 0.016994251224918273 0 0 0
1070 1 0.0016 1600 -0.0024475418466680687 -0.00235344468975407 0.017380923176659856 0 0 0
1071 1 0.0016 1600 -0.004329439110955631 -3.2091301000956285e-05 0.01798472079067073 0 0 0
1072 1 0.0016 1600 0.007049104611332027 -0.001467550370922191 0.018062551551887046 0 0 0
1073 1 0.0016 1600 -0.0037373254918417627 0.004454479735640649 0.02057885165397008 0 0 0
1074 1 0.0016 1600 -0.0036908776877760223 0.001418346823799647 0.01820307934524137 0 0 0
1075 1 0.0016 1600 -0.002221302753114467 0.0009293280037387875 0.02110388383638188 0 0 0
1076 1 0.0016 1600 0.00621943839520306 0.0001516822663653795 0.02043867072737736 0 0 0
1077 1 0.0016 1600 -0.0037692803986775912 -0.002839223862517417 0.016622197634353842 0 0 0
1078 1 0.0016 1600 0.005684603556939994 0.00216094101033014 0.018475240903860678 0 0 0
1079 1 0.0016 1600 -0.005917420940381126 -0.000133366568098072 0.01781851468422321 0 0 0
1080 1 0.0016 1600 0.003610983684790202 -0.0005844938579460476 0.018496162918082922 0 0 0
1081 1 0.0016 1600 0.004922301111175111 0.0031885757338484615 0.019907883819111405 0 0 0
1082 1 0.0016 1600 0.007191982291772484 0.0003464917243348367 0.018151191125048788 0 0 0
1083 1 0.0016 1600 0.005783257895879223 -0.004289080697013208 0.018453502272093553 0 0 0
1084 1 0.0016 1600 0.003639092682047651 -0.004710228743628392 0.01668314061915021 0 0 0
1085 1 0.0016 1600 -0.0024054433475701967 0.006787125317777954 0.02136822809765053 0 0 0
1086 1 0.0016 1600 0.001341052421788286 0.0044905844563957985 0.01726956392213564 0 0 0
1087 1 0.0016 1600 0.006347761690616902 -0.00044843364207591867 0.017048701452878436 0 0 0
1088 1 0.0016 1600 0.00313889732132471 0.0014884611590043676 0.01872873310491473 0 0 0
1089 1 0.0016 1600 0.004295574479488737 0.005778398565324561 0.018619024712743588 0 0 0
1090 1 0.0016 1600 -0.0019233356962333713 0.005515445600219774 0.01750977868654987 0 0 0
1091 1 0.0016 1600 5.390825376450001e-05 0.005533423526014983 0.02272618167991881 0 0 0
1092 1 0.0016 1600 0.0021850012715000046 -0.0022521659354520825 0.022768362338447458 0 0 0
1093 1 0.0016 1600 -0.003025282702054485 0.005783267186750467 0.026474863131471724 0 0 0
1094 1 0.0016 1600 -0.0032384558024915336 0.0015539177761826754 0.01973150106852742 0 0 0
1095 1 0.0016 1600 -0.0014817037651347741 0.0031648558370523045 0.02504566141385785 0 0 0
1096 1 0.0016 1600 -0.005232380153671615 0.002470860147105356 0.025922841068014423 0 0 0
1097 1 0.0016 1600 0.007124913109524967 -0.001039877664398269 0.023218514370222505 0 0 0
1098 1 0.0016 1600 -1.0392386491464022e-05 0.007200140170398574 0.024727597495972888 0 0 0
1099 1 0.0016 1600 -0.0029941456307960987 0.005334944870802473 0.021687993500330512 0 0 0
1100 1 0.0016 1600 -0.0003454567682678186 -0.0032539125479439514 0.026195392231284434 0 0 0
1101 1 0.0016 1600 -0.0001643606013888081 0.004848134775992161 0.025011386601874 0 0 0
1102 1 0.0016 1600 0.0005834953164279932 -0.001015984414128628 0.024128715485840786 0 0 0
1103 1 0.0016 1600 -0.001986375209439049 -0.004688182448714416 0.022590002656306465 0 0 0
1104 1 0.0016 1600 -0.0041769239413899225 -0.002202801071101369 0.024909563729727635 0 0 0
1105 1 0.0016 1600 0.0027277802055051927 0.0013722790704023937 0.022933997838864465 0 0 0
1106 1 0.0016 1600 0.0001282477522017723 -0.00719906135036607 0.023690046783692287 0 0 0
1107 1 0.0016 1600 -0.0007504115368674085 0.002802754143975416 0.023255526952684877 0 0 0
1108 1 0.0016 1600 -0.0029600410382401164 -0.005025837530063413 0.020264487599464545 0 0 0
1109 1 0.0016 1600 -0.003862245601548101 -0.004060885017846097 0.02403358151832926 0 0 0
1110 1 0.0016 1600 -0.001767828368582903 0.0009467769210114914 0.019569841294479886 0 0 0
1111 1 0.0016 1600 0.0071872197786631425 0.0004342104025764643 0.023845293730673 0 0 0
1112 1 0.0016 1600 -0.004170047656238448 0.0006337993603901594 0.022640305496344736 0 0 0
1113 1 0.0016 1600 0.0013972410621695898 0.002738731936467988 0.023183725139977848 0 0 0
1114 1 0.0016 1600 0.003934161880068338 0.0035723499425289757 0.026509293293770286 0 0 0
1115 1 0.0016 1600 -0.0022892244535362496 0.003159987597695859 0.023003316638334933 0 0 0
1116 1 0.0016 1600 0.007045624790834452 0.0014840733228861723 0.02075643436590476 0 0 0
1117 1 0.0016 1600 0.005434974644691485 0.00471914872393105 0.020128614354271275 0 0 0
1118 1 0.0016 1600 -0.001292547397540697 -0.005644800000362309 0.025414937427929978 0 0 0
1119 1 0.0016 1600 0.00553955375067944 0.0013729123895118121 0.026097763818081765 0 0 0
1120 1 0.0016 1600 -0.003465143006141947 0.003897074771153405 0.022207708498421873 0 0 0
1121 1 0.0016 1600 0.0035598655989324724 -0.003281912213495116 0.022257992883757672 0 0 0
1122 1 0.0016 1600 0.006527683841428107 0.003038618315761219 0.02496526988299156 0 0 0
1123 1 0.0016 1600 0.005076176387187924 0.0023484290156181526 0.022790671432822422 0 0 0
1124 1 0.0016 1600 0.0027750060996306492 -0.0008194176612278623 0.020428604643117233 0 0 0
1125 1 0.0016 1600 0.004727423588486764 0.005430785071856841 0.0217022818252651 0 0 0
1126 1 0.0016 1600 0.00027033062637285505 0.001956252739375476 0.022361254524736016 0 0 0
1127 1 0.0016 1600 -0.005850028496631926 -0.0007377530355782279 0.024889799106267516 0 0 0
1128 1 0.0016 1600 0.0022333554863193856 8.740198610063986e-05 0.02637303977327946 0 0 0
1129 1 0.0016 1600 -0.0030490356509877735 2.2136349508073663e-05 0.02360342502433242 0 0 0
1130 1 0.0016 1600 0.0014893400094815059 -0.003383640131177242 0.020176908217379566 0 0 0
1131 1 0.0016 1600 0.00027138692096971925 -0.0036899321098240595 0.024785300297642913 0 0 0
1132 1 0.0016 1600 -0.0007578585963679064 0.005967196715313502 0.02403438068899276 0 0 0
1133 1 0.0016 1600 0.00038950758796222246 -0.0005753484737570501 0.025691232363477482 0 0 0
1134 1 0.0016 1600 -0.005880951319041188 0.004154027558816494 0.02404424940428488 0 0 0
1135 1 0.0016 1600 0.006274860123832967 0.002870870145225223 0.020960774431648826 0 0 0
1136 1 0.0016 1600 -0.0038350322824721593 0.0011497200992311612 0.021159941585644947 0 0 0
1137 1 0.0016 1600 0.006512826736170976 -0.0021752375077881635 0.024189661475165453 0 0 0
1138 1 0.0016 1600 0.003603305811423427 -0.0017113120603186858 0.023272894353443038 0 0 0
1139 1 0.0016 1600 0.002704563558513137 -0.006673072886151326 0.02293667772167971 0 0 0
1140 1 0.0016 1600 -0.000163421495996923 -0.002526596496728493 0.021159881725402358 0 0 0
1141 1 0.0016 1600 -0.0028318703460790055 -0.0027175854379147607 0.02421319189456239 0 0 0
1142 1 0.0016 1600 0.0005669079681710714 -0.0030324124698059953 0.02249029130502011 0 0 0
1143 1 0.0016 1600 -0.002751962167606257 -0.003257452754286132 0.019900776925447665 0 0 0
1144 1 0.0016 1600 0.004615271614752797 -0.0038660061096042067 0.02330877255812466 0 0 0
1145 1 0.0016 1600 0.0034758852737601974 0.005617365829723355 0.02562187192297425 0 0 0
1146 1 0.0016 1600 0.0034122015418090023 0.0063403009507916 0.021462473516071293 0 0 0
1147 1 0.0016 1600 -0.0007896548163343423 0.003245703043204613 0.020966487622058723 0 0 0
1148 1 0.0016 1600 0.006440173759373612 -0.002455592295473119 0.021350135905521532 0 0 0
1149 1 0.0016 1600 -0.0013842459848184827 0.005775293059502367 0.022069610246344268 0 0 0
1150 1 0.0016 1600 0.006484497131847891 0.003128981349569462 0.022525643923768383 0 0 0
1151 1 0.0016 1600 0.002397927475895498 -0.005811145932523176 0.019692641068881647 0 0 0
1152 1 0.0016 1600 -0.0017675725048959257 0.00045650753488158687 0.02445692317134614 0 0 0
1153 1 0.0016 1600 0.0003187699330294408 4.999313574229553e-05 0.022839547207667423 0 0 0
1154 1 0.0016 1600 0.004063909828737895 0.0010835367176535182 0.022102771138556725 0 0 0
1155 1 0.0016 1600 -0.0007474226917480587 -0.005684370356696297 0.022410786850157446 0 0 0
1156 1 0.0016 1600 -0.004583753257153734 0.0022730318543865424 0.020211665288695443 0 0 0
1157 1 0.0016 1600 -0.006676477334752716 0.0026958032416990883 0.023024896971309036 0 0 0
1158 1 0.0016 1600 -0.005630866931174365 -0.0027561125261011724 0.025443654295459035 0 0 0
1159 1 0.0016 1600 0.005685883501005614 -0.0011145887947268702 0.025388867201930152 0 0 0
1160 1 0.0016 1600 -0.003658684844112433 0.00232224130714888 0.025675583273456388 0 0 0
1161 1 0.0016 1600 8.723620544218154e-05 -0.0063974912874122285 0.025713059269703978 0 0 0
1162 1 0.0016 1600 -0.0005397140806208472 0.0018830907093856206 0.0248755500054342 0 0 0
1163 1 0.0016 1600 0.002562219782917998 -0.004361614351601255 0.022887629591611267 0 0 0
1164 1 0.0016 1600 -0.003271177240116218 -0.0016934166971027907 0.02246207090209803 0 0 0
1165 1 0.0016 1600 -0.003641113897931697 -0.00621201947859219 0.01936534192388286 0 0 0
1166 1 0.0016 1600 0.0035615724662136326 -0.004555790440016381 0.01952278524470683 0 0 0
1167 1 0.0016 1600 -0.0030953667232062466 0.006500708421971226 0.022782811180899126 0 0 0
1168 1 0.0016 1600 0.002796042154206421 -0.002471622313857419 0.025203710339832562 0 0 0
1169 1 0.0016 1600 -0.007085859364513457 0.0012798394137406807 0.02240261558971138 0 0 0
1170 1 0.0016 1600 0.002008320111769623 -0.00557483264562273 0.022005107985995028 0 0 0
1171 1 0.0016 1600 0.0008728191842574445 -0.004460535877394235 0.0218379455404561 0 0 0
1172 1 0.0016 1600 0.0036981381424525963 -0.004919798746767839 0.02183938584857309 0 0 0
1173 1 0.0016 1600 -0.0016020042931454523 -0.0021976783505110757 0.025304740214090207 0 0 0
1174 1 0.0016 1600 -4.8146623641671964e-05 -0.005454776182404366 0.024427620765321324 0 0 0
1175 1 0.0016 1600 0.0011314521862320823 0.0012118928640668018 0.02358031200431347 0 0 0
1176 1 0.0016 1600 0.00461406529077212 -0.0030874551487826995 0.0205705588977405 0 0 0
1177 1 0.0016 1600 -0.003037213810881737 0.0030853410451873366 0.02441494710559426 0 0 0
1178 1 0.0016 1600 -0.0018942761972727282 0.001997810612798427 0.024032061254594086 0 0 0
1179 1 0.0016 1600 0.0004493647293151769 0.004058021379447996 0.0222489068607171 0 0 0
1180 1 0.0016 1600 -0.0031217450630780354 0.006488124129581685 0.025041912569411035 0 0 0
1181 1 0.0016 1600 -0.0057721807329996775 -0.004303783244927591 0.022894375548291625 0 0 0
1182 1 0.0016 1600 -0.005619435435239446 0.0011842439540905288 0.023034224228185924 0 0 0
1183 1 0.0016 1600 -0.0004075509629366289 0.007188618868922235 0.02652895568986001 0 0 0
1184 1 0.0016 1600 -0.004447736927505958 -0.005661235307880489 0.02063244752032066 0 0 0
1185 1 0.0016 1600 -0.0054971276492607616 -0.0020343137826852823 0.0240220225319844 0 0 0
1186 1 0.0016 1600 -0.0017670424703437214 -0.0006262976693553369 0.021027943347406954 0 0 0
1187 1 0.0016 1600 0.004317781478496864 -0.001462083561730562 0.02186336647791995 0 0 0
1188 1 0.0016 1600 -0.007188468173832048 -0.0004170022983704885 0.022728904669316673 0 0 0
1189 1 0.0016 1600 0.0007559528453213106 0.003974290758849258 0.025985283052165808 0 0 0
1190 1 0.0016 1600 -0.0048217653656436 0.00031881778066125346 0.024117647135389907 0 0 0
1191 1 0.0016 1600 0.0017399969625464225 0.004478371426646004 0.02140218472009445 0 0 0
1192 1 0.0016 1600 0.0007442152698424681 0.005568469373903527 0.026112982666668616 0 0 0
1193 1 0.0016 1600 -0.00585500395892299 -0.004190534749935653 0.018261027083562437 0 0 0
1194 1 0.0016 1600 0.004132901270615856 -0.0003453191855116561 0.023915157924251706 0 0 0
1195 1 0.0016 1600 0.00256081432583169 0.001577198595491401 0.02451183206095514 0 0 0
1196 1 0.0016 1600 -0.000655825274132678 -0.001252846440124653 0.02199305274199234 0 0 0
1197 1 0.0016 1600 0.0032337437819390017 -0.006433503462423196 0.02144033846272319 0 0 0
1198 1 0.0016 1600 0.005113873651481808 -0.002938073964823428 0.022102942887757937 0 0 0
1199 1 0.0016 1600 -0.0029663349414019652 -2.084518791511412e-05 0.020054463448043104 0 0 0
1200 1 0.0016 1600 0.00027884211422502084 0.00719492659348973 0.02176850647516651 0 0 0
1201 1 0.0016 1600 -0.003253687700390223 -0.005290080913306724 0.021814231747407566 0 0 0
1202 1 0.0016 1600 -0.005770244811515716 0.00430635289532918 0.026054561719429842 0 0 0
1203 1 0.0016 1600 0.0013633624561204764 -0.0020503007162927904 0.02118100150608661 0 0 0
1204 1 0.0016 1600 0.000721619240984848 0.007163814454654241 0.02330550065545849 0 0 0
1205 1 0.0016 1600 0.004337258156030732 -0.005747097089806915 0.025473921642755217 0 0 0
1206 1 0.0016 1600 -0.001803703472016463 -0.00559871373499656 0.021212606837914535 0 0 0
1207 1 0.0016 1600 0.0008585736563694835 0.0016811472950302496 0.02089982195072714 0 0 0
1208 1 0.0016 1600 -0.0003333051366656039 -0.0021572030144672498 0.023481957572825483 0 0 0
1209 1 0.0016 1600 -0.0011492614368716174 0.004040114900264971 0.022307669291413108 0 0 0
1210 1 0.0016 1600 -0.005671912422034348 -0.0006565689020721564 0.023177448784356874 0 0 0
1211 1 0.0016 1600 -0.0048146912033881035 -0.005353515482487497 0.022158956479562786 0 0 0
1212 1 0.0016 1600 0.002281230379641081 0.006829108979886519 0.023428730064495567 0 0 0
1213 1 0.0016 1600 -0.004925529356591308 0.0042398432514422595 0.022763945371454045 0 0 0
1214 1 0.0016 1600 0.0027303024433738858 0.0015335570846112276 0.021342254766348268 0 0 0
1215 1 0.0016 1600 0.0032285346448999745 0.005301607920626932 0.022665042847535503 0 0 0
1216 1 0.0016 1600 0.0007646070815772174 -0.005659517349534689 0.023064995020949046 0 0 0
1217 1 0.0016 1600 0.00582329837977446 0.004234564058769769 0.024169847783887238 0 0 0
1218 1 0.0016 1600 0.005255044427429805 -0.0020697221030932644 0.019515449518366985 0 0 0
1219 1 0.0016 1600 -0.0025468802393117415 -0.0031948509846837824 0.022713439726536437 0 0 0
1220 1 0.0016 1600 -0.0010222797347017045 -0.007096171940092073 0.024796483680555134 0 0 0
1221 1 0.0016 1600 0.002032131331875677 -7.935930952835192e-05 0.02329646498114483 0 0 0
1222 1 0.0016 1600 0.00650070114728543 -2.4581727308000322e-05 0.022003590005125397 0 0 0
1223 1 0.0016 1600 -0.004920237359313928 0.005257497444259235 0.02508940170666918 0 0 0
1224 1 0.0016 1600 -0.001398904173090798 0.004180048906049445 0.01982003791407337 0 0 0
1225 1 0.0016 1600 -0.000732523523670261 0.0011570889451550472 0.023317413158362624 0 0 0
1226 1 0.0016 1600 0.002337947462962746 0.006810045881812348 0.02037412769704175 0 0 0
1227 1 0.0016 1600 0.0050750557461489935 -0.005107599978917985 0.02420667760231774 0 0 0
1228 1 0.0016 1600 0.001098074352377865 -0.004155896368757565 0.023497623499907458 0 0 0
1229 1 0.0016 1600 -0.001256823212673554 -0.003289540169037096 0.018997990844231295 0 0 0
1230 1 0.0016 1600 -0.002574933251690135 -0.0011753662917669985 0.024551867507833055 0 0 0
1231 1 0.0016 1600 -0.004433182688176568 0.0029942414407605825 0.023638843623619107 0 0 0
1232 1 0.0016 1600 0.0027617695561277297 0.0015727736137649564 0.026100715304588486 0 0 0
1233 1 0.0016 1600 -0.0065265504286922465 -0.0030413622932701917 0.020129031569772877 0 0 0
1234 1 0.0016 1600 -0.001124395717255508 0.004219457938296525 0.023897241397291248 0 0 0
1235 1 0.0016 1600 -0.0014901693553266422 -0.00469223178432098 0.01972994882126222 0 0 0
1236 1 0.0016 1600 -0.005265849891489342 -0.0019701249076080145 0.022360222385705307 0 0 0
1237 1 0.0016 1600 0.007150711767311641 -0.0008441049749834468 0.02480595369219418 0 0 0
1238 1 0.0016 1600 -4.5159615433169906e-05 -0.0013131028285209112 0.02012409508464889 0 0 0
1239 1 0.0016 1600 -0.0023970036377905513 -0.004443574197870743 0.024548544510095405 0 0 0
1240 1 0.0016 1600 0.006881025210206389 0.0021217534912792626 0.023703233441924126 0 0 0
1241 1 0.0016 1600 -0.001877364450713482 -0.0018170696888175524 0.023237610595189112 0 0 0
1242 1 0.0016 1600 -0.004367181474884304 0.002176293727551992 0.02226575026595798 0 0 0
1243 1 0.0016 1600 0.002066127363823654 -0.005465159945181935 0.02397464429531707 0 0 0
1244 1 0.0016 1600 0.000783473703912379 0.005434571231443064 0.018567477634933327 0 0 0
1245 1 0.0016 1600 -0.0006458785728547918 -0.004502232443035884 0.021337641112472012 0 0 0
1246 1 0.0016 1600 -0.0040007577379272095 -0.004258740660242521 0.025614806157438573 0 0 0
1247 1 0.0016 1600 -0.0009163894185926986 -0.0008721464760950667 0.024727803127355227 0 0 0
1248 1 0.0016 1600 0.003510632734558593 -0.004789672242900618 0.024102421154891206 0 0 0
1249 1 0.0016 1600 0.0012023939091339 0.003025730749574879 0.019362982401051897 0 0 0
1250 1 0.0016 1600 -0.007191063793384962 0.0003625501241720578 0.0254818238026288 0 0 0
1251 1 0.0016 1600 0.0029529828894486266 -0.002116953528522567 0.021346067048702816 0 0 0
1252 1 0.0016 1600 -0.002297528123105061 0.004920873748502385 0.023066861643594092 0 0 0
1253 1 0.0016 1600 -0.0009517597162424624 0.007137025649930099 0.022789182819727128 0 0 0
1254 1 0.0016 1600 0.0026387801992765057 -0.006699039974418257 0.01824134843748774 0 0 0
1255 1 0.0016 1600 -0.0020516370176605456 0.0069017843406893485 0.02392694721105021 0 0 0
1256 1 0.0016 1600 -0.0010044626634968263 -0.003273430769642213 0.022297210402278528 0 0 0
1257 1 0.0016 1600 -0.0014004385934531672 -0.007062796424448192 0.02323857949180645 0 0 0
1258 1 0.0016 1600 0.004686759968022442 0.005466454831922437 0.023300941349948968 0 0 0
1259 1 0.0016 1600 -0.005554781803955338 -0.00458118933305102 0.025815403229755174 0 0 0
1260 1 0.0016 1600 -0.004465765178079832 -0.005647855923452207 0.026300563676666906 0 0 0
1261 1 0.0016 1600 -3.6184583168186326e-05 0.00578589174217564 0.019895411220053286 0 0 0
1262 1 0.0016 1600 0.0036374727866950716 0.002624799272430783 0.022148597719786552 0 0 0
1263 1 0.0016 1600 0.0008099512563629336 0.005775504156478298 0.021256489254128826 0 0 0
1264 1 0.0016 1600 0.004382644901335952 -0.005712675512346924 0.020592747063659173 0 0 0
1265 1 0.0016 1600 -0.006561453113430035 -0.0029648948253575393 0.023273868108438022 0 0 0
1266 1 0.0016 1600 0.005149598610345217 0.00032725778092157406 0.024951220831268564 0 0 0
1267 1 0.0016 1600 -0.0018445131241617107 0.005527133542703944 0.020558075681646377 0 0 0
1268 1 0.0016 1600 0.0010656253418445411 0.007121497370602398 0.02590897051044486 0 0 0
1269 1 0.0016 1600 -0.00040186751744534214 -0.00718959184135313 0.021995416168269694 0 0 0
1270 1 0.0016 1600 -0.006167278178683338 0.0037160292573027165 0.02190267321330508 0 0 0
1271 1 0.0016 1600 0.0011219841738509219 0.0021926944036602053 0.024844038958495157 0 0 0
1272 1 0.0016 1600 0.005791362527044567 -0.0015420020514353464 0.022491652829514 0 0 0
1273 1 0.0016 1600 0.0069699713631991575 0.0018057900380928672 0.026668830259359285 0 0 0
1274 1 0.0016 1600 -0.0011758205065991237 -0.0003791794693359596 0.023228020563203066 0 0 0
1275 1 0.0016 1600 -0.0028296302706372 0.0022203986440225204 0.021826851755990796 0 0 0
1276 1 0.0016 1600 -0.004406643985925735 0.005694417957141358 0.02234701426658503 0 0 0
1277 1 0.0016 1600 -0.004199851532122546 -0.0026645988055768073 0.02332997589584509 0 0 0
1278 1 0.0016 1600 0.004906071567239363 0.003935401370982989 0.022893827234069068 0 0 0
1279 1 0.0016 1600 -0.005048953269740737 -0.0051334500574238525 0.024055634374177414 0 0 0
1280 1 0.0016 1600 -0.0039163768319123516 -0.003974266006627839 0.022437319400719816 0 0 0
1281 1 0.0016 1600 -0.004633550638284751 0.003683731671996291 0.025068495735711266 0 0 0
1282 1 0.0016 1600 -0.0022029551284050803 0.0010354344045623693 0.022699963039104296 0 0 0
1283 1 0.0016 1600 -0.005591911005764846 -0.0005655426694025372 0.019323951196194653 0 0 0
1284 1 0.0016 1600 0.003627584583857225 0.004250457876430117 0.023802762355895877 0 0 0
1285 1 0.0016 1600 0.005113978111915539 0.002863863388721815 0.025693520337471736 0 0 0
1286 1 0.0016 1600 -0.006955770460120503 -0.001859614203761869 0.02541629623129672 0 0 0
1287 1 0.0016 1600 -0.005009075970151464 -0.0014575079693398825 0.026140800528905873 0 0 0
1288 1 0.0016 1600 0.003396288557112848 -0.00031637950628516634 0.02249516236685096 0 0 0
1289 1 0.0016 1600 -0.00045067831634161706 0.004805001327466762 0.021088963356864585 0 0 0
1290 1 0.0016 1600 0.0024582022143048374 -0.006767387590635446 0.025607486028467144 0 0 0
1291 1 0.0016 1600 0.0009911905678491818 0.005987008126892752 0.024355350280998674 0 0 0
1292 1 0.0016 1600 -0.0004729540967578029 -0.004391131547341308 0.02331070706940843 0 0 0
1293 1 0.0016 1600 -0.0008989416139760607 0.0004206231529940887 0.02187044952251966 0 0 0
1294 1 0.0016 1600 0.0005393794793494403 0.0011229343965977576 0.025881005566868127 0 0 0
1295 1 0.0016 1600 0.0046051046475479 0.0030442223713794186 0.024187548669074965 0 0 0
1296 1 0.0016 1600 -0.0023900400023775486 -0.002026399860692442 0.018945511469401276 0 0 0
1297 1 0.0016 1600 0.0021274834181608552 0.0029643116421016603 0.021744897008326613 0 0 0
1298 1 0.0016 1600 0.007172808711220099 -0.000628915848681665 0.01941889538500286 0 0 0
1299 1 0.0016 1600 -0.005596893018574661 0.001088419552049805 0.02057104891698645 0 0 0
1300 1 0.0016 1600 0.0012179268510549464 -0.0070955930308803225 0.02252369149269364 0 0 0
1301 1 0.0016 1600 0.007001231676914564 0.001385177468142501 0.02511843673498892 0 0 0
1302 1 0.0016 1600 -0.004149748413049825 -0.0024915855612148616 0.02003631110036735 0 0 0
1303 1 0.0016 1600 0.002945707828425988 0.002820659786219056 0.02357788529450432 0 0 0
1304 1 0.0016 1600 0.004360893393722573 0.001218772571990352 0.023668875946026048 0 0 0
1305 1 0.0016 1600 -0.005384774745389277 5.628504218114433e-05 0.021774468989409983 0 0 0
1306 1 0.0016 1600 -0.00020017716211680387 -0.0017231057296328081 0.02663683662108507 0 0 0
1307 1 0.0016 1600 -1.1898878608556754e-05 -0.004810440676107897 0.025891554337891063 0 0 0
1308 1 0.0016 1600 0.004023450173148996 0.001857024320504681 0.025096473726273723 0 0 0
1309 1 0.0016 1600 0.0007611180159852612 0.004525225049164857 0.02374704304613505 0 0 0
1310 1 0.0016 1600 -0.001934108039480905 0.005233746583679578 0.0248327212854433 0 0 0
1311 1 0.0016 1600 -0.00666017684643452 -0.0027372267432892363 0.02169380563375895 0 0 0
1312 1 0.0016 1600 -0.0007423848386987382 -0.001793030364260817 0.018766620988000825 0 0 0
1313 1 0.0016 1600 -0.0033604320852476514 -0.0028650128104319448 0.02137635678111755 0 0 0
1314 1 0.0016 1600 -0.0013814186895519211 -0.002203861462211103 0.020174425792256204 0 0 0
1315 1 0.0016 1600 0.006530640413629085 -0.003032602786018374 0.022839383088070462 0 0 0
1316 1 0.0016 1600 0.002227052431268866 0.004074928312790441 0.022892120481178516 0 0 0
1317 1 0.0016 1600 -0.0026889266184545717 -0.006679236070493148 0.0223713757239569 0 0 0
1318 1 0.0016 1600 0.003954021311025528 0.0005115945423365892 0.025997681393791373 0 0 0
1319 1 0.0016 1600 -0.002406821986947242 -0.006786410722685354 0.02553511833894083 0 0 0
1320 1 0.0016 1600 0.004214131022299202 -0.0035505085450710005 0.024828943981793493 0 0 0
1321 1 0.0016 1600 0.004987747406867379 -0.00015899322403008497 0.022505814171171267 0 0 0
1322 1 0.0016 1600 0.005322983473556782 -0.004586465785102469 0.019956049896325313 0 0 0
1323 1 0.0016 1600 0.0018371381176243116 0.0035858955056107472 0.024467351691507017 0 0 0
1324 1 0.0016 1600 0.0008073603650170067 -0.0014553665983771517 0.022607009216037723 0 0 0
1325 1 0.0016 1600 -0.0036553259442873307 0.004389464412588444 0.02372441276220573 0 0 0
1326 1 0.0016 1600 -0.00412814301449875 -0.0013806638631756378 0.027474103175569833 0 0 0
1327 1 0.0016 1600 0.0008014376507155493 0.00010483444268657465 0.027086647347095188 0 0 0
1328 1 0.0016 1600 0.002000981262616249 -0.0028812917448443397 0.028279203711289582 0 0 0
1329 1 0.0016 1600 0.0017401119205184036 -0.006986649228881049 0.028097997398417854 0 0 0
1330 1 0.0016 1600 -0.006924108316581712 0.001867867040257159 0.025968614854316247 0 0 0
1331 1 0.0016 1600 -0.0008855254680582189 -0.005617513895643257 0.02696164374594815 0 0 0
1332 1 0.0016 1600 0.0022792763720035653 -0.00545198202755902 0.029848696660152645 0 0 0
1333 1 0.0016 1600 -0.0038986260901274637 0.0009069371814462463 0.02638182672871498 0 0 0
1334 1 0.0016 1600 0.0013887686924665419 0.00468212019078385 0.027278086441131447 0 0 0
1335 1 0.0016 1600 0.003370764097123368 -0.006362572050464634 0.02435751974979474 0 0 0
1336 1 0.0016 1600 -0.006140827561787068 0.0005361969237914342 0.028259841779433435 0 0 0
1337 1 0.0016 1600 0.0042680318661303274 -0.0057988919758724675 0.028068758430156972 0 0 0
1338 1 0.0016 1600 0.0011868179629254732 0.0008488933500960097 0.029336324522609 0 0 0
1339 1 0.0016 1600 -0.006512822145756235 -0.0030698189930366718 0.029902500632600852 0 0 0
1340 1 0.0016 1600 -0.00045315840646341626 -0.0025311657921984454 0.029756654574627235 0 0 0
1341 1 0.0016 1600 -0.0030371475827322704 -0.004139534469575134 0.02697471473279775 0 0 0
1342 1 0.0016 1600 0.0026981144168021207 -0.005195735121881641 0.025419463234892654 0 0 0
1343 1 0.0016 1600 -0.0028862842474977374 -0.006596489231905065 0.028902925114129945 0 0 0
1344 1 0.0016 1600 -0.007165410558206552 0.0007079902069781963 0.027043551215247097 0 0 0
1345 1 0.0016 1600 -1.7866923554853292e-05 -0.0021459573943881246 0.025088175384162206 0 0 0
1346 1 0.0016 1600 -0.0024332848496192916 0.004678433445901274 0.02915030922746771 0 0 0
1347 1 0.0016 1600 -0.004961286202468199 0.0031139716520334907 0.029274743119294337 0 0 0
1348 1 0.0016 1600 -0.0016308648481739504 -0.004166733375114129 0.02592512432445718 0 0 0
1349 1 0.0016 1600 0.0038411727437874387 0.0035809580314108452 0.028297613721760238 0 0 0
1350 1 0.0016 1600 0.0055926996869483814 -0.0007743286797770702 0.028062973252437895 0 0 0
1351 1 0.0016 1600 0.005565863971609368 0.0018218011452209788 0.02456249938623687 0 0 0
1352 1 0.0016 1600 0.0055493202593330454 0.004587559475249035 0.026133803357875247 0 0 0
1353 1 0.0016 1600 0.0019984872189177817 0.002968562383362269 0.02593451619568409 0 0 0
1354 1 0.0016 1600 -0.004281788899544829 -0.0031839563697536283 0.028214951648995554 0 0 0
1355 1 0.0016 1600 -0.001612280981524599 0.0026175401354716892 0.02654314253656545 0 0 0
1356 1 0.0016 1600 0.00492074758031432 0.0052562433925831195 0.029065006757809944 0 0 0
1357 1 0.0016 1600 -0.0007339046756578968 -0.00018789277494314505 0.027427262524348826 0 0 0
1358 1 0.0016 1600 0.0025459346840617436 0.0033097929610825497 0.02739848369356114 0 0 0
1359 1 0.0016 1600 -0.004144483541613775 0.0033330223516048066 0.026815920276573302 0 0 0
1360 1 0.0016 1600 -0.003377991357837307 0.0018041226921545566 0.023466258461239536 0 0 0
1361 1 0.0016 1600 4.3805245729053735e-05 0.0033341815879723894 0.024538496715530992 0 0 0
1362 1 0.0016 1600 -0.004353842116557811 0.004894672232274176 0.026540685019103314 0 0 0
1363 1 0.0016 1600 -0.005389288985269155 -0.002362643125211264 0.027403880646325773 0 0 0
1364 1 0.0016 1600 0.006219663486895194 0.000385113173626594 0.027156502118708778 0 0 0
1365 1 0.0016 1600 0.0066122511882078065 -0.002849613950006645 0.027994735515104133 0 0 0
1366 1 0.0016 1600 -0.0027714553741971302 0.004308477097172561 0.027631169047158458 0 0 0
1367 1 0.0016 1600 0.005915950819594492 0.0010158316026979777 0.023068255649888167 0 0 0
1368 1 0.0016 1600 -0.005691333991194457 0.0013202407197585384 0.026935215420262393 0 0 0
1369 1 0.0016 1600 0.003081606647506219 -0.00313758151219948 0.023777430349934264 0 0 0
1370 1 0.0016 1600 -0.0013726454982386253 0.006639212058172481 0.025351651051954333 0 0 0
1371 1 0.0016 1600 -0.0035443947172177376 0.0009736132265845782 0.024823146944662956 0 0 0
1372 1 0.0016 1600 0.006342489365047701 -0.003408831932701295 0.026520490599356808 0 0 0
1373 1 0.0016 1600 -0.003084955213835648 -0.0015598220071600575 0.026018782767093213 0 0 0
1374 1 0.0016 1600 -0.006587793642943174 -0.0029066937620397253 0.028312704073896744 0 0 0
1375 1 0.0016 1600 -0.0008653719366431014 0.004288405553337268 0.029261890893975195 0 0 0
1376 1 0.0016 1600 0.0020531126168736777 0.00478086513829086 0.025509135705039817 0 0 0
1377 1 0.0016 1600 7.138187988788696e-05 0.0004515258552958152 0.02450662631011504 0 0 0
1378 1 0.0016 1600 -0.00637158912606296 -0.0006595508513176467 0.026400299806289232 0 0 0
1379 1 0.0016 1600 -0.004101867548045564 0.005917575303153259 0.027744506595775528 0 0 0
1380 1 0.0016 1600 -0.0014398533251019352 0.007053383953583096 0.029005481895166548 0 0 0
1381 1 0.0016 1600 -0.0025428021129380303 -0.0015598524329576504 0.027593161728358132 0 0 0
1382 1 0.0016 1600 0.0011369396417525773 -0.0026079317339359337 0.023923712652528507 0 0 0
1383 1 0.0016 1600 0.005495114445694274 -0.004652364068203038 0.028238951901763166 0 0 0
1384 1 0.0016 1600 -0.0009439106542166484 0.0002994258263984665 0.025819419379882774 0 0 0
1385 1 0.0016 1600 0.0020555593327197066 -0.0038856560454833943 0.024750152676372823 0 0 0
1386 1 0.0016 1600 -0.00408874107376498 0.005926502360851982 0.02389765506309283 0 0 0
1387 1 0.0016 1600 -0.006904738952699222 -0.00204165481571179 0.027004779529591606 0 0 0
1388 1 0.0016 1600 0.0035818183056505752 0.0062461893909317705 0.024154946021107987 0 0 0
1389 1 0.0016 1600 0.0007208946520720759 0.004507999969955143 0.02927968265301394 0 0 0
1390 1 0.0016 1600 0.0014954438334871345 -0.004325589852412014 0.026182412419138885 0 0 0
1391 1 0.0016 1600 0.006882780702305487 -0.0021145495865909367 0.025744956511435105 0 0 0
1392 1 0.0016 1600 -0.007167014071270859 -0.0006905262224113654 0.027820101503832316 0 0 0
1393 1 0.0016 1600 -0.0068572536849710415 0.0021953896946851903 0.027594180766295644 0 0 0
1394 1 0.0016 1600 0.007077059387588507 -0.0013268412315777457 0.02783943863430656 0 0 0
1395 1 0.0016 1600 0.005432164444271085 -0.0014231947591903588 0.02951629555160681 0 0 0
1396 1 0.0016 1600 0.004833961350792397 -0.0006484962763299646 0.026660204602843057 0 0 0
1397 1 0.0016 1600 0.004132367598711547 -0.005896164657970518 0.023030063916762777 0 0 0
1398 1 0.0016 1600 0.0011298992530000926 0.005786240164096294 0.028406488190483335 0 0 0
1399 1 0.0016 1600 0.006401692002209839 0.0032957496307435864 0.026538846065365194 0 0 0
1400 1 0.0016 1600 0.0048616755094787615 0.0053108590002147625 0.024883479008547624 0 0 0
1401 1 0.0016 1600 0.0023509764826841616 0.00522222293059767 0.024000421783956526 0 0 0
1402 1 0.0016 1600 0.0041283599961230094 -0.0016887902896155363 0.024784054639570077 0 0 0
1403 1 0.0016 1600 0.0008198306466136326 -0.0028205107831146296 0.02720189704547143 0 0 0
1404 1 0.0016 1600 -0.004197560281771049 -0.0010914400337533297 0.023620986312838915 0 0 0
1405 1 0.0016 1600 -0.002785774661987307 0.0010098715346429654 0.02901536864869659 0 0 0
1406 1 0.0016 1600 -0.0005791270925346448 0.0028252307096851893 0.02774625319235781 0 0 0
1407 1 0.0016 1600 -0.005638930958902059 0.0007485651244951383 0.025442124891652745 0 0 0
1408 1 0.0016 1600 0.005870661681598808 0.004168831956659294 0.02837613115103771 0 0 0
1409 1 0.0016 1600 0.003272631320110062 -0.0013367833224433201 0.026367884756870266 0 0 0
1410 1 0.0016 1600 0.005117703120535991 0.00308710683459036 0.02746970676487838 0 0 0
1411 1 0.0016 1600 0.0026114630512930363 0.006464997858006913 0.02827335374450115 0 0 0
1412 1 0.0016 1600 0.003295814235550162 0.0033151594584807085 0.025065364228404437 0 0 0
1413 1 0.0016 1600 0.0018187229284871585 -0.0012939314241580515 0.02568044042671806 0 0 0
1414 1 0.0016 1600 0.0058019625719308385 0.000559357582374704 0.028921463277050474 0 0 0
1415 1 0.0016 1600 0.0004933141965328481 0.0019245308940315654 0.03029628950300137 0 0 0
1416 1 0.0016 1600 0.006076323763012807 -0.0038623519021559103 0.024129238922502114 0 0 0
1417 1 0.0016 1600 0.0029986969933222854 0.0018120630318514367 0.027732338021389153 0 0 0
1418 1 0.0016 1600 -0.0036762551727219837 -0.004807425455228468 0.028280193727992446 0 0 0
1419 1 0.0016 1600 0.004917506008188041 0.005259121650316245 0.027441287844232026 0 0 0
1420 1 0.0016 1600 0.0023608964674985034 0.0068020461702701495 0.025026337620978 0 0 0
1421 1 0.0016 1600 -0.00047278973961318183 -0.005150882936945463 0.02843496254955475 0 0 0
1422 1 0.0016 1600 -0.004971549222923088 -0.00010718780449704918 0.026997909490454202 0 0 0
1423 1 0.0016 1600 0.0009631128840474565 -0.0030589417077126722 0.030425378008551933 0 0 0
1424 1 0.0016 1600 0.004738420273897527 -0.0039129441283030225 0.029587984671790406 0 0 0
1425 1 0.0016 1600 -0.003829371112359086 0.00030653820723334547 0.03013514131243076 0 0 0
1426 1 0.0016 1600 -0.002027998281097738 -0.00024067028245372982 0.02836609294888377 0 0 0
1427 1 0.0016 1600 0.005426076128573543 0.0027415246767071226 0.02900101421036998 0 0 0
1428 1 0.0016 1600 -0.0007588133661358087 0.003972608034294742 0.026499760150575112 0 0 0
1429 1 0.0016 1600 0.003810433359486072 -0.004324335056797897 0.026169795465803725 0 0 0
1430 1 0.0016 1600 -0.0065973087193365145 0.0003590472599856344 0.02399646360730497 0 0 0
1431 1 0.0016 1600 -0.006952238238610634 0.0018735232913479568 0.024369074339317058 0 0 0
1432 1 0.0016 1600 0.002931057766989405 0.004767288465549883 0.02686249505455978 0 0 0
1433 1 0.0016 1600 0.00402237349595463 0.000870822336298879 0.028523310954581983 0 0 0
1434 1 0.0016 1600 -0.006326599983349151 0.003437974906720791 0.028451043166779016 0 0 0
1435 1 0.0016 1600 -0.0017454731554606996 0.0017809713644440688 0.028075928848168688 0 0 0
1436 1 0.0016 1600 -0.003954874664883588 -0.006016700995234042 0.024830181066864285 0 0 0
1437 1 0.0016 1600 -0.003659762174655415 -0.005492116091700412 0.02334804337257483 0 0 0
1438 1 0.0016 1600 -0.0056766708922739535 -0.004429354126929929 0.02977981357467675 0 0 0
1439 1 0.0016 1600 -0.00012614161590877073 0.007199191866270847 0.028104257957451004 0 0 0
1440 1 0.0016 1600 -0.001532085123677989 -0.0055842986037411965 0.02383456959271585 0 0 0
1441 1 0.0016 1600 0.000418929092584062 -0.004360595759441616 0.02736520706982527 0 0 0
1442 1 0.0016 1600 0.007102878056182787 0.001180141228677693 0.028227568260875614 0 0 0
1443 1 0.0016 1600 0.002658693591594487 -0.004174206772505382 0.027270121741644074 0 0 0
1444 1 0.0016 1600 -0.005312114389191567 -0.0022767232246654195 0.02904384458672957 0 0 0
1445 1 0.0016 1600 -0.0002696472847852192 0.005808679938479756 0.027326685828609455 0 0 0
1446 1 0.0016 1600 0.003036299668068994 -0.00042127263864463586 0.025077440495570345 0 0 0
1447 1 0.0016 1600 0.0040233466398010825 -0.002738848356477496 0.026194383714696522 0 0 0
1448 1 0.0016 1600 -1.0547622620731457e-05 0.002588656961643757 0.026210330777695485 0 0 0
1449 1 0.0016 1600 0.003543954415084719 -0.002706977132771359 0.028664536943131796 0 0 0
1450 1 0.0016 1600 0.0014787991936729757 0.0016792974253722643 0.027050207064913793 0 0 0
1451 1 0.0016 1600 -4.6956121920082126e-05 0.004327228500919125 0.027887865423975595 0 0 0
1452 1 0.0016 1600 0.0013081057963118382 -0.0028185894398654776 0.025678471954190086 0 0 0
1453 1 0.0016 1600 -0.002282803878981588 -0.0019137099284737983 0.02913164247239182 0 0 0
1454 1 0.0016 1600 -0.002788059486063433 -0.005269964294496038 0.025870910872889286 0 0 0
1455 1 0.0016 1600 0.0016594394839014746 -0.007006311618490411 0.024111721011400092 0 0 0
1456 1 0.0016 1600 -0.003511730730363965 0.002991166240883722 0.028244902261938324 0 0 0
1457 1 0.0016 1600 -0.0003835091286663969 0.005845729955617382 0.028921942515694545 0 0 0
1458 1 0.0016 1600 0.003181592881048462 0.004692613709742101 0.029796235361069304 0 0 0
1459 1 0.0016 1600 0.0012340147807585397 -0.007093833362814216 0.02658417608940043 0 0 0
1460 1 0.0016 1600 -0.002086335815839297 0.0006406250629644677 0.027006951027221265 0 0 0
1461 1 0.0016 1600 -0.006032919970460553 -0.0039303783194013855 0.024434487679771418 0 0 0
1462 1 0.0016 1600 -0.004291808823127744 -0.0028722675642061796 0.026357891904327448 0 0 0
1463 1 0.0016 1600 0.0030695187609652915 -0.006513025692903694 0.028851492136911117 0 0 0
1464 1 0.0016 1600 -0.0026632200180952683 -4.7595693633716275e-05 0.025683070747643467 0 0 0
1465 1 0.0016 1600 0.007170949673130324 -0.0006497519980703488 0.026393308324267884 0 0 0
1466 1 0.0016 1600 -0.0027568986138564434 -0.006651516228085823 0.023980106731293728 0 0 0
1467 1 0.0016 1600 0.0015430991727853382 0.007032767773341639 0.029320334314349526 0 0 0
1468 1 0.0016 1600 0.0016371653736174936 0.0003027864130577358 0.024799001874215548 0 0 0
1469 1 0.0016 1600 0.002672421225525053 -0.001319520747620058 0.02826561576406297 0 0 0
1470 1 0.0016 1600 -0.004053576482776546 0.0014761444449725614 0.02815832263442945 0 0 0
1471 1 0.0016 1600 0.00418943037715643 0.002002399575708604 0.026680995660132094 0 0 0
1472 1 0.0016 1600 -0.0046016945326966385 -0.005537851489495987 0.02936135636655532 0 0 0
1473 1 0.0016 1600 -0.002315052204876996 0.003994081907221456 0.026130697848063357 0 0 0
1474 1 0.0016 1600 -0.0053546849750602905 0.0019436290797555358 0.024417305205474304 0 0 0
1475 1 0.0016 1600 -0.004058799015831269 -0.0006268032496129597 0.025157991522101596 0 0 0
1476 1 0.0016 1600 0.000946539240500803 0.0031490125392333967 0.027390463213655885 0 0 0
1477 1 0.0016 1600 -0.0005406681967755535 -0.007179795249795772 0.026959372844381605 0 0 0
1478 1 0.0016 1600 0.0014490218420385908 -0.0013502994634193091 0.02723567326364394 0 0 0
1479 1 0.0016 1600 -0.001621903606277232 -0.0010295937247575113 0.026397171071564134 0 0 0
1480 1 0.0016 1600 0.005426295010452671 -0.0026924444671344114 0.025422471722257485 0 0 0
1481 1 0.0016 1600 -0.0064637148231101275 0.003172218425563772 0.02516496141551844 0 0 0
1482 1 0.0016 1600 -0.0019602273915353065 0.006928135120741004 0.026812608735102612 0 0 0
1483 1 0.0016 1600 0.005443958166851299 -0.004291867019227712 0.025534432978192627 0 0 0
1484 1 0.0016 1600 0.002197332532659535 0.006134059150842099 0.026470840631208675 0 0 0
1485 1 0.0016 1600 0.005693871138636434 -0.0006874594916939331 0.023840622358752367 0 0 0
1486 1 0.0016 1600 0.005022587181215293 -0.0023539324650999113 0.023636097438117534 0 0 0
1487 1 0.0016 1600 -0.0014726302874263728 0.0053974680032582685 0.026355648611868523 0 0 0
1488 1 0.0016 1600 0.0071965713363525835 -0.00022270632824221342 0.028991034306191536 0 0 0
1489 1 0.0016 1600 -0.003623907358776118 -0.006221675160993462 0.027533805515258903 0 0 0
1490 1 0.0016 1600 -0.005631743518516305 -0.0009776197108658366 0.02816660331958698 0 0 0
1491 1 0.0016 1600 -0.003405656470939679 0.004772157749441728 0.025257186892467382 0 0 0
1492 1 0.0016 1600 -0.004157161283248961 0.0042985000627271345 0.029988351434482325 0 0 0
1493 1 0.0016 1600 -0.007031620301206563 -0.0015481209572286141 0.02384908897022068 0 0 0
1494 1 0.0016 1600 0.002220440582029942 -0.0014267054195951285 0.024137894056569784 0 0 0
1495 1 0.0016 1600 -0.0028278831685514204 -0.003117943443318897 0.025761860813791924 0 0 0
1496 1 0.0016 1600 -0.0004743888649924395 -0.0042123830063079005 0.029730525075886655 0 0 0
1497 1 0.0016 1600 -0.0022320934895677263 0.0015242021912761253 0.025553735497399137 0 0 0
1498 1 0.0016 1600 -0.00121226937024304 -0.0032854009855330427 0.024198843210755577 0 0 0
1499 1 0.0016 1600 0.001360574128811848 0.007070373417946373 0.02748055365991941 0 0 0
1500 1 0.0016 1600 0.005777007443392763 -0.0019213118361501656 0.02688492782024804 0 0 0
1501 1 0.0016 1600 0.005794584836073142 -0.004273615204536511 0.030734333098770928 0 0 0
1502 1 0.0016 1600 -0.0029419477264941408 0.00519818461088579 0.03057529002732324 0 0 0
1503 1 0.0016 1600 0.006864497115270648 0.0021729119039095 0.029496659527197624 0 0 0
1504 1 0.0016 1600 -0.004372563587775787 -0.005720302999897864 0.03292852394129927 0 0 0
1505 1 0.0016 1600 0.004151375175210665 0.0006539686274472211 0.03204487731266914 0 0 0
1506 1 0.0016 1600 0.002297005870583139 0.003159873545527539 0.032433492801210315 0 0 0
1507 1 0.0016 1600 -0.005757400315912845 -0.00037539262081493456 0.030994875311636954 0 0 0
1508 1 0.0016 1600 0.004564721192105907 0.00019373481599112985 0.02986744240402997 0 0 0
1509 1 0.0016 1600 0.0041435956932030045 0.0020206125705119872 0.029629176662887023 0 0 0
1510 1 0.0016 1600 -0.0011686703069106014 -0.0020068527349604466 0.03253091137870737 0 0 0
1511 1 0.0016 1600 0.00018339622193665813 -0.007197848497635257 0.02840034479759437 0 0 0
1512 1 0.0016 1600 -0.0018922651636137109 0.003310754162835748 0.02852063083983919 0 0 0
1513 1 0.0016 1600 -0.005684924851254234 0.0013127741698044557 0.03319843420505155 0 0 0
1514 1 0.0016 1600 0.0009597538953696615 -0.005089382974902167 0.032186451838857585 0 0 0
1515 1 0.0016 1600 0.001820510880968089 0.005532929583142908 0.02982719866735846 0 0 0
1516 1 0.0016 1600 0.005143038551073971 -0.002711195921386992 0.028612524587971228 0 0 0
1517 1 0.0016 1600 0.0021866865383979354 0.004292355716469795 0.028608929223353088 0 0 0
1518 1 0.0016 1600 -0.00516150922339238 0.002567915320919134 0.02778458765145358 0 0 0
1519 1 0.0016 1600 0.0029997649740330246 0.0017258915372190733 0.032335560646954135 0 0 0
1520 1 0.0016 1600 -0.00013844438595381735 -0.006358932409566008 0.03194390212553011 0 0 0
1521 1 0.0016 1600 0.0003422085011518803 0.002971349706013318 0.02904564416456652 0 0 0
1522 1 0.0016 1600 0.004771431681411378 -0.00539214767397161 0.03279073647972812 0 0 0
1523 1 0.0016 1600 -0.003796424183824134 -0.002217142129562043 0.029551815164258005 0 0 0
1524 1 0.0016 1600 0.005014111088079156 -0.005167231937517009 0.026802507406582292 0 0 0
1525 1 0.0016 1600 0.0035134424535942215 -0.006284799510223305 0.030433778788205176 0 0 0
1526 1 0.0016 1600 0.0035197058035012774 0.005148090982760092 0.028300284498502408 0 0 0
1527 1 0.0016 1600 -0.0001909984821629933 -0.0024093022352352856 0.03133018407179151 0 0 0
1528 1 0.0016 1600 -0.0006823959415576768 -0.005391789226789988 0.03079138925708487 0 0 0
1529 1 0.0016 1600 -0.0008080500366586208 0.0019063896091018617 0.029366086093372303 0 0 0
1530 1 0.0016 1600 -0.003657193273599496 0.004073964514875414 0.03149126157243734 0 0 0
1531 1 0.0016 1600 -0.0004368168352167474 0.003244563261439991 0.0304159859707313 0 0 0
1532 1 0.0016 1600 0.0036931529960593 0.0061810120013099604 0.02950936965373449 0 0 0
1533 1 0.0016 1600 0.002925228031776936 -0.003689667953167188 0.0321838025288602 0 0 0
1534 1 0.0016 1600 0.001735005220312331 0.0023666922595962482 0.028541626595959452 0 0 0
1535 1 0.0016 1600 -0.001707886960448394 0.005463924167779368 0.027936811470588945 0 0 0
1536 1 0.0016 1600 0.003913529517129597 -0.004250620057414202 0.028259461905566077 0 0 0
1537 1 0.0016 1600 0.0014086831287579 0.0012888291297787288 0.03237574067691045 0 0 0
1538 1 0.0016 1600 -0.005100455184489672 0.0009798941971025541 0.031534486568707526 0 0 0
1539 1 0.0016 1600 -0.005563192616763332 0.004570984626351563 0.027618507943119458 0 0 0
1540 1 0.0016 1600 -0.007041888598622368 0.0015017076171610628 0.030133187251487198 0 0 0
1541 1 0.0016 1600 0.002097894812223686 0.0054455557594532055 0.03140072649142515 0 0 0
1542 1 0.0016 1600 -0.0032187700794243184 -0.006440582623128919 0.03208600435032025 0 0 0
1543 1 0.0016 1600 0.0009606717779717624 -0.0020351046615027 0.02919594248165649 0 0 0
1544 1 0.0016 1600 -0.00025269404252441604 0.0005078260643869747 0.030455226425340324 0 0 0
1545 1 0.0016 1600 0.003950634417208089 -0.0015278976441196206 0.03011021777691273 0 0 0
1546 1 0.0016 1600 0.0016073004035104292 -0.0007341921245378403 0.032967232293246974 0 0 0
1547 1 0.0016 1600 0.0016234372516124456 -0.0007046903676254348 0.030094360560190905 0 0 0
1548 1 0.0016 1600 0.002815603474364663 -6.128932399403794e-05 0.02924328796696482 0 0 0
1549 1 0.0016 1600 -0.0037826434414412946 -0.0017521547881865372 0.03325642138950887 0 0 0
1550 1 0.0016 1600 0.002891985493010898 0.0023554444038280872 0.030868671083099083 0 0 0
1551 1 0.0016 1600 -0.0011484492303956643 -0.004050861710370295 0.027445848538177255 0 0 0
1552 1 0.0016 1600 0.0055655067173198056 0.001528279363132928 0.030172427001194334 0 0 0
1553 1 0.0016 1600 -0.003772216455955413 0.0018838648361154534 0.03175079571932137 0 0 0
1554 1 0.0016 1600 -0.0020582550479516593 0.004068924777295568 0.03217074229652798 0 0 0
1555 1 0.0016 1600 0.000195683986893774 -0.0016112876184008003 0.033266986401014983 0 0 0
1556 1 0.0016 1600 -0.0046826145126891375 0.00014848939430392628 0.028791076210377155 0 0 0
1557 1 0.0016 1600 0.004541652112241729 0.004980122110625834 0.030594607324133643 0 0 0
1558 1 0.0016 1600 0.0006846946246206047 -0.007167432279803706 0.030835524133733184 0 0 0
1559 1 0.0016 1600 0.002553897837235287 0.00020941627350498272 0.03208785080196676 0 0 0
1560 1 0.0016 1600 0.00028932229167966014 -0.003363763509742692 0.028609885856104755 0 0 0
1561 1 0.0016 1600 0.0008302580255324655 0.00338762383115551 0.033030493617063776 0 0 0
1562 1 0.0016 1600 0.0009031210804266634 -0.005556658852800424 0.030657497778434996 0 0 0
1563 1 0.0016 1600 -0.006500408232673058 0.0030961247129942236 0.030004322655160492 0 0 0
1564 1 0.0016 1600 -0.004798879576895606 -0.0010149783397008867 0.02988311864826254 0 0 0
1565 1 0.0016 1600 0.002023004819241034 -0.005715245768112892 0.02677369836301686 0 0 0
1566 1 0.0016 1600 -0.0017913677109708864 0.00031753745315686924 0.030060094421753385 0 0 0
1567 1 0.0016 1600 -0.0054485972285955855 -0.0016983079060681801 0.03183997947552223 0 0 0
1568 1 0.0016 1600 -0.006295232405383825 -0.0034943522870889204 0.026726348666396053 0 0 0
1569 1 0.0016 1600 -0.000744501846227177 -0.00046749870123259245 0.03266092162638472 0 0 0
1570 1 0.0016 1600 -0.0026882564085400308 -0.003358150652453212 0.029722110718973724 0 0 0
1571 1 0.0016 1600 -0.0017872132926656278 0.004091229329679345 0.0305544335028307 0 0 0
1572 1 0.0016 1600 0.0014336107860707364 0.003214567633699562 0.03018955325232431 0 0 0
1573 1 0.0016 1600 -0.00517102227307941 0.005010120886908165 0.032068857173315195 0 0 0
1574 1 0.0016 1600 0.005268627213933898 0.0015212156556110503 0.027759584422876057 0 0 0
1575 1 0.0016 1600 -0.0005333549080094966 0.0044460031510752274 0.031482589786355715 0 0 0
1576 1 0.0016 1600 -5.291607255038269e-06 0.007200031073952692 0.029699488043622848 0 0 0
1577 1 0.0016 1600 0.00207793049723645 0.0020807338370608377 0.03359421129387868 0 0 0
1578 1 0.0016 1600 0.0049733594941095485 -0.0030060980650498397 0.03250763844256026 0 0 0
1579 1 0.0016 1600 -0.002986792821107756 0.002012097642649821 0.027093679290917133 0 0 0
1580 1 0.0016 1600 -0.004207652635272204 0.0008065208272855865 0.032850606781127785 0 0 0
1581 1 0.0016 1600 -0.0034276203235375654 4.7408209100036105e-05 0.02764636507334362 0 0 0
1582 1 0.0016 1600 0.004635903222268249 -0.00550926144089495 0.029598394769348505 0 0 0
1583 1 0.0016 1600 0.002633632521792311 0.001499886642939442 0.02954162064193628 0 0 0
1584 1 0.0016 1600 -0.002986021373257903 -0.0028882785212715747 0.03245981296365024 0 0 0
1585 1 0.0016 1600 -0.0050147278482110536 -0.0029691221863554404 0.030455060047887443 0 0 0
1586 1 0.0016 1600 0.006673145604080155 0.0027041499733324297 0.02799991755772971 0 0 0
1587 1 0.0016 1600 -0.004628244416295899 -0.00426373440769017 0.02708633289578542 0 0 0
1588 1 0.0016 1600 -0.004119919545643799 0.0018266589365903776 0.029717927353803016 0 0 0
1589 1 0.0016 1600 -0.004534015583932418 0.0029252799739915045 0.03080481705315622 0 0 0
1590 1 0.0016 1600 0.003696895230103117 0.006178460824728124 0.03304710997248551 0 0 0
1591 1 0.0016 1600 -0.006393484602074254 -0.003311233144330055 0.03273950668938573 0 0 0
1592 1 0.0016 1600 0.00285146493689068 -0.001073896570783744 0.031180192450118372 0 0 0
1593 1 0.0016 1600 0.00619481937749387 0.0009103506840413678 0.031507172410191145 0 0 0
1594 1 0.0016 1600 0.002238169400702115 -0.006836229368881488 0.031227182963227473 0 0 0
1595 1 0.0016 1600 0.0032049337612248883 -0.005075354121056319 0.03143460248876448 0 0 0
1596 1 0.0016 1600 -0.0029560985795416554 0.003276826913604408 0.029717603596601205 0 0 0
1597 1 0.0016 1600 0.0011061349584224338 -0.004381050521787331 0.029535776745218918 0 0 0
1598 1 0.0016 1600 -0.002803111453728057 -0.0044758123310519446 0.03253754615826983 0 0 0
1599 1 0.0016 1600 0.003225790245805045 0.0005364151994782766 0.030673223007504084 0 0 0
1600 1 0.0016 1600 0.006497717068447061 0.003102032920932888 0.03238489250257445 0 0 0
1601 1 0.0016 1600 -0.0011474152713034814 0.006483609874055745 0.032761260477004325 0 0 0
1602 1 0.0016 1600 -0.00710638410098994 -0.0011589694254847205 0.030640868905758564 0 0 0
1603 1 0.0016 1600 0.007090204842214068 -0.0012540959494685806 0.03130767344541718 0 0 0
1604 1 0.0016 1600 0.0011991012641071374 -0.007099578365475967 0.03241499211834238 0 0 0
1605 1 0.0016 1600 0.001997963547323411 -0.005212516719676131 0.0282922204161738 0 0 0
1606 1 0.0016 1600 0.005097409514740273 -0.002644317242352242 0.030494329730870726 0 0 0
1607 1 0.0016 1600 0.001110068386045922 -0.0005618297903813777 0.028585758891627823 0 0 0
1608 1 0.0016 1600 -0.0021664515593440097 -0.006866346745626664 0.027114779272312206 0 0 0
1609 1 0.0016 1600 0.0072000437031640024 -2.602036948605992e-05 0.03232715413621529 0 0 0
1610 1 0.0016 1600 0.006519529754595036 0.0030554821915083014 0.030785753621380217 0 0 0
1611 1 0.0016 1600 -0.0026306231239088687 -0.006702479030586614 0.030594297505414102 0 0 0
1612 1 0.0016 1600 -0.002379040604867232 0.005358214105959341 0.033874873243565556 0 0 0
1613 1 0.0016 1600 0.00430917432547918 -0.0018909774127076383 0.02752074317017106 0 0 0
1614 1 0.0016 1600 0.001668845916090477 0.005483365904681893 0.032941587046671904 0 0 0
1615 1 0.0016 1600 0.0025993178744648394 0.00430965652675773 0.033504161788902136 0 0 0
1616 1 0.0016 1600 -0.0026857167298204175 -0.00310461770520933 0.028142554886740865 0 0 0
1617 1 0.0016 1600 0.002152571305958142 -0.0041088481542935085 0.03071494935959987 0 0 0
1618 1 0.0016 1600 0.005409489104339204 0.0019315435463833632 0.03245588875069146 0 0 0
1619 1 0.0016 1600 -0.006743097485274312 -0.002524402346921861 0.03139109506364207 0 0 0
1620 1 0.0016 1600 0.0036665365464335345 0.006196678583358446 0.027100932582617462 0 0 0
1621 1 0.0016 1600 0.0025528616858329564 0.003948815996128023 0.031065438469471077 0 0 0
1622 1 0.0016 1600 -0.004044941113658013 -0.0018247775426047193 0.03108276138998748 0 0 0
1623 1 0.0016 1600 -0.006785836506804145 -0.001540362917982586 0.029120799759827544 0 0 0
1624 1 0.0016 1600 0.001451134308193942 -0.002602785025344014 0.033250210783029914 0 0 0
1625 1 0.0016 1600 -0.00042088185157493243 -0.006678314228519469 0.029787577702004426 0 0 0
1626 1 0.0016 1600 0.004925880561509685 -0.003527491404240306 0.02725387780500112 0 0 0
1627 1 0.0016 1600 -0.0014764477363023642 0.005581828767355474 0.030060021911111703 0 0 0
1628 1 0.0016 1600 0.0026297222765340553 -0.00403685823518232 0.029189667301953014 0 0 0
1629 1 0.0016 1600 0.00132823063232919 -0.0014038456600678276 0.03154133604128941 0 0 0
1630 1 0.0016 1600 0.00497855892378875 0.0034906077985120154 0.03270238636505804 0 0 0
1631 1 0.0016 1600 -0.0014068785919212302 -0.007061237217150339 0.02850930035727783 0 0 0
1632 1 0.0016 1600 0.006279303820867885 -0.0035232210857378504 0.029407009663359504 0 0 0
1633 1 0.0016 1600 -0.006635944096005033 0.002362178926562027 0.031419509766446585 0 0 0
1634 1 0.0016 1600 -0.0010405623206814435 -0.0009591110886175167 0.02945496264633324 0 0 0
1635 1 0.0016 1600 0.004123636505572737 -0.0008016829289295498 0.02869517514945797 0 0 0
1636 1 0.0016 1600 0.0034812244819411864 -0.0031392706970760206 0.030204107010141392 0 0 0
1637 1 0.0016 1600 0.00390338930250285 -0.002309631045821632 0.03150538142209622 0 0 0
1638 1 0.0016 1600 -0.005785858899083828 -0.004285554729378521 0.028190192679381908 0 0 0
1639 1 0.0016 1600 -0.004362424045209996 -0.000418774544674079 0.03177690384939195 0 0 0
1640 1 0.0016 1600 0.00036533258160357325 0.0016152741111867066 0.028197083161379175 0 0 0
1641 1 0.0016 1600 0.0006051950751158988 -0.005943617117625196 0.027501236816265272 0 0 0
1642 1 0.0016 1600 -0.0022862885523115017 -0.005358011262905546 0.027689644841873872 0 0 0
1643 1 0.0016 1600 0.0007851022603605281 -0.005885397206972361 0.029096174792512447 0 0 0
1644 1 0.0016 1600 0.006555430746235152 -0.0029777501262072646 0.03227089711195335 0 0 0
1645 1 0.0016 1600 0.0026144880972497698 0.006708853614843135 0.03056619787557057 0 0 0
1646 1 0.0016 1600 0.0023395903776804315 -0.002589673004371741 0.031180786415362552 0 0 0
1647 1 0.0016 1600 -0.003580569926494532 -0.0033554014991109197 0.031049847359819385 0 0 0
1648 1 0.0016 1600 -0.004148794694770886 -0.003996599291895804 0.029586553353087953 0 0 0
1649 1 0.0016 1600 -4.427927610096512e-05 -0.003201898864426163 0.032712721994378864 0 0 0
1650 1 0.0016 1600 0.0002099495316403923 0.0019272956146789008 0.03323571320251078 0 0 0
1651 1 0.0016 1600 -0.00417055919172728 0.0044422646659323045 0.028395087077512714 0 0 0
1652 1 0.0016 1600 -0.006028806320419611 0.0019588067591230682 0.028982741313532748 0 0 0
1653 1 0.0016 1600 0.00044575201540632904 0.005716289136886335 0.03193678537946512 0 0 0
1654 1 0.0016 1600 -0.004096669767464451 0.0033520083025086046 0.03284964354609923 0 0 0
1655 1 0.0016 1600 -0.0027514275986864557 -0.0011311855936149877 0.03044597604145082 0 0 0
1656 1 0.0016 1600 -0.004035073072466685 -0.00596316939271469 0.03079561517904909 0 0 0
1657 1 0.0016 1600 -0.0031267281847430616 0.0052255621351558895 0.03246670193772816 0 0 0
1658 1 0.0016 1600 0.0010523768694393355 0.004243387585686544 0.03154583274347611 0 0 0
1659 1 0.0016 1600 -0.00016229383353240224 -0.0014577927893350698 0.028214067808717023 0 0 0
1660 1 0.0016 1600 -0.0006518582663357152 0.0013488282241352573 0.026991189965700157 0 0 0
1661 1 0.0016 1600 0.0034912719636592464 -0.00012583122444935919 0.027390174287901584 0 0 0
1662 1 0.0016 1600 -0.004172217860449358 -0.004674838302793908 0.03173412567811675 0 0 0
1663 1 0.0016 1600 -0.0011451810018276519 -0.0027148591702430436 0.028325906167993145 0 0 0
1664 1 0.0016 1600 0.004861787842235877 0.0053108484441287155 0.032376147705893775 0 0 0
1665 1 0.0016 1600 0.005817883966213831 0.00424183446903688 0.02997333160122302 0 0 0
1666 1 0.0016 1600 0.0005029896343041552 -4.943581371778973e-05 0.03175055898669405 0 0 0
1667 1 0.0016 1600 0.006683157465874754 -0.0026788147812602326 0.030704392099225822 0 0 0
1668 1 0.0016 1600 -0.0071468316102688695 0.0008741114723224393 0.0327187589906817 0 0 0
1669 1 0.0016 1600 0.0046518330865987 -0.0006318141580247807 0.03123489771148227 0 0 0
1670 1 0.0016 1600 -0.004787566591665906 0.0006248424051823131 0.03433062870757261 0 0 0
1671 1 0.0016 1600 0.002112914252806754 0.0004926152471439554 0.027916776705837424 0 0 0
1672 1 0.0016 1600 0.0035187947569303686 -0.006281694810586001 0.026740251545492776 0 0 0
1673 1 0.0016 1600 0.0017918589999256678 -0.006973715149943389 0.029696980654924324 0 0 0
1674 1 0.0016 1600 -0.002802957713910141 0.0014616145732815912 0.030549964554334653 0 0 0
1675 1 0.0016 1600 0.003805498299991747 0.006112315673888941 0.03145229160313302 0 0 0
1676 1 0.0016 1600 0.004065740562580867 0.0035417299353748223 0.03138945858410822 0 0 0
1677 1 0.0016 1600 0.007157327267355215 0.000783801342260661 0.030234097730656596 0 0 0
1678 1 0.0016 1600 -0.0017338763010226349 -0.0057749190573232 0.029648384785008874 0 0 0
1679 1 0.0016 1600 -0.0016972862319886255 -0.0040755902844346785 0.0307529381542279 0 0 0
1680 1 0.0016 1600 -0.0013310515247378697 0.0019981128758974763 0.030875281671408298 0 0 0
1681 1 0.0016 1600 0.00475017061878602 -0.005410979042038623 0.031191087951776934 0 0 0
1682 1 0.0016 1600 -0.0038450754675636275 0.005713556927198603 0.029310358464157867 0 0 0
1683 1 0.0016 1600 -0.0002400856685836421 0.00029618894247332173 0.028869655253825482 0 0 0
1684 1 0.0016 1600 -0.004461649003846632 0.005651306892904309 0.030786123342966393 0 0 0
1685 1 0.0016 1600 -0.0017842014761258475 -0.00240525629555549 0.030635210489097113 0 0 0
1686 1 0.0016 1600 0.002843543911188745 0.0030839608927204568 0.02944510005738917 0 0 0
1687 1 0.0016 1600 0.0040453233171049196 -0.0021488783118091674 0.03348930644105439 0 0 0
1688 1 0.0016 1600 -0.005487841769033896 0.0008388182616458108 0.029988737379421156 0 0 0
1689 1 0.0016 1600 -0.001319585664187635 0.007078200929839756 0.03060370592194359 0 0 0
1690 1 0.0016 1600 -0.005280444805214479 -0.0023122701979675464 0.03330782573149207 0 0 0
1691 1 0.0016 1600 0.004412912983239079 0.001990776349166931 0.031205805705954513 0 0 0
1692 1 0.0016 1600 0.0024780916287537444 -0.001999598505501857 0.029700401495803875 0 0 0
1693 1 0.0016 1600 0.002335850019933422 0.006810674776078455 0.03360170713582875 0 0 0
1694 1 0.0016 1600 0.006122580894763257 0.0037888558954383865 0.033780339665417304 0 0 0
1695 1 0.0016 1600 0.006048818927239433 -0.00033517911464445773 0.03051376610152918 0 0 0
1696 1 0.0016 1600 -0.004832494815566748 -0.00317941749320942 0.03203050983101602 0 0 0
1697 1 0.0016 1600 -0.0015816446957595974 -0.007024199624154077 0.03175869844092368 0 0 0
1698 1 0.0016 1600 -0.0017044492152695964 -0.0026853434912823366 0.026824922546681385 0 0 0
1699 1 0.0016 1600 0.0001279699015702909 -0.0010532387326072003 0.030543458221892014 0 0 0
1700 1 0.0016 1600 -3.206988725036176e-05 -0.003999392610437892 0.03125309273410774 0 0 0
1701 1 0.0016 1600 0.0016656939300841408 0.0008362830305003711 0.03086280676920594 0 0 0
1702 1 0.0016 1600 -0.0014098077090045358 -0.001003062650415713 0.03130816886945294 0 0 0
1703 1 0.0016 1600 -4.545446891636835e-05 0.001453285872823684 0.031729123538756114 0 0 0
1704 1 0.0016 1600 -0.0017845699482361532 0.005549347853807108 0.03162954543542277 0 0 0
1705 1 0.0016 1600 -0.002606701228020364 0.0028956550060665726 0.031231492317540518 0 0 0
1706 1 0.0016 1600 -0.006146534036454046 0.0037499161658535777 0.03222443508781906 0 0 0
1707 1 0.0016 1600 -0.0027493128115640432 0.006654474986349612 0.028177222146550794 0 0 0
1708 1 0.0016 1600 -0.007192402003572438 0.00033211542458111193 0.031214216221442256 0 0 0
1709 1 0.0016 1600 0.0010156031840557944 0.002645954126034637 0.03162521953215881 0 0 0
1710 1 0.0016 1600 0.0024780082651489318 -0.00266892293809755 0.02675942955936706 0 0 0
1711 1 0.0016 1600 -0.0033887591098776463 -0.0007624667493022383 0.02902565289789563 0 0 0
1712 1 0.0016 1600 -0.0030397139929873133 0.006527028993603951 0.0314607315368418 0 0 0
1713 1 0.0016 1600 -0.007200116432998712 -8.916690731862413e-06 0.02932764388245012 0 0 0
1714 1 0.0016 1600 0.007030013135860944 -0.0015557334587593871 0.03287766528160227 0 0 0
1715 1 0.0016 1600 -0.0009463844099289448 0.0049085376246688255 0.03295744299965383 0 0 0
1716 1 0.0016 1600 0.004346768691022752 0.0035965242733486833 0.029815421421220067 0 0 0
1717 1 0.0016 1600 0.007015892857483555 0.001618145764321424 0.0326838071866885 0 0 0
1718 1 0.0016 1600 -0.002708438961808727 0.006671274631904051 0.02990217875079305 0 0 0
1719 1 0.0016 1600 -0.0022308485470067547 0.0017394050725092777 0.032271171492348864 0 0 0
1720 1 0.0016 1600 -0.0015388794212193922 -0.00353796471180747 0.032251371248583634 0 0 0
1721 1 0.0016 1600 8.128310097490066e-05 0.005452512137781934 0.030401446243408566 0 0 0
1722 1 0.0016 1600 -0.0029868435073961697 -0.004928312414013158 0.030170968382483506 0 0 0
1723 1 0.0016 1600 0.001032092729915462 0.006676280724422199 0.03079902354066971 0 0 0
1724 1 0.0016 1600 -0.001372723638255102 0.0005702286736412259 0.03159583089524572 0 0 0
1725 1 0.0016 1600 -0.0018087400848564952 -0.004382597804654351 0.028864460683541888 0 0 0
1726 1 0.0016 1600 -0.005532830765811048 0.004607456149624657 0.029217585667799886 0 0 0
1727 1 0.0016 1600 -0.0028999118339467812 0.00012564356610501306 0.031424742646576714 0 0 0
1728 1 0.0016 1600 0.006938542204004511 -0.0019235108133546911 0.029317330836797134 0 0 0
1729 1 0.0016 1600 -0.002897356343230355 -0.0017722572281043125 0.034659283752677024 0 0 0
1730 1 0.0016 1600 0.0014438822925610004 0.0037552360163623805 0.034461876093914386 0 0 0
1731 1 0.0016 1600 -0.003999808410097421 -0.0028919594348573783 0.034358309467362305 0 0 0
1732 1 0.0016 1600 0.006372007551019069 0.002226190753343481 0.03401627577314418 0 0 0
1733 1 0.0016 1600 -0.0064324739210212395 -0.0003101564710929512 0.03352304192327096 0 0 0
1734 1 0.0016 1600 0.0048079789000890225 -0.0017378242186094643 0.03483441581784934 0 0 0
1735 1 0.0016 1600 0.003881653692208023 -0.000812228622547943 0.0326254165479566 0 0 0
1736 1 0.0016 1600 -0.0006251217464494894 0.002924568974215779 0.03197216618886434 0 0 0
1737 1 0.0016 1600 0.004285304731436065 -0.003890196701788977 0.031365542019845906 0 0 0
1738 1 0.0016 1600 -0.00376734557471153 0.006135773774402469 0.03410189718955391 0 0 0
1739 1 0.0016 1600 0.003112772220038177 0.0024320912483996484 0.034762728757991565 0 0 0
1740 1 0.0016 1600 -0.0001354981584566326 -0.004185311174423748 0.03527816628054865 0 0 0
1741 1 0.0016 1600 0.003684714492847019 -0.000673126043225257 0.03524000947117709 0 0 0
1742 1 0.0016 1600 -0.00577505581276292 0.0042999574780577905 0.030768734315807334 0 0 0
1743 1 0.0016 1600 -0.002184785115867017 -0.006860627333255406 0.03323224965895361 0 0 0
1744 1 0.0016 1600 -0.002434407235207911 0.003350059128838419 0.033549622626429826 0 0 0
1745 1 0.0016 1600 -0.0019953260522906657 0.0005627422417659526 0.0344259339138232 0 0 0
1746 1 0.0016 1600 -0.0017323787168312794 0.006988612479297436 0.03424218322696725 0 0 0
1747 1 0.0016 1600 -0.004285491620224046 0.002879902134329973 0.03436663666559011 0 0 0
1748 1 0.0016 1600 0.0019959224745055215 -0.0058942372407398465 0.03310192506479813 0 0 0
1749 1 0.0016 1600 0.0017591304010911937 -0.0042877376969879845 0.03331697046858521 0 0 0
1750 1 0.0016 1600 0.005787549010084996 0.004283106028926391 0.03157228545764803 0 0 0
1751 1 0.0016 1600 0.001716710404771029 -0.0035597645374695662 0.03474566986425141 0 0 0
1752 1 0.0016 1600 -0.00622154208602022 -0.0013589881602340704 0.034712668837000187 0 0 0
1753 1 0.0016 1600 0.0034710610326854612 -0.006308215181645243 0.03392180887145441 0 0 0
1754 1 0.0016 1600 0.0013882567161466698 -0.007065031707908753 0.03400723514607051 0 0 0
1755 1 0.0016 1600 -0.002648153186284872 -0.003587225912565147 0.03385886710653744 0 0 0
1756 1 0.0016 1600 0.003375813646515739 0.004752449045385853 0.03217730443975801 0 0 0
1757 1 0.0016 1600 -0.0013001214806884606 -0.0016798893920902727 0.03465033608653169 0 0 0
1758 1 0.0016 1600 -0.0033349935528871567 0.0042489321241462544 0.03451954197196571 0 0 0
1759 1 0.0016 1600 -0.005555503824319285 0.0019637723361888445 0.034751752568499376 0 0 0
1760 1 0.0016 1600 -0.00010803154093530378 -0.004463781030295867 0.03370290091433593 0 0 0
1761 1 0.0016 1600 -0.0007169449346919568 0.0034178631800291692 0.03349131704663808 0 0 0
1762 1 0.0016 1600 -0.0008861538483571929 0.0012935681428404445 0.03531784146399412 0 0 0
1763 1 0.0016 1600 0.002691254347982482 -0.004821468888086298 0.0346108493097331 0 0 0
1764 1 0.0016 1600 -0.003511360194695805 -0.0004035976022408028 0.03410291337777979 0 0 0
1765 1 0.0016 1600 -0.005507766295671469 -0.004637655931093603 0.03261398457218488 0 0 0
1766 1 0.0016 1600 -0.0004532658067707553 0.0060341610968990276 0.034130820538191116 0 0 0
1767 1 0.0016 1600 0.0033074720577370557 -0.006395441992544529 0.032332653696389706 0 0 0
1768 1 0.0016 1600 0.001106106112726213 -0.005070491743938928 0.03455010671390454 0 0 0
1769 1 0.0016 1600 0.0007350134965888424 0.0068834658487400896 0.03299221541879084 0 0 0
1770 1 0.0016 1600 -0.005508454944270955 -0.0027814935175829885 0.034879449786506825 0 0 0
1771 1 0.0016 1600 0.004832992737876993 0.0014929167286140796 0.0348577035903348 0 0 0
1772 1 0.0016 1600 0.003911459713973475 -0.003057920425473518 0.03495037803687906 0 0 0
1773 1 0.0016 1600 -0.0015073459501619257 0.002191926250561356 0.03414873924240032 0 0 0
1774 1 0.0016 1600 -0.006928098439623741 -0.0019601043573456672 0.033409118171445595 0 0 0
1775 1 0.0016 1600 0.0002886240119209221 -0.0030201240558764514 0.034267033914673194 0 0 0
1776 1 0.0016 1600 0.0029050357962434343 -0.003246917761542449 0.03372106803129073 0 0 0
1777 1 0.0016 1600 -0.0006160518804953681 -0.007173745622539486 0.033255899761678046 0 0 0
1778 1 0.0016 1600 -0.006021666603476489 -0.00394680572860705 0.031265563089625664 0 0 0
1779 1 0.0016 1600 0.0013273657299263635 -0.0035481623131976355 0.031965552281902905 0 0 0
1780 1 0.0016 1600 -0.0026721784028488275 0.0003789426099684861 0.032987969597459345 0 0 0
1781 1 0.0016 1600 0.004846543045053412 0.0030103797769891207 0.03435080402461499 0 0 0
1782 1 0.0016 1600 0.0033682789835248156 0.004007570263595332 0.03487431432363184 0 0 0
1783 1 0.0016 1600 0.0015248820426125216 0.0008177959723494864 0.034417630981000924 0 0 0
1784 1 0.0016 1600 -0.002100246500065436 -0.001052843764327805 0.03341490615928573 0 0 0
1785 1 0.0016 1600 -0.002838028487142645 -0.0013549565323638466 0.03202774861849819 0 0 0
1786 1 0.0016 1600 0.0035996021876505 0.0030000430971686425 0.03334844102943951 0 0 0
1787 1 0.0016 1600 0.0001279012856378812 0.005074689308323879 0.0352716643485592 0 0 0
1788 1 0.0016 1600 0.00048017237307645396 0.00035168537366741593 0.03329913106292726 0 0 0
1789 1 0.0016 1600 0.004119157112096247 0.004774534719194656 0.03368782947136301 0 0 0
1790 1 0.0016 1600 0.005828036223828766 -0.004227978382802587 0.03308733137016273 0 0 0
1791 1 0.0016 1600 0.00566866108750614 -0.003775932522545033 0.03461378146749295 0 0 0
1792 1 0.0016 1600 0.00015143455403939513 -0.001814353922735562 0.035309692079668324 0 0 0
1793 1 0.0016 1600 -6.21768544236298e-05 0.0035194371716868126 0.0349476092697228 0 0 0
1794 1 0.0016 1600 0.002743603108770123 -0.0019358049619742476 0.032583886085076924 0 0 0
1795 1 0.0016 1600 -0.0007649643959552697 -0.004936409951125463 0.032322812721895126 0 0 0
1796 1 0.0016 1600 0.005343266605009538 0.004825967483632218 0.03471675416105155 0 0 0
1797 1 0.0016 1600 0.00552389299359934 -0.0015420738012837543 0.03341708547580739 0 0 0
1798 1 0.0016 1600 0.0018964044033245458 -0.0019568342401010902 0.034644562081405386 0 0 0
1799 1 0.0016 1600 0.0004042245552094112 -0.0059517188374907225 0.03341406816177781 0 0 0
1800 1 0.0016 1600 0.006648136210043193 -0.0027644997368504553 0.03385383835300562 0 0 0
1801 1 0.0016 1600 -0.0012575644052409344 -0.003277981637397316 0.034587029786414966 0 0 0
1802 1 0.0016 1600 0.004326758335169778 -7.377358768779058e-06 0.03393449448912889 0 0 0
1803 1 0.0016 1600 -0.0011015131951976165 0.001015594858565091 0.033143133114116714 0 0 0
1804 1 0.0016 1600 0.0029002494357668073 -0.0009743647620879566 0.03387849467276336 0 0 0
1805 1 0.0016 1600 0.004184356772157574 0.0015115081545766644 0.033395193466163084 0 0 0
1806 1 0.0016 1600 -0.0048741190866843104 -0.00058202890544312 0.03328386527318854 0 0 0
1807 1 0.0016 1600 -0.0019924574458448914 -0.00466110858848069 0.03491379615572517 0 0 0
1808 1 0.0016 1600 -0.005926341255925634 -0.004088908776940696 0.034057386133880284 0 0 0
1809 1 0.0016 1600 -0.00331753524246198 -0.005135358817078016 0.033979471909725306 0 0 0
1810 1 0.0016 1600 0.0023404977158478614 -0.006318322774418086 0.0350538669741327 0 0 0
1811 1 0.0016 1600 -0.002888460651249751 0.0018044751762253373 0.034895244941208894 0 0 0
1812 1 0.0016 1600 -0.0013997898949332154 0.004331122016128732 0.03461357709408507 0 0 0
1813 1 0.0016 1600 0.0008989622646384135 -0.0007296012413316379 0.03440176785944726 0 0 0
1814 1 0.0016 1600 -0.0008153134413728429 -0.006113099705861194 0.03443707374537896 0 0 0
1815 1 0.0016 1600 -0.004627007863761259 -0.0014418494403191998 0.03461023041323543 0 0 0
1816 1 0.0016 1600 -0.0018131789723574326 -0.005322466692102103 0.03346806039886965 0 0 0
1817 1 0.0016 1600 -0.002138313994228504 -0.00544520879329776 0.03145234550931141 0 0 0
1818 1 0.0016 1600 0.006058057436526848 -0.0004419171917184425 0.03444861124233917 0 0 0
1819 1 0.0016 1600 0.002018129226738399 0.0069114261327268 0.0320368875010983 0 0 0
1820 1 0.0016 1600 -0.003343070404958199 0.002044156583212113 0.033380119711538474 0 0 0
1821 1 0.0016 1600 0.003275554399900095 -0.004934343329265912 0.03312574445431906 0 0 0
1822 1 0.0016 1600 0.005633492392134365 0.0008620460142867386 0.03362444022719822 0 0 0
1823 1 0.0016 1600 -0.006966437908658185 0.0018193551786479507 0.034011276045976056 0 0 0
1824 1 0.0016 1600 -0.0027151171088650532 0.006668710617342014 0.033020899593045765 0 0 0
1825 1 0.0016 1600 -0.0001728382656660441 0.007198074128593384 0.03171291467980615 0 0 0
1826 1 0.0016 1600 0.001130174181330557 0.006077946515507679 0.034356020483370026 0 0 0
1827 1 0.0016 1600 -0.004376764016175859 0.004811152870216904 0.03344329571533439 0 0 0
1828 1 0.0016 1600 0.000446485970627639 0.004772558956733449 0.033733155457071846 0 0 0
1829 1 0.0016 1600 0.0021248899819273997 -0.0003348543649074886 0.03535101053218934 0 0 0
1830 1 0.0016 1600 0.0056203270091890285 -0.00024826045477266667 0.03244923482858377 0 0 0
1831 1 0.0016 1600 0.0033711006794972134 0.0008895452888723006 0.03509992635064196 0 0 0
1832 1 0.0016 1600 -0.0023595758830854204 0.003256599973126048 0.035309284887429834 0 0 0
1833 1 0.0016 1600 0.004375896768767874 -0.003914453137013713 0.033681337412694044 0 0 0
1834 1 0.0016 1600 0.007181601009974317 0.0005160091323564874 0.03383232261908149 0 0 0
1835 1 0.0016 1600 0.0010771265994968225 0.007119046748191922 0.03556966592749118 0 0 0
1836 1 0.0016 1600 -0.0029753411724882475 -0.0035058603736582545 0.03542289203511491 0 0 0
1837 1 0.0016 1600 -0.0017913336579744087 -0.0025434965208525066 0.035904411071284295 0 0 0
1838 1 0.0016 1600 -0.0026472071142618066 0.006140862560794579 0.03524431834729605 0 0 0
1839 1 0.0016 1600 -0.005223288702169953 0.0024446124695672714 0.03216620109071363 0 0 0
1840 1 0.0016 1600 -0.004169797292752037 -0.004009945626203414 0.03322660756554252 0 0 0
1841 1 0.0016 1600 0.0008862168202836008 0.0022668905703825677 0.0346453934938822 0 0 0
1842 1 0.0016 1600 -0.0004878826643991557 0.007183499008987438 0.03524327468301014 0 0 0
1843 1 0.0016 1600 -0.007142284205370746 -0.0009103587795771645 0.032220895205240546 0 0 0
1844 1 0.0016 1600 -0.0006453943280050462 -0.00027707898592027743 0.03424642189897007 0 0 0
1845 1 0.0016 1600 -0.00718835387471583 0.0004099977348949336 0.034735383785820674 0 0 0
1846 1 0.0016 1600 0.0056545697658739605 -0.0017253848152305321 0.031833109547687664 0 0 0
1847 1 0.0016 1600 -0.002957339961932739 -0.006564660708449316 0.03460169406495167 0 0 0
1848 1 0.0016 1600 0.0004047315055639123 0.00035977632913125417 0.0354641961706923 0 0 0
1849 1 0.0016 1600 -0.00566857841987904 0.0030471628171695564 0.033579905349173586 0 0 0
1850 1 0.0016 1600 0.0028848457007155754 0.0006016831444260613 0.03360312415581367 0 0 0

Velocities

1 -5.204873418543927e-13 -2.314820778910116e-13 2.7106824785340514e-13 3.219511204373547e-10 -6.778419659357632e-10 -6.569530795410972e-10
2 -1.0289096991464239e-12 4.99894525009562e-13 1.0153378680643636e-12 8.085008020004607e-10 7.32581753267979e-10 -2.03492675604276e-09
3 2.1572436250597613e-12 5.428705902612477e-13 3.0086553102929187e-13 -2.7590346127014702e-11 2.0171885937792772e-09 -6.752510923279179e-10
4 -4.0307187587377944e-13 6.309789502944164e-14 1.0054980981059895e-12 1.562050609269494e-09 8.181946966088065e-10 4.943298605570729e-10
5 2.1017733699760528e-13 -2.177594316276371e-13 8.00727535906055e-14 3.1675714958172834e-10 2.479943274379827e-10 -3.5229201590079815e-10
6 1.2005585660458101e-12 -5.287701897066859e-13 5.185551077400954e-13 8.274038708289242e-10 1.0578272429004041e-09 1.1905690195285992e-09
7 1.2108990380127157e-40 -2.1520082698667415e-41 1.2119795878888424e-13 2.689948258558636e-38 1.513588866828249e-37 0.3053545271394178
8 5.610613066495223e-13 1.2546886267458405e-13 2.173984001491713e-13 -1.1717755212092728e-10 6.66982239428626e-10 -9.99702661891007e-11
9 -1.0093562876112202e-12 5.425632983771193e-13 2.7260095929336713e-13 -4.0974413959469764e-10 7.413543595075267e-10 -1.9174160957745097e-09
10 -3.212898662515018e-13 9.001900986002013e-14 2.674820987239605e-13 -8.4785740560695e-11 -3.7264803713363395e-10 1.343021752556888e-10
11 1.1310105915085376e-12 5.423531078373582e-13 -3.829769628811003e-13 -7.092988489863708e-10 -1.805768590804414e-10 -1.2431656355248877e-09
12 -5.014029767956118e-13 2.1697589706902566e-12 -5.962912158199292e-12 4.11116697011677e-09 2.203311873453368e-08 6.141881019666113e-09
13 -8.19955258534077e-13 1.0841510104675427e-12 2.7065250487865233e-13 -1.3209500471479086e-09 -1.040163375804562e-09 -7.099563685702066e-10
14 -1.0829472409817894e-12 -7.421422443205471e-13 4.1813814215188586e-13 3.461098773068691e-10 -5.021112581832337e-10 9.042957594044507e-10
15 2.5107819687541687e-13 3.2275415223732124e-13 5.408165493028898e-13 -8.419063843410307e-10 -6.5502361293277e-10 2.2522827877335587e-10
16 -1.0894771429382386e-12 -1.985683914682642e-12 5.989362645592873e-13 -2.1644442854640446e-09 -2.7389078751143765e-10 2.754433104379705e-09
17 -1.242140659284258e-11 -5.794760699698867e-13 -1.138973728717793e-12 1.1561354001631131e-08 -5.373657608668742e-08 -8.880646109894003e-09
18 1.0838780096262309e-12 1.3564383574807715e-12 -1.0338262213714381e-13 -6.259863895354548e-10 1.7776545769248737e-09 -1.6954643413084884e-09
19 -2.154697408597279e-12 -1.1230599644862206e-13 -9.848117778691498e-13 2.8456677069885483e-10 8.328919398257228e-10 2.1020146688495892e-09
20 6.031082139945257e-13 -4.1336032679730096e-13 1.2088019668178507e-12 -4.784493636957998e-10 1.1237620153876445e-10 3.303279948946916e-10
21 -1.0773250939680913e-12 -1.1115094315409212e-14 -2.3847388772522868e-14 -8.379055465311242e-10 -1.878320440964571e-09 -1.7741453875638986e-09
22 -1.0840905869553391e-12 -1.509208922257582e-12 -7.311726856893555e-13 -9.62462254669263e-10 1.0185063488757748e-09 3.6193910507774958e-09
23 -4.0398683396215616e-13 -1.9072402019778886e-13 2.6977533235754447e-13 2.848454643441094e-10 -4.74623464578178e-10 1.1050103130916272e-10
24 1.0212343708069718e-12 9.798077182305219e-14 6.184708528630063e-13 -1.9606879972496157e-10 1.080285873011967e-10 1.552023622141828e-09
25 4.974086639557292e-13 3.5703278437256444e-13 -4.702256839825962e-14 1.2555729289054079e-09 8.728614486491804e-10 1.153289601904371e-10
26 -4.353666413684578e-13 2.1411268628266467e-12 2.167069662429377e-12 -2.689390417966474e-09 -3.156151473510749e-09 -2.7981238716343496e-09
27 -9.919758364451046e-13 1.629830171936226e-13 5.066049721809637e-13 2.8894931824682824e-09 3.4585465600672376e-09 -9.790817838057955e-10
28 -9.77593441843878e-13 8.078432437190085e-14 -2.654062327469514e-13 -5.717236628666141e-11 -1.2206961297777689e-09 1.033238541473172e-09
29 -8.509770727434342e-13 -1.0159664735009173e-13 1.0830941714752533e-12 1.7989097561269984e-09 -6.110993723677987e-10 -2.6791603833581938e-09
30 -9.459286935927986e-13 5.36692031051821e-13 2.2933796455034804e-13 3.8249567075357246e-10 1.6521789882177448e-10 -2.1654091914938114e-10
31 1.05435266275993e-13 5.421167033225869e-13 9.881598299905689e-13 2.1724778556188425e-10 1.3683926747744822e-10 -3.2087648586145535e-10
32 -3.805135501513555e-13 -1.8750404551428595e-13 6.711235443515002e-13 -8.038385632959178e-10 -2.427194657868088e-10 -4.0303773768144604e-10
33 3.6076737769723624e-13 -4.768592990648267e-13 -1.0838571832555238e-12 -6.873180522450238e-10 1.368084659453872e-09 -9.374228310510927e-10
34 -7.682369235951265e-13 5.036929509439398e-13 -1.6569607356734847e-13 -6.276073129200052e-10 -9.616875459863251e-10 2.1002433154394597e-09
35 1.1098321758570133e-13 -1.053971516813938e-12 -3.746700454458445e-14 6.678441541463251e-10 5.475216662637288e-10 2.516616540488633e-10
36 -1.0837951468786632e-12 3.752155493961004e-13 2.98427489220624e-14 -2.991921066557742e-10 -1.4280325051942708e-09 -1.4038568449681331e-09
37 -1.2704569125461707e-12 2.168221758507106e-12 2.678254889069847e-13 -3.488017342695042e-09 -1.7755030479678063e-09 -2.6248202829555147e-09
38 2.1291269132340043e-13 -9.284960189910909e-13 -6.587011139805198e-13 -1.0519497391503769e-09 -2.3821498851750106e-09 3.2951776753559353e-10
39 2.6834863434493936e-13 1.08399165932299e-12 1.0816157074351216e-12 -1.684768996882341e-10 -5.733353456905475e-11 -2.285358082650336e-09
40 -7.784582554732918e-13 6.755400750876982e-13 -1.695466398656943e-12 -8.113259110310946e-10 -1.241834330428696e-09 4.712990013464049e-10
41 -2.093117027626328e-14 3.1251859483597315e-13 3.07939494049787e-13 5.711000622148817e-10 -6.269044986194551e-11 3.069999147888515e-10
42 -2.710713918021221e-13 1.9187900753544207e-13 2.7114335333717684e-13 -1.3807526911887824e-10 -3.1743236556968674e-11 -8.659850911155526e-10
43 -1.9200185954542747e-12 -8.682480271431607e-13 1.0227109227562747e-12 1.6252183073697958e-09 1.0991698125928547e-09 -1.742590755245853e-09
44 -7.777971429830001e-13 7.060903371879712e-13 -3.388458165867574e-13 8.384825056482024e-10 -1.2748413287283222e-11 -1.0745931971004833e-09
45 -3.933484640800265e-12 2.135094835657349e-12 -2.671619280680531e-13 -1.0074859082555315e-09 -4.67823010334318e-09 -6.199348950844825e-09
46 -6.656100081946244e-13 1.832090053200181e-12 3.565643135994105e-13 6.04606158909845e-10 -4.795251207306749e-10 3.8834683796203725e-11
47 -2.7100297501896697e-12 2.616988332183235e-12 2.1700061457091756e-12 8.609572450456049e-09 -1.0382926520517349e-08 3.73469536213321e-09
48 -5.350069970428284e-13 4.83372685628834e-13 -2.818302984772474e-13 3.544127162781044e-10 1.3545176307011662e-09 2.4980640823850143e-09
49 -1.8554526027708145e-13 -6.151390600170383e-13 -3.0780806613223627e-13 9.68387661533039e-10 6.851043245256862e-10 -5.831871641054086e-10
50 -5.888042431180544e-13 6.090947490571651e-13 2.2571550627446804e-13 -2.4178571881825893e-09 -1.1224659676910417e-09 3.7440344866092826e-10
51 -1.8422345955399385e-13 3.7738855788347163e-13 -1.650455667781843e-13 1.4396064858537664e-10 -1.6948635382774943e-09 -4.149034854820118e-10
52 -3.23297204862739e-13 -1.2090972005478973e-12 7.32109256995519e-14 4.030712105964724e-11 -1.9899171285215514e-10 -5.959803635850057e-10
53 7.543716001891493e-13 1.4313538780829005e-12 2.1683027104555455e-12 -2.2174195945732264e-09 -1.4603416603677247e-09 9.75254961868119e-10
54 -1.2142949262636306e-12 1.355074233118505e-13 7.246682311419025e-13 -1.3602677602452065e-10 8.343911959267044e-10 -1.49986241098565e-10
55 3.671633239022222e-13 1.494429846532414e-13 4.480832450004152e-13 -5.468107276394708e-10 -4.4447987386440883e-10 3.3749130897867367e-10
56 -8.880973536355845e-13 -2.2332315533068344e-13 -2.337027762591878e-13 2.1125733748159133e-10 -1.092253254864983e-09 -8.575888770471843e-10
57 -8.305425469862833e-13 4.4406408475349235e-13 -3.3556535733599535e-13 4.912396738671554e-10 2.7705982425175425e-10 4.940315135526161e-10
58 -1.4274745509155548e-13 7.553972252999583e-13 2.712085898748139e-13 -7.929370687829856e-10 -1.6532444515015353e-11 -9.152148095310788e-10
59 1.397296672041676e-12 1.4707528711118275e-13 1.0840789608260685e-12 -2.127933128951175e-09 6.052694375294291e-10 -1.4153370538773896e-10
60 -7.358853979691291e-13 -2.16835747501694e-12 2.1590163296972313e-12 -6.474270309653225e-09 5.5363866041087996e-09 -1.010410259703023e-08
61 -5.036183035866678e-13 4.953389327695118e-16 1.0831663291069164e-12 1.1163671246958654e-09 -1.1791047611728967e-09 -7.609340039259675e-10
62 1.2120173845098581e-40 -2.4686444623910186e-41 1.2119795890378896e-13 3.085734365240303e-38 1.5149867676888476e-37 5.85219739524068
63 -3.5972873177444e-13 -4.057408432354471e-13 9.252137821709344e-13 6.10358077216249e-11 5.727505006453428e-10 -6.472031118575766e-10
64 -1.0501442252327906e-12 -3.468803820504899e-13 6.620571158857573e-13 2.0973060205717773e-10 9.385467432508525e-10 1.2033112076913975e-09
65 -1.084271435191051e-12 -6.152375516678759e-13 4.5370302995144787e-13 1.8173153709285253e-10 -2.4970493359547765e-10 3.2037801663553996e-09
66 1.4249068063773322e-13 1.893913201199785e-13 5.418890422471907e-13 2.7465566984399933e-10 3.3839502938626546e-10 -7.402479968150546e-10
67 -1.5045352266518161e-12 1.0383695923667788e-12 -9.249317053348922e-13 -2.6201888932906643e-09 6.645772046185644e-09 -2.2804914446476202e-09
68 -9.795200431748466e-13 -1.7673822816005804e-13 -2.9941862360117454e-13 6.840804594044524e-10 -4.723076140077844e-10 -5.569983554178914e-10
69 -1.5819475076376265e-12 4.676627243851518e-14 -7.993992913665149e-13 2.5515162872096155e-10 -1.1302206937221877e-09 1.4638204638447993e-10
70 -2.16690961186873e-12 -1.591587944138258e-13 -4.942146245481278e-13 3.566821685931881e-10 -6.203041182746383e-10 -1.798799795033209e-09
71 -7.183897994166732e-13 -1.079435614986739e-12 -2.1421346606904577e-12 9.228666772443182e-10 -7.191252692748746e-10 3.3903326474636192e-09
72 6.807962537346515e-14 9.645383848051412e-13 -2.470252998263775e-13 1.767888077695096e-09 -3.0782676108004904e-11 1.4113882922251684e-09
73 -5.93594757016367e-15 1.9770103830237728e-13 5.416754387589218e-13 -5.474845566264038e-10 7.227383142681627e-11 2.51344039455792e-09
74 1.0836139099740258e-12 -2.1620824612284e-12 2.0150012981343173e-12 -2.5524785062489357e-09 -2.2314639821418064e-09 1.6127024958455695e-09
75 3.0250100581541706e-13 -1.2562975280190613e-13 -2.698650800236578e-13 1.4050890632370415e-10 3.924649913218034e-10 -1.4843447072884653e-09
76 9.415535637994131e-14 -5.898703453093201e-13 -1.0842453323758064e-12 1.892361357002213e-09 2.0527166581607295e-09 -2.0437274636436932e-10
77 -5.249093006153985e-13 -1.6309557859538113e-13 2.5311577217033864e-13 8.109505939997035e-10 -1.012421390880366e-09 -1.6499293285886713e-09
78 -2.1684226897622664e-12 6.53141810346213e-13 9.370080323250597e-13 -2.37067720818827e-09 1.4719801279227002e-09 4.842565139176211e-09
79 1.6263791578303824e-12 1.0855144231936585e-12 1.0841250541187685e-12 2.380986380207668e-09 -1.1326991715542062e-09 -1.964247615510305e-09
80 -4.50056343142818e-15 4.907646208118181e-13 -1.0818353796177936e-12 -7.453869513465015e-10 -5.620610261022151e-10 6.961438692957626e-10
81 -6.56025947692234e-14 5.420189902037299e-13 -2.636026225074504e-13 -5.053975746946697e-10 2.2995292624329761e-10 1.1387293793124222e-09
82 1.0239438154330045e-13 -5.597928448733885e-13 -1.0769018271308559e-12 5.379279575366967e-10 -2.752482733841566e-09 3.4792356825493684e-09
83 -7.763702447154294e-13 6.819647045575521e-13 2.7108133152423017e-13 -2.821021131570173e-10 -1.326049288834487e-09 -3.1557933396842307e-09
84 1.0513470446245733e-12 -2.0956798366797362e-12 5.605378409651283e-13 9.157714577657022e-10 4.203514912773532e-09 2.1995973089501316e-09
85 5.237743594114192e-13 -6.803542904954428e-14 8.553944350863829e-13 -1.7187113827196192e-09 -1.0264298503338492e-09 -2.0395199744590098e-10
86 -6.884461233975674e-13 -3.364796230949461e-13 -2.1673111150143457e-12 1.8619009023330352e-10 1.452069618382459e-09 -3.3962849133357766e-09
87 1.1798973292447906e-40 -2.2283447727702522e-41 1.2119795890388324e-13 2.785366685116289e-38 1.4748376251716424e-37 0.3076295674167449
88 1.7705613579420403e-13 2.70911448769977e-13 5.418116811840498e-13 2.833933433540502e-10 7.494149931953103e-10 -2.002435576378115e-10
89 -6.740373167053682e-14 -5.793111549815268e-13 2.704807984157664e-13 6.959949577213834e-10 -8.310947801025742e-11 -1.3452885648999452e-09
90 3.77281348148502e-13 -3.036547710201314e-13 1.6848723452969855e-12 8.237770995112665e-10 8.24107488010385e-10 -4.896427857603905e-10
91 -2.4444586496119515e-13 -5.675925368323586e-13 -1.7295500191215281e-12 6.573766429913623e-10 -1.1155084399498628e-09 -5.742107819913191e-10
92 -1.9871840464347303e-12 1.9384667165458567e-12 -1.3551702586697647e-12 -3.2759617169249426e-09 -1.716601847841376e-09 3.209755972322159e-09
93 7.773151450606827e-13 2.9743329071661066e-15 2.3635583352190066e-13 7.122934904323777e-10 2.902193816862216e-10 -6.708376372038457e-10
94 -3.8908260283871113e-13 4.34097517802666e-13 2.1685991139451155e-13 -5.103630307782824e-10 -3.2348540570648394e-10 4.38223877453529e-10
95 5.419657533880731e-13 -4.082185152468256e-13 1.068516688708417e-13 5.117849585782141e-10 6.461328262012154e-10 -1.606354295184707e-09
96 -5.424406168618503e-13 -5.420540247850951e-13 -1.4133345698642974e-13 -5.3794352460042e-10 -1.0159765582872903e-09 5.577945019034639e-10
97 1.2709270883497649e-13 2.387636287132845e-13 4.99434545626859e-13 -9.486445932672804e-10 -3.261258920970471e-10 6.182089735640637e-10
98 -1.6262875762981355e-12 5.421204276619137e-13 8.513576498965921e-13 3.8292622703893665e-10 -3.9121462781970083e-10 1.4505146208774154e-09
99 3.859533464964884e-13 -6.516195164220129e-14 -2.710164911450358e-13 7.08899221250417e-11 4.0927427478698537e-10 -1.3876760706411909e-09
100 -2.8930897111304445e-13 2.1066342271215072e-13 2.174296422795981e-13 -1.0890635328691934e-09 1.7826555128033666e-09 -1.129933071920956e-09
101 2.1681252341838318e-12 1.0844609631727674e-12 -1.4018805599501245e-12 -5.914282623997073e-09 5.408757463411435e-09 2.753828323847873e-09
102 6.924620592736908e-14 -6.862396635485261e-13 1.6857426258011442e-12 -3.773289818045588e-10 -2.1154401491036476e-09 1.0104638034066156e-09
103 -1.9939603610250634e-12 -4.1726049846543044e-13 -1.083124967261308e-12 2.2687064447070617e-10 5.705271134094447e-09 -6.612102952796213e-10
104 -4.674569817913979e-13 -4.1943820164700753e-13 -1.839349209509308e-13 5.187922953293936e-10 -5.769161692212445e-10 1.0503580447738821e-10
105 -6.442839882288695e-13 -1.0848218071186948e-12 1.0835851956375382e-12 1.8971359051156516e-09 -5.2072756326244e-10 3.0157182043435244e-09
106 -4.209936061904452e-13 1.3391741451405003e-12 1.1389634285579195e-12 1.446092308939942e-09 4.152463141719354e-10 -4.3569798617908984e-10
107 -1.0214950005206423e-13 2.43381067395924e-13 1.721491047915291e-13 -3.8285395271013495e-10 -1.98649081470734e-10 5.337141437658594e-12
108 -4.754649991344559e-13 4.71960574072202e-13 -1.0817904304451832e-12 1.2723543412842398e-09 1.2317985311675209e-09 5.3643663026661327e-11
109 -3.1545674748660847e-13 5.423799593314237e-13 1.3372849280175753e-13 -6.761161032557171e-10 -3.9779858274429074e-10 2.5183978525278816e-10
110 -2.991647782139082e-13 1.0837702297122968e-12 1.084151639905961e-12 4.097600088604225e-09 1.9668798082933613e-09 2.1685182313973402e-10
111 8.132792380385117e-13 7.040669335290764e-13 8.117942477643053e-13 2.449861571762866e-10 -1.2876586135393432e-09 -6.114374329579358e-10
112 5.29858894262035e-13 5.738142530661907e-15 2.8959406223178896e-13 -1.6133979375151411e-09 5.568047510686716e-10 -2.5708480379004016e-11
113 4.185112616862657e-13 6.673531433195763e-13 -2.706346313119191e-13 -7.783147906829295e-10 4.666246117985229e-10 1.071319471310143e-09
114 -1.641780682333925e-12 5.012802711912207e-14 -9.61151103306352e-13 5.977892971217351e-10 -1.1507528319287052e-09 -6.871169125686667e-11
115 -3.9501142490365305e-41 3.871343126110603e-41 -2.133314383017576e-13 -4.839067231376838e-38 -4.937528862731273e-38 0.10569118376780402
116 -1.9245474157676587e-12 -1.107525725435209e-12 6.120566982679507e-13 2.168530412215257e-09 -1.8695455173155197e-09 2.7423621172568676e-09
117 2.4343937626312657e-13 -4.0167267957878207e-13 -4.587986038631304e-13 7.604787261245857e-10 -3.8839169648976473e-10 1.9858163803778623e-10
118 -6.340265404438521e-13 9.941229172674236e-13 -1.0816742972436085e-12 -1.4693183967092387e-09 1.2375624754291537e-10 4.373300434544209e-10
119 -2.1073425539879834e-13 2.061122963576274e-12 5.024373890691787e-13 -9.005959303404408e-10 2.689744482011388e-10 -2.6292339930054104e-09
120 -1.6574960846529886e-12 9.827571689839868e-13 7.646364668071583e-13 1.1792770152120477e-09 3.826690430470464e-10 -5.2120917972314565e-11
121 -4.504100172371922e-13 5.094580247730479e-14 -2.712980649807951e-13 -5.479109051743256e-11 -5.016943668339889e-10 8.720705493198108e-11
122 1.975819634729064e-13 5.341330677886794e-14 -1.26651955595828e-13 -7.4099861651889e-11 3.1111620672433203e-10 -1.6987107702182123e-10
123 -5.799825801072516e-13 1.0519830050229923e-12 -1.307069318727628e-13 -5.309241716797281e-10 -1.89138826768713e-09 9.075370817178955e-11
124 -1.0842072786701545e-12 6.999691519728672e-13 8.13047187441163e-13 -1.2361767337815405e-10 -3.4453159126570033e-10 -3.5468686403390385e-10
125 -1.3863100106600623e-12 5.196913224451601e-13 1.2002639439296277e-12 3.887593411044654e-11 -1.6192437087533905e-09 1.3844596144753737e-10
126 1.0841135420974948e-12 -5.541695517155546e-13 1.992273882071142e-12 -2.382691645123685e-10 -9.215733896811487e-10 -1.304155371737639e-10
127 4.312862630476466e-14 -9.703773671976901e-14 3.2457647685889345e-13 2.142603288756645e-10 -6.283238974570929e-10 -4.414594546806422e-11
128 -1.6505744148143512e-12 -1.23612320707417e-12 -9.660529267035789e-13 1.5389690274477237e-10 1.5101967190516212e-09 -2.4031325155307545e-09
129 -2.707941994109727e-13 2.854817095556814e-13 -1.4316150604848083e-13 -3.0554301509506575e-10 -3.287321868342499e-10 3.875622946257817e-10
130 -1.9321187901836386e-12 4.494185392367005e-13 -2.301464917625313e-13 -1.1619354003834394e-09 8.386446048459725e-10 -4.304035763485995e-10
131 -1.0841488432456508e-12 -4.2304403638391327e-13 2.1652295263757966e-12 1.429694443079058e-09 -2.2404550875685892e-09 2.17690048199601e-09
132 -1.181207298618953e-12 3.523268269081504e-13 -8.807260617373382e-13 -3.5767111137270886e-10 -1.1629692666617756e-09 -7.867371246823668e-10
133 3.947551983418863e-14 5.422779355371208e-13 7.779802823239497e-13 -1.3359323675004945e-09 7.549409097937284e-10 -2.68093603772774e-10
134 2.168119468409164e-12 -1.0840702494037847e-12 4.4867483167361626e-14 3.4965325869325726e-09 1.153965668758644e-09 -2.230846066265587e-09
135 5.420306262328372e-13 2.573797827974992e-13 -4.71596637267902e-13 -1.355631605898889e-09 -9.70979906664074e-10 -2.6596357861229555e-11
136 3.3189481901965913e-13 1.2005898259944314e-12 -2.706449159992607e-13 -1.3723381419382767e-09 7.314831268550291e-10 1.0655399015782534e-09
137 -1.0843570594093678e-12 -1.4701670283456517e-13 -1.083983234185821e-12 1.9799510639137217e-09 -2.446834544809169e-09 -5.227761452892208e-09
138 8.65624980009375e-13 9.864716278961365e-13 -6.49604839718728e-13 4.2169716339046694e-10 3.256981934741062e-10 -1.0823314532974999e-09
139 -1.5666985630311131e-12 -9.78327002140232e-13 1.070634679177917e-12 1.1939034177035687e-09 5.651351344801273e-10 2.900037401237267e-09
140 -2.1305178868238547e-12 5.377401958322408e-13 4.044557439878147e-14 -3.4499307248608266e-09 2.092379672400346e-10 1.1127185250309492e-09
141 2.9481238693445115e-13 1.348759140211503e-12 -3.858654199871177e-13 1.7983025065269636e-09 8.590871179940997e-10 1.224193221469248e-09
142 1.913158764024288e-13 -1.0836749627509399e-12 7.287772138820038e-13 -9.899357121577202e-10 -3.7838175099274457e-10 7.115322172978921e-10
143 -3.488425443530051e-13 -2.0210976911241103e-13 4.322077632057812e-13 8.498957351402435e-10 -3.0499446740899227e-11 5.235823686100507e-11
144 3.8082657837732487e-13 1.665845382483729e-13 2.6389003893371854e-13 -1.9152563566944412e-10 4.4460338435287456e-10 8.815908633228608e-10
145 -6.865097171902207e-13 -5.416508868707575e-13 9.838051623425399e-13 2.38834202746151e-10 -9.13746851485598e-10 1.1893673051510528e-09
146 2.560127389159631e-13 -1.3546917627061016e-13 2.706038852789571e-13 2.7951046108094735e-10 2.960652850762468e-10 -2.1974083580990593e-10
147 -1.0883103126857057e-12 -9.051151697146522e-13 1.0861688492922173e-12 -5.681718037947857e-10 -4.475578646608678e-09 -3.075226152927983e-10
148 -1.350818200114798e-13 5.259041655092691e-13 -5.058339641010672e-13 -7.997979667067012e-10 2.565326259081754e-10 2.583278323645915e-10
149 -3.1969809923404656e-12 2.1453186056420128e-12 2.1685227646179605e-12 -4.2872675707364e-09 3.7890593208706825e-09 -3.0421669996602735e-09
150 -1.3473411510981823e-12 1.7303561139405773e-12 6.959670227418468e-14 -1.3646737160673035e-10 3.136071484604242e-11 -2.7631864099772217e-09
151 -4.1204038016821956e-13 -4.281553686744851e-13 1.7673720913602037e-13 5.215668240799927e-10 -5.063127508795105e-10 7.199215095610505e-10
152 -5.381941631314188e-13 -6.847786973774373e-13 2.7105813478480377e-13 6.333261239409065e-10 7.703414690367349e-11 -1.373437543342642e-09
153 -8.742846053074978e-14 3.5219704289156324e-14 1.702116882649113e-12 -1.2292053543639025e-09 5.83274277665611e-10 8.695324691398572e-10
154 -3.863932361077218e-13 2.1631207338699387e-12 -2.712239029654027e-13 -1.5087043865500996e-09 1.7735440942290114e-09 4.129241239181451e-09
155 -4.0411270450778343e-13 -5.417422106579574e-13 -8.879716922132059e-14 -1.1125789716252656e-09 2.6772054807189007e-10 -9.380056611367485e-10
156 1.133534866768666e-12 -1.6820675679740287e-13 -1.9345333024574932e-13 1.2168637806949717e-09 1.5293561952525804e-10 3.6667070058911845e-11
157 -7.934305153715168e-13 5.424668159004794e-13 -2.7095591718634365e-13 -4.0007721161322073e-10 -9.333963145207788e-10 -1.0616756963646499e-09
158 5.851645780557999e-13 2.373170961932518e-13 1.9840015591174918e-12 -1.6817545228529945e-09 1.7626983961067183e-09 3.617113553281082e-10
159 -2.1637580051402839e-13 5.468323326419773e-14 -5.475864535776832e-13 -1.7337102690441965e-09 -6.081852950855958e-11 8.97153656584683e-11
160 -1.1284470844302207e-12 2.6720996164220745e-12 4.748808635700649e-13 -1.9771878460482807e-09 -6.747962278827904e-10 -4.622452368750155e-11
161 -7.42113448218575e-13 -5.452894166645433e-13 1.170113629903498e-12 -1.847295698126697e-09 8.387437884047594e-10 1.8158084247151015e-09
162 -1.0842080624919903e-12 -4.1431016448636905e-13 -2.37669653777517e-13 3.5118451775966283e-10 -1.1307395599993919e-09 -1.061026655979284e-09
163 -1.5498384765364662e-13 1.3750531668995534e-13 -8.131340479473614e-13 -5.131612172734982e-10 -4.3784150552690644e-10 1.1442942598860118e-09
164 7.50922004197382e-13 5.066862802167081e-13 1.6256489776371694e-12 -5.325382975826343e-10 8.375089922316222e-10 1.527249509938283e-09
165 4.261518525051041e-13 4.80812999101861e-13 5.419777521486775e-13 -6.593707729273217e-10 1.3502121907412509e-09 -7.086590469722115e-10
166 5.692155404450313e-13 2.1678692758801268e-12 2.8520344228393647e-13 -1.468350823746117e-09 8.006712130856815e-10 -8.879800634471639e-10
167 1.0546059829792833e-12 -2.250598639515315e-13 8.352158064161706e-13 -5.416327603986596e-10 1.6573845882235237e-10 -1.3846257778465062e-09
168 2.538144953493781e-14 1.0839210643929906e-12 1.6112069947208943e-13 1.3471423129470902e-09 1.2249787835468109e-09 -1.1848326879275932e-09
169 -2.253208486928231e-12 -2.822355269509147e-13 -1.9372602252659534e-12 -5.047356750767171e-09 3.5334004012067824e-09 1.2146132073227047e-09
170 5.71632997061603e-13 2.1820943151152002e-13 2.6820356340950593e-13 -2.743977751213177e-10 7.142630163178108e-10 -1.6318430003750838e-09
171 -6.400461760322552e-13 -5.142102757452423e-14 -2.710231240875534e-13 -1.0401790396342559e-10 -8.892089705395647e-10 -2.38769157425833e-09
172 3.3538731398555157e-13 8.78543415747991e-14 6.16315364262992e-14 -1.1485971065355285e-10 4.3651780282287764e-10 -1.138943799426991e-09
173 -9.456279243740677e-13 1.530203852287368e-13 2.558378148980509e-13 -5.030401303263756e-11 4.6290605524783227e-10 5.215035299870685e-10
174 8.654815334364081e-13 -3.4484844356882463e-13 -5.373169674093533e-13 1.0662164569482553e-09 1.6290988809996875e-09 1.4160056638317124e-10
175 -1.6904499305892387e-12 -4.015693154287232e-13 1.29696608822032e-13 -8.986367901555082e-10 -7.525371572944923e-10 1.068280455978096e-09
176 -1.2871970637225761e-12 8.018201109684665e-16 -1.3201766505362137e-13 -1.2263978558012875e-09 2.118325146104602e-10 4.4143122760900243e-10
177 -4.97955736480595e-13 1.0481219865076399e-12 1.084385913723667e-12 2.978648026180815e-10 1.3999155583673977e-09 -3.2148257325478746e-09
178 2.945658161930986e-14 1.0404098463053083e-12 1.0835921416239878e-12 -9.543411886685409e-10 -7.612696902823141e-10 1.5964107854647237e-09
179 6.778565139803957e-14 -8.710715771417575e-14 4.133580302197727e-13 -3.356969024846853e-09 -1.4817736380030574e-09 1.1039117204536988e-09
180 1.3532644829862013e-13 -6.89575911141207e-13 1.4386004449605924e-13 1.5416783509831305e-09 2.0159763353858475e-10 -4.024488149977969e-10
181 3.752380750717831e-14 1.7110456739322895e-13 -3.8506760832507514e-14 6.599884552091905e-10 9.195490793245186e-10 -1.0228171323116752e-09
182 -9.71507332556687e-13 9.89266782660309e-13 1.6951410252894765e-13 -1.6026637556328873e-09 -8.762728870397627e-10 -8.737525933511023e-10
183 -2.0571436631395917e-13 9.995626217677914e-14 -8.282463050042748e-13 3.198310133430352e-10 -2.326554669310411e-10 7.855785333195089e-10
184 -5.166971132764298e-13 1.0530878784259176e-12 -2.7647310097551666e-13 -4.7601319516441396e-11 -2.739479423285425e-10 2.260167853106175e-09
185 -3.0425822870710977e-13 2.8882835060326503e-13 2.7073027216792367e-13 -3.4912070466175087e-10 -3.408000341288454e-10 -3.96590295676092e-10
186 -2.5983378993047816e-13 1.354459468303246e-13 -1.6273875850026818e-13 -2.498147035793441e-10 -3.5543024010241444e-10 -9.793942964502301e-11
187 3.175793380336661e-13 8.595300483007144e-14 3.6747228866965177e-13 4.940503098384637e-10 -4.675007346571023e-11 -4.1573140322663755e-10
188 -7.986197212125858e-13 -4.5671980786681566e-14 3.729161571921787e-13 1.710223335594147e-10 -4.4333714960371014e-10 5.608127214474136e-11
189 1.3102443098264944e-12 2.1686927135174706e-12 1.0840292181572146e-12 -2.981406619230964e-09 5.1167951185907466e-09 3.4065962254036363e-09
190 -8.959947309085786e-13 -3.088098297178852e-13 3.5665884921411e-13 -1.2201106742873161e-09 -1.311019794266173e-09 -1.6117849300147793e-09
191 -4.339872846417329e-13 7.692905111776739e-13 -2.3340279184660707e-13 -6.505971763349531e-10 1.1289709361550529e-09 1.5133870896567913e-09
192 -1.4524138294836104e-13 -6.274047954352241e-13 2.7120471668035674e-13 8.10327159196807e-10 -9.72325135626882e-11 -5.950146432299253e-10
193 -6.405796705050541e-13 3.823285750573827e-13 2.7036869149097635e-13 -2.4337575907851084e-10 -6.09801556942802e-10 -1.9517679444520266e-10
194 -2.2057020902160272e-13 2.9503607903756566e-14 2.7094717642267846e-13 1.8615130800582723e-11 -2.9991205693993117e-10 4.861908910678602e-11
195 -5.264292087055097e-14 1.1896582120026916e-12 -6.390017034843498e-13 8.048786411130465e-10 1.011050678963572e-09 9.027611431383875e-11
196 -2.4030328798345796e-12 1.365409730666311e-12 5.148931307683524e-12 3.6060825675276987e-09 5.801577376863144e-09 9.974690487700803e-09
197 3.014286884569427e-14 4.0069796779313125e-13 9.784165503624473e-14 -4.6397948329208717e-10 2.9504518404144374e-11 -1.6252452288211057e-09
198 3.000002630626646e-14 -1.0842001920410732e-12 1.0181405800804045e-12 1.219056374667818e-10 8.554629223459921e-10 -3.573699720564163e-09
199 -1.743838037896737e-13 6.013049786256183e-14 -4.1762281484820776e-14 -8.213897843415322e-11 -1.832986106380227e-10 2.967587867210779e-10
200 -1.9390100123331247e-14 8.238244913016753e-13 -2.609399227109812e-13 -3.5827337983493136e-10 1.187779382873173e-10 1.2846270102681093e-10
201 -3.2057214127694317e-13 -4.74413363803002e-14 2.0229671926934856e-12 8.859532133560352e-10 -8.709324170484163e-10 1.4954955787368423e-10
202 -1.2811298313866968e-13 1.5814840750965761e-13 4.968910216906945e-13 6.474553800855865e-10 3.00755395352697e-10 2.6091942801730164e-10
203 9.943364162095024e-14 -5.418679760788239e-13 -3.9139969189415295e-13 3.5387071439136823e-10 3.602489528793438e-10 1.1978671907037262e-09
204 5.019413156714684e-13 -5.31358282361417e-13 1.4115243152503954e-12 1.6707800470332304e-09 3.302194829726703e-10 2.288944659054518e-10
205 -6.073017560442521e-13 -5.159244824658009e-13 -1.0822944139597346e-12 1.6671398570505482e-10 -1.546280329953659e-11 -1.946190575673146e-09
206 -1.8758105585415278e-12 2.00768981336978e-13 5.104576140474443e-13 3.196254173873896e-11 6.083465491653358e-10 -4.278895914197981e-10
207 5.415922557046358e-13 1.0839989268470824e-12 -7.863958700952792e-14 -6.607493641094676e-11 1.983414086286655e-10 1.3490217781019431e-09
208 -2.166161907324661e-12 8.205401963451516e-14 -1.8592082712201153e-13 1.0427280754543939e-09 -2.8045436698520165e-09 -2.428017855314977e-09
209 5.165642270599332e-13 2.050056142472696e-13 1.822247987794047e-13 -2.549091320663262e-10 6.55725612727927e-10 -6.732445179991591e-10
210 -9.25156667986487e-13 1.0844019842749e-12 5.419496652218009e-13 2.4011500543043354e-09 2.549711872941882e-10 8.641597769905317e-10
211 -4.2485593558191073e-13 2.7234622880517626e-13 -2.7068220247550345e-13 -2.1736119651813777e-10 -4.756087501920992e-10 -1.457834604420971e-10
212 3.772480244608872e-14 4.4798851561661277e-13 1.607103148220367e-12 -2.671685590122633e-09 -1.1332089350758615e-09 -7.702232030865126e-10
213 9.367142003804454e-42 1.2976164379576757e-42 2.180355978007397e-13 -1.6219831152309927e-39 1.1708657291714552e-38 0.004387937492321501
214 -2.1670509516856752e-12 4.0935887058156785e-13 5.424144332908146e-13 -8.393233850774515e-10 -1.301594701835459e-09 1.6152594886936782e-09
215 2.2659503964183837e-13 -5.420571623615311e-13 1.873440205711609e-12 3.816020204606177e-10 1.4450257019515074e-10 -3.0309131409915864e-10
216 4.436596345380341e-13 2.937901282607296e-14 -5.322725822586819e-13 -2.6160968982107105e-11 5.4409465668659666e-11 -7.016501870214359e-10
217 6.020660230243753e-12 3.4253968179960773e-12 -7.36325457243741e-13 -5.973090886304173e-09 -5.314999825630685e-09 -1.2957999962614756e-08
218 -6.395946131194551e-13 2.014802430193787e-12 8.130419757928404e-13 -2.0900960542178035e-09 -5.774806431063223e-10 -9.17294010885393e-10
219 1.6518081917006493e-13 -3.60478490775335e-13 1.0823866842594873e-12 2.8108654764348935e-10 3.9082646292033335e-11 -4.0794908673744116e-10
220 -5.341068998608792e-13 -1.3187473799007207e-12 -4.265579946219491e-13 -2.628469535230064e-10 6.088287515610487e-10 -2.683562269292345e-10
221 -5.419705085687649e-13 5.420106896129679e-13 -9.547340457292671e-13 -5.887782108545342e-10 2.3825323016287453e-11 3.423245148521269e-10
222 6.476914992573848e-08 -6.287696622637296e-09 2.5068634584387173e-13 7.858339487227425e-06 8.094838079867251e-05 -0.0005473041329938386
223 1.6248672853595663e-12 6.679847683482729e-14 -4.988244883289093e-13 7.813236688014722e-10 7.750296820845556e-10 1.4341653760189043e-09
224 -1.0840260788814345e-12 -1.3111760113298644e-12 -1.109486096955181e-12 2.3752269057272415e-09 -8.287082388826561e-10 -1.9115584602637425e-09
225 3.9900965220264604e-13 1.5796116862278333e-13 2.690184695191051e-13 -6.431496542074065e-11 4.1171211511800474e-10 1.975897106080371e-10
226 -9.1547855392775e-13 1.831874936823169e-12 -5.417707645079074e-13 1.6935771969582662e-09 -7.156996962693604e-10 7.294613987153262e-10
227 3.3348377046336663e-41 6.386697157461108e-41 1.960270916263129e-13 -7.983187210390099e-38 4.16845093105078e-38 -0.12260213957708987
228 -1.0488370113605657e-12 4.862368298796498e-13 -7.687773743883788e-13 4.77053919769083e-10 -8.210750384397871e-10 -5.601480780733687e-10
229 -4.2573216768310946e-13 1.8555573265346014e-13 2.2902398275706986e-13 -3.3787343054184546e-10 -5.082028204155769e-10 4.140817923043714e-10
230 1.0841783363264726e-12 1.0841919070016371e-12 2.0253674985284708e-13 2.3873705565947292e-09 4.475360755081419e-10 -3.0138961789956618e-09
231 -2.228476656385199e-13 1.5781111041668894e-14 4.3504166846189834e-13 9.437808021629231e-10 5.229154952107874e-10 -2.2606605388173412e-10
232 1.084026470110793e-12 1.339739327035095e-13 1.0842718909483006e-12 1.7133464730063657e-09 -1.4542218587887158e-10 -3.0469527342599777e-09
233 2.0139385576925888e-14 1.0841156298397594e-12 3.024172311326057e-13 -9.850698174692093e-10 1.0669800263030014e-10 4.21635283896028e-09
234 -2.1622234625375507e-12 1.3503166685439593e-12 9.32502838535521e-13 2.2831547100115437e-09 -2.170778210436892e-09 -1.3794175436324668e-10
235 -3.2531564389934845e-12 -2.0888841163708723e-12 -1.7949442806584167e-12 1.0735951375592627e-09 -4.375439663533694e-09 -2.9748367587957517e-09
236 -1.821389603066263e-12 -4.231063743072117e-13 3.782429201557637e-13 -2.36120832604759e-10 4.779532061311025e-10 8.752783458247423e-10
237 9.113938521052964e-14 3.152591081150382e-14 5.792701659790275e-14 -1.3039916883840405e-10 1.565225057758809e-10 5.601237272401193e-10
238 -2.783014678906552e-13 1.0843484265376193e-12 1.0234902009047202e-13 -1.598965149321977e-09 -2.2557494179663682e-10 2.625983836489526e-09
239 -2.143277247068658e-12 -1.0013938588044988e-12 -1.0839448586515352e-12 6.579212030599758e-10 -3.3259772219244917e-09 -8.954600182671192e-10
240 1.352119153780933e-13 1.7115296001150468e-13 -2.5846758831881114e-13 -2.114082996552712e-10 2.3366276575466904e-10 -3.2256946058398023e-10
241 -2.3376834874987027e-13 -3.903446504826624e-13 -9.390905245860327e-14 4.868071777427683e-10 -2.8855116018988127e-10 2.3319927479227307e-09
242 5.762873074576924e-13 -5.642129571703146e-13 -1.0843123976339515e-12 -1.4369047065336502e-09 2.208604117017694e-09 3.931626414141662e-09
243 1.0839240692442043e-12 5.092545287173605e-13 -1.4280734684538273e-12 -7.812851458634652e-10 1.3021507721268454e-10 8.32792947132596e-10
244 -4.2832727879887113e-13 7.879343809227506e-13 1.0611992379044494e-12 1.6843886358365952e-09 2.409396416964053e-09 -1.115335326048426e-09
245 -1.3768396351467326e-12 2.694491141773814e-13 1.833792592174314e-12 1.855615172135185e-10 -9.939449116778072e-10 5.685467196235271e-10
246 1.1692053403952313e-12 7.925327269661587e-13 2.01647550370239e-12 -1.5142555930989922e-09 1.5016129988205563e-09 -2.88672239500922e-10
247 -9.651083541111312e-13 2.163533351534276e-12 -1.6873148296291327e-12 9.69648067742002e-10 -1.6654780653392217e-09 -1.4316977832969008e-09
248 7.109791317469408e-14 2.728278331850188e-13 4.561536199381966e-13 1.569449056638223e-09 1.5933792986322458e-09 9.013569748829875e-10
249 3.7849496330528625e-13 1.9967880424989851e-13 6.264592794506509e-13 -1.6050748562406766e-09 -2.0894558134724634e-09 -9.596927455199694e-12
250 2.1681680657030466e-12 7.124029425059422e-13 1.5037452079317781e-12 -2.4909020006638017e-09 2.316986010623052e-10 4.3533717623339924e-10
251 1.7148861715824487e-13 9.828272049282487e-14 -1.0898515147540097e-12 9.502359759631755e-10 -6.409484278346223e-10 -2.406548891790491e-10
252 7.327014804315716e-13 -2.1223788313335318e-14 1.7030752232656407e-12 2.3136894678162072e-09 -1.950703336619607e-11 -5.847890419054951e-10
253 -2.150253982743921e-12 -2.7765416097623927e-13 -1.2532759435390233e-12 -6.9051329668861e-10 -4.092851652872146e-10 1.7618170794880663e-10
254 -3.5862137449353825e-13 7.161314368781654e-13 7.613779145023469e-13 5.385078604095504e-10 -4.870848936703392e-10 -1.875233906686111e-09
255 4.2333019320068324e-13 -5.895274464619479e-13 2.1675746388288875e-12 2.8862238122772913e-09 -1.0537275495359855e-09 -1.3507949303718435e-10
256 -2.6194679275319024e-13 -2.506170270729768e-13 1.2173242809590406e-12 1.0203629181559197e-09 -1.1714138624844895e-09 -7.596600855803512e-10
257 7.189782778676664e-13 9.848428150551713e-13 2.0706990709130807e-12 -5.985048018940261e-10 1.826430888358813e-09 4.673511654027927e-10
258 -2.7120960877872883e-13 1.827761237023197e-14 1.430448552858321e-13 3.5557993960563437e-10 1.6289141089974197e-10 6.223874828385291e-10
259 -1.0401412823927201e-12 1.0757986067225307e-12 -3.2869386987477796e-12 -5.740795528112898e-10 2.3408205624699384e-09 3.5402270173940087e-09
260 2.0644317344938295e-12 2.8870983843659615e-13 4.8407684393277295e-14 2.0841800875017954e-09 2.645266939278156e-09 -3.085321664201853e-11
261 -1.0839623155277796e-12 1.1741371887847554e-12 1.232899511264153e-12 -3.0798301328836187e-09 -1.9456530072648224e-09 1.2702367588732404e-09
262 -1.3080095255304976e-11 -2.1685110370417494e-12 -1.4973126491564956e-12 -1.369962070393507e-09 2.7862722478461072e-08 -1.7728347733373447e-08
263 -2.591826892584447e-13 1.0834962863162153e-12 -2.14895701029718e-12 -3.391151751216208e-09 -9.17749026866903e-10 -1.2618370150772228e-09
264 -2.1679212880404465e-12 9.7274456999112e-13 -5.5272818409147175e-14 -4.3844261088804087e-10 5.043672284210083e-10 -2.027882781130127e-10
265 2.040301366678402e-13 -5.460768852967775e-14 1.1775362818384977e-12 9.728537960016347e-11 2.9942736042654964e-09 -1.367405832770731e-09
266 -2.010320324663808e-12 7.678192557808195e-13 -1.378112289859656e-12 -4.450103812445603e-10 -1.6659797358191185e-09 2.219028673679899e-10
267 -6.936435741092062e-13 1.3266628572698004e-12 -1.7151977203247692e-12 -8.114397447616154e-10 1.7471738158109214e-09 -1.5369943846247047e-09
268 1.4201000307917599e-13 4.3211705694187403e-13 4.716344610715681e-13 2.0002826655648153e-09 -2.726883899699176e-10 5.888563639604353e-10
269 -2.53091223077513e-13 -1.0840590919602843e-12 -8.48318513853727e-14 9.361975688801824e-10 -1.0909090787964013e-09 1.2185204286023157e-09
270 3.493723819215198e-13 7.864287236456146e-13 2.1439416326514736e-12 -4.680281405498499e-10 4.382148231240258e-10 5.162867228979949e-11
271 -9.43285737887667e-13 -2.1684091540159344e-12 -1.088827906057607e-12 2.3125499869109283e-09 -3.3713149229831777e-09 -1.217398941740983e-09
272 -5.41705709333353e-13 -7.801591869857383e-13 -4.2904086378090256e-13 2.4603080833459637e-09 5.232287653678666e-10 8.766344876069717e-10
273 -1.8442225800972835e-12 5.489706057203665e-13 -1.1841583883364597e-12 1.8262170272682964e-10 -1.4977217714633051e-09 -1.1991806343856964e-09
274 -1.8251939193052016e-12 3.069645481604674e-14 3.937288295118043e-12 5.100065529698993e-10 -2.2189094658759815e-09 1.4147323126721134e-09
275 1.1147362462539735e-13 -5.653516724440447e-13 2.156627542223368e-12 -9.275900775286657e-10 -7.761495644463823e-10 -9.50541376855034e-10
276 4.582294694908341e-13 5.787731292325633e-13 -8.142171056496715e-13 -4.9490642810153116e-09 -3.4956386955608436e-09 1.0515819509201354e-10
277 -1.0841009224422478e-12 -2.3835821759750233e-13 2.1675325089187175e-12 6.045390780977196e-09 -4.446661733053625e-09 4.9308144659673064e-09
278 -7.654233471696831e-13 1.0834478291347788e-12 -8.137671134031817e-13 -4.367748641035683e-10 3.6152000737301596e-09 9.028192432033716e-10
279 -1.0357216778731916e-12 2.1530251767245787e-13 2.113649671362248e-15 3.724264523506255e-10 -1.2129875778389902e-10 -1.7325641907019776e-10
280 -1.1690051810677344e-12 1.0840273481588844e-12 1.15578263149069e-12 -1.4102001156229763e-09 -1.8884229594454858e-09 2.5744562618061646e-10
281 8.473287506587124e-13 6.86127427198975e-14 -8.607900135301486e-13 1.899130879178626e-09 -3.01436973696918e-10 -1.4631020331097597e-10
282 -1.0079315908077574e-12 2.6904862349674703e-13 -1.2642083684746385e-12 4.975705728641253e-10 -1.3329254588189655e-09 6.654840957219174e-10
283 -5.06083801932364e-13 1.8070212297271928e-12 8.717093679198445e-13 -3.1866109348563825e-10 5.393496100688972e-10 -1.883587020297996e-09
284 -7.579081092669485e-14 8.845286992138734e-13 -1.8970904013688613e-12 -2.2566044147823565e-09 1.293985946429806e-09 -2.2576995236481365e-10
285 -6.033165683915902e-14 2.1908929743601556e-13 2.773090621453249e-12 -4.419660319168316e-09 -1.3064578883021625e-09 2.7707541785238054e-09
286 5.913415122253228e-13 9.704793694754572e-14 -2.996556156256525e-13 -2.1423781003823168e-10 4.352193972965838e-10 3.136613820319231e-10
287 4.910842784860587e-13 -1.5097636045843787e-13 1.974853153115083e-12 1.263911012566604e-09 1.3741805603889751e-10 -8.464831564211184e-10
288 -3.317221549770846e-13 -9.677259592903012e-13 1.1710653871262026e-12 -1.3624206988159356e-09 3.4802196492937074e-10 -4.0522533216849894e-10
289 -3.093126301616876e-14 1.3680805698876772e-12 7.378866907092365e-13 1.620148762348786e-09 9.530415502706046e-10 3.856139245874319e-10
290 -1.0841298186100023e-12 5.41352192136817e-13 -7.38871107643158e-13 8.291294213425951e-10 4.010307220287966e-10 1.0334141688571164e-09
291 -1.83013274121051e-12 4.805681070071341e-13 2.105265279560081e-12 -1.8892139025790436e-09 2.952219320017593e-10 1.4405821468046425e-09
292 -9.658054996040425e-14 -8.072757727288447e-14 7.157567112442322e-13 -6.002030398071535e-10 -1.2709334450399694e-09 8.861277952591346e-11
293 -1.083978630254678e-12 6.312510694308539e-13 -9.529758384761368e-14 -7.832203769296297e-10 -1.9367320153823243e-09 -1.5395899467867485e-09
294 1.0051880930126543e-12 9.847255739056682e-13 -1.2948660451030634e-12 -7.102869227721968e-10 7.485320031893164e-10 1.6024911426654543e-09
295 1.083100666164302e-12 2.167874531846767e-12 2.168203967507528e-12 1.990827552340555e-09 2.1295151853982542e-09 1.601604379999872e-09
296 -3.4768273071738515e-13 1.0830507146388444e-12 1.5715971221698933e-14 -7.004946279345876e-10 7.482545049465733e-10 8.944372520919593e-10
297 -2.168230600743503e-12 -1.129531988753306e-12 2.4981350928727133e-13 1.7905158780424593e-09 -1.4775631984071688e-09 9.31689088820834e-10
298 -8.996145566806856e-13 1.9145092310544754e-12 2.1681154863952798e-12 2.123928895220338e-09 3.72991728417448e-10 -6.717146318109728e-10
299 -1.0807146943224676e-12 3.3681764707641154e-13 -8.547023142814555e-13 1.6818446309406528e-09 3.3844716386939305e-09 -8.765099450036756e-10
300 4.3891744633414697e-13 2.6137134159325514e-13 1.2818864942845381e-12 -9.231096657976321e-10 -6.143690287991558e-10 -2.431347206940096e-10
301 5.419510699926123e-13 4.211012840530093e-13 1.110830994833585e-12 -1.6161425142180549e-09 -9.46090328646427e-10 2.643902870570541e-10
302 -6.133753510890864e-13 2.951796092854217e-13 -1.0102269409491577e-14 -8.142402891792364e-10 -9.247958183937686e-10 -8.633864786806091e-10
303 -5.419487658870008e-13 1.8184472020237833e-13 -1.587603905681515e-12 2.17619697833914e-09 2.698078942090681e-10 -7.650142551856664e-10
304 -6.773382560487729e-13 1.0832203423804164e-12 -1.755724794956485e-13 1.2705004337873086e-09 -1.6591208299643505e-10 -1.7385263234388577e-09
305 -8.44607770225192e-12 2.1679183654483857e-12 -5.606244834384373e-12 1.3299215844022807e-08 1.8599682175349564e-08 -8.924515818314672e-09
306 1.499064665990297e-12 3.6407474809052974e-13 5.457342767464047e-13 -7.776194575300301e-10 1.1320460266465036e-09 -6.429646010802843e-10
307 7.053116760871316e-13 -2.167527682898172e-12 -2.169807486341458e-12 -5.236349642991778e-10 -9.534217004000607e-09 6.5388388368711835e-09
308 -1.2894115473166449e-13 7.290743547754023e-15 1.2241719470337886e-13 -1.2103790406595406e-10 2.25755608632569e-10 -4.707914104124733e-10
309 -1.583655324302391e-12 5.419098948199621e-13 -8.639221990884867e-13 2.3544371866353383e-09 6.968218617167e-10 3.439686030772282e-10
310 -3.0014255053467705e-14 -2.7713071900539917e-14 -5.215013289938074e-13 -2.491709441924603e-09 4.822377398188811e-10 -3.930779705286012e-11
311 -8.83572814437985e-13 -3.697985668775847e-13 -4.4636439180083667e-13 -3.5776303090548465e-10 4.133295618149601e-10 2.365034080751166e-10
312 5.884370238359266e-14 2.167715831664986e-12 -6.146814023893629e-13 8.524261432613583e-10 -1.5713435385615483e-09 6.697083827787753e-10
313 -2.166734505543819e-12 5.469678940857042e-13 -1.1365265276482302e-13 1.0257769168896374e-09 9.226035192124135e-10 1.8190662364887073e-10
314 -1.6458944062694437e-12 -3.408209556593738e-14 -4.432786804172616e-15 2.0923446820230112e-09 2.5100362414767332e-09 2.7187672823092947e-09
315 -1.0840298490028502e-12 7.363052998502434e-13 1.440432100545265e-12 3.8724986838006926e-10 -1.1563668644509769e-09 3.0135060182565857e-09
316 -1.6602239920948492e-12 -2.1682522210755137e-12 -2.1679065902994618e-12 1.9627202918037197e-09 6.070060195561877e-10 -2.3657257018381514e-09
317 -2.1662063382151572e-12 -7.67198739412037e-15 -1.359969646913519e-13 5.959618971335402e-10 1.0989395484918556e-09 -7.982729075698491e-10
318 1.9253374929482227e-13 -1.0406071226276665e-12 9.997629552799196e-13 6.356188302428921e-10 -2.691453458582801e-09 -3.6802993916681836e-10
319 -1.647655778244398e-12 6.524127107729542e-13 4.189486019246471e-13 -7.16340199411767e-10 -1.7557838058974702e-10 -1.526778146799209e-10
320 6.87112767412461e-13 1.533297237267824e-13 -4.411386597696564e-14 1.3859158701017287e-09 6.659947252222303e-10 -1.3855138789523685e-10
321 5.54482573794534e-13 2.707092029046469e-13 7.135234443554736e-13 -2.4261654317364037e-09 4.085224071044886e-09 -2.2875159065521137e-09
322 -9.863182869395795e-13 1.0823151153390472e-12 -6.505371170509841e-13 6.209004329349442e-10 -3.320936498335424e-09 -1.2440703693003665e-09
323 -5.156813662506779e-13 -1.3887681291289415e-13 1.2147692579504681e-12 1.3679190744925647e-09 5.3179622811316235e-09 2.6435053266160273e-10
324 -5.419774407302319e-13 2.600652928448128e-13 -2.112968960873871e-12 -2.0519105961921853e-09 -5.406748804577433e-10 6.027216952919975e-10
325 8.495724930028023e-13 2.710286163892609e-13 1.1463920110341e-12 4.239145975393152e-10 3.9869301590040294e-10 8.858685967189253e-10
326 3.2257376049712347e-13 -6.729753696962125e-13 7.724649634237674e-13 5.08636202274205e-10 -1.3558975222670152e-09 4.990328393430297e-10
327 -1.4763714220377343e-12 -2.7251657482998775e-13 1.0973405582759476e-12 2.841062204347701e-10 7.006572174991658e-10 9.37330490809616e-10
328 -7.152366420768312e-13 9.491554835450774e-13 -1.9595330647565636e-12 9.795779821098608e-10 6.252803896895357e-11 1.8101782267481502e-09
329 2.167961373613241e-12 -1.91767339360427e-13 -2.616392228426867e-12 1.5056208653161141e-09 3.0186156784392416e-09 -1.366568019308442e-11
330 -1.0600148029245881e-12 4.520925780480979e-13 1.1636613515935417e-12 7.013523309400896e-10 -1.285770378029066e-09 -2.993768158389019e-10
331 1.061592533048569e-12 1.034865047165615e-12 3.911102118038267e-13 -1.4263963551768934e-09 -9.840140748975537e-10 -1.8018925882450077e-09
332 -1.3191564278697274e-12 -1.515808188834514e-12 4.912321130609393e-13 -2.633904569159179e-09 -2.8201165315563304e-09 -2.231157774763137e-10
333 -8.574038676718785e-13 -3.7937881402044644e-13 -1.4337436435094873e-12 -1.7948859568008082e-09 1.6912422423263798e-09 1.268057171428314e-10
334 5.420838945729459e-13 -3.7093718029310513e-13 -1.001804115345511e-12 7.377338878661482e-10 6.984281565186027e-10 9.226087293995232e-10
335 -7.081702892890911e-14 2.1643807087892586e-12 1.7318656750829548e-12 2.782553832393706e-10 -4.023203660082251e-09 1.115128600148007e-09
336 -2.405501234872929e-13 -9.970156157948274e-13 4.345634919677718e-13 -9.280201328524506e-10 -7.913415828418549e-10 4.1532901990588714e-10
337 7.022593525268153e-13 1.719489043338712e-13 1.6323296198415728e-12 3.043190274414419e-09 1.7602546654741771e-09 -1.224153484506219e-09
338 -2.1678104315602314e-12 -2.150496029148721e-12 4.88049034653443e-13 -1.5225803786275427e-09 1.4094585153595267e-09 -3.5569692266020058e-09
339 -2.7072818878609355e-13 1.669408825470793e-12 -3.9308105279843625e-13 -5.29822137412041e-10 -4.376319293384916e-10 2.1894800650575943e-10
340 9.735460343535192e-14 1.0842380549069843e-12 -5.555983041673207e-13 1.5129941736246797e-09 -1.731811250119329e-09 -2.21341598415954e-09
341 -7.654792917912348e-13 9.052485956691383e-13 1.9805854887319393e-12 -4.037644672060237e-10 -1.2361128985395927e-09 -1.455446279501391e-09
342 5.731544054509154e-13 2.6241943291856e-13 9.76890810780588e-14 -1.2106283203638922e-09 -5.98840629733327e-10 1.7179398006709007e-11
343 -1.1831359527628962e-12 2.1255490301165108e-13 6.445150915241212e-13 -1.1920608205598262e-09 -1.4859756174021328e-09 1.3800297909327853e-10
344 5.420675565148943e-13 9.656263109569054e-13 1.464147974976636e-12 7.048864832427826e-10 -8.487314991812702e-10 1.6326737646844759e-10
345 3.228060835610864e-13 2.1681488832501306e-12 3.631006407848176e-13 4.1233576542404923e-10 9.303151429952567e-10 -1.643544053425874e-09
346 2.480437920449162e-13 2.039350575687715e-13 2.25586691689851e-12 -1.4110430642090915e-10 -1.8623363590168854e-10 6.385603168342523e-10
347 -2.2385170391780455e-13 1.6496557823626402e-13 9.273939592310725e-13 -1.2396530819157226e-09 1.1177686313986274e-09 1.3812141489305072e-10
348 -3.599119355803886e-12 -5.42083090282613e-12 3.2505098509562846e-12 4.558180417100676e-09 -7.821972923478508e-09 -1.2172332604419332e-09
349 -1.0841892771482333e-12 3.26779556211666e-13 4.170017585251262e-13 -1.2202967250345966e-09 3.203383706945253e-10 2.8430125922420397e-10
350 2.612103260135519e-13 5.40063256792646e-13 1.4527285795714702e-12 -4.188789884236777e-10 -9.93660049265165e-10 3.1176035937818783e-10
351 -2.165101162108867e-12 3.4164297584137306e-14 -1.4709457970303106e-12 -2.9228071177724325e-09 -1.2102875241093387e-09 6.067616338350799e-10
352 -5.407228537781179e-13 5.232320964588007e-13 2.115540661163325e-12 1.0073531504276812e-11 -3.443089718917681e-10 -6.949910612871018e-10
353 -5.046538203739674e-13 -8.378295220135291e-13 -1.5392473388071108e-12 1.0341033885488741e-09 7.203505921265844e-10 2.7749078044837573e-09
354 -5.702218104550916e-13 4.1007992247605744e-13 -1.0760813126729427e-12 -2.0176947105911558e-09 -1.6761932760732062e-09 1.3892052104849303e-09
355 -1.489863867454227e-12 2.706115262778117e-13 9.035526485143817e-13 -8.307410985727976e-10 4.731214966604509e-10 1.438659713694967e-09
356 4.248311244853649e-13 -1.98351426597851e-12 1.6961634229474305e-12 -3.937502238608318e-11 2.898674043882636e-09 -1.1203841141169556e-09
357 -5.247729823209365e-13 5.415025400133372e-13 1.559261911276936e-12 4.849904398887213e-10 -1.944791773847683e-09 8.177970852447874e-10
358 1.962067650756179e-13 3.173813243531726e-13 -5.79701175430342e-14 -7.141495328368394e-10 1.334841393310441e-10 1.5296454978949878e-10
359 -1.9792478818621442e-12 6.354980663610602e-14 -8.577252023302243e-13 3.5466639880329583e-09 -1.1140304157402975e-09 -6.699812155245849e-12
360 1.0845792271620857e-12 1.0838559431184523e-12 -9.468299103958943e-13 -5.716651719056532e-10 -7.543573526254682e-10 7.212176257204203e-10
361 4.5420060819645763e-13 2.1655484211282637e-12 -4.2152813408433296e-13 -3.3041992576365827e-09 -3.4703808354464698e-09 1.1667943624382197e-09
362 -8.310953832437264e-13 -5.064266611723952e-13 -2.818268538232153e-12 2.5600247933367846e-09 2.4178835396276827e-09 2.347812443936809e-09
363 6.856443238953324e-14 -1.0613389500925879e-12 9.771409779362704e-13 -1.3480712629237655e-09 2.573930265453693e-09 5.379348309642086e-10
364 -9.542681297885773e-13 -1.0693437350621718e-12 2.061113511602276e-12 2.1120805468176168e-10 -8.77564818382405e-10 -2.191015786276123e-09
365 -1.2340803796749863e-12 2.4253238557571253e-13 1.0824741565803883e-12 -3.479123303065243e-10 -3.6710917443290305e-10 1.3500800747316192e-09
366 -2.238093932888097e-13 5.854443010462246e-13 7.888313905524884e-13 -1.1885491970985213e-09 -1.8454599534356597e-09 7.60311225709759e-10
367 -1.624161997305216e-12 2.1666782792034746e-12 1.6489326931797618e-12 -2.176203320294169e-09 3.6760816684410662e-09 -1.3047037206661934e-09
368 6.454286459070433e-13 4.725184006989927e-14 2.132493103616897e-12 4.5118255951444867e-10 1.3831943488118717e-09 1.5791044605682806e-09
369 3.2158112671712125e-13 -1.8643788929849263e-13 4.684548135585066e-13 1.8806489893260384e-10 2.9821719898766433e-10 2.269237111942205e-10
370 5.418580425021447e-13 1.8577991127206657e-12 5.683882287414047e-13 8.884898863571323e-11 -2.958610726476276e-10 -2.363191697024721e-09
371 -2.0340050684704387e-13 2.6808415314715816e-13 -7.93206894243451e-13 4.804234568454492e-10 -9.627435919658495e-10 -4.0148273553634885e-10
372 -1.0831888688780948e-12 1.2639265540452055e-12 3.7074573637884304e-13 4.187589756384494e-10 1.3023949466477441e-10 6.633611764504216e-10
373 -7.136949790231654e-13 6.643305126760597e-14 3.4263555029801423e-13 9.008966622840705e-10 -2.6102286837438276e-09 -7.35105048093252e-10
374 -1.0519923358598927e-12 1.2976581793613069e-12 2.598080892116399e-13 -9.496357418238029e-10 1.4595393643839821e-09 -7.187836315825961e-11
375 -6.66060708579764e-13 -4.640014470752843e-13 1.0826247288023839e-12 -2.990315728677532e-10 2.576731753673105e-11 -8.309323654694665e-10
376 1.0145847583088564e-12 -2.3985359050011005e-13 1.5536495307184131e-12 1.4533346940732456e-09 1.1379094973298896e-09 -1.2281807135312345e-09
377 -8.599340930660632e-13 8.905530562729581e-13 2.1147769329501587e-12 -3.1461175394282593e-10 -1.8532844710120541e-09 -1.3136311175031888e-09
378 -1.081983706137964e-12 1.0067189020592008e-13 1.4316963037169532e-12 -2.2298504432950123e-09 1.935776862785829e-09 7.395123351424535e-10
379 1.874936498786417e-13 -2.0817106223899673e-12 8.82685873716646e-13 1.1580146306120981e-09 1.9889672391994787e-10 -4.715909744102075e-10
380 -5.42162098012236e-13 2.166900654279295e-12 7.23652376712928e-14 5.706017380601369e-09 -1.299026146855757e-09 1.5104619521598738e-09
381 -1.2199524523689284e-13 -3.7066673646748534e-13 9.036680716690535e-13 -1.2103001508429036e-09 4.947137099138191e-10 1.0602253941198464e-09
382 -1.080244930148045e-12 1.8452437048493427e-12 1.0841878276612957e-12 1.5976703768797415e-09 -7.51656566205952e-09 4.905714834204222e-11
383 1.0794914831112437e-12 7.96629723109411e-14 1.0837925834637076e-12 -8.549840243368127e-10 -8.705605580686023e-10 1.0060543344280173e-09
384 -9.6344024003623e-13 1.0840694719031718e-12 -1.1901162011802805e-12 1.1505195120004147e-09 1.7610675607416968e-09 -1.0594260825830214e-09
385 3.5611930760737714e-13 -5.420136596836133e-13 -3.244675370177948e-14 7.970113341463944e-10 1.4019091988814567e-09 3.171583267319486e-09
386 1.842172754506306e-12 9.225316833085426e-13 1.0356812749144205e-12 -4.918774835994393e-10 1.0255114206029607e-09 4.4019380714557276e-10
387 -1.0804180746710924e-12 1.083036640027282e-12 -1.8434708533274787e-12 -1.2575807423740411e-09 -3.0044323230088216e-09 2.1711760685158643e-09
388 5.39258885480778e-13 1.741181792149856e-12 8.07365666186855e-14 -1.875935379294424e-09 -2.61557662504727e-10 -3.4891305176173147e-10
389 5.170456612479501e-13 1.786921902370399e-12 2.4850187011350436e-12 3.1122765213693612e-09 2.2994970713961572e-10 -9.507719028379206e-10
390 -1.9534739019019133e-13 1.7346424804505994e-12 1.4909376712823044e-12 2.313436593767408e-09 3.9701086946012635e-09 1.8900268438320556e-09
391 -1.0835662650269579e-12 5.888288619816895e-13 8.114866119628468e-14 -2.1477003451274716e-09 1.3271040308807489e-09 6.199751701055372e-10
392 3.4857555072071713e-13 2.3202761651010684e-13 1.3541532358732672e-12 -9.074573450775259e-10 2.1765943074995097e-10 -4.093118750833511e-10
393 -1.092313171372476e-12 3.0872113117738745e-13 1.6917622892259818e-12 9.428829163948609e-11 -1.8123964406749336e-09 -3.6921266026998657e-09
394 -1.084176488991244e-12 -1.002649819036946e-12 -1.018285599210631e-12 -3.9708003466070436e-10 1.283162302438651e-10 -4.1621171006162896e-10
395 1.2440066875885945e-12 2.711630861121873e-13 1.0595791878661574e-12 -7.770277280111252e-10 -1.5128254546635771e-09 -7.325045414298837e-10
396 -4.4467217882200484e-13 -5.645696985365924e-13 7.013584762073522e-13 7.987039902736975e-10 -3.7007136325226536e-10 1.3134499364690238e-10
397 -3.022116081546948e-14 1.064293033077145e-12 7.497475663237405e-13 -1.712405357227126e-09 -2.4647707159190654e-10 -7.333377508160474e-10
398 4.601427665481719e-13 7.482140721664668e-14 7.206008412024501e-13 -1.1096554437973908e-09 2.4495325707830203e-09 -8.958649146743303e-11
399 -1.649424670173689e-13 7.373926598007515e-13 -1.2015336419316812e-12 -1.4030851042027292e-09 -8.552931232983941e-10 -6.195832676280736e-10
400 -4.4753317073643584e-13 1.083444995721684e-12 -2.1210350223247093e-12 -2.6189651788396717e-09 -6.224581844209786e-10 -1.6090987871316782e-09
401 -1.1625741920598139e-12 5.417270303868246e-13 1.8761517400180085e-12 4.428437148255993e-10 1.2305784931186674e-09 -6.620787589847951e-10
402 -2.164076896915644e-12 -2.0055866042826818e-12 -1.2639103350698138e-12 -1.397217987543746e-09 -4.137797185134946e-09 -4.363065198478351e-10
403 1.8312208814880874e-13 -1.01912665577983e-12 -8.035999149855851e-13 -1.1143281435716036e-09 -1.8633886808340653e-09 1.2180480726004667e-09
404 -2.1682033727075367e-12 8.394149736082995e-14 1.340317819698622e-12 -8.863471968534684e-10 -4.27505253088509e-11 -1.4965451850743076e-09
405 -5.419516394918208e-13 7.457197183192935e-14 1.0214649342688237e-12 -3.4473078139224446e-10 8.649388710355858e-10 -1.431445565691342e-11
406 5.826147056911051e-13 1.053924250007004e-12 2.3304243037778204e-13 -1.3246406308439472e-09 -2.391559486429198e-10 -1.4404576226345551e-09
407 5.081709053036602e-13 4.769656522874035e-13 -2.1608721817294335e-13 2.309158872164895e-09 2.2186390775053843e-09 6.805185162040583e-11
408 -1.0993461963076608e-12 1.1107366341958281e-12 3.5552294565249836e-13 -1.8970813236395512e-10 8.246239397034928e-10 4.3350135039856714e-11
409 -1.5993905112156674e-12 2.1681935556784114e-12 -7.7677168196421e-13 5.1020553603909695e-09 -9.377557358230434e-09 4.414331117034704e-09
410 -1.133667304318694e-11 -2.1681419233997133e-12 -6.027006772681105e-12 -8.451592827705112e-09 -1.4547527836183011e-08 2.0271338638970148e-08
411 -5.421258114866071e-13 2.0348849551996403e-12 1.4972622718639236e-12 -2.2668354073274684e-09 3.5362498552931387e-09 -3.4654745187730116e-10
412 -4.978593032964342e-13 1.078809167088197e-12 1.0944543988020126e-12 3.0666929695631094e-10 8.376479580268534e-10 3.448232003216378e-10
413 3.214457920023704e-13 -1.084034929638158e-12 -1.0443795379924004e-12 2.1883291570268703e-10 4.713372686029522e-09 7.346855512807706e-10
414 6.653574473641648e-13 2.1038467556274352e-12 -1.3338655149202617e-12 1.810557730552417e-09 4.18967475408217e-09 1.2664426624666082e-09
415 -1.0834923148958083e-12 -1.0834408664918833e-12 -6.890711340191459e-13 -1.2968692044699236e-09 -1.3102719150114966e-09 6.968269940012115e-10
416 -5.423910357096724e-13 3.4569631270603095e-13 1.0340717894088237e-12 -1.2716963972662183e-09 1.4871188228394406e-09 -1.050718548910698e-09
417 1.0840387181112552e-12 4.791392079912726e-13 1.974116069728528e-12 -1.1847434620185774e-09 1.607268429608702e-10 -5.666796586752933e-10
418 -2.1678354514379703e-12 8.748469320816037e-13 1.5329025544816007e-12 -3.4036485810614657e-09 1.4450382882578214e-09 -7.18076197679653e-10
419 3.590122757182583e-13 -3.7970577094013196e-13 -2.1216560797513834e-12 -2.7181396915295967e-09 1.6253612828703603e-09 2.239132331941124e-09
420 -1.066891132091552e-12 1.0831009474167128e-12 -2.1683695356940366e-12 5.670043900357181e-09 -3.4223711199418158e-09 -4.8073091913516e-09
421 -1.083678849119057e-12 -3.901200833999287e-13 8.933744749361689e-13 1.6278852231700577e-09 -1.697739850967567e-10 -1.2524875482179983e-09
422 -5.485386447651877e-13 4.663535971905376e-13 -1.2512213723681114e-12 3.0913684533663775e-09 1.7827299953658671e-09 2.491921089899575e-09
423 -3.041559002515797e-14 -5.123734545967126e-13 1.3389960539461992e-12 9.437488644910614e-10 1.2962904510369669e-10 4.2911321883338975e-10
424 -5.420138370610793e-13 -9.85334183815198e-13 3.7883247180000543e-13 7.11126466562399e-10 4.027708782139304e-11 2.853233627993747e-10
425 -8.868239808257118e-13 2.1668119489067423e-12 2.1681426051169174e-12 3.0261607994276254e-09 -3.0920034141957212e-09 -1.0786314009030249e-10
426 1.9285905888706467e-12 2.6986219949565033e-13 -5.144901691979248e-13 -7.426966368430728e-10 1.96763158900222e-10 -2.786772003499719e-09
427 -2.4122399982431474e-13 -5.160572379142613e-13 6.82536006700538e-13 1.1256306578107743e-09 7.97049136171533e-10 2.341875029252073e-10
428 -2.168347162958061e-12 1.0828870750308322e-12 2.646185223575904e-13 -8.190649266284914e-10 5.901256854990475e-10 -1.719980380134126e-09
429 -9.330091080924309e-15 1.648079708032009e-12 3.3183256149433505e-13 3.994636057434308e-10 9.850747591460693e-12 2.393074114909275e-09
430 -8.184787945157454e-13 2.709674423959663e-13 1.0831535754747418e-12 -2.287445844034951e-11 1.1408160254012217e-09 -1.023830412074607e-10
431 -2.6806538501263358e-12 1.6996585742196563e-12 -2.090662246750628e-12 -2.81665078119926e-09 1.0336519512899237e-08 8.479141410761537e-09
432 -4.572236531701623e-13 1.1534286873106137e-12 2.7179275376745677e-13 -6.05424056710886e-10 1.1562566990406894e-09 -5.262765613528676e-10
433 -1.8791417421213702e-12 2.1598364402061745e-12 -1.0841057101536978e-12 -2.329117577331391e-10 -1.1788878405849953e-09 1.6968590405157865e-09
434 1.759990355076357e-12 1.2617685323968086e-13 -2.1609560415744944e-12 -2.970733584671788e-10 -9.73802631132751e-10 2.025923983382094e-09
435 -5.409697894513152e-13 1.2547476514770325e-12 -5.726059393087058e-13 9.989608714291898e-10 1.7634228505414817e-09 -7.295525726670385e-11
436 -2.615286747642961e-13 5.398015131660739e-13 -1.822717557452029e-12 -2.190273987090587e-10 1.679856137784306e-09 7.42526475099256e-10
437 2.707468675577149e-13 -8.632332097975515e-13 5.082128693477464e-14 3.8795218289654795e-11 4.976119492902092e-10 -6.331169304296314e-10
438 -1.084030613569435e-12 8.277317662576265e-13 -3.801928563700642e-12 4.0536855553123625e-09 -1.0598121364151865e-09 8.329088688180204e-10
439 1.0837056683507569e-12 -6.906339538125033e-14 -8.919957822756223e-13 -1.8447470670854942e-10 -5.906523380181453e-09 -6.803062918775833e-10
440 -1.0832170081852266e-12 -1.1623594898193694e-12 -1.1710140006879303e-12 3.003883820330866e-09 2.828279735623808e-09 -3.874966127710303e-10
441 -1.8524964584887476e-12 7.028994436824897e-13 2.168057775755959e-12 -3.4783291065421546e-09 7.814635330487864e-09 -4.209359239359637e-09
442 1.8367865442336487e-12 6.632174033860928e-14 -1.4447555941867405e-12 1.3392216065501748e-09 -1.6433198112984658e-09 1.6155819761499857e-10
443 1.2831765371769309e-12 -5.410234876341239e-13 -7.983706237886165e-13 1.762882909224352e-09 6.253214614904381e-10 -3.3166033796496595e-10
444 -1.5274372581672508e-12 -5.365422802511036e-13 -3.4329334999355316e-13 2.0454043494134906e-09 5.180524619798691e-10 -1.5646835667388988e-09
445 5.5955545177020447e-14 4.308977600787226e-13 9.564901435631016e-13 -2.0094250973570307e-10 -1.0775977803453137e-09 3.0839472194174165e-10
446 1.1126559198867506e-12 1.0723316401885855e-12 -8.514370686700202e-13 -4.445059655411557e-10 -7.67988399645335e-10 1.0235122950187471e-09
447 -1.2448579968940914e-12 1.339096179201239e-12 -1.2591172820747837e-12 -1.1610470019192e-09 -1.1380886625842762e-09 -3.4032137281944183e-10
448 -1.0375525618925453e-12 3.606942242766257e-13 2.87078042799446e-14 -6.231809864008861e-10 -1.2816828279572731e-10 -6.545492397908377e-10
449 1.118431641584275e-13 -7.504600131793928e-13 1.5890683139799782e-12 -8.632106548699299e-10 1.8384721266848838e-09 -9.371619042849261e-11
450 -1.0484515157178696e-12 -8.097832070578446e-14 9.383676235307921e-13 -1.1859121811746203e-09 -1.8274303396829086e-09 -5.147916454462139e-10
451 -2.694323413889176e-13 -3.4363963657162273e-13 2.5147484499332466e-13 2.753776105212343e-10 -2.966177620505302e-10 2.750623759484148e-10
452 1.0202150655696425e-12 1.0842410904544446e-12 9.286306381879917e-13 -1.201855505923406e-10 -1.6664758513841901e-09 9.589690969985154e-11
453 -3.510072400783598e-13 2.167204786310747e-12 -1.5854054209144312e-12 -2.666318874712902e-10 -1.3235986502489506e-09 7.473042930107569e-10
454 5.91863215035521e-13 1.3736339431568327e-13 1.3719718619898121e-13 -1.1494533697248025e-10 2.637741926307949e-10 1.962622636437508e-09
455 -2.8859150715395583e-13 -4.4943711407225345e-13 -1.7630570891427404e-12 -1.886401075596962e-09 -8.816469995458195e-10 -3.2151186214117504e-09
456 1.2843943221673212e-12 -9.80308794216091e-13 2.0915695558339709e-13 1.6234785446202463e-10 -1.6582060502988568e-10 -1.6509974465765215e-09
457 -7.590749260753005e-13 -7.352061134689392e-13 1.1228775329215244e-12 4.22731345438105e-10 -5.071775949020372e-10 -2.238344390918005e-09
458 -1.174365326769947e-12 6.719254690672849e-13 2.8949079884288067e-13 -9.050000916762841e-10 3.4297102648305623e-10 -3.036750660248525e-10
459 -9.902847289341552e-13 -4.1393813755747465e-13 5.516591569612691e-13 1.645026604950719e-09 1.760183810682235e-09 9.211514993159087e-10
460 7.593820680034433e-15 5.397004479329434e-13 3.8429639228927237e-13 -5.352395885863976e-10 -1.0551221516386739e-10 8.904221132350212e-10
461 9.463364084271074e-13 5.418364378200227e-13 1.791125998969829e-12 9.628248855949115e-10 1.4740408252309404e-09 -4.193597381361263e-10
462 2.696664018644702e-13 2.167318690362316e-12 -3.73565732244831e-12 -3.21349535184173e-11 -8.605714031779068e-10 1.344185075086993e-10
463 3.6028117986373524e-13 1.712437644949392e-13 6.567798925537177e-13 -7.094474416220247e-10 -2.4044180182239635e-10 -2.3286764223367776e-10
464 -1.5243533889080734e-12 3.722978241604742e-13 -8.287948200867463e-14 5.372011863126112e-10 1.6025930360862438e-09 8.614514041141872e-10
465 -1.0837267712893833e-12 2.7085546437184664e-13 2.319866833403157e-13 -1.5451345390787147e-10 2.5099715046358298e-09 1.332021780772136e-09
466 -7.317325746692449e-13 8.50825620361198e-13 -9.475000616020775e-13 -3.3131483175743597e-10 -1.3809201439137327e-09 -8.116841160018691e-10
467 -1.3215574811098719e-12 -3.324697062498536e-13 7.529883868554587e-14 9.763412386115382e-10 -2.9386423276821775e-10 -8.69608938035363e-10
468 -5.416164339961834e-13 6.217464113225663e-13 1.3096528804040388e-12 8.948161034222383e-10 -1.2451076227429094e-09 6.731602483864494e-10
469 -5.421150420020739e-13 -3.9594471872818914e-13 -8.587103187136095e-13 -1.9261396359445607e-09 -1.4738043003194565e-11 9.820819877594777e-12
470 -7.845665172553699e-13 3.902102196533893e-13 -6.536576162255755e-13 -1.2785562623106168e-09 5.828292593012375e-10 -4.868775510746304e-10
471 -9.796744475391728e-13 3.882790052224974e-13 -2.970479756730301e-14 1.4973132688807479e-09 -7.057101699999069e-10 -1.1288038651632077e-10
472 -9.924366950849228e-13 -1.566678819401667e-13 9.12196259120627e-13 -1.9449769656055666e-10 1.1538920783120722e-09 -4.3587860149397997e-10
473 2.5180180422271666e-13 -8.144864979585288e-13 2.7917045388022934e-12 -6.924965765250058e-10 -1.8998281971353953e-09 6.871391840179485e-10
474 -1.3043060507276255e-13 2.0311320948589098e-12 -5.936924056636322e-13 8.834060476030538e-10 -2.954510302924256e-09 -1.3862141157510076e-10
475 1.0804004982829298e-12 9.512133094168374e-14 -2.0894887483195413e-12 4.336557036580284e-09 3.4231048303236846e-09 1.206726695964619e-11
476 -2.0686061942992908e-12 1.3554290797519557e-13 1.0331572311133902e-12 2.2370028719704947e-10 2.0676118532601903e-09 -7.399424380427056e-10
477 -9.459937151140145e-13 5.428410764599851e-13 1.7849774938644412e-13 1.277083873775572e-09 3.97572686433972e-10 3.770615343837827e-10
478 -1.0689244610626045e-12 1.6395925678733872e-13 2.7207699463304663e-13 9.590742033218396e-10 -1.2749775732259457e-09 7.66414859838863e-10
479 4.5362409236824985e-13 -4.040576120366517e-13 5.150560088930922e-13 4.896741821317901e-10 -7.275476805441245e-10 -6.784203687292559e-10
480 -1.4534583136249283e-12 1.5467525599309983e-13 -1.5209630557652463e-12 -2.420254441921335e-09 -1.881634294769948e-09 -4.3265237851996663e-10
481 5.377297037056245e-13 9.985163399417473e-13 3.445789458588154e-12 -2.0070212613313007e-09 -1.0500099544887264e-09 1.9150639079084623e-10
482 7.206650922338579e-13 1.5446137897869678e-12 -6.977617809213011e-13 3.5344607268927943e-10 1.2174975059242715e-09 1.1166428634554882e-09
483 -3.613097087960184e-13 -3.448834647661462e-13 3.30838613009965e-12 1.3458106810339642e-09 -1.393661628154691e-09 2.230882854039651e-09
484 1.615524357061884e-13 -1.80296120543698e-14 1.4218887962058494e-12 -7.98532724914699e-10 -7.058857747996837e-10 -8.279077107486486e-10
485 -2.750105293627293e-14 2.1671640635959902e-12 1.2413488749825498e-12 -7.714308664470129e-10 -3.1459501529735685e-10 9.034605628651169e-10
486 3.513236717561513e-13 -7.832639889285281e-13 1.1045813699268788e-12 1.0515416811224972e-10 -2.882724812396642e-09 -8.254592062606036e-10
487 1.3517838841640203e-13 4.2021423064163694e-13 -2.9194496485926275e-13 1.7297415514852838e-09 2.1794774467051345e-09 -7.008918594576626e-10
488 1.0973986660226677e-13 -1.0141064790894547e-12 2.1451675126251834e-12 -1.5870648272465092e-10 -8.124294265514151e-10 2.5443128586077762e-09
489 -3.5070851933454773e-13 -3.694521839973194e-13 -1.687896087750296e-13 2.380149657417545e-10 5.773991680378036e-10 -4.463116523764512e-10
490 -1.6210512929815363e-12 2.3154874410706994e-13 -2.995720834537276e-12 -9.579714187475868e-10 2.366017502768435e-09 -2.072060859378999e-10
491 -5.421046398811883e-13 -3.346699817176395e-13 -1.2389202363673438e-12 -1.3516574452375846e-09 -4.40665027241481e-10 6.387440107610541e-10
492 -2.708608098990801e-13 1.6672082726102578e-12 8.344113167366422e-13 -1.0381998201815327e-09 2.0212485852949193e-09 -4.5799658135393423e-10
493 2.1154836066216905e-12 5.421151612420962e-13 2.4232248179625014e-12 1.9570530066456788e-10 -1.3192204262383037e-09 3.1904151262230613e-09
494 -1.083919085754709e-12 1.421678804889384e-12 2.094453716421669e-12 1.115094602836817e-09 1.2786727167714134e-09 -1.9700678831142143e-09
495 -1.0828842135779168e-12 1.0831322436542209e-12 -1.779980592242089e-12 -3.4996568453468246e-09 1.825520618357072e-10 -1.1209183227018757e-09
496 -5.003394064747087e-13 -1.2050394929996373e-12 -7.84372705122665e-13 3.683947787211377e-10 -1.0965709380515055e-09 4.0349354033818713e-10
497 -1.5639669171112977e-12 1.567582790003889e-12 -4.018986635639616e-14 -5.178077521760118e-10 4.3361992306715066e-10 4.590709021822081e-10
498 -2.0184896988011476e-12 -5.614733658116385e-13 -6.03420226295214e-13 9.200010005333119e-10 -1.7683187829285487e-09 -1.6927897565273946e-10
499 1.396359396951592e-12 2.9128968251413794e-13 1.3572004985768834e-12 -3.1418024821671525e-10 1.8663273905250763e-09 5.594475531740385e-10
500 -8.432120684145884e-13 -1.899257434492872e-13 4.604860184911889e-13 1.389448316758135e-09 7.975869859144247e-10 7.473508523059589e-10
501 -1.681166690841811e-13 1.592709062845093e-13 1.867385036153199e-12 1.1740573382047106e-10 -2.361364078642984e-09 2.6079923582692064e-10
502 1.083801054885406e-12 1.0839759169418495e-12 -2.538799736586665e-12 1.4098269253400474e-10 1.7619007890397056e-09 -1.313794143591697e-09
503 6.772619105540053e-14 1.2942291859864632e-12 2.391302574137052e-12 1.0554630428983537e-09 1.4609569638936113e-09 9.471759960618142e-11
504 -1.2622505892057508e-12 3.139989851168245e-13 -4.235038546498825e-12 4.900343054276941e-09 1.046930738742946e-09 -9.688606133890966e-10
505 4.057782703869992e-13 5.420797254887189e-13 1.578945544222149e-12 -8.803212926692441e-10 7.848459556984586e-10 -2.4729183489682477e-10
506 -2.6320807308058994e-13 -1.921688667717174e-13 4.0353796604579027e-13 3.2720292217899053e-09 1.5095090000442072e-09 1.7531426079765695e-10
507 -2.2229268615360963e-13 4.722815173500651e-13 1.0344729084400562e-12 2.326300680120815e-09 -1.4898504045038581e-09 5.744846503488555e-10
508 -1.0062892274774255e-13 4.794887424998706e-13 2.253630421935127e-12 -8.798962637208763e-10 2.8545400331976233e-09 -6.868813619604413e-10
509 5.283585903390786e-13 6.724896818360552e-13 -1.5419650750703515e-12 -9.519340539440407e-10 -1.6945887451385736e-09 -1.0280879387873644e-09
510 -2.707329262502813e-13 8.095249550987589e-13 -1.563390466892796e-12 -1.2723430419273549e-09 -2.325643072154524e-09 6.535520554264054e-10
511 -6.837287453669969e-13 5.403841622126638e-13 3.4005461241178566e-12 -1.0112798387827456e-09 4.048426833266147e-09 -2.372234177081376e-09
512 -1.0820072986237223e-12 -4.595730166001245e-13 -1.018142768236082e-12 1.866224380264165e-09 1.6459216744671846e-09 -1.2378247251894068e-09
513 -6.219381163532511e-13 3.642231717315985e-13 1.4281099284355888e-13 2.2113971988311335e-10 -2.12712740644638e-10 5.441813900564472e-10
514 -5.409399129389944e-13 2.278698401623607e-13 -3.194973985585384e-13 -9.187189368602375e-10 1.595698759021378e-09 -1.4082664785716729e-09
515 -4.6493145278883466e-14 1.353509486666059e-13 -3.187005125778902e-13 -4.681486063054087e-10 4.847463435643858e-10 6.683618560073902e-12
516 -1.17182477786781e-13 8.864892561759395e-13 -4.283850596931851e-12 -2.272593715109011e-09 1.6385206378959826e-09 1.1128625491773236e-09
517 -1.4048685660796173e-12 1.6628280058838265e-13 -6.350587447687777e-13 2.9970923355655317e-11 -1.406325257003382e-09 -1.856944638838949e-10
518 6.542817620316471e-13 -2.021549439648231e-13 2.996000044957356e-13 1.4283391267343376e-09 2.5220811124164475e-09 -8.695108129092195e-10
519 -1.878805789142376e-14 8.056147081547564e-13 6.792368487479639e-13 -2.5127111557832784e-09 4.752163477759843e-10 2.2234840141271665e-09
520 1.4275081163650867e-13 -1.0825230301121723e-12 -3.704969134424664e-12 -2.8192215058639084e-09 3.881079002273684e-09 -7.503611662933973e-09
521 -2.0543683047123543e-12 3.4925290309770144e-13 5.055531603835225e-13 2.3938765918244084e-09 -4.764954410208057e-10 1.715030562743747e-09
522 3.210388423529654e-13 -4.4163280478408693e-13 -7.355915002049287e-13 -6.101159331710032e-12 -1.473336374788023e-10 4.386692195384564e-10
523 7.887963121311838e-13 -6.821574967869523e-13 1.831422232764896e-13 -2.415160011021329e-11 -1.1237475775135733e-10 -7.716132138113175e-10
524 5.907780470756736e-13 -4.796609653844323e-14 -7.297869501472407e-13 9.86743109717992e-10 -5.889065827174963e-10 1.7860194632739698e-09
525 4.99834625519855e-13 -1.0541658391201414e-12 1.234250541854065e-12 -3.7627559980258715e-10 -7.219117432115849e-10 -1.4149006164782014e-09
526 -1.4458049308614877e-13 2.7091988395087107e-13 -1.0857467003131016e-12 -9.643448538479525e-10 -8.794450648058011e-10 -9.446397831001542e-13
527 1.0837386098908916e-12 2.316987324805721e-13 -7.958603097687234e-13 2.435142110913605e-10 -1.2729906843611866e-09 -1.1135903317989275e-09
528 7.620608368676719e-14 -5.789418951513685e-15 2.167188847535913e-12 -3.94289449619126e-09 1.375432331522954e-09 -3.7961329946296965e-10
529 -2.713643184799195e-13 1.8424516716595723e-12 -9.220795610097723e-13 1.2560166172393139e-09 -1.2636017133456617e-09 -4.28043481196375e-10
530 6.673392724852403e-13 6.349142371821243e-13 6.01346809999779e-13 1.840761026260209e-09 1.776080658070485e-09 -6.379192408243144e-10
531 1.0797561626153316e-12 -9.093289477203828e-13 -2.2750615211899987e-12 -1.2599518682459816e-10 -2.5161626541468187e-09 1.4866821671412392e-09
532 5.419520534844182e-13 8.095317742434192e-13 1.428603481195359e-12 -5.512971009455993e-09 -2.3574345075479834e-09 -4.0513250168889503e-10
533 -2.030065632786422e-12 5.581482813591654e-13 1.6313902712465108e-13 1.4782602644633333e-09 1.980030829369524e-09 -1.1824115623340152e-09
534 5.422237941207887e-13 5.420963310571458e-13 1.3989302942200599e-12 1.0337591789672502e-10 -1.292044945539692e-09 -6.602363068173437e-10
535 -5.418112014649556e-13 1.314641560853736e-13 -3.959888889510792e-13 7.244579025570244e-10 3.9611946125243375e-10 6.788873374852346e-11
536 8.944000193112923e-13 -4.3067509352505714e-13 2.091018865965759e-12 3.703904041210074e-10 1.875872508842921e-09 1.1665119363253627e-09
537 -2.9194284399860593e-13 8.356230223197409e-13 7.963094038015516e-13 1.5281034057671113e-09 1.8077163679921353e-10 -6.491804907041318e-10
538 8.550219487507656e-13 5.416258186286022e-13 -1.7870653535295677e-12 1.2686460289763138e-09 1.5914489640796294e-09 -2.929638862754123e-11
539 -1.084263436097071e-12 -7.343986069494092e-13 -1.4467827019084781e-12 2.5045608723231618e-11 9.392367355643493e-10 7.182358170968586e-10
540 -3.8967953439914656e-13 1.6850502611659392e-13 -1.786686043716145e-13 1.793465999964673e-11 9.034000864848908e-11 -9.312645426410862e-10
541 2.700341631153312e-13 1.6508531565630571e-12 4.133107503655032e-13 -1.7731421445657574e-09 -2.1445469817306866e-09 5.633729536583072e-10
542 2.168172405270912e-12 -2.490374724737455e-13 -3.6120721526761736e-12 -1.595415435905213e-09 5.212037549243732e-09 4.239174210180787e-10
543 5.420368708651579e-13 1.0839543623673297e-12 7.668573874414526e-13 4.658896844895863e-10 -1.4254367712143914e-09 3.964953680772048e-10
544 2.696528313678758e-13 1.1094999271541082e-12 3.4563753312405123e-12 -1.7619362644617226e-09 -7.490408975684708e-10 -3.1713906839489407e-10
545 2.167827771416263e-12 2.709314217572194e-13 -2.001607291620803e-12 -1.7629670707341422e-09 1.910072259005938e-09 -2.60406958468226e-09
546 -5.096265883041469e-13 -3.118367254980051e-15 -5.419098393078765e-13 -1.0673735745079792e-09 -9.113590865026726e-10 6.060404241494802e-10
547 1.6331768271155206e-13 -1.9521015159606316e-13 -2.815217477381403e-13 -2.1536062294018888e-09 1.3381172775980222e-09 3.513271995751497e-09
548 -2.16192220817098e-12 8.728253063292648e-13 4.5110044251139015e-13 -1.1472452269064186e-10 -5.154524517085005e-10 -2.507890355497204e-12
549 6.765343461010582e-13 -1.0822111762098162e-12 4.336703980895684e-12 -1.8517204206764105e-09 2.708327007198577e-09 1.1647120131705999e-09
550 -1.3577796759296955e-13 -1.272343556465537e-12 -2.2165283926997321e-13 3.1772201002223283e-10 -1.4859292685271376e-10 -3.600145411459798e-10
551 -1.3513376720642507e-13 2.166159339068143e-12 -2.6072419984416027e-12 -1.0698523100439867e-09 -1.0592509360162047e-10 -5.379873057933475e-10
552 -5.134966938554515e-13 1.9885558903593318e-12 3.643363624216663e-12 -6.940972546102234e-10 2.5368648597279072e-09 -1.7018141417397728e-09
553 9.908034634745643e-13 1.0840631585990955e-12 3.003234539762774e-12 1.5497676198633386e-10 2.3149026621747854e-09 -1.0968069261268927e-09
554 -2.1674975092983074e-12 9.881937510156599e-14 6.215952089683086e-13 -1.8524687426675895e-09 -6.241424920883123e-10 -8.640905880300282e-11
555 -6.42810756808803e-13 -4.546197121581037e-13 1.5909265428355185e-13 -1.4144423500493023e-09 1.3314845870475945e-09 -7.488050170864011e-10
556 -5.011266762453511e-13 2.444663848198339e-13 -4.951644686959917e-13 -1.021152417312558e-09 1.6426167567491141e-09 -5.484433829413415e-10
557 -9.268692188449362e-13 1.0837775955151615e-12 3.896548663310121e-12 1.7130960527926172e-09 -3.1651137794986648e-09 -6.580280884762757e-10
558 8.072129031397078e-13 -2.067781227797834e-12 -2.174170166392239e-12 1.5882381779310135e-09 -5.659242722647517e-09 1.0867098916693402e-09
559 6.748097474027354e-13 4.686936848793723e-13 1.8675734332887256e-12 -9.605659167738905e-10 -5.819037359020761e-10 2.466303055807977e-09
560 2.1670311358004477e-12 -8.521300496248504e-13 -3.816854732421676e-12 -5.134761565827061e-09 -2.3549413470205605e-09 3.1931284086189838e-09
561 -1.7107831591267392e-12 2.466755032526682e-13 7.580843142250469e-13 -3.421646709929854e-10 -4.5850996963905594e-10 -6.038907558137456e-10
562 8.391896426674287e-14 2.3392284492252726e-13 1.2161923201376244e-12 1.470193276967589e-09 -1.651141306246964e-09 -1.1056747377328321e-10
563 5.41239765833578e-13 -4.008892964353537e-13 1.1434989066427471e-12 4.164582243440495e-10 2.0858984523229795e-09 -5.615658196316336e-10
564 5.420102776013931e-13 -3.374999196673418e-13 1.2802801512488347e-12 4.177965305156102e-09 -2.8826822271963656e-09 1.8651392541392025e-09
565 -9.664357603189368e-13 5.417367519162378e-13 1.755483802142581e-12 8.08707002003191e-10 -1.9432009890700324e-09 8.896825360543686e-10
566 -7.950982754692417e-13 -1.0347095908935452e-15 1.6894181881138085e-12 4.724595113263049e-10 1.106485454220295e-09 -1.693979725629549e-09
567 5.432742126351095e-13 1.225931255974745e-13 3.748297116393752e-12 -2.691023322532708e-09 2.5120663459448236e-09 1.1504455519752969e-09
568 2.1333983757289908e-14 -1.7374495517540676e-12 6.460227152271983e-14 -8.699933699249515e-10 3.4099885652664695e-09 -5.881591196087112e-10
569 -2.7097477278166546e-13 1.510231606121998e-12 -8.602169632063688e-13 9.66764228190677e-10 1.1672156623930111e-09 -4.1798543295555974e-10
570 -1.8740496827568853e-12 -7.671761567315855e-13 1.258881225633285e-12 -5.809956387680107e-10 -2.1995143099744657e-09 4.192037306968785e-10
571 -1.650856177095845e-12 1.5489751339995204e-13 6.478860337695502e-13 2.783576946500448e-09 3.931412216003001e-09 -7.125440576586224e-10
572 -1.302241858056448e-12 -3.375331934493768e-13 1.273590461041438e-12 -9.309095317898768e-10 1.2506241174475507e-09 -6.967945420755575e-10
573 -6.623482274938025e-14 1.084160519489313e-12 -3.380088073583838e-12 1.9371165326586864e-09 -3.2225081142417114e-09 -5.036519172110869e-10
574 -1.625577388873783e-13 6.539453587658077e-14 -6.479190386433921e-13 1.471023331272244e-10 7.712568603909384e-10 1.4249665765395596e-09
575 -1.4993459669317094e-12 9.079614924064256e-13 -2.052489278996056e-12 -1.0656080966215402e-09 1.3439661447917768e-10 3.3820523374148795e-10
576 -1.640578915709355e-12 1.7772503389069653e-12 -6.661615748693675e-13 5.431214240698492e-10 6.724493038218623e-10 6.858978735241317e-11
577 -2.9011914932943187e-13 -2.709105767554976e-13 -1.0276835484577587e-12 -9.70187403827676e-10 -1.1726451833404381e-09 4.4620073637521066e-10
578 -2.640805112403174e-13 2.489069944138046e-13 1.1941594856333241e-12 8.249032047702505e-10 2.0818803066096652e-09 1.8286936512177781e-10
579 2.1653740237368653e-12 -4.879342456631306e-13 -2.3249754502688194e-12 -8.79581634017514e-10 -2.2125270463181102e-09 6.71458039765703e-10
580 -6.074258153050595e-14 1.3528881494887166e-12 -2.0244929170348128e-13 -2.62707007262209e-10 -1.0451879756676436e-10 9.456461901704634e-11
581 2.363075553686409e-13 -4.160434888026302e-14 -7.928710654197786e-13 -1.249582062141949e-10 -6.107705511422586e-10 -1.1227202959131884e-09
582 1.4003602489739035e-13 2.6967787277630446e-13 -2.477384226387021e-13 6.89480802365604e-11 5.046184607775561e-10 6.663330907887943e-10
583 1.0837821286049612e-12 1.0156986409097354e-12 -1.0455050624339021e-12 -4.891947938713079e-11 4.64748605596926e-09 -4.167240337583094e-09
584 -1.0838166181252603e-12 1.1818199488258707e-12 6.751801182110583e-13 8.599227001385709e-10 1.6862044576149653e-10 3.194665482195021e-10
585 -1.625318692133544e-12 1.0836548804103363e-12 -2.565046944680668e-12 1.8318272994271444e-09 -1.5044984454069265e-09 -2.7382241459759067e-09
586 1.512332213221462e-12 -1.6754731765313388e-15 9.047816577365761e-13 2.102971120588215e-09 5.418088264394291e-10 -5.394992761748825e-10
587 1.083857535776601e-12 1.0842031953775398e-12 -1.6836072141595765e-12 7.933814487022836e-10 -1.1211274502464897e-09 7.761700093190954e-10
588 7.228915887222673e-13 -8.710901627643175e-13 -1.0042115900261239e-12 -3.153709214079902e-09 -9.268667694079511e-10 -1.3914415713549662e-09
589 1.4544133793297998e-13 -1.4193150521529247e-13 -2.161312796159897e-12 -1.1157883129113493e-09 5.956716178250456e-10 -2.6801972480004107e-09
590 1.7004329951378015e-13 9.016716617047826e-13 -2.717835911380714e-12 1.7645677273577494e-09 -8.416263285140041e-10 -8.040373275046981e-10
591 1.8330809806868185e-12 5.389476539148935e-13 -1.7781535049753761e-12 2.915595668657198e-10 -2.2843856922475687e-09 -3.123141391027789e-10
592 -1.0832131809280614e-12 -1.2777112154915862e-12 -1.4487602818221304e-12 -2.4332473387248545e-09 -9.352557457241134e-10 1.3070375178960957e-09
593 1.3542591987902323e-13 -1.148352628424394e-12 -1.8873135001633083e-13 3.1179015346023814e-09 1.1991724697541054e-10 -9.745763944070492e-10
594 -4.932440078586276e-13 9.4014848531881e-13 -1.0787072657179048e-12 2.5273159990798735e-09 -4.143418204104624e-10 -7.758653986965672e-10
595 -9.480839370167988e-14 1.3575054653608707e-13 5.5466783798227714e-14 5.576272216312626e-10 7.001772711927651e-10 -1.5458591405485258e-09
596 -5.420370986821274e-13 -3.1179235611218837e-13 -9.065691876182284e-13 2.46363263511217e-09 1.464687475663569e-09 -1.38785099501113e-09
597 -1.1229278462147146e-12 -2.7082870666655075e-13 9.91946004608252e-13 5.359845403059637e-10 1.5153495484880309e-09 -3.5659331741994794e-10
598 -4.735352480615425e-13 5.418632682748489e-13 -8.510811304245764e-14 -1.6745906031931476e-09 -1.5471451414886987e-09 8.692846277313635e-11
599 1.7327823075746676e-13 -8.764313649014233e-13 -1.289071339327269e-12 2.3837598493464475e-09 -1.9336910258895443e-09 -2.59281056975396e-09
600 2.17725684558287e-13 7.549898687580889e-14 2.168246332637228e-12 2.403054753142627e-09 1.3526064443302731e-09 1.1942541423960872e-09
601 -1.0831854308404662e-12 -1.7662829212932285e-12 3.516466323125401e-13 -2.019891413832999e-09 -2.766080494175153e-09 -2.6646468838182595e-10
602 -2.6445613643365768e-14 1.1295815770686351e-12 5.584961495545373e-13 -8.63103798755604e-10 2.0023782337267817e-10 -1.1150323514803612e-09
603 -3.912551560468769e-13 3.2350719546913077e-13 5.437999721806282e-13 5.305289545482291e-10 6.185102501293799e-10 3.3920777455553727e-10
604 1.0287690695949569e-12 -2.7109111951153436e-13 -1.110693955684356e-12 -1.7755753012953863e-09 -1.3241743036443863e-09 -3.804691373218738e-09
605 -2.167279116894451e-12 8.881504291989649e-13 1.1907866767014365e-13 1.0791050017390435e-09 -2.643418808083624e-09 -2.668865318915426e-10
606 -5.335882670878217e-13 1.0841695239412199e-12 -1.049624366869658e-12 2.1204795482515868e-10 -7.345324975454395e-10 6.995527284099277e-10
607 -5.41683488183556e-13 8.658985903999422e-13 3.7502294695918066e-13 -1.4916599557801808e-10 -1.1643494042297207e-09 -1.3508715963687933e-09
608 -3.313286340644186e-14 1.012858412274129e-12 2.686359875079966e-12 1.3456896692233429e-09 -3.5535442257756173e-09 -2.5140491646423527e-09
609 4.166254975945181e-13 1.829322210015597e-12 6.326591514295179e-13 4.851034534170781e-10 1.7323263015104372e-09 -2.796652329136283e-10
610 -1.4859489496278494e-12 -2.6698504146028305e-14 2.1721202051719156e-12 -1.131167427265848e-10 -7.364063822552825e-10 3.032521060699817e-09
611 -9.804444640937989e-13 9.080171525341701e-14 -9.896771929234639e-13 -2.2808451098672405e-11 -1.2332991549526445e-10 -6.098087948253394e-11
612 1.0755688499072901e-12 8.482083172672352e-13 -3.24987699839531e-13 -3.6629058162236733e-09 5.50264390762002e-09 -1.7023407382517324e-09
613 -1.8372641973650164e-12 -1.9229197976941714e-12 -1.3237246922058376e-12 2.463193843745806e-10 -4.876940593548705e-10 1.74543864477371e-09
614 2.417050244775616e-13 1.0836720091773016e-12 -1.684656587512001e-12 -2.105161149042012e-09 -1.3455469062452823e-09 -1.9255475111673166e-09
615 1.019346703774997e-12 4.5199668429475455e-14 5.925712246593746e-13 -1.124692909826665e-09 8.571263984790936e-10 1.5588372156906245e-09
616 1.5660660758268344e-12 1.0121784327404128e-12 -8.89244957085403e-13 1.2800823018468175e-09 -6.780822338331776e-10 -4.4468270595839587e-10
617 -2.132873748664036e-12 -9.28537747539246e-13 -2.2626945481556736e-13 -1.299916813579722e-09 -1.0224032369557246e-09 -3.6209394065131396e-10
618 -1.3493416505513202e-13 -6.911781820922237e-14 2.3737221049272375e-12 7.069887373131978e-11 -4.580059835352661e-10 -4.1570222718407353e-10
619 -1.0834773544967952e-12 -1.3718465674430579e-13 1.5704765030821424e-12 -2.584150948110739e-10 -9.53378543043479e-10 4.926738004485323e-10
620 -1.0841826753153386e-12 5.39621081965373e-13 8.32908192601167e-13 3.1880582111742165e-11 -1.1546487975951955e-09 6.592751802475465e-10
621 -5.420584760959127e-13 -6.649115365271613e-13 -7.333822731789567e-13 -9.536555862138421e-10 5.283403378753505e-10 -7.872469820723954e-10
622 -1.0537533472179223e-12 -6.429911268986709e-13 2.7034098187980817e-13 -1.0128872164074349e-09 4.1229287294480914e-10 4.122854174083265e-11
623 -5.421087202423026e-13 2.164474974365554e-12 1.3867091236473545e-13 1.128303266744936e-09 4.774197035920374e-09 -3.9710161170681734e-10
624 -2.0848461352101517e-13 2.7141275565769514e-13 4.7337157382525334e-14 -3.657879436588308e-10 -8.869957482214713e-12 3.95621540551743e-10
625 -1.008564900155296e-12 2.678031345850619e-13 3.2741231121227445e-13 -1.9701663560354796e-09 1.8393213266850951e-09 -1.8828358634704365e-09
626 -2.0297857407971852e-13 1.0600787351236023e-12 -1.662155770690463e-12 -5.584640642124482e-10 3.590129105845528e-11 3.741870759379829e-11
627 -3.1001141143605425e-13 2.0109143989672351e-13 -1.5082050090852302e-12 -2.0339574367623134e-09 -1.1044029415313203e-09 4.400582049595109e-10
628 -1.083064477231948e-12 -7.166123544480673e-13 6.298811720630203e-13 6.025812444497344e-10 2.7514705483813026e-09 -6.445875816575012e-10
629 -4.684892502156072e-14 1.0831189031030107e-12 2.304540820572373e-12 -1.1677075263177528e-09 -1.434145975307395e-10 -3.6633813886458256e-10
630 -2.5793394128113133e-13 5.792443938112462e-13 -6.322994090961508e-13 -1.380306580920618e-09 4.663018065954686e-09 -1.9113421157480047e-09
631 -7.764895889065049e-13 -9.43089324257915e-13 -2.2080648319636344e-14 -9.428753095292221e-11 -4.2571786773715104e-10 1.3911603738442524e-09
632 -7.000787989643464e-13 8.5327192202171e-13 3.4541098805664526e-12 2.5720754816394784e-09 -2.3597462267786835e-09 1.434557288784287e-09
633 -1.0837416075417505e-12 2.1682239588432442e-12 2.938400926794271e-13 -6.34329434072593e-10 1.0147171850618234e-09 -4.246348725060986e-10
634 1.6497039766022482e-12 6.059495719967455e-13 8.977863941872559e-13 1.7243319097887834e-09 1.7442756541694363e-09 -3.080200839262248e-11
635 -3.8953118018570984e-13 1.4300777427840953e-13 1.497573506115871e-13 -8.63741413184784e-10 -5.689701484041571e-10 -2.2476503806772808e-10
636 7.854475052558292e-13 -2.700848378485195e-13 4.0403681930624533e-13 -1.0638635947489233e-09 -3.1909010344242024e-09 4.918007795585479e-10
637 -9.87917249357195e-13 2.001140651999522e-12 2.0837975952688358e-12 1.483362761992762e-09 -1.3275631194516706e-09 5.495679594457945e-10
638 -1.083815762044578e-12 -1.6415999845176867e-13 -2.281510778738063e-14 -9.904303263813655e-10 -1.0928355179672227e-09 -5.820470110681134e-10
639 -1.386359653617477e-12 4.68755989768205e-13 -6.457062644995565e-13 -1.623154124685881e-10 1.6061520739370631e-09 -2.6776249494568286e-11
640 5.835444751475889e-13 -8.287814379679925e-13 2.185451228780347e-12 2.651433161112532e-09 1.2236073282306267e-09 1.881200924650884e-10
641 -8.263594614551222e-13 1.042064355179393e-12 -2.938242718891519e-12 4.813606185061192e-10 2.2306173166368225e-09 -2.8170482647299935e-10
642 -3.5371815950795487e-13 1.823645711169584e-12 1.2372808375490064e-12 -6.742729416330929e-10 -5.97217637836417e-10 3.1041238958468576e-10
643 -2.0309511753879944e-12 4.90129107144562e-13 1.3782517977242968e-12 1.4783638112304137e-09 1.410780841115077e-09 6.907713645377448e-11
644 -1.083982814756062e-12 -8.383137328557919e-13 2.1684005636280892e-12 -4.916414011221018e-09 5.474726248910767e-09 -1.0926162335195706e-09
645 -7.581806616968744e-13 -4.716510734680218e-13 8.308155963115389e-13 -1.2630761067186183e-09 1.0157166868627134e-09 6.299647123204384e-10
646 9.261127192820168e-13 2.16387393443075e-12 -2.1130110173979786e-12 2.3127850124818588e-09 3.5272343704385476e-11 2.5050906220540966e-10
647 -1.2686394248248698e-12 1.0242598228706984e-13 -4.197919549482834e-13 -2.579964505337196e-09 1.7581556128513447e-09 -7.515918189893894e-10
648 9.453583453061719e-14 -2.2882204878775603e-14 1.599514076407499e-12 -8.20209715713304e-10 -9.120731257924255e-10 -2.0210035456363484e-10
649 1.7079971071321182e-12 2.6799774239249986e-13 -4.4046078846147546e-13 -2.591187752263612e-09 4.3109775876012144e-09 -1.571353154622066e-09
650 -1.5925196958182478e-12 -7.808915548164137e-13 -2.140915041354722e-12 -3.3068815442463365e-09 1.6744262650274458e-09 -2.40438047507921e-10
651 -3.669454507129214e-13 1.9891682571293e-14 -3.4675512220091016e-13 -2.7059132642738423e-09 4.487920561212318e-10 6.206777511984821e-11
652 -5.374970585992725e-13 8.5012462229668e-13 -4.160665287831973e-12 4.562265377904977e-10 -3.6263041487381962e-09 6.413212635768977e-10
653 -9.761828806879777e-13 3.596217917925953e-13 2.3228251043613927e-12 1.9364214104904177e-09 1.4609512216882747e-09 9.722105083726995e-10
654 -2.4536149351808245e-13 -8.062767687050091e-13 -3.9445808902603294e-13 1.2240961243932966e-10 2.2740672532587518e-10 -1.4429959949786377e-10
655 2.16837934095186e-12 1.3309126536850423e-13 1.2425058002589993e-12 1.2672728434805698e-09 5.844970134564722e-09 -1.8394309959830032e-09
656 6.850336749327982e-13 1.6924280213443829e-12 7.324551976272264e-13 8.684195793473876e-10 5.245225328888961e-10 -2.2319567591223823e-09
657 -7.747467092239375e-14 8.261331522325046e-13 -2.7112123834546363e-12 4.470424035769176e-10 2.261221399182765e-09 -6.854513635633092e-10
658 -8.508058722550778e-13 2.3655397856754123e-13 -1.3258052163786372e-12 -1.7599578461157134e-09 1.4446380537722917e-09 4.3881381230620914e-10
659 -1.4777303017307886e-12 1.3015307161312038e-13 -2.131096724351903e-12 -2.910746919259373e-10 -2.6816528805895835e-09 2.939393127833836e-10
660 -6.094172719720505e-13 9.66429530799825e-13 -1.0632601985745644e-12 1.1938656659630479e-09 8.21793584104199e-10 4.5511088445211636e-10
661 3.980325955215041e-13 -1.7388690406552824e-12 -1.4740550631036028e-12 4.896224631680628e-10 -4.285816215175845e-09 7.080114770037937e-10
662 4.4724302734149436e-13 -1.9013735094556566e-13 3.287116325730261e-13 -5.887437202523981e-10 -1.3707498415316504e-09 -2.4462551983707477e-09
663 -2.165902770935049e-12 7.637134293719425e-14 4.055699550693358e-13 -1.3616640315578776e-09 -3.01906080261855e-09 6.131360782450816e-10
664 5.419872116440445e-13 1.1019444806392239e-12 6.853022619385157e-13 9.057549382261453e-10 -4.9054892838521585e-09 1.929931186052281e-09
665 1.9628503525947614e-12 5.413032772331739e-13 2.1088588521954017e-12 1.1212157131720936e-09 7.705193072536473e-10 9.799565324303382e-10
666 -1.6779308771961389e-12 5.419589448485572e-13 -2.4267476017408668e-12 -2.218369348989584e-09 7.72034149763668e-10 3.0782379351895128e-09
667 1.1455642676890387e-12 2.7039001626610277e-13 4.335816044235804e-12 -4.959451429762907e-09 -3.6492862497901645e-09 -2.7530843119482404e-09
668 2.707816665294364e-13 -8.732267176947432e-14 1.5896336037515139e-13 -1.0863503560864142e-09 -1.0460294350736332e-11 6.177073659620822e-10
669 -1.084007677583487e-12 -1.0833498472315545e-12 3.5125362705060624e-12 -1.442996448549195e-10 1.3658867128607375e-10 1.6911719068977477e-09
670 -2.16820427361827e-12 1.0793191842651913e-12 -2.486768257120155e-12 1.7415527115437148e-09 4.285167623684526e-10 -3.623063137343939e-09
671 -6.009195865778976e-13 -4.047624099749046e-13 2.971394394523839e-12 -2.8627405789634295e-09 8.529265374432005e-10 -6.483117935680212e-10
672 -2.7127105108211684e-13 -2.6847531574711184e-13 -4.941869684243641e-13 4.853030555763829e-10 -1.0405299887905952e-10 6.007923070658846e-10
673 -5.295123646750781e-13 2.711784392592519e-13 -8.904302961310638e-13 -1.7048727195359534e-09 -1.3029068548618935e-09 -3.199448272507769e-10
674 -2.1346404567471135e-13 2.0589940994592741e-13 -1.6543282220990073e-13 8.858698815210801e-11 8.775092208036713e-10 1.703646920267035e-09
675 2.1529388348945516e-12 2.57759222750162e-13 -5.179678163175565e-12 4.61003077048261e-09 -4.220528751580578e-09 2.8262387586490914e-09
676 -1.5821803820763353e-12 1.171361985446759e-13 -1.6298489062360112e-12 1.4424109536184262e-09 -2.3078173049634449e-10 9.935266029367178e-10
677 -3.4011056748491533e-13 -2.7054954401152264e-13 1.930044431900614e-12 -2.005394405746648e-09 -2.230858167080637e-09 -3.697461313797632e-10
678 8.882951174278701e-13 1.9109216520786839e-13 -2.413695675942948e-13 2.2790587778081746e-10 -2.4620553560489793e-10 3.2806866844288255e-10
679 -4.461851574616791e-13 1.3103471832554541e-12 1.6484698684649768e-12 -9.275758927448967e-10 -1.7753395205275288e-09 -8.690710236365309e-10
680 7.178022528580244e-13 -1.0837443637024634e-12 3.0347025889965677e-13 1.5119770511497032e-09 -5.862769384965081e-10 3.230749586660433e-10
681 -2.123830375054357e-13 2.6965640476464603e-13 -3.1256645639922943e-13 -2.3461851996286904e-10 1.3855058252697678e-09 -2.9799597233263167e-09
682 -2.710162252621432e-13 -1.2126265744426127e-13 -5.856067209252134e-13 -5.322948949483721e-10 -1.931810203857019e-09 -3.8432411706950777e-10
683 -8.166601636974546e-13 1.0729061354661314e-12 1.6209753898738793e-12 -4.816393477620577e-10 -6.650471374595522e-10 1.5250153541478268e-09
684 -1.0896990151041905e-12 -9.585301308806219e-13 7.512143853120251e-13 -7.333300515094418e-11 -1.724233994690614e-09 4.0338895529386836e-10
685 -1.0021523246167303e-13 1.0527548199239174e-12 -1.603086439637907e-12 2.019253219760273e-09 5.334141620168943e-10 6.233696094480226e-10
686 6.76090636252176e-14 -1.460517031892772e-12 6.562556071352709e-13 -1.0649790231739333e-09 3.4121350833040746e-10 -4.4095206951090613e-10
687 -7.692875071436916e-13 -5.418274038442179e-13 -5.942715357452749e-13 -9.79816535289847e-10 5.203246613630045e-10 1.2024655964531667e-09
688 5.141654846475105e-13 2.2821261196068464e-13 -7.672556008152264e-13 1.2359416687760134e-09 -3.9960073640237974e-10 -5.862896436553432e-10
689 -7.917479784108155e-14 -1.6998610674245218e-13 1.6586686832581128e-13 1.0039643387497647e-09 1.150225229223837e-09 9.97049617015605e-11
690 3.356933934922744e-14 -3.459811615005104e-13 5.772365488031867e-13 4.119060280998722e-09 2.067221963685502e-09 -5.859482078987254e-10
691 2.130449507841101e-12 -2.083671039438569e-12 -3.511583114144687e-12 -4.5811446133883866e-10 3.4026302428760335e-09 -2.5073026588165247e-09
692 3.1417350524109155e-13 1.3547482226677396e-13 -1.1749595419750287e-12 1.941857557409046e-09 -1.8019699100870257e-10 1.1519568821178933e-10
693 -1.91048599994056e-12 1.0813783750416353e-13 1.4827387218648303e-12 6.962323905015207e-09 -1.1570422656223697e-09 8.354792858491589e-10
694 -1.0840014138919618e-12 -1.3357924766465577e-12 -2.8850213148400173e-12 -3.973500601603602e-09 6.769936887982693e-10 1.7983099537157509e-09
695 -3.5960538398911162e-12 -2.709240675316819e-13 -4.336610636347288e-12 -9.824797308861343e-10 -2.7220321433612947e-09 8.085454975704036e-10
696 9.167991898644994e-13 -2.163890328390202e-14 2.559607959940951e-13 -2.7045417704751616e-10 9.003272839580263e-10 -7.182094438224563e-10
697 6.522989150574459e-14 2.829945929607065e-13 2.751800556617056e-12 9.788928578272712e-10 -3.27999950896319e-10 -1.6801679731115985e-09
698 -1.0815349229297797e-12 3.4459732356317353e-13 1.4836215049497133e-13 3.6703729455590054e-10 1.1387997559195631e-09 -4.3359047394831636e-10
699 -5.408877520312816e-13 -4.584502554447418e-13 1.864114238991257e-12 -2.166506853787983e-09 -7.752758642178763e-10 1.8083328558102748e-09
700 5.606286150350522e-13 -2.1720695605006352e-13 -1.8142661815130579e-12 2.73744815802303e-09 1.0250719300687383e-09 1.7525761156512185e-09
701 -1.0841523711882473e-12 -2.1132475618620518e-13 -1.284916421892162e-13 2.7238652482020077e-09 8.539218255309958e-10 4.2592028417157194e-10
702 -5.414001300841291e-13 3.8614263436354555e-13 2.0625724691652614e-13 -2.469813689107235e-10 7.493643388112041e-10 7.958197111967108e-10
703 -1.2669248867807014e-12 5.418911009949237e-13 -8.672615713294109e-13 9.053634339199638e-10 -2.6391132171908003e-11 -5.234498355464052e-10
704 -8.534679490459938e-13 5.422863284995745e-13 4.7037577246655186e-12 3.7787084992938573e-10 -8.814652355217302e-09 3.569071244185201e-11
705 -5.418442274356057e-13 -5.420224426544344e-13 -2.6344932359018476e-13 9.8738529520208e-10 1.881305779547982e-09 5.92539081992868e-12
706 -5.140269014550146e-13 4.330472931792278e-13 1.96552887424173e-12 -2.2397796767259527e-09 1.1173368255739939e-09 -7.872527965371047e-10
707 -2.710989261151192e-13 6.949466237724612e-14 -4.5294223012506937e-13 -1.8379858263595186e-10 1.2976617262384614e-09 -1.68889806052557e-10
708 -1.3585410196421375e-12 1.5473021864932688e-12 2.8463701353229347e-12 -5.566510320543439e-09 -3.5959457070940697e-09 2.548552007094725e-09
709 1.388504450640429e-13 1.6857025179118827e-12 1.4034803537760175e-13 -4.895167285620265e-09 -2.2649190735119613e-10 -1.6161567436776072e-09
710 3.900894128935576e-13 -3.424226915379815e-13 -8.316082063572082e-13 3.732303623403188e-11 1.849006352479408e-10 -1.2576624790849346e-10
711 -5.233105279583287e-13 1.8231277089280036e-13 -4.2750823902243885e-13 4.1061771501793214e-11 -5.626458743517184e-10 -3.2022917249063536e-10
712 -8.98956197941468e-13 -1.9424625277196523e-12 6.191287177634798e-13 1.3433817619628952e-09 1.8945446664948894e-09 2.7984736329812874e-10
713 -7.204947710344265e-13 1.2992457247109437e-12 -2.473822907375543e-13 -1.6177087119074231e-09 1.7201441109764953e-09 7.185373169780597e-10
714 -7.760845363692358e-13 -1.0172221183710852e-12 4.1193358701252853e-13 -1.392304519188811e-10 5.787267612075577e-10 1.1589754403352356e-10
715 -9.691464038032322e-13 5.420589794372061e-13 3.4328358131365152e-12 1.5369167559075691e-09 -4.907004243029315e-09 -1.2070330488185012e-09
716 2.1216910593136138e-14 -8.649589647623511e-13 -3.256114116888188e-12 3.8539878290408165e-10 -5.918505904747748e-10 3.979022884683633e-10
717 1.016635694775605e-12 -5.354998346667106e-13 4.2667482523518505e-13 -2.4408611351957527e-09 4.533510345433161e-09 9.230089034745826e-10
718 -5.423231882134092e-13 7.138177234401112e-13 -1.5431304089096463e-12 -3.4536983593063884e-10 -3.908266200321311e-10 1.2788807137966714e-09
719 9.557250934321938e-13 -1.0834361050432108e-12 8.563438007506134e-13 1.4793287293257802e-09 9.006966137195744e-10 1.5820802377788908e-09
720 -5.968242798076554e-13 1.5195139888087408e-12 2.530385194805283e-13 -9.952260138794607e-11 3.8448930063824617e-10 -4.456445503352318e-11
721 -5.156324083203727e-13 -5.416849796658624e-13 -1.1252156979930363e-12 5.323251276909239e-11 1.4209513833754518e-09 -8.988843104330639e-10
722 -5.735296753344354e-13 -2.1676165649567547e-12 -2.143875567964905e-13 2.1559128040101575e-09 -2.5204391033898595e-09 1.938569492151478e-09
723 7.215852957279462e-14 -2.498593383169773e-13 -4.119783081772785e-13 9.656669547905037e-10 -5.641061324548267e-10 3.044697381997208e-10
724 5.238388874027234e-13 -8.983756525810408e-13 1.3792682506214243e-12 1.547216234398695e-09 -1.0658631928339094e-09 2.888532303948924e-10
725 9.439786800401904e-13 -4.255734920946917e-14 -2.0105590644037575e-12 1.7280308021178557e-09 3.6469662445272547e-09 -8.555682719799741e-10
726 -1.4720710000093417e-12 1.683934845592565e-13 3.0246604263840343e-12 2.1555395458651843e-09 -1.1735419492668457e-09 -9.948466566683526e-10
727 -2.7113790638736216e-13 -1.5468745100853976e-12 -4.3204300165284425e-13 2.101432390564894e-09 8.294543745362716e-10 -3.0369685713090325e-09
728 -1.0840005985874784e-12 2.1753166258562858e-13 -4.875715181803771e-13 -3.945451302835082e-10 -2.077899616247739e-09 -6.977506227329538e-10
729 2.1661013411923474e-12 2.715857542560859e-13 -2.3899562442012265e-13 1.2903821113001957e-10 3.938783568052503e-09 1.5965164932646503e-09
730 1.3787352532542749e-12 1.0842732938493302e-12 2.5488331511663886e-13 -1.1212224854097123e-09 2.3223486815960916e-09 -2.0316323716609493e-09
731 -3.221568655053445e-13 -1.0841216978765636e-12 -1.321493988219758e-12 -2.134498066277039e-11 4.566838962530632e-09 1.7280846439477448e-09
732 1.0758707184153272e-12 1.5182925128168117e-14 2.225354157827169e-12 -3.723105512790131e-10 1.797635153592726e-09 -6.375710384923734e-10
733 -2.2196230293063867e-13 -7.796826058428371e-13 1.5212563722375421e-12 1.5373230655492977e-09 4.078374478521047e-10 2.184902679515414e-09
734 -7.968609683902795e-13 5.420339689482374e-13 -4.2446875178602284e-13 2.5556113726245243e-09 -1.02852086737925e-09 4.954674053776294e-10
735 -2.7097602277704677e-13 2.6999080748764915e-13 -3.8172370444288005e-13 3.8696386304421367e-10 -1.2293648913073716e-09 3.599865216171511e-10
736 -2.7104864897858146e-13 -9.914714738828734e-14 1.266930189134294e-12 2.599862505753757e-09 4.446301819215036e-10 4.447878103739632e-10
737 3.2632884624178635e-13 -6.793541017141206e-13 8.685293098863422e-13 -2.0971986442570597e-09 -1.1583150471311156e-09 2.9977444142802006e-09
738 1.965974010801136e-14 9.90666323853894e-13 1.2418619944444226e-12 1.1985320845374434e-09 -2.992793536403942e-09 -1.36265280208022e-09
739 -5.42169557397705e-13 -2.703399836131022e-13 -1.4453856722150076e-12 9.888369346856843e-11 1.9688313010030248e-10 -2.0752638443353514e-10
740 -6.136464427811587e-13 -1.216955836945005e-13 5.499172737877123e-13 -2.8188789692442564e-10 -5.816768058632497e-10 1.1596770661233755e-09
741 -1.084119654398773e-12 1.0841665531453325e-12 1.013623444357502e-12 6.352260076406521e-10 5.703105079032298e-10 -2.759160942181538e-10
742 5.04279592476142e-13 1.08381879118803e-12 -2.6144061341306224e-13 3.888391435379542e-11 2.3024321033927732e-09 -2.6606249536605182e-12
743 5.407350631620388e-13 -1.0836524853472238e-12 -6.456813136345578e-13 2.131290194085981e-09 -1.3612348923647575e-09 -5.178710416604325e-10
744 -4.370308885880468e-14 1.1452180585844357e-12 -3.142974183966314e-12 5.835619448755621e-10 5.509321921851791e-10 -7.66248374156476e-10
745 1.1426434169673872e-13 2.1279062854534064e-12 1.5641912145296731e-12 1.2440568968917737e-09 5.579382848475922e-12 1.0680270284711296e-09
746 6.824931944552605e-13 1.6333842329270193e-12 -1.4989464804668116e-13 -3.3149880883243524e-09 2.003465879755333e-09 1.9001011018989635e-09
747 -3.3487650395693365e-13 -2.475822387359696e-13 7.361400363441351e-13 5.24531174788406e-09 1.0225873166073102e-09 1.1631331974102754e-09
748 9.278515544892378e-13 -8.432153391988225e-13 1.1410987685398955e-12 1.0283894450955054e-09 5.89819791634378e-10 4.0771726159699207e-10
749 -1.0841205740648355e-12 -3.565433524786074e-13 -1.6828433826433202e-12 1.98040441920842e-09 1.4158301363829568e-09 4.3434406216407986e-10
750 7.889461819700037e-14 -1.8308804783451348e-12 5.13030278545729e-12 -1.6896449120730837e-09 3.6673982156339785e-09 -9.163602546999139e-11
751 -4.92455394813433e-13 -2.124726234365055e-12 -1.9901254767200836e-12 4.657487687328233e-10 2.7918264749589487e-09 2.4150671995681835e-09
752 -5.415469380730376e-13 -5.417189801635929e-13 -2.258611809317038e-12 7.203174030135604e-10 3.187028765232149e-10 -3.869570403282748e-10
753 -1.2378627104405718e-13 1.2040878537706892e-12 5.763003527495202e-13 -6.547030692299543e-10 -4.619936588734829e-10 -2.3102363935699555e-10
754 -1.511555570384691e-13 -4.781075839786858e-13 1.7375344527379898e-13 1.8329627881344985e-09 6.033527874931562e-10 3.602614066243827e-10
755 1.0710910841006943e-12 5.419090055321972e-13 1.6938120907083778e-13 1.1418355332337092e-09 -1.7279917270849707e-10 -1.1645611271680666e-09
756 -6.83019493326834e-14 2.0652958040610517e-13 2.952205733315713e-12 1.8492195721574163e-11 1.5218101380429512e-09 1.4242738161045244e-09
757 -2.1340493805547244e-12 1.865539320178114e-13 -1.0568086667042271e-12 -4.979355143320849e-10 1.559563646633956e-09 -5.448370995326042e-10
758 -1.3490965842563398e-13 4.5458513588954675e-13 -5.378981756975874e-13 1.5899320189973277e-09 -2.7305944157073797e-09 -1.1226723864747892e-09
759 -2.707314832425965e-13 -6.815591394006275e-14 -2.6865632592804526e-14 -2.6767276250838804e-10 -4.1188866564335865e-10 6.289426699076664e-10
760 -8.81882608572584e-13 1.0024120969677984e-12 -1.4558300733658565e-12 1.500590047506395e-09 1.2512264699403322e-09 -3.2348612939604944e-10
761 -1.6858724812856526e-12 2.160028522072006e-12 2.046363671916436e-12 2.8407423255012634e-09 4.5032832819218425e-10 1.267752229339013e-10
762 -3.219391567178062e-14 -4.869509811417989e-13 -7.06892960598369e-13 -2.797642368497249e-10 8.825280742152264e-10 -5.697387752397256e-10
763 -2.7079196112179575e-13 5.5276380058834e-13 -1.1677258698296673e-12 1.6109902732182485e-09 -4.590442268360925e-11 -6.329456586281274e-10
764 -1.3247759017687779e-13 5.513849308652976e-13 -3.082363980022099e-13 3.167377009516314e-09 4.067946281276511e-09 9.629106074194944e-10
765 -5.420541598778928e-13 1.118363657124406e-12 7.485118950110263e-13 1.1001549534381025e-09 -9.390930453424122e-10 5.42261054870432e-10
766 -8.601485804751061e-13 4.739448968824408e-13 -1.5935287327048943e-13 -1.9693671450903728e-10 -5.794497328991351e-10 -1.7650935840599066e-09
767 -1.3809487784011593e-13 -1.0841648015292777e-12 -3.5110735665819616e-13 -2.3661940779826577e-10 3.6854013299129454e-10 -1.1561293997586277e-09
768 -5.45224512379031e-13 -2.5056211698992607e-13 -2.2110617544896705e-12 1.274425146680117e-09 2.6547468520648244e-09 -3.8380831344986744e-10
769 5.417833903117455e-13 -2.130076844533296e-12 -7.481448147628545e-13 -9.288649553415369e-10 -3.559827963542562e-10 -2.402556860056114e-09
770 1.2483773579192794e-12 8.370139251489419e-13 1.8772907253748586e-12 1.5502033781557616e-09 -1.879121897875865e-09 -6.894030230456369e-10
771 -4.642795153133025e-13 5.922502081507191e-13 7.441193607808017e-13 1.1315634706996663e-09 -4.948493580445292e-10 8.916875252502152e-10
772 1.4335108194373683e-13 -5.321891561532594e-13 -2.6689372543386897e-12 7.742432673221752e-10 -1.5807414840773813e-09 6.907558769840606e-10
773 -1.59455010526844e-13 -6.344153871533891e-14 -8.634577530045608e-13 3.115374950932112e-09 3.363379035826491e-10 -1.3348482037621052e-09
774 -1.083518153585386e-12 6.204163181288073e-13 -1.4460724793550194e-12 1.0425807975090252e-09 1.0519610695036612e-09 2.385559504565398e-09
775 -1.2606407937300897e-12 1.1682421464816607e-12 -4.292742430822428e-12 6.036442642058857e-10 3.3071683170585948e-09 -2.2632816946342545e-09
776 -1.0704113017776118e-12 -6.410135682227421e-14 -1.2957944747888438e-12 -4.6541812691996975e-10 -2.61143355528819e-09 -1.0778194223674118e-09
777 1.2738499660831164e-13 -7.643429300695558e-13 -1.3161127943115023e-12 -3.28643370097662e-10 -2.0278345641383214e-09 4.1609163991902964e-10
778 2.4343896378446425e-13 4.131417508448498e-13 -6.487698546912472e-14 3.2221069212744526e-09 5.128792176593394e-10 -1.5690362560799279e-09
779 6.770020086497232e-14 -2.1681118747900613e-12 1.7763385482318082e-12 1.070158616226926e-09 -1.3551763611656542e-09 1.366774647619138e-09
780 -3.9896288043016485e-13 7.484460008638213e-13 2.917543610150948e-13 9.778529243352504e-10 1.947896748339018e-09 7.687204955142561e-10
781 -2.1275761552538578e-12 -5.226931945394385e-13 2.3912665187903642e-12 -6.511291024823176e-09 1.865628373083994e-09 -8.418912473265654e-10
782 6.130445543533571e-13 1.0804680272172994e-12 -7.518571816962362e-13 -2.0835886572335167e-11 1.0147839113118641e-09 1.5732221094776404e-09
783 4.806007457744155e-13 1.661709805009752e-13 -3.546932532644761e-12 6.52591652302511e-10 -3.0301452278801695e-10 -1.3623747451977392e-09
784 -1.0830280058421718e-12 -4.2854167183866107e-13 -1.5199015011418357e-12 -2.519793730382567e-10 -9.144116341160726e-10 -1.0413571775828524e-09
785 -4.742730093374498e-13 -9.466183782447522e-13 2.8485358073525167e-12 1.0516946835390419e-09 -1.1470476796270579e-09 1.5071831188487983e-09
786 -1.0840861822385702e-12 -4.062884193052155e-13 7.092134070270369e-13 -1.894683488470727e-09 -5.835198343854933e-10 -2.8407484042971e-10
787 6.059676370227262e-13 -1.0716561365457352e-12 3.223707065464508e-14 -2.489449304150802e-09 2.039454556571082e-09 -3.962110902906621e-10
788 -2.352648123432713e-13 -5.043739126864603e-13 8.523034167217674e-13 -2.6173946515075772e-09 2.094985738051247e-09 1.5615714953338012e-09
789 2.684909913663937e-13 -1.9695139199757413e-12 4.334592922511513e-12 -1.0385392936313716e-09 2.893455265530461e-09 1.782059131855022e-09
790 -3.016342831964079e-14 5.106146171195317e-13 4.848703646085718e-13 2.5671366208144337e-10 1.0005933389822297e-12 -8.257711809904567e-11
791 -1.0629922484705416e-12 -2.1680995558456593e-12 2.8100478387323413e-13 1.693116036573881e-09 1.1836058833359194e-09 -5.017897458058728e-10
792 -5.406087849464481e-13 -9.176897517981494e-13 3.1139604929203502e-12 2.4605479605849174e-09 3.320559782814978e-11 -1.2384242322535882e-09
793 1.0841948072027186e-12 -5.420406509569614e-13 -1.9369387281968977e-12 2.25110227886071e-09 2.0662112209217204e-09 2.2803002203621664e-09
794 -5.420732769953075e-13 2.755640118182907e-13 -3.559625065528214e-13 5.375174170422023e-10 1.6299562020390933e-09 4.832334194507482e-10
795 2.948972208114146e-13 1.5010170809764404e-12 4.981328689937022e-13 8.554528230704165e-10 -1.2656687264447314e-09 8.548436886352678e-10
796 2.810961392815207e-13 1.478224063168137e-12 8.285853028455558e-13 -2.552096823902714e-10 -2.621627176780947e-09 7.430112588212234e-10
797 -1.2399878946602556e-12 -1.3250361546811417e-12 2.1642337240549995e-13 -3.1302080272986763e-10 -5.955468616480614e-12 -1.2614392677539427e-10
798 7.497459283530481e-13 3.236736389875008e-13 -3.337575109520693e-12 -8.045296494520432e-10 -4.184262760928676e-09 -7.365955600538605e-10
799 -5.363118448680923e-13 4.435872944341424e-13 9.72932536287062e-15 1.731669507745052e-09 1.4409239037002128e-09 1.0114987500768334e-09
800 -1.0009170077041644e-12 -1.5516310722482562e-12 2.7920717122118992e-12 -2.166808678859644e-09 -1.3885627311245498e-10 5.080575600427971e-11
801 6.002231416855244e-13 3.952735455342545e-13 1.037284048390337e-12 4.355048891004529e-09 -5.097934544784869e-09 -9.06530894652652e-10
802 -5.412868656307766e-13 -4.976386324873377e-13 3.1195993252438495e-13 1.4391608781957954e-09 -3.5585221973547927e-09 -2.5565542200443915e-09
803 5.360763487066517e-13 -4.567418561474591e-13 3.366906152769858e-13 -2.7350956592988018e-09 3.603954756083204e-09 2.5660627959425915e-10
804 -1.0837802542917787e-12 -3.158438921798145e-13 -5.083500245471687e-13 6.976291116155016e-11 -3.718848054597752e-10 -2.940817183202642e-10
805 -5.420097743862749e-13 -1.349198814372941e-13 -1.0768920627452635e-12 -1.1387890423053627e-10 -2.397830739274905e-09 -1.696626341064718e-09
806 -9.724200047583791e-13 -1.5136479582392589e-12 -5.748595228175066e-13 1.6162518496640071e-09 -1.3663968237281895e-09 -2.0370469465783177e-09
807 3.925582881219286e-13 9.086029198865399e-13 -2.4616538738644336e-12 -7.831677150902253e-10 3.7005922285253154e-09 1.5513525515597942e-09
808 -1.0437637995627084e-12 -9.471509370302099e-13 3.401387524027095e-12 -2.429235586905084e-10 -6.872186026747404e-10 4.3402891068692977e-10
809 7.713909879143915e-14 5.419606350430544e-13 -3.722477062230054e-14 -2.972732909050499e-10 1.1218999781168356e-09 6.838287159693585e-10
810 -4.474032726063503e-13 -1.799271622522796e-13 9.5743635206144e-13 -4.191938516114825e-10 1.3112590201031549e-09 1.280058932255113e-09
811 -9.434563002927672e-13 -1.0642543117495896e-12 6.929548898939894e-13 -3.812054572751076e-09 5.813643982085473e-09 -1.4202167200372347e-09
812 1.5519643273729034e-12 -4.866114718490647e-13 -2.3125340832474805e-13 3.828148751190376e-09 -6.598907304951348e-11 1.0293610116356028e-09
813 6.866837223010923e-13 -7.28655507231127e-13 -6.604113464708056e-13 -1.8626061860344593e-10 -8.967353299126573e-10 3.180093981364104e-10
814 -8.928853195491395e-14 -5.417232393588205e-13 9.331286732758205e-13 1.4209346147260466e-09 -1.60657309363303e-09 1.2866454084643387e-09
815 -1.6439246716465567e-12 -9.713060656095258e-13 4.3245845143300354e-13 -4.868554552215189e-10 -3.7650725914412353e-10 -2.116878697198179e-09
816 1.588301749499865e-13 -1.3039824772187455e-12 -4.68577269355925e-13 6.655222912000849e-10 4.672937151986267e-10 4.02553061186225e-10
817 -1.1241233095272768e-12 -5.419001077846032e-13 -1.5952705226820064e-13 -2.0031877496301176e-09 -1.9981005451980094e-10 -5.473624072956212e-10
818 8.211220532467681e-13 2.5783614894142933e-15 1.5060976813268455e-12 -4.194147335736793e-09 2.4231585642848216e-09 -2.1046974914953587e-09
819 4.996024696599588e-13 -5.142477355729882e-13 -5.229141579305283e-14 1.2783625387284866e-10 -4.340496382617545e-10 3.095067575637637e-10
820 -7.53079111893844e-13 -1.4655379071079998e-12 5.537469219927927e-13 -2.96498961722287e-10 9.193981037097093e-10 -2.3019243984689887e-11
821 1.968321911715244e-13 -1.4202396433544485e-12 -1.667215870037486e-13 1.2802155483403814e-11 -2.9157277387007936e-10 1.580792507873521e-09
822 -3.0542887582491753e-13 5.241012670029588e-13 -2.4738889323940425e-12 1.9725326326835666e-09 -1.2573730133455414e-09 3.1702981229330383e-10
823 1.6093849071187222e-13 7.175781297169838e-13 -5.699879622826376e-13 2.2513186641222673e-09 -8.001414340674973e-10 7.120874400841747e-10
824 8.442966864634974e-13 -2.1853499344089386e-14 -3.967566224047673e-12 -9.602755655375017e-10 -1.3091967609518111e-09 -9.163962209571173e-10
825 1.552498525123759e-13 2.168068838712757e-12 2.7487282015636144e-12 3.8184628996229385e-10 7.150578874326415e-10 -7.001024551116209e-10
826 3.3097099313004163e-13 -6.885721052383567e-13 -1.0924576809114669e-12 3.877817674130509e-09 -1.0938221532092924e-09 -5.621561597277498e-11
827 -1.4316745160076804e-13 -5.274017764125311e-13 -1.0500686424659386e-12 -1.530494128543484e-10 3.9962712021980043e-10 -1.5062625845745162e-09
828 -1.0380876448729818e-12 2.712549172472027e-13 9.10578511111614e-13 8.391715638645301e-10 4.0114678258898757e-10 6.842790457976637e-10
829 2.711009418071538e-13 2.1613901038163634e-12 -1.6781854438887092e-12 2.3099770352324304e-09 -3.756259444525462e-10 -1.1752882300701713e-09
830 2.511003577755845e-13 -1.630959229714304e-12 3.22132898439703e-12 2.0435267531173783e-09 6.308592038039979e-10 -2.1647422254731113e-10
831 -3.8017620085789926e-13 6.315081530449381e-13 -2.2687223533434897e-12 -3.053864828147596e-10 -1.1274562699201147e-09 9.94812936711526e-10
832 -6.789241410320443e-14 -6.093943943333855e-14 1.6804427181319826e-12 1.6185426402557223e-09 1.141439875303862e-09 -9.254453855193018e-10
833 -2.281673675432139e-13 3.713801737304415e-13 1.4102871152712344e-12 -8.960430895044793e-10 1.170880348966352e-09 2.6721841204035057e-10
834 -2.6852182222600796e-13 6.192157868158903e-14 -2.1298313986842537e-12 -6.56282513398608e-10 4.1411277321825026e-10 7.866865963168597e-10
835 -2.781903930038093e-13 1.3502483430991055e-13 5.214449926422292e-13 -3.8480604084157565e-10 2.535589264369521e-09 -6.220788255451516e-10
836 -3.736719044485489e-13 -5.654143945907739e-13 4.1795549610325016e-12 1.4913966675296726e-09 9.298675393068354e-10 9.025212030301688e-10
837 -5.366708487125832e-13 1.8166331616890941e-12 1.2683606613719117e-12 1.921050230640845e-09 -1.4191642645452884e-09 1.6211593778284924e-10
838 -2.340334908559074e-13 5.417566154070941e-13 -7.5760526756548e-13 2.362158183251705e-10 -4.072307444716603e-10 -3.560079364328736e-10
839 9.35565024452459e-15 1.4520698925752943e-12 1.794003465372976e-12 -4.0182615839666596e-09 -2.302595962992336e-10 -1.4262466806291259e-09
840 -5.881322499280539e-13 -8.570633420072492e-13 -2.7330780049347146e-13 -1.495337313711174e-09 -1.7454396372681125e-09 -1.4266202076676816e-09
841 2.1554294139188534e-12 -1.9164017148019122e-13 -1.274484533189556e-12 -1.2083993840905564e-09 -1.9394095650537105e-09 8.772898118305329e-10
842 -1.466137967786928e-13 -1.5364543327382335e-13 -5.875590191946932e-13 7.479709006786501e-10 -1.088397673748183e-09 -8.553020578496726e-11
843 8.967072579368993e-13 -6.374814775490419e-13 -5.765046610250653e-13 -7.488303401295536e-10 -9.973035466898722e-11 -3.1098661410567796e-10
844 -5.420617273998766e-13 -7.12071352432789e-13 -8.508561916416767e-13 7.690270257732825e-10 -1.95904669587692e-09 -1.7029245920606324e-09
845 -3.114085906120745e-13 -1.0608571384299174e-12 1.5213746880099319e-12 3.0839400598577525e-09 -1.7126694676461316e-10 6.243842739577319e-10
846 1.1637626225248967e-12 4.5434471309074994e-13 9.074110956571905e-14 1.5438081953396894e-09 9.923537680881451e-10 2.1783475470524571e-10
847 -1.7583855987267752e-12 8.74444065694075e-13 1.289648936481158e-12 -1.1131304104931587e-09 7.554602981245824e-10 -9.113522929527089e-10
848 -4.901421901889833e-13 1.8932001207108644e-14 2.037012467766822e-13 5.093055374137295e-11 1.8187609168355387e-09 -2.1918364433117633e-10
849 8.504692591684655e-14 -3.888886627694734e-14 1.5005242584244003e-12 2.890137689200663e-11 1.073929987984158e-09 7.668014367723425e-10
850 8.952582342505859e-14 -6.447316315897621e-13 -2.9495550470256683e-13 1.9265522468612384e-09 -2.1579998001790603e-09 7.043518452589053e-10
851 3.662207769670432e-14 -2.040644457069099e-12 2.047162053117225e-12 -1.3383628495084734e-11 -7.567987263917691e-10 -1.5608907470682613e-11
852 -5.416601922697313e-13 -1.3586062942705802e-12 -2.0405276792161313e-14 -4.102441348995524e-10 -1.5159624970275889e-09 -2.6460332477925256e-10
853 -2.777702638934081e-13 -1.5252191965157224e-12 -1.2604022275496138e-13 2.3503233483649645e-10 3.246046744805024e-11 -1.5987411615654573e-09
854 -4.518637562732816e-13 -9.691125064125532e-13 4.077606061427772e-12 -1.3798119571036756e-10 3.0103155618399954e-10 -2.3946658737646016e-10
855 -1.0841120316781624e-12 -1.7373490541683895e-13 2.7367662212008686e-12 1.3424874561946276e-09 -5.481757121699314e-10 -1.121024846982317e-09
856 3.890160305442792e-13 -3.491688898825546e-13 9.043672115981532e-13 -1.0757021473779714e-09 3.6695834463776315e-10 6.265263403316036e-10
857 1.7707509143953865e-13 7.582907330891307e-13 -4.774112083560468e-14 -5.68321914982891e-10 1.790809476423692e-09 4.3621323178488733e-10
858 2.166751998712426e-12 5.410887322953965e-13 2.181821155248503e-12 -1.713815692970709e-09 6.745420883457978e-09 -3.3322039899687976e-10
859 -5.4148014198886295e-16 1.4420259216762396e-14 -3.0741422975519277e-12 6.273529647442164e-10 -2.037331723568598e-09 4.6236107230162406e-10
860 -5.897362678856089e-13 2.709473874942797e-13 -7.527795571352628e-13 -1.109822995012056e-09 3.5941146974272528e-09 -1.2061936481588013e-09
861 2.7024234581036545e-13 1.0838486070653192e-12 5.227832024068069e-13 -2.273220173107234e-09 -5.168148972668784e-10 -5.707059457061522e-10
862 -5.386847982692712e-13 -8.905399052108102e-13 -1.8234914478428414e-12 -5.283864565950397e-10 -2.1436989439362128e-09 2.127533613327893e-09
863 -1.585787109340785e-13 -5.420046396333696e-13 -2.937876466058521e-12 -2.749403428756243e-09 1.43385774315989e-09 -1.2759509026669782e-10
864 -1.0202266304297525e-13 5.39390497347535e-13 1.9495955842250905e-13 2.7697329433492903e-09 1.3542598688642056e-09 -1.868442084115562e-10
865 -7.389898034581777e-13 -2.854144075645226e-13 4.683331973336377e-13 -1.36150939500301e-09 -5.701016769500352e-10 -4.6428069950500126e-10
866 -5.414927267358558e-13 1.3880960660834052e-12 -6.210718328914754e-13 -2.0275632067698643e-09 -1.8721023486935403e-09 1.7563341697985812e-10
867 -4.535148243607808e-13 5.679062318467079e-13 1.6669433614582842e-12 -1.5675215833465262e-09 1.444814096060075e-09 -1.1957638736344305e-10
868 -2.6160114669217634e-13 2.035223482406091e-13 -2.170410245530262e-12 -1.6946704458378472e-10 8.58913514872814e-10 7.289911916681188e-10
869 2.481952619537633e-13 9.45234500612082e-14 -1.833355289669592e-12 1.5384543048820507e-09 -2.385661282572042e-09 -1.3817709426774787e-10
870 5.407925454874622e-13 -3.4796833171552626e-13 1.1521108075863322e-12 -1.9230829225390058e-09 1.722810269546861e-09 5.327255482810532e-10
871 5.059678975500415e-13 -3.5405192498997164e-13 8.415558377367366e-13 -3.365154229334568e-10 -2.8115519666042377e-10 -8.727726605157099e-10
872 -6.36327846223041e-13 2.7046977156077545e-13 1.16704166084711e-12 9.114261269765488e-10 2.1793983433807148e-10 7.562638753889247e-10
873 -1.5108610183846871e-12 1.9431274740764616e-13 5.11907419890149e-13 1.8275759451918032e-10 1.8171135547914855e-09 1.9948098342413855e-09
874 1.8385335425785622e-13 2.052387093002714e-12 6.544087044249238e-13 8.341139751856148e-10 -1.5315603878871058e-10 -2.3090515719769048e-10
875 4.0518513877542605e-13 -2.6984794944410654e-13 1.3929136056319436e-12 2.6433754122931647e-09 -1.3503542214184412e-09 -4.459961859405724e-10
876 -3.1362614575389733e-13 -2.9440908525351285e-13 6.991609927476799e-13 -1.5564673745776617e-09 -2.1950881706615903e-09 -2.2110307527540088e-10
877 1.6900673796358315e-12 -1.082979274190308e-12 -5.253904209539484e-13 1.7950090605778627e-09 3.1284060940003903e-10 2.2322187293518704e-09
878 2.0322577676755475e-12 -8.001970550837432e-13 -3.08408131873284e-13 1.0994104174239938e-09 1.5406033404030446e-09 1.4471659228116761e-09
879 -1.9367353223690656e-13 1.367469406728125e-12 -1.0413487470172264e-12 -3.2252327830003508e-09 1.350255300330103e-09 1.9408345081970356e-09
880 2.134546859974797e-12 -1.6957310363400358e-12 -1.2320313122734544e-12 -8.99780800017914e-10 -1.2593920136363617e-09 -1.295971730798866e-10
881 -5.42173216380202e-13 -2.002505791359422e-13 -3.1469273418693096e-12 4.342048613167852e-10 -1.4517595919310455e-09 1.171085140228337e-09
882 6.706176227698767e-14 -1.1379346320916964e-13 -1.3841294047932856e-12 2.2210926529081063e-10 8.098521774859677e-10 5.013124751383378e-11
883 -1.9225959437262148e-13 -1.0567025200947775e-12 -9.08929782770679e-13 -3.0047681905735105e-09 -2.767464367187358e-09 -1.921325515787258e-09
884 -1.928551923004236e-12 -5.39973973134932e-13 1.9165177908715465e-12 -5.143903620926901e-09 3.7717816879101065e-09 1.267385780764967e-09
885 3.988927587666792e-13 -1.234196243075258e-13 -1.4421121411268368e-12 6.070863320814401e-10 5.100506673035975e-10 -8.005153814621739e-10
886 1.8143140897694903e-12 1.2499508817239377e-13 9.245721262666492e-13 4.3633945682420913e-10 1.2266757138798407e-09 3.7420633530957897e-10
887 3.0339996359934947e-13 1.9515063771624092e-12 8.478721841634652e-13 -1.7177781265696206e-09 1.8690271265497936e-09 1.082575728542088e-09
888 3.2098110673439603e-13 -1.0840722952965038e-12 1.5774493672527297e-12 3.9796025801176904e-10 -1.3926055535663136e-09 -1.5571624862055622e-09
889 -4.919407930797312e-13 9.371623254742372e-13 -3.6673504907374205e-12 3.4328495471172546e-10 -1.4151002357497209e-09 9.075761262062108e-10
890 1.5596646757960827e-13 5.419827726811054e-13 2.651631449053235e-13 -2.5947448341494294e-09 -3.6487657655873825e-10 -1.456633768347375e-10
891 -1.5208737123288977e-12 1.762316269161408e-13 1.9993900613401866e-12 -4.004314573791581e-10 -2.660250221383914e-09 -9.988034113032475e-10
892 -2.1681547406661765e-12 -2.2569692210209604e-13 -1.1906836797376186e-13 -2.0823764388973727e-09 -2.0905767170950065e-09 2.936665743216378e-10
893 1.084077065111571e-12 1.2423941987650378e-12 1.9525768603535527e-12 -4.1579364706336295e-09 1.4122441805222036e-10 9.531720417477397e-10
894 -1.2093049043280193e-12 1.0841829897453824e-12 3.6144849513131037e-13 -9.463842205578932e-10 -1.7782767467317068e-09 8.654064402321713e-10
895 -7.334120747330733e-14 -2.8218032437964524e-14 -1.142643164564551e-13 -7.148583795814529e-13 -3.5840048061084325e-10 2.461418260252804e-10
896 -1.0559201090848064e-12 -2.1157757377489642e-13 7.340269511680754e-13 1.1723415023451565e-09 -1.5684757512223306e-10 1.278891804327805e-09
897 -2.079106455807916e-12 5.3555928193672e-13 -1.945010632435866e-12 -2.7696795980928182e-09 -1.6177895810616192e-09 2.1858038040830819e-10
898 -6.881296678515098e-13 -3.593731160176733e-13 3.4781091171001897e-13 -1.043774425386944e-09 -2.593200868042697e-11 -7.495347062696379e-10
899 5.351792577222378e-13 -2.167798958511149e-12 2.014833547961504e-12 1.6097672292051326e-09 2.530641341605265e-09 1.471356340024592e-10
900 -2.068763598590161e-13 -5.745804973656632e-13 1.88864781756148e-12 3.5343051988515582e-09 -4.6809482098701e-09 3.58884449980635e-09
901 5.73421434848812e-12 1.0832728922695098e-12 8.656345105445796e-12 -1.8092521461169065e-09 6.168316290317335e-09 1.3708901882023202e-08
902 -1.8312866479979132e-13 -8.416264324049247e-13 -1.8156192976015429e-12 -6.173470541193209e-11 -2.581119601188522e-09 -2.853836811348637e-09
903 1.5563858724462762e-12 1.2873284816398307e-13 -9.434967357468641e-13 1.0166441584267916e-09 1.4752374451865368e-10 2.5417905450190345e-10
904 2.6489844647293724e-13 7.491036444218217e-13 -7.487476657599022e-13 -6.533500214006033e-10 -7.270136373472663e-10 -7.78016925324242e-10
905 1.083845010398333e-12 -1.084208582415319e-12 -1.3625054833471836e-12 1.1947881729188554e-09 2.3151101426553158e-10 1.2639291698999012e-11
906 7.222084990601476e-13 -1.0841022127737894e-12 2.3991797576900968e-12 -4.5668373043551565e-10 -2.2365385714614472e-09 5.293242261540385e-10
907 5.42157583003813e-13 -7.266206690523283e-13 1.8666804994341125e-12 -1.4185305396699438e-09 -1.569283560090118e-09 -1.8192447620326492e-09
908 2.166511078329527e-12 -4.737344685581243e-13 1.7794136914902301e-12 1.319414884213021e-09 -1.563210843439824e-09 -1.8308923976354348e-10
909 1.2955057863307365e-14 -1.27783883838358e-13 1.1325057708238682e-12 1.2599142240823955e-09 -5.823763573273114e-10 2.559223345286013e-10
910 2.7105152285340857e-13 -2.9684174236302655e-13 2.4249613145235436e-12 1.8507144527605444e-09 -1.965008159951488e-09 -4.665836328962179e-10
911 -1.0278886077937187e-12 5.421306504123473e-13 -2.7552927304832555e-12 -3.5064963260616287e-09 2.3556107332736485e-10 -3.055558857577452e-11
912 -1.384910080401184e-12 -1.0553602160339563e-12 -9.53482917619656e-13 9.962693788906838e-10 -7.440906284372537e-10 -1.0232115264283351e-10
913 -6.444535494714483e-13 2.689565853434283e-13 -2.381769730038436e-12 -1.341526066825547e-09 -3.5127162304445716e-10 -7.810877251116421e-10
914 -5.772850723463881e-14 2.4560207042432773e-13 1.0545868728471193e-12 -1.4878213033813222e-09 -1.7205112422401114e-09 -8.954328079981042e-11
915 2.1421840862632374e-12 -1.0289794659353712e-12 8.088700613040452e-13 -8.688621003726604e-10 -5.542457997890408e-10 9.161249160495885e-10
916 -5.704602792678535e-13 -3.926455407884187e-13 1.9255762039548254e-13 1.8283762233112323e-09 8.668812607303392e-10 -5.4419916882013165e-09
917 -2.363360501199424e-13 -5.421560523041434e-13 -2.0624178898182415e-12 -1.3971206681876534e-09 3.963465075801986e-10 -7.830862477690727e-10
918 -1.3472290261380072e-12 -1.0833559793540231e-12 1.4666118723714745e-12 1.4140136016230566e-09 -5.525069904507832e-10 1.7984594297678765e-09
919 -2.7477011897510825e-13 9.944448190198534e-13 9.096474881187925e-13 -2.1584949551221638e-10 -2.3039711091829007e-09 -3.0672180710498697e-10
920 1.1372857949312346e-12 -5.333778866306853e-13 -7.151982620693217e-13 -1.4579477594744432e-11 8.875915176489926e-10 -3.868620146961745e-10
921 1.6274691607820438e-13 6.109544175633957e-13 3.0797916540130424e-12 5.339840095593926e-09 1.5291212023211591e-09 -1.8643478344310536e-09
922 3.2785184009879695e-14 -1.0837870588659683e-12 4.823526841689932e-12 1.613625842613109e-10 2.4582582426792063e-09 -1.7820063066708373e-09
923 1.0513961513569128e-12 -2.1075667889696525e-13 6.826433581544186e-13 1.004778982291974e-09 1.28343669331189e-09 -4.4599210261192104e-10
924 1.6389046522521164e-12 2.162230953933557e-13 1.0213748453820734e-13 8.982130832187378e-10 2.7841204858792736e-09 -1.0980979407554596e-09
925 1.1608582441134705e-13 1.2398119161945954e-13 2.798950305977568e-13 -1.1099310608851057e-09 3.85387556251865e-09 7.819901162052267e-11
926 1.0173793087060429e-12 -2.163231628227797e-12 3.51354481149804e-12 2.684310213582162e-09 8.047121640873343e-09 2.693311802946542e-09
927 -5.421190426608507e-13 -2.167194534669125e-12 4.061605586301597e-12 7.600282788756823e-10 -2.1091785780035514e-09 2.6677459978253115e-09
928 5.407962353135959e-13 1.1862923800948761e-12 -7.949712739419128e-13 5.264999211867071e-09 2.154509853469289e-10 -2.992290543519459e-09
929 -4.879854108065826e-14 -1.3154288796506664e-12 1.8084780992552146e-12 -3.370663147597774e-10 3.8848442989018844e-10 -9.895597011407885e-10
930 2.163050756667825e-12 -9.464033746556752e-13 -3.124232158452344e-13 5.272789984392775e-10 -1.4933313361567496e-10 2.2480292592501667e-09
931 1.0835679542632427e-12 2.1396720039028982e-13 -6.691083981889523e-12 5.450003052239736e-09 -1.6514421717010723e-09 -2.2508282878693878e-10
932 -5.420304972031015e-13 -1.2591645212155724e-12 -1.2327088017970384e-12 -1.621372148783681e-09 -2.2173120819187968e-10 4.176633526593246e-10
933 1.4071193451420248e-14 -3.8183213493002125e-13 2.5760504190602357e-12 -1.4611908791595547e-09 3.8347044427061704e-10 2.7279514563743364e-09
934 1.3561319254001045e-13 3.144781541634506e-14 3.9272769457312717e-13 -5.759701473053511e-10 -2.3339942197799904e-10 -4.314980512916284e-10
935 8.104220659390753e-13 -8.871236223791243e-13 -5.347445493474922e-12 1.226831359286908e-09 5.742638897711326e-09 -2.0860054129483157e-09
936 8.714555725973638e-13 -7.035903103684106e-13 -1.230757744274782e-13 9.81746510097121e-10 -1.7267716102706733e-09 5.839867615073935e-10
937 -2.7009869746881176e-13 -1.59715835584303e-12 2.0942995042517136e-14 4.017644688562521e-10 -1.0635200756699291e-09 -1.0763514431916645e-09
938 1.979721922813619e-12 -1.6570018194270562e-12 1.8608251391019758e-13 -6.212610119849939e-10 3.9141834824559694e-10 4.890887043244988e-10
939 7.785202896377581e-13 -4.659461310764227e-13 -1.167266667336774e-12 -5.242056126032666e-10 -1.7521020497074773e-10 -1.4716499103021947e-09
940 6.839615458979677e-14 -7.455383037784074e-15 -7.550556960153809e-13 -4.196775171925907e-09 1.556722448544339e-10 1.8946857936045295e-10
941 1.0342290290458147e-12 -5.141983912162027e-13 -1.0019340095813177e-12 1.6392504113870493e-11 -3.9434381621079006e-10 2.6552490733324067e-10
942 1.084170240371687e-12 -1.2991806404713726e-13 2.073971100984895e-12 -4.5819727217324365e-09 -1.932907617366741e-09 4.030130331865209e-09
943 -1.0611394212873074e-12 -1.3413629598870998e-12 9.929599996606635e-13 -1.0763959792015004e-09 -9.820081282327199e-10 8.017089670228628e-10
944 1.0274387948630885e-12 -2.711805656247619e-13 9.490634244708244e-14 -8.013935087143534e-10 -6.929619533332894e-10 -1.539541853063532e-10
945 -1.3565773818471635e-13 1.9233288272608565e-13 -3.695444215049311e-13 -3.433128524817907e-09 1.560528639549838e-10 1.1034408701068143e-09
946 -5.421550829280157e-13 2.9081537675823926e-13 -5.060939864042463e-13 4.599023216417182e-10 4.893162428131967e-10 -5.821599093518535e-10
947 1.082794352680639e-12 1.1321133846276283e-12 1.272404942410826e-12 -1.930400915818978e-09 5.9306498315551e-10 -1.1208998525642403e-09
948 4.556618572657664e-13 -5.41930571124058e-13 -5.282080473081243e-13 1.414346835613363e-10 6.890198261786753e-11 -1.6189855361280535e-10
949 1.0838311900775492e-12 5.42020709035285e-13 -1.7030963730049242e-12 2.303176806795675e-10 1.5689425302661105e-10 -1.1912728072310458e-10
950 1.0842262743103729e-12 6.008308246239533e-13 3.680118001616796e-12 6.048423898477287e-10 -3.8429627798385105e-09 -1.1136910215667784e-09
951 2.7109172049164927e-13 2.2857233172005173e-13 3.9587513483666795e-13 -1.0887343217209053e-09 2.0304219709424176e-09 5.304858795992509e-10
952 -6.114464840448461e-13 8.605198686782704e-13 4.9762832213512176e-12 -7.875508624512553e-10 3.8167645602287556e-09 -1.8110844660109291e-09
953 -4.735844553430711e-13 9.260685233265432e-15 -5.903447843334885e-13 2.283254833302385e-09 -2.211925207667048e-09 -9.741527850214718e-10
954 -1.2039355465105449e-14 -9.092630909203902e-13 -2.8228237210991083e-12 -9.058420848339978e-10 -5.681625799292717e-09 3.915892701693734e-09
955 2.168266481006253e-12 5.448802779764813e-13 5.100391306491698e-12 -7.047111361611154e-10 4.881587667367321e-09 6.618151153956482e-09
956 -5.222424041349721e-14 1.8030239998276573e-14 -1.4388230520479183e-12 3.2437826051175434e-10 1.7639673570322574e-09 1.6089138131797088e-10
957 1.7122230015585574e-12 9.965167878043143e-14 2.6026760206108566e-12 -4.3361886435388365e-09 -2.9084035571288103e-09 8.689946497626902e-10
958 1.0841922195887817e-12 -2.0078658399439112e-13 -6.837082527940969e-13 -8.949171966773723e-11 -4.086169978683564e-09 -1.537302106142422e-09
959 4.036172452777357e-14 -9.384650175534264e-13 -7.069647874796509e-13 -1.2524534346389084e-09 -7.500170116216533e-11 6.734933624310081e-10
960 -8.706024036604278e-13 -2.1485828128498894e-12 1.2488639183317006e-13 -3.4535933802294976e-09 -1.4751939791295033e-10 1.8711975288476153e-09
961 -9.170861034070498e-13 1.2217231849646593e-12 -1.1393544664851594e-12 2.822905793363656e-09 1.454259834786406e-09 -1.8525598063803545e-09
962 1.9568279764873677e-13 1.0842077703949323e-12 8.7582871557599e-13 2.2460542365639332e-10 -1.5800978561734302e-09 -9.567860430154854e-10
963 2.560086781720698e-13 1.2313528431236535e-12 1.2626452376661799e-12 -1.632387270180618e-09 -4.4371721528080336e-10 1.4372723638930342e-10
964 -3.315393089510914e-13 -3.689548105714699e-13 1.8090694411613315e-13 -1.1017913057853121e-09 6.084677912161648e-10 -5.950599662244908e-10
965 7.758495321509583e-13 -5.387364373094314e-13 -2.107538239368441e-12 -3.541265918376063e-09 1.0367393861254784e-09 -2.3687255086271e-09
966 -1.3195844161278234e-12 -1.9885768545832904e-12 -9.754397525997543e-13 -2.9732260633863797e-09 -9.980883605690134e-10 -5.208450172515596e-10
967 -4.944581405771877e-13 2.1675833035702273e-12 1.3652559392820848e-12 -2.163301664149208e-09 -1.4017257137731147e-09 3.872227507782528e-10
968 5.416868356339177e-13 -1.3429462319988506e-12 1.9744253640602794e-12 -2.652960497684044e-09 8.211896609623438e-10 1.2971557682102784e-09
969 1.6866640671043895e-12 -1.6736836620020533e-13 -1.5205801540007486e-12 -8.473841276287931e-10 -7.761392644899041e-11 -1.0631918371818642e-11
970 -4.4623879964013083e-13 -1.0839375948859233e-12 -1.9373458081872225e-12 3.528110533967939e-09 -4.755599360499885e-09 -1.8306001834338356e-09
971 2.2287086573881704e-13 1.93979054044653e-13 -2.7374068926615218e-12 -8.850652961241886e-11 1.8172034546337423e-09 1.3499109218307373e-10
972 -6.259784995626616e-13 -1.7653527335302832e-12 3.532918099146513e-12 -8.995003755562844e-10 -4.827369928752588e-09 1.928861447995238e-10
973 -4.543600923644825e-13 -1.5686676196562031e-13 8.815045773434059e-13 4.6189084453399926e-10 -5.143226250866045e-11 2.719347199003315e-10
974 6.975162747178374e-14 1.5431674715555863e-13 -5.588804918769676e-13 4.169412437949833e-10 -1.424077725410491e-09 5.249615805594136e-12
975 -7.587239050976725e-13 2.165476782394388e-12 1.2487561163221863e-12 3.243320230064619e-09 -1.041332236213785e-09 -1.2423689759212036e-09
976 -5.420390453811227e-13 6.713586026365093e-13 4.566505689687395e-13 -1.0797532437070133e-09 -1.944718618505873e-09 -9.125736129040727e-10
977 -2.39528570404959e-14 9.558587447040153e-13 -2.94284460422648e-12 1.96658523365555e-09 2.721879788353708e-09 1.0999664347773195e-09
978 1.0842420008561715e-12 4.454976302868177e-13 7.930680808897641e-13 1.8041829110646374e-10 -1.1386452601641674e-09 -9.675490493227255e-10
979 9.626071232717322e-13 -4.67663176715337e-13 -5.315754616160773e-13 -6.184255016238162e-10 6.665895497156228e-11 -8.321003453339939e-10
980 -1.2822037289024964e-13 -4.4718712207211177e-13 7.129724047892261e-13 -3.708244039381296e-10 -5.225814184450261e-10 -8.504070149978201e-10
981 -7.383353814693112e-13 7.449011531224183e-13 -1.5835319371335872e-12 9.147712898783337e-10 1.7693074315198704e-09 4.499138307253736e-10
982 -1.0838346199304623e-12 2.0634093014541443e-12 -3.8060544292343864e-13 4.771796977124535e-10 -2.622436797530412e-10 2.6680225085611514e-09
983 -2.690257960348398e-13 -3.893106163247742e-13 -4.554455733473692e-13 3.7597168682675834e-10 3.426148282701206e-09 1.8596632249512885e-09
984 -2.5708740153126654e-13 2.708552033671859e-13 -8.389675242064269e-13 -2.412317360609512e-09 -2.9795115040207354e-09 1.475462844469607e-09
985 -8.486851189289973e-13 3.698485385951073e-13 -2.4789568689662893e-12 -6.563762347096302e-09 -2.0171926273214176e-09 6.352502146302359e-10
986 -9.803811860900674e-13 5.418345471909343e-13 -1.1380480604879254e-12 1.5354057209155944e-09 2.014319650471113e-09 -2.4417489518691546e-09
987 3.336637674752971e-13 2.4921960080359536e-13 -3.566580998129087e-13 9.615424100933421e-10 -2.3150708992577247e-11 4.989396043333966e-10
988 5.419997369741575e-13 1.0636146223182227e-13 1.5480635261686295e-12 1.605078771403809e-09 -2.9047064757440445e-09 -2.7412355264661625e-10
989 1.7780228404080055e-12 1.9552190239113017e-13 3.660918878770063e-13 -3.7610413954480795e-10 1.0167248892790412e-09 4.4282097540686035e-11
990 7.350995144759326e-13 -2.1652619240211884e-12 6.254403489547561e-12 3.523608437131838e-09 -1.0681372190592835e-08 -1.929927836527583e-09
991 -1.0842729105750728e-12 -1.3439874650244136e-12 9.492227262881155e-13 1.250004522023153e-09 -4.512984556603306e-09 4.267079301428738e-10
992 -4.061635244890113e-13 7.508064312736123e-14 -4.807119126391099e-13 9.767323401605893e-10 -7.506883415303821e-10 7.071442933364815e-11
993 -1.432160008446442e-13 3.5323746076227646e-13 2.120537653453452e-12 -9.501903508545203e-11 2.934810374582233e-09 -4.158421419301503e-10
994 -5.420749435419086e-13 2.7128253002770163e-13 -4.3336402700597764e-13 -7.418575136682457e-10 1.0412686021974862e-09 6.873802747856122e-10
995 -1.956213809073095e-12 -5.420915899414735e-13 1.6133788551554675e-12 -3.7733325158657925e-09 -7.43889733699795e-09 -2.4036887884240245e-10
996 2.2147683452256336e-13 7.076628053667287e-13 -8.566764704144833e-13 1.1515825889064588e-09 -1.6814817150232437e-09 3.5005984887868826e-10
997 1.479635920486529e-13 -1.3525619005624644e-12 1.3343743750655054e-12 1.1326797703984503e-09 3.3313453406799555e-10 -1.351655201586587e-09
998 2.6963729733383044e-13 -4.3104497915727585e-14 -1.0330713675211924e-12 1.8313009639878952e-09 1.8467969555579747e-09 1.4337153762101324e-09
999 -7.147283114364556e-13 1.958918880363397e-12 2.845606129026365e-13 3.564651330189125e-09 -2.824295559891361e-09 -1.0970582828223544e-09
1000 1.0663935561902343e-12 7.341892425326377e-13 1.641254286134339e-15 3.302759812661517e-09 2.6554334207708787e-09 2.4742153600346156e-09
1001 8.962902395114575e-13 -1.073611319417926e-12 1.3662931925912305e-12 -6.887474825388084e-10 1.6372412749655788e-09 2.1208154823497995e-09
1002 1.8723175892808716e-13 5.419925959270556e-13 3.0386371154467065e-12 -2.3744597081228102e-09 3.5930273997610974e-09 -2.536467596300005e-10
1003 -1.084179928838361e-12 -1.9399177558696567e-12 1.8053849963533135e-12 -2.7136823712185724e-09 4.054380874139648e-09 -1.8228390223204315e-09
1004 1.2611417044046196e-13 -2.1613624075052914e-12 1.9935263781980174e-12 7.81749704867644e-10 1.409550480911076e-09 3.352616124734999e-10
1005 -2.695736062296658e-13 1.3630118478668061e-12 -5.931375817879716e-14 1.3589288436866007e-10 1.4321445773862988e-09 -5.235313510202654e-10
1006 -2.168298136939353e-12 -2.709077035711112e-13 -2.504641169461121e-13 -1.3997433636236062e-09 -2.0762972378386578e-09 6.571753992544581e-10
1007 -2.8700491083526534e-13 -1.7600007161358336e-12 5.391598768948627e-13 -4.821920426608954e-10 -2.583143065146004e-09 -8.197626322841936e-10
1008 -1.1071002203199526e-12 -2.607839618476347e-13 6.050291725884495e-14 1.584845280652309e-09 3.509058483254132e-10 7.130232685689284e-11
1009 5.420947727769947e-13 -9.95946495503625e-13 -5.988430758828877e-12 5.669372742948051e-09 -2.4427217236485082e-09 2.953231637289341e-09
1010 -1.0597127624485063e-12 1.0826573433339682e-12 7.656110652437647e-13 -7.373062913398144e-09 -3.8810667577391746e-10 -2.747894926214145e-09
1011 -9.710534082002531e-13 -2.1676506542843625e-12 2.7500452700917867e-13 -1.0732972886206734e-09 -1.8929438065212288e-09 3.589538506915773e-10
1012 -5.421547786184935e-13 -8.99070869446084e-13 9.310695274911758e-14 -1.9719576764010298e-10 -5.010678566080541e-10 6.987254070963549e-10
1013 -1.7301077893945746e-14 9.661204066958045e-13 -3.6221506369362614e-14 2.580198532298645e-10 -1.639910190584177e-09 1.50623968467494e-10
1014 -1.3325868740175597e-13 -8.138889343074847e-15 1.5746499498482771e-12 -9.610342067387344e-10 8.408467725512512e-10 1.1628289042914267e-09
1015 -2.3371839537488506e-14 -2.4667793898171775e-13 -4.299425897783144e-13 -5.382748269797993e-10 -3.094506795397392e-10 8.721108362184155e-10
1016 1.2855804537926899e-12 -2.1677457048023827e-12 5.948750334406918e-12 6.598252438133112e-09 -1.2989965822156663e-08 -6.787129356816578e-09
1017 1.4983429497985027e-12 6.657299915593125e-13 3.6169001912188814e-12 7.477840872575892e-11 -2.8861438236679027e-09 3.1700414703970083e-09
1018 1.695155099552558e-13 -1.083866280762988e-12 -4.648894983865971e-13 -7.959833055140927e-11 -2.2164083370123823e-09 -1.0457551439903176e-09
1019 -5.416587533742418e-13 -3.412306782725762e-14 -5.873439470557179e-13 8.359390303193998e-10 2.40540940916908e-09 1.241549511295598e-09
1020 4.094983975277355e-14 1.0672451436021725e-12 -3.8963669225295564e-14 4.016195040379685e-09 -2.7736692466346663e-10 -5.433168915654665e-11
1021 1.9973251721861654e-12 -3.6429545084863725e-13 1.9029392587770826e-12 -2.8913712142826043e-09 7.880966521693355e-10 1.8263445480425953e-09
1022 -5.656831895096245e-13 -2.1663820607442173e-12 5.116183575662209e-12 2.7720044272326884e-09 -4.2224126572904834e-09 -2.4731967693297666e-09
1023 -2.647688105507575e-13 -9.458398460499638e-13 -1.2934513366540005e-12 -7.13893168782995e-10 1.6826295812197889e-09 -5.491809799271393e-10
1024 -1.6005066304486028e-12 7.434660821467525e-13 7.038537636178731e-13 -3.979940754456874e-09 3.756572715399528e-09 3.3209580201801244e-10
1025 -2.705924299113171e-13 -4.604109415482753e-14 1.1116277799754709e-12 -6.83023958090889e-11 -7.141086273884519e-11 -2.8276746499341913e-10
1026 -1.084070744408815e-12 -1.156280346797165e-12 6.860281582065978e-13 8.311089959109375e-10 1.139698160909804e-09 1.2340518685117358e-09
1027 8.234601380880176e-13 -4.606228997231221e-13 -1.3809143255879298e-13 3.774270245230187e-10 -8.145468912672773e-11 -1.1866550133646446e-09
1028 1.0839099860049891e-12 -5.415218792529746e-13 2.7484664611844313e-12 -2.261070847540683e-09 2.2713195710480944e-09 2.2394802062630214e-09
1029 -9.11253159281926e-13 -5.420079727995975e-13 -5.260724213564286e-13 -1.1801353102149729e-09 -1.3077721187266651e-09 -1.1880847897239571e-09
1030 1.0289561668293229e-12 4.687446347932257e-13 1.0630622765530453e-12 -6.7449703548932215e-12 1.6412711445077393e-09 1.2217296543181886e-09
1031 -4.904825961375615e-13 1.9645030764162303e-14 1.1833333267419342e-12 1.5900576442996573e-09 -1.3073807337053837e-09 4.794097297158611e-10
1032 1.3582810979709076e-12 1.976788254717973e-14 1.833531280062718e-13 -1.2206972242939733e-09 -1.53636946294396e-10 1.2281160361078399e-11
1033 2.698285940911761e-13 -2.1682787068031572e-12 1.738719686609433e-12 4.4935986954396274e-09 -2.2298701182378613e-09 1.072986819717871e-09
1034 2.471109530151944e-13 -1.0836444220306596e-12 2.41545372956742e-13 7.471871286291213e-10 1.36846236969104e-10 -2.4429675350105856e-09
1035 5.420701255654368e-13 5.820639685510899e-13 -2.6025715830528913e-13 -1.7210513248549298e-10 2.117940531802022e-09 8.908069074725828e-10
1036 1.0262143803233096e-12 -2.7107985342245605e-13 -3.233213260729078e-12 1.537677639136426e-09 3.8045015439337033e-10 -5.081535076760322e-10
1037 -8.511268745434636e-13 -1.0826244668253868e-12 4.431065517505627e-12 -2.6935466411746908e-09 6.8710425588471874e-12 -4.665800373103246e-10
1038 -1.0836322593990364e-12 5.419884074409848e-13 4.677561419112962e-12 -4.26886503829243e-10 1.5189030709572223e-09 -3.063679557967897e-09
1039 5.585258362376754e-13 -1.052818877507502e-12 5.15371915041195e-13 9.47930737590063e-10 -1.9096805809485157e-09 -2.3437418774088548e-09
1040 -2.7109063584511454e-13 -6.09471546529345e-13 4.873661530172309e-12 9.360933807846559e-10 -8.153414802520182e-10 1.1229069846026087e-09
1041 1.3315539619670243e-13 6.927579215229199e-13 4.619056424817625e-13 -9.547154599944363e-11 1.0840985995653298e-09 -1.5118655563866732e-10
1042 2.1661036522278623e-12 -1.0841099390996208e-12 -1.6212752716952188e-12 -3.4318960624355555e-09 3.219573398484321e-09 -8.040849157667928e-10
1043 6.341210665290442e-13 -5.419668139036834e-13 1.1637116474907509e-12 -2.2931264770930158e-10 2.6059154812567204e-09 -1.2233278118883337e-10
1044 -1.5714382349375342e-12 4.3652084650936065e-13 4.502246574340639e-12 2.2211930239000313e-09 5.950682914648549e-10 -4.314779145646681e-09
1045 -2.570378344803503e-13 2.0485168882609097e-12 -1.984827475265552e-12 2.9002243717217896e-09 5.251671908390638e-09 2.1633552128229265e-09
1046 1.174707262504323e-12 -5.556621567889566e-13 -6.52473561799978e-13 1.09039546741678e-10 8.943798671986975e-10 -1.9588437412484388e-11
1047 1.0828679257345281e-12 5.786109505159974e-13 1.2014217703051054e-12 -4.492627711412199e-10 -2.29926556107249e-09 1.7906633488042173e-09
1048 -1.7030245942623604e-12 3.1748108797645396e-13 -1.3087187679281359e-12 1.2302061663739443e-09 -1.3190819483653165e-10 2.578051829110395e-09
1049 1.0840872598670345e-12 -8.586929958074691e-14 -5.658293536560931e-13 -4.0258559939843145e-09 -9.166395671500666e-10 1.9526097569933566e-09
1050 -3.922585822169985e-13 -1.0835121445878943e-12 -3.5268718451298086e-13 -1.0212537577124533e-10 4.3793494776085965e-10 -1.0589764978592503e-09
1051 -2.2081328919909474e-13 2.710395936870973e-13 -8.536904722681738e-13 -1.2013894889208003e-09 -2.3823732766171374e-09 -1.82019625594039e-09
1052 2.6920013856043336e-13 -1.3117925508717425e-13 -1.378610126958442e-12 -6.537067016692806e-10 8.279808618902262e-10 5.635463027088436e-10
1053 -1.291003386441501e-12 5.169842006701215e-13 2.506889057270417e-13 5.352310967484726e-10 -7.643940091011816e-11 -1.6371633746115157e-10
1054 -1.3407473978554803e-13 -6.645334189768791e-13 2.0166656862594777e-13 -1.994091573802594e-09 1.6404248863952148e-09 -3.0526039431539207e-09
1055 -1.0841476154983714e-12 7.260486456310977e-14 4.953755880504723e-13 -2.674640443552042e-10 2.075943546664991e-09 1.2784978807690247e-10
1056 -1.4693040172314244e-13 1.083808864113263e-12 -2.617909610792625e-12 -1.6067155921105714e-09 -3.675066638450777e-09 -1.1463266310207828e-09
1057 2.172156027927829e-13 -2.165407682825527e-12 1.1149902174871646e-12 9.480909486518435e-10 -2.5196921445807555e-09 1.604906970339085e-09
1058 2.7128934538261646e-13 1.3368895891299874e-13 2.8080607512048977e-12 3.162600780319323e-10 -2.0168484442312573e-09 1.5771403936044558e-10
1059 -1.967332289577198e-12 -5.260793059181679e-13 7.115123819167015e-13 1.8385487018126236e-09 -1.2474936080700854e-09 8.878577885665606e-10
1060 5.419672975652271e-13 5.419589238686169e-13 -1.6943689821092682e-12 -8.74345465671777e-10 1.3160103582943795e-09 1.4731346371749005e-09
1061 -5.507708418051357e-13 -7.343365556900345e-13 2.2160063801498693e-12 3.186651413041118e-09 -2.3957338523783324e-09 -1.6713194847992038e-09
1062 -2.9652352907712984e-14 -7.854394597254926e-14 -3.630921372679431e-12 2.289861327245707e-09 5.472639423104665e-10 -6.975937981401338e-09
1063 5.419349829699797e-13 1.2817117293720784e-13 -5.786915502720311e-13 2.77208097192718e-10 -1.3396511820054617e-09 3.5820023394089286e-10
1064 -1.1290232330084162e-13 -1.578382553360172e-13 2.533487068209628e-13 2.7399509469077807e-10 2.6873333267237045e-10 1.82137270751173e-10
1065 2.354898701817334e-13 2.0114061602382004e-13 3.3861037608836948e-12 -3.101304446999472e-09 -6.813897788938288e-10 -3.751197890126531e-09
1066 5.6807249181971584e-14 -6.887453519250814e-13 -5.766238870015634e-13 2.6726404875715035e-09 -3.6988272436094037e-09 -3.2926562798433416e-10
1067 -1.5974692895837183e-12 -2.70290112559261e-13 9.5893155909018e-13 -4.863670025115788e-10 2.933455144158708e-09 1.465853700523108e-10
1068 3.656161928742229e-14 1.311824753098535e-12 -1.705252699420203e-12 1.3679243760068555e-09 1.8749084011668694e-09 1.0152286652437476e-09
1069 -1.18920356585239e-12 3.5835500419792676e-13 1.657522098940969e-12 2.3932790881935787e-09 -7.728909665218839e-09 2.8584555283457585e-09
1070 -1.829387482075674e-13 -7.996815030027395e-13 -1.9375949681299844e-12 9.844040036078982e-10 1.2742514792110672e-09 -5.935428156351775e-10
1071 8.80603063242086e-13 -2.027525561677454e-13 4.615894320994613e-13 7.352017296841228e-10 3.9378190901570107e-10 -3.68685221061776e-10
1072 2.168070994163161e-12 5.408371545717331e-13 -1.268709870574284e-12 1.4563449214777647e-09 -1.9071086514968834e-09 -1.271021899407061e-09
1073 1.083932804155402e-12 -1.677962739042307e-12 6.848841774343413e-13 7.273932135981199e-11 -1.202673787034389e-09 -1.164254365774443e-09
1074 -1.5611419550103367e-13 -5.412148564246991e-13 1.771031797674161e-13 -4.128128357816919e-10 1.0042263022753067e-09 1.4426034538338877e-09
1075 3.306647988126499e-13 2.1378880084069197e-13 -6.040065199922912e-13 1.2308277318229382e-09 6.772818085985894e-11 1.5681681052554286e-10
1076 -1.916433859943727e-12 -1.9996391528037747e-13 3.173291707024392e-12 4.547290974772574e-09 1.2414637222769249e-09 2.453424074128245e-09
1077 5.088429340779328e-13 2.4712015950224183e-13 -6.450024111267827e-13 -5.868681595843413e-10 -1.680604527912482e-10 -9.402927528016612e-11
1078 2.1676244142766294e-12 -9.778475491036805e-13 -1.063481140761178e-12 1.80651361433474e-09 2.1229989655979813e-09 -4.182230746578145e-11
1079 1.9837917455037166e-12 -1.1514884436731848e-13 3.362455748517908e-12 -7.808912815516493e-10 3.2027253858150378e-09 6.006759301996803e-10
1080 -1.0830338067071627e-12 2.704143389024915e-13 -4.8563125046689e-13 -4.741129209649249e-11 1.9153571185781368e-09 -4.461596992843706e-10
1081 2.1683997824139243e-12 -8.6484027001814e-13 -1.18168594647108e-12 -1.2558309562456323e-09 -8.855206580841453e-10 -2.102887144302438e-09
1082 2.1675024195292217e-12 -9.03437610464316e-14 -7.306883859802688e-13 9.322805537619225e-10 -8.38092922859242e-10 2.703633220415276e-10
1083 -9.721785230987518e-13 1.041264369296262e-12 -8.510439241483846e-13 -4.111965347007069e-09 1.555444401501025e-09 -1.3770026852016622e-10
1084 9.653891016261608e-13 2.141473726967901e-12 3.0207400674493536e-12 -1.7430128807014076e-09 1.7454010918062133e-09 1.2161580952712006e-09
1085 1.0840220576419394e-12 -7.555401744017759e-13 -3.42371552133439e-15 7.68876221783994e-10 -2.1922515850670828e-09 9.73564636813155e-10
1086 5.396400352099615e-13 1.1793427325332232e-14 9.305198843612915e-13 -2.4464796446359835e-10 1.2393978385356816e-09 1.965208846413387e-09
1087 -9.602739290047997e-13 -1.350831105328136e-13 -8.342415314123052e-13 -3.089452002537444e-09 6.695259460169798e-09 2.114286367503344e-09
1088 1.0817590492788282e-12 5.412780592216361e-13 -3.148396690183557e-12 1.3331400893818814e-09 6.252322045891435e-10 -1.2544351623124463e-09
1089 -1.1783112714721898e-12 1.6325899344559715e-12 8.787624893101094e-13 -2.218968872433056e-09 -1.201019414945675e-09 -2.324229431830508e-09
1090 5.419081823707647e-13 2.164404165930854e-12 2.480101676933556e-12 -4.7197107013506e-09 -9.010528364666016e-10 -3.1387076394197837e-09
1091 -5.052410607034959e-14 -3.1568310071304937e-13 -6.73525834004869e-13 -1.4749207035575894e-09 1.677979397688587e-11 -6.997219854287489e-10
1092 1.0840511923120655e-12 -2.5063927410118765e-13 2.428182835314643e-13 -1.6567421353618358e-09 2.6049473150426427e-09 -7.016698618613958e-10
1093 6.936502724477732e-13 -2.165591513754929e-12 3.178671549685631e-12 -3.3096812527395265e-11 -1.1260103839204448e-09 1.6075428260502742e-09
1094 7.019056145488643e-13 5.424856066117502e-13 7.854593666362186e-14 -5.621315524008937e-10 9.532155717901504e-11 3.942733364045259e-11
1095 -5.350554246173713e-13 -1.0840898729933453e-12 1.4906386345385046e-12 7.919539584531832e-11 -6.064361575598151e-10 -1.6695419607790503e-10
1096 1.928239667399794e-12 8.403558408441742e-14 4.847453591564792e-12 1.6599974694709208e-09 -1.7301484390446807e-10 -3.0751315773613533e-09
1097 2.1676398508711146e-12 6.512753790362922e-13 -2.937016904878304e-13 -7.645215637743727e-10 -1.0720980848376216e-10 -1.2703324114736213e-09
1098 -9.999696038746074e-14 5.314538681329037e-13 -1.7643915196315732e-13 2.826828448693025e-10 -2.9249342682053074e-10 -2.3144014149829042e-10
1099 1.0200946116012252e-12 -1.7845437442084973e-12 8.183674748294126e-14 -1.2944700711296645e-09 4.1708693301146525e-10 -2.1205990339205522e-10
1100 3.1464479084218903e-13 -1.0842606088864395e-12 -1.1461589618445763e-12 2.350381663804253e-09 -3.968985593494834e-09 3.0201186988657563e-10
1101 6.790561494310206e-14 -3.930395063611962e-13 -3.6657429564431815e-13 1.019175306173047e-09 -2.1050691668529606e-09 -1.513227881151821e-09
1102 5.768116059187712e-13 -5.420956637308215e-13 -1.2057385236032411e-12 3.6718981804322493e-09 -1.9063803226324444e-09 1.3196143039766103e-09
1103 5.970816078522594e-14 2.147710762266523e-12 4.384481813641337e-12 3.5401079167077822e-09 4.053544758090251e-09 -9.040859970756003e-10
1104 -8.53117638064004e-13 3.671828469134684e-13 -4.906440239824406e-13 -1.5162500531268593e-10 -2.93505280632399e-09 -1.962436313023146e-09
1105 8.525171131665111e-13 5.420946605485811e-13 2.118853528002006e-12 -2.1616791580052443e-09 2.366539958929191e-09 9.311293935434622e-11
1106 1.4411281123928305e-13 2.167063659471662e-12 3.369197320298419e-12 4.345597012898912e-09 -7.224613121236559e-09 -1.1830173537639307e-10
1107 5.74495356637892e-14 -1.084019016127098e-12 3.474771207001947e-13 -1.0617941368149032e-09 8.556986397236008e-10 -2.3957280814881946e-10
1108 6.108285949067441e-13 -2.164489709485132e-12 8.258826476527634e-12 -1.5566260159802563e-09 5.314985115635968e-09 4.001346493171877e-09
1109 5.515845038244498e-13 -2.1445632928427687e-13 5.279893653736381e-12 2.7795931668560145e-09 1.1719072399780353e-09 -1.48545578400848e-09
1110 -1.4364542593642397e-13 2.0632693754186215e-13 5.209079783114408e-13 -1.0448908174238629e-09 5.983025805835163e-11 -6.881858923430179e-10
1111 1.780709646929549e-12 1.7528535955744482e-13 2.2642290107311972e-13 9.646086007246226e-11 3.571911148738533e-10 -3.136904427697832e-11
1112 2.1649705621328854e-12 -2.701868885207076e-13 -1.4270034693348537e-12 2.3503166702250044e-09 2.1979696509328413e-09 -2.941532061625874e-10
1113 5.402018116165461e-13 6.476427139651691e-14 2.3171402975698065e-12 1.9366780306791664e-10 3.0590097986638573e-09 2.1026627222237317e-10
1114 1.3162289449045878e-12 9.911476307057116e-13 -8.3055834195827e-13 -5.256114277083033e-09 4.272813995889434e-10 -2.1117152666813266e-09
1115 1.083396853523821e-12 -1.0378538310315184e-12 1.4536322153875861e-12 -8.198886087020748e-10 8.968767876393822e-10 -5.16486951505068e-10
1116 -2.1673454664238474e-12 -5.40709258085779e-13 5.3288578745149886e-12 4.24021643972026e-09 7.705117799974954e-09 9.876519856018882e-11
1117 -1.0305499519636576e-12 -1.4438623574978228e-12 -4.0109341072554044e-12 -5.701138618697841e-10 1.0951578188684392e-09 -6.909649711087465e-10
1118 -8.117713248838483e-14 2.9575578766820005e-14 -1.847756987562102e-12 2.1492384008597507e-09 -3.5145958888732885e-09 1.481439780125526e-10
1119 4.716328618932211e-13 -5.429509090401228e-13 1.4453209572105973e-12 -1.2284226151014718e-09 3.1520781973375442e-09 -4.764554308499296e-10
1120 1.0806183355075694e-12 -9.190952357921035e-13 -1.4265117914077237e-13 4.714350133052024e-10 -2.6678834732605094e-09 7.338465072941477e-10
1121 1.0827170637151216e-12 -1.0831255034318214e-12 1.7963353332759042e-12 1.3118719910049878e-09 -2.0885439489294094e-09 2.7489356867482275e-09
1122 -9.342287102747079e-14 -2.766597002940297e-13 -7.211954746537899e-13 9.474173571794492e-10 -6.343415722768124e-10 2.9640838527578766e-10
1123 1.705622326308813e-12 -8.500784534583159e-13 7.579720574958147e-12 -2.1890967771701873e-10 -7.4068741361140125e-09 -3.0117809839667363e-09
1124 3.538307924463052e-13 2.672183411635865e-13 2.3316589003638153e-13 -6.361430440174243e-10 -1.836255307242199e-09 3.112989254839951e-10
1125 -4.030561441578299e-14 -1.091572362649066e-12 -2.0947078121929416e-14 -5.775777606705541e-10 -7.033052255697981e-10 8.283808528302044e-10
1126 1.3489457353959822e-13 -3.8696382927163963e-13 1.9153867634729697e-12 8.127214354475423e-10 -2.3777593506155196e-09 6.891942804414055e-10
1127 1.3217229050860125e-12 2.7117624166679653e-13 -3.6319142299922004e-13 2.108392949900068e-09 -1.0333026207605847e-09 7.661590585814693e-11
1128 -4.4655464188450497e-13 7.075323092235615e-14 -3.396880414154341e-13 1.0250147043568051e-08 2.901764867638381e-09 -7.304007799504681e-10
1129 1.0840041808016344e-12 -1.6575178353200324e-13 -1.970711838406026e-12 8.758791160107084e-10 -4.3076214947744806e-09 2.3573361926787676e-09
1130 -1.4995520655885915e-13 -1.0839024599784506e-12 4.0696759914537135e-12 3.116124405528139e-09 -1.0281013679276083e-09 2.1253141997247545e-09
1131 7.001256546907092e-13 -1.0298690616977834e-12 8.671447953281207e-12 -7.3589093117675044e-09 4.0618385243254976e-11 3.4861967853222777e-09
1132 2.706360660064452e-13 3.9460354908504503e-13 9.148606217476095e-14 1.9607126828468616e-10 1.4200496628178054e-09 1.5024188195552682e-09
1133 -2.9570423208759647e-13 -3.2184482757705275e-13 -2.210720583081106e-12 1.8591639213382479e-09 4.080838209620063e-09 -2.8100533145521353e-09
1134 1.5554022202695543e-12 -5.697437070164439e-13 3.123214667076106e-13 5.457182589617175e-10 -8.144712306849927e-10 5.744801956663166e-10
1135 4.957376822875937e-13 2.7803306128485616e-14 8.070883834886304e-12 -4.01542433254239e-09 -8.475663436105952e-10 -2.638021929176643e-09
1136 9.677388714285383e-13 1.013046673688861e-13 1.0125505319204566e-12 1.5331331272807704e-09 1.1395056938156927e-09 -1.4973270726230234e-09
1137 2.168277620722211e-12 1.0840946267006162e-12 -2.746133330421048e-12 1.0819539345774042e-09 -2.8151206247902445e-11 1.1488550197979573e-09
1138 1.0842326814642297e-12 -5.420460809255207e-13 -3.7532163886798124e-13 1.2593499354526039e-09 -2.0532661775545574e-09 1.9927379117823423e-10
1139 1.0840184760733466e-12 2.1683707474931775e-12 -1.453259651141293e-12 -4.516574656856338e-09 7.974753685918092e-09 -2.7051026722429037e-09
1140 5.941194304827708e-14 -1.0833484202236927e-12 4.356388064665955e-12 -4.858894985846976e-10 -3.403659073503426e-09 8.123743495163448e-10
1141 -1.084176941826541e-12 -3.385637058757987e-13 -9.72144545749383e-13 2.6564677076479735e-09 2.662092884776762e-09 -1.4638522205372928e-10
1142 -1.1930271556134838e-13 5.222042529937521e-13 7.91967779370944e-12 -3.266277936284548e-09 1.4713064214318353e-09 -1.1059386311627755e-09
1143 -1.0840460753106903e-12 -1.0820310177332072e-12 2.8382414738282117e-12 2.7064140397812874e-09 4.631745968318278e-09 -3.0034649675909757e-09
1144 2.168265683916762e-12 1.0827250503645428e-12 -8.015590418340437e-15 -2.9421255023096e-09 4.8696341765730175e-09 -9.42917807710995e-10
1145 6.38616600026827e-13 3.947756177831204e-13 -8.515546540191877e-13 2.233881704902752e-09 2.6794728969251887e-09 -4.755788348962592e-09
1146 3.8508160153996864e-13 -1.1794296082502817e-13 -2.027265517684513e-13 -1.3020792493094393e-12 -3.95641441256868e-10 5.071084641140572e-10
1147 5.901198453960735e-15 5.079373087931786e-13 1.010336612425119e-12 -8.641385727123422e-10 8.848610513064315e-10 -2.404868027460774e-10
1148 -1.8951582670630053e-13 1.0258334842531098e-12 -2.2039340566899018e-12 2.5030501026217485e-09 3.94423686879679e-09 -1.5226650622279328e-09
1149 4.922666614367297e-13 -2.28524803345778e-13 -1.6775454397204896e-13 1.131254870326269e-09 1.6176970336769064e-10 3.250272299833363e-10
1150 -3.683753718497193e-13 -2.808325766061259e-13 1.6161935215731489e-12 1.9735368204294375e-09 -4.881805832640738e-10 -5.3671936739114835e-09
1151 -1.0831866824865791e-12 -1.1813678804124407e-12 2.1270197399669497e-12 3.938875456391753e-10 1.5842550391948266e-09 -5.676836303090018e-10
1152 5.420775364447777e-13 -6.436411744324758e-14 4.2413214670750785e-13 4.327145851613487e-11 1.934482325799613e-09 -1.6855206039861635e-09
1153 -1.2553231219131468e-13 -7.769155946061501e-14 -1.0131341536415658e-12 8.766889719303595e-10 2.896265098409308e-10 -9.34457558529362e-12
1154 1.5799305593149492e-12 4.631690047244038e-13 2.2268729083295069e-13 2.6478504712605024e-09 -9.90608804609772e-10 -1.0408054378926269e-10
1155 -1.850427427514255e-13 1.415296199683537e-12 -1.2611986186406933e-12 7.52528384824722e-10 1.5075540497391015e-09 -9.106456538919909e-11
1156 2.2148311233282223e-13 2.86200335259113e-13 -5.574400360891941e-13 -3.3648269275506767e-10 -5.932278959401682e-10 7.373732951976741e-10
1157 2.8486161347756894e-13 4.195271655927402e-14 -2.332832491389586e-13 1.126316725553958e-09 -2.977243198236478e-10 2.4183283862213637e-10
1158 6.173908222227822e-13 1.0838256849333807e-12 1.4022569237100082e-12 -6.302454137270155e-11 -1.8483450958491252e-09 -9.753818040969499e-11
1159 1.2012037564574266e-12 5.384011218490845e-13 -2.4091400192377787e-12 5.409605450345822e-09 1.430831094125907e-09 -2.1523386061568174e-09
1160 1.0664191412452173e-12 -1.082970725462263e-12 1.6846469163702092e-12 3.6379490365761147e-09 3.823582654486394e-09 7.284813816384581e-10
1161 -2.180793657357456e-14 2.1681744888492566e-12 9.394812882306276e-13 1.8190044179654484e-09 -2.820101962688418e-09 3.1500766437324187e-09
1162 2.6277490982618906e-13 -5.415651767166255e-13 6.793012116457545e-13 9.913912374087878e-10 1.0786969772300077e-09 1.2775423123436286e-09
1163 6.746972051422247e-13 -2.166572710269193e-12 -4.3199888450220057e-13 -8.824772753067233e-10 -2.222076012482256e-09 -1.1292615334662618e-09
1164 1.0831795119156817e-12 -5.420808853700469e-13 1.9179182191407673e-12 -2.9394283255783535e-09 4.596956970882579e-09 1.4152506968894784e-09
1165 1.0838339375436634e-12 1.88213643506944e-15 -5.176315315628772e-12 -4.296532625981171e-09 5.284077579294437e-09 -1.1833083407078645e-09
1166 4.485946292290252e-15 -2.1660415018131908e-12 1.829640328005824e-12 -4.232401210110504e-10 6.433958376942881e-09 -5.418362522743193e-10
1167 5.654688974927173e-13 -1.8053275441989987e-12 -5.238719848111243e-13 3.4440370833859596e-10 1.3740239480148255e-09 -4.589019420269782e-10
1168 -1.0842053131855203e-12 -1.0840731494478867e-12 1.266416711776558e-14 3.851963840922168e-09 -3.293860869561344e-09 1.841282394183322e-09
1169 1.2953196725245243e-12 4.63924460972112e-13 -7.991675882531056e-13 5.5269828031968325e-11 9.867287694059808e-10 9.006064080440814e-10
1170 7.453569339618569e-13 -2.1679704835740013e-12 6.896405829747959e-13 -1.1441392756768413e-09 3.6429519984388826e-10 -3.96723308708948e-10
1171 -2.706088426958731e-13 -2.1631128509859202e-12 4.306531803574108e-12 5.316268512278805e-09 1.9957700387225488e-09 1.5040033377763972e-09
1172 1.0130733223018761e-12 2.1482905572866213e-12 5.105250938201308e-12 -1.6993699321259993e-08 8.233958033375855e-09 -3.304810536412264e-09
1173 5.415477434350919e-13 -3.42282596796125e-13 -9.87434899514087e-13 1.5727706977359644e-09 -2.0930404369147097e-09 9.462481654781984e-10
1174 -2.3742985185834964e-13 1.352515212528429e-12 2.1743124575534107e-12 -1.434366293121849e-09 -4.621637790130098e-10 2.1700293675983796e-09
1175 5.421112222196715e-13 -5.419697894022303e-13 1.2362751923093035e-12 1.7051671956593962e-09 -7.263178922661858e-10 -6.740666083480244e-10
1176 2.1684295534085278e-12 -3.022499393107394e-13 2.597256093827977e-12 6.682231094223867e-10 5.618333707356565e-09 4.0292655859473864e-10
1177 -1.0486705821460195e-12 1.3528661654710053e-13 3.4695037636990725e-12 -1.0211501664287568e-09 -2.199009394611524e-09 4.899494052913219e-10
1178 -2.274890178761646e-13 -7.5696416917186e-13 1.003705049382299e-12 3.6106548972083e-10 -5.113560083221648e-10 -2.011991633409837e-10
1179 -1.3179092581704784e-13 6.351779936451083e-14 8.596324865066085e-13 3.162842514866036e-10 -4.622386053146814e-10 -1.096298393262646e-09
1180 3.3657023675014844e-13 -1.6542333201668736e-12 3.612519071558503e-13 -8.639299546086358e-10 7.9958456596272e-10 -4.942886395097108e-10
1181 1.2229762324495976e-12 1.8085568301440612e-12 -2.9760962152168454e-13 1.2111992949249493e-10 5.385302224000142e-10 8.509623187777514e-10
1182 1.941583623495587e-12 5.260739422212228e-13 -2.0099822518187463e-13 -4.999891141996357e-10 -1.4199524402072048e-09 -9.392003552444487e-10
1183 1.3555996013288014e-13 -1.1575309922024878e-12 -4.0273934988302653e-13 6.671888730381321e-10 -1.1290664327544007e-09 2.1614389759775781e-10
1184 2.1690991147277703e-12 3.598925851294111e-12 3.2813634461181113e-12 1.4171734891923855e-09 2.8334414334085198e-09 2.8380328446923712e-09
1185 9.032666700767862e-13 1.0834806026917973e-12 -9.010149280407065e-13 -1.0764965427806173e-09 1.535187608310567e-09 -2.5803789470251075e-10
1186 5.408309143273171e-13 -2.701520702936205e-13 2.2892147508073844e-12 -6.77875358802534e-10 1.5634324102861195e-09 1.1656409226221204e-09
1187 1.3982804360013893e-12 -3.8228463813708433e-13 6.153953127460248e-13 -1.0024454210565006e-09 1.1615270082873626e-09 2.448796146296156e-10
1188 9.262969503623498e-13 -8.845501902918998e-14 4.552331063461176e-13 1.2482403570175895e-09 -4.58358065652312e-10 -1.518454792479038e-10
1189 1.9049799039848764e-13 -1.5207699393580556e-12 3.1667222394483736e-12 -2.4694508429570446e-09 -6.21914348317501e-11 8.883631821814423e-10
1190 1.609929800850018e-12 1.3547595071405183e-13 -1.1687237457327802e-12 8.245604392024564e-10 2.401386065179396e-09 -2.538739909830072e-10
1191 4.0893619142763494e-13 -2.4636409583431254e-13 3.4777703547694035e-13 -2.856645885388722e-10 7.088291521283025e-10 4.0639698949113596e-10
1192 1.0630943940723413e-13 -1.5173878443167892e-12 2.1438935120340843e-13 -1.157763153480891e-09 3.8553235904136605e-10 -9.649628021842174e-10
1193 2.1676349092906234e-12 -2.1309766613397414e-12 -7.350732657523397e-13 3.7602980873110926e-09 3.582622427437249e-09 -3.763803912222216e-09
1194 1.572803854836138e-12 -3.9502648596143626e-13 2.2518328759739952e-12 9.472384768345628e-10 -1.2799067249599511e-10 -1.1998833043158355e-09
1195 -1.015407670873496e-12 -4.039667797829972e-13 6.333759557949862e-12 4.161437176486595e-09 -4.1779635674856504e-09 -8.752797955421587e-10
1196 2.705357533881675e-13 -5.420605903690601e-13 2.1093041275532346e-12 -9.627859817075134e-10 -5.132125907306594e-10 -3.286883750642338e-09
1197 6.239880623260439e-13 -2.1645971543403765e-12 4.688888886002792e-13 5.080220791863044e-10 3.320608754107475e-10 5.431914340787083e-10
1198 2.060440673825299e-12 1.0841057694014646e-12 1.4502555720037274e-12 1.1532661129269055e-09 2.9089655420522423e-09 -5.514880818958778e-10
1199 -1.3765441269441135e-13 9.237699013723563e-14 2.455050048763139e-12 -2.7435159682919197e-09 3.243140891049091e-09 7.822943312890566e-10
1200 1.358292709225619e-13 7.307284801262993e-14 -1.4939303992905407e-12 1.7848069020344021e-09 -8.955751225780393e-11 2.464978319033137e-10
1201 1.084173860098504e-12 -3.006698468980923e-13 8.361216803843195e-12 -1.0304811916292473e-09 -5.063727387283211e-09 -1.8558365362444192e-09
1202 2.0803367114872326e-12 4.849618189994068e-13 3.9631803126684517e-13 -1.0842293369086756e-10 -3.735492795328257e-10 1.9067307414564497e-09
1203 2.866646894292141e-14 -1.0842050139157136e-12 3.4981897195323243e-12 -9.996032560308406e-09 1.4922267998292912e-09 -8.814849854821796e-10
1204 2.0091531561990334e-13 -1.5874767163458417e-13 8.849534997866243e-13 -1.278729715351188e-09 -6.332943288309087e-10 3.323251864160783e-10
1205 2.1678632709019335e-12 1.3497874348881015e-12 4.732841668259286e-13 -3.5825521906789307e-09 5.159403455758088e-09 -3.0718997855359397e-09
1206 3.7906946475334315e-13 -2.1673861249354503e-12 8.515672765405848e-12 -4.832377398686376e-09 6.18506630189058e-09 1.3209901483979938e-09
1207 2.706026514096066e-13 5.072673462580277e-14 1.8140460013106853e-12 -1.027387454175471e-09 2.5983519436370844e-09 1.2814963106030991e-09
1208 8.148438421893676e-14 -2.7314988185561403e-13 1.974663439788648e-12 -3.822075142543289e-10 -4.681844216627319e-09 2.0668558887822054e-09
1209 4.722019354757687e-13 -2.649266142107262e-13 7.387634958747293e-13 1.2213250106339846e-09 3.2828341236134895e-10 1.4296903625877973e-09
1210 8.791195720913119e-13 2.7088861339992316e-13 4.5276126409139503e-13 -8.477054487321075e-10 4.418593310218765e-10 7.657521498113301e-10
1211 2.1680487221859383e-12 1.9859201210375817e-12 1.3462960877074085e-12 -5.29099453603642e-10 -3.1323933462278256e-09 -4.763050567357937e-10
1212 3.2308569252393916e-15 2.0921027004530133e-13 8.676212822295673e-13 -7.615333975535815e-10 9.58955118334438e-10 -2.1418594694493813e-10
1213 -1.5314923112256908e-14 -4.360748007496942e-13 2.434168495356265e-13 2.7364443554003293e-10 2.4695678750064974e-09 -1.3294973685307739e-09
1214 1.5680524897986964e-13 4.2217102426600564e-13 -1.772726342136001e-12 1.5055617704757206e-09 -1.8660672460811325e-09 3.44014725992281e-09
1215 -5.161138638436971e-13 -1.6219127429087652e-13 4.691383341724723e-13 -5.227363582712098e-10 -7.130233800988603e-10 -8.429834414892232e-10
1216 2.7144034899952344e-13 6.651753295871465e-13 5.0841055998517996e-14 -2.7820377268679613e-09 2.277373825777271e-09 3.784921545595043e-09
1217 3.061866652347569e-14 2.12285146201875e-12 5.169225590709283e-13 1.3613915104632128e-09 1.795925873558126e-09 -2.117800078325278e-09
1218 -1.1061923339005346e-12 1.0841788876337121e-12 -1.0427154112634238e-12 2.9933866938294605e-10 3.0065145090080196e-09 -1.6093277953265284e-09
1219 1.0781322063155053e-13 1.0835449750484285e-12 4.411986366621968e-12 -2.987475616670534e-09 -5.246170971609669e-09 1.3092310818030142e-09
1220 -4.143669733072675e-13 -1.4990358934673443e-13 -1.9655958090586237e-12 -3.2051754206369005e-10 1.6816174509114141e-09 -7.849347408019827e-11
1221 -3.302079925745369e-13 -1.2762976484296437e-14 -4.3404638405218897e-13 -1.94794867311942e-11 2.343809962677561e-09 2.7787897484157636e-10
1222 1.3776874154020924e-12 1.588626819905581e-13 -2.5046032801316515e-12 -4.070753235007785e-09 3.750082749018242e-09 1.0849230220056227e-09
1223 1.4070393286462734e-13 2.6326236752124444e-13 5.0057604156378755e-14 -1.1929620497514924e-09 1.1672911862238762e-09 3.3907679903724944e-10
1224 -5.413331756377789e-13 -7.763851090307859e-13 -2.1736610817919083e-13 -2.2633525813365183e-09 5.980976176154493e-10 -7.201464868717916e-10
1225 2.0457839509705553e-13 5.086737067647335e-14 -4.535801692733404e-13 -2.0972895754039755e-10 1.1358433970991431e-10 -4.873252834103869e-10
1226 -7.713699526758009e-13 7.013521367175886e-13 1.8517161663057158e-13 4.860690966484469e-10 1.9602995584586176e-09 -1.2177809309606966e-09
1227 2.144093374527132e-12 -7.123275639284677e-13 1.1235432404788402e-13 3.329915560492703e-09 -3.158772236795407e-09 -1.2187344101602127e-09
1228 5.393922673978464e-13 -1.557912404641124e-12 2.46706016220931e-12 8.071035346295186e-09 4.6331162857607424e-09 -2.4512246936580203e-09
1229 -6.812853449139402e-13 1.084181501588311e-12 3.111247873964103e-12 -2.1354383833204387e-09 -5.093629509733014e-09 1.024060926921604e-09
1230 1.0837715332551226e-12 -3.9932519586581646e-13 -5.458974433727669e-13 -1.5974079236150618e-09 2.5390697008262355e-09 -1.6060616797426579e-09
1231 -3.412238707067283e-13 -1.0354589319398558e-12 -1.7424410024597808e-13 2.615867352869122e-10 -2.0553733940323116e-09 5.201613597012507e-10
1232 -3.3583071853322803e-14 -5.420738286078838e-13 4.21870255201641e-12 -1.8222408816247967e-09 4.208293214738258e-09 -1.7210734934494955e-09
1233 -1.261969618018731e-12 -4.1453855762583016e-13 5.980770987819149e-13 -1.757898665886195e-09 -1.6075354347498567e-09 1.5645865015700395e-10
1234 5.41570608123833e-13 -2.2923603256886676e-13 -1.472116237159438e-12 -1.747851554029658e-09 3.5095730718237285e-11 -1.9595062420966584e-11
1235 -5.416093222483898e-13 1.6590080754881696e-12 2.1843992807071462e-12 2.446064438850572e-09 2.33017235093557e-09 4.0229821624835705e-10
1236 2.0251048235793123e-12 1.082929868774118e-12 -1.5436590915577587e-12 3.332947873136375e-09 -1.9467401833395206e-10 9.83733410826888e-10
1237 9.165143563684524e-13 2.709022676986828e-13 -1.0458014772001557e-12 1.052880686152832e-09 -1.596063004921769e-09 -4.5616277319002797e-10
1238 -3.5464478282591904e-13 5.419617254263374e-13 1.2720292391899213e-12 -1.042088078651833e-09 2.4889854303623124e-09 9.517909554407558e-10
1239 -4.992430011969539e-13 6.088488888513467e-13 1.6924070616562416e-12 4.308521798933761e-09 7.695670986820131e-10 4.4133335482132196e-09
1240 -1.765835066535591e-12 -4.980911538438616e-13 2.877660006604318e-12 -4.185752760659181e-09 2.4754358998988327e-09 -6.663117093806916e-11
1241 3.0974629392207745e-13 -2.6665844685377917e-13 -1.956461690274819e-12 1.998881504919504e-09 -7.069095182159272e-10 -1.666599200459137e-09
1242 2.1277338157662358e-12 -1.0833819102661245e-12 4.0026230365857125e-13 -5.865859701818304e-10 -1.2079986194065401e-09 2.2061525211042585e-10
1243 1.0834923827639104e-12 -9.216976070350568e-13 -1.2542970661905038e-12 8.038332730044226e-09 2.1222870616966916e-10 -2.5414957300353034e-09
1244 -8.071836909790524e-14 -3.6850411768325977e-13 1.505155369278946e-12 -2.502421194110403e-10 -1.5073687513131777e-10 1.841892124109092e-09
1245 -2.693597459035622e-13 -1.5926542256682839e-12 4.257788046020604e-12 1.7354791472010388e-09 -1.791051399599726e-09 -9.264633143249519e-11
1246 1.7266381688462609e-12 -7.846597618583332e-13 2.6373447092724915e-12 -1.7419355288951543e-09 -2.475876880716352e-10 3.1600778537910443e-09
1247 1.029861187928559e-12 2.718983777198278e-13 -1.0910377460463112e-12 -1.9364125142177275e-10 3.2469747290192787e-09 -2.0774537591871125e-09
1248 1.0842032510385311e-12 -1.5130277744522832e-12 -6.328261076392247e-14 6.416022867668864e-10 2.166761263396231e-09 2.641185140550441e-09
1249 -6.349251185489591e-14 9.97467252550649e-13 -6.253353915347026e-13 1.1342342637166483e-09 7.131607128730873e-10 9.577805391848533e-10
1250 1.427413725920001e-12 1.0572455967732545e-13 -2.9685906261844023e-13 1.0758197271965546e-09 2.1282110843314596e-10 2.735903871370563e-10
1251 1.6354303683515574e-13 -1.0834676215893676e-12 2.058349727696477e-12 -1.0604805158263917e-10 7.935574794636286e-10 -2.5986326485892356e-10
1252 1.0838622322595074e-12 -1.24594201931066e-12 -9.67319312922045e-13 8.362782429975231e-10 3.5439119280111576e-10 2.0817230772384746e-10
1253 3.480713220419949e-13 -1.4141738555685559e-12 -3.754469537444178e-15 5.0726432572531456e-11 1.8107063442510388e-09 3.852434114903615e-10
1254 -6.726168054991839e-13 1.5334941410325822e-12 -3.018314944724247e-12 -4.379465108743486e-09 9.242952259850506e-10 1.2850900144820504e-11
1255 1.074849309277152e-12 -1.9532826001610896e-12 1.8560036633535478e-13 7.95958732430764e-11 -1.4587389298477145e-09 4.723554667274759e-10
1256 5.336920909664778e-13 5.140717161939108e-13 5.639602355220028e-12 -2.4155376290713885e-09 3.91474226657713e-09 -5.153443167324214e-10
1257 -2.376464596863838e-13 2.1662919376569555e-12 -1.6084046400664496e-12 -1.916314403604294e-09 9.69865118354775e-10 9.758757259655911e-10
1258 -7.386329142578503e-14 -3.1909810772475826e-13 5.909555113519133e-13 -3.9890327728531676e-10 6.926022348461839e-10 1.6019476284103394e-10
1259 -1.4496975428439475e-13 -2.081204553619077e-12 1.5883618047048136e-12 1.236096632509008e-09 -1.4709084437290592e-09 -1.877665046912267e-09
1260 -1.8033526244840646e-12 -1.6680452813266312e-12 -1.6049674003414997e-12 6.596577920499259e-10 4.167361539377579e-09 5.079978604453278e-10
1261 -3.502229712635461e-14 -2.1396876991941924e-12 -9.558171262080347e-13 1.273348914859035e-09 -1.2786963811445298e-09 -4.574452925993176e-10
1262 9.937148281522286e-13 1.0838158391812595e-12 1.87512334918399e-12 -7.298304752891206e-10 1.5020282923840316e-09 6.383576078766967e-10
1263 2.7089287301852546e-13 -3.43633161926574e-13 -2.510506092176234e-12 -6.306376078318892e-11 -1.4072463551439047e-09 -9.234284420024439e-10
1264 -1.3411874728778593e-12 -7.841495118016307e-13 1.0211015077419731e-12 9.150841634465385e-10 5.721990231107068e-10 1.8317354117195813e-09
1265 6.107386880461425e-13 8.249784972190392e-13 1.737867080662575e-13 4.959229958596177e-10 -2.5073804336026636e-11 5.891746753870946e-10
1266 8.655769335274937e-13 1.3526983773675563e-13 1.413473363697271e-12 -1.3863459170797517e-09 6.307462389658401e-10 2.4927826972268888e-09
1267 5.41617574097118e-13 2.1681518856515115e-12 5.578728812577134e-13 1.5206681417869933e-09 -7.036311604662841e-11 -1.6792704968651444e-09
1268 5.419505386097476e-13 2.5072590897404794e-14 -5.321936564497179e-13 8.187992575024012e-10 1.1064231085402295e-09 6.802971381423268e-10
1269 -1.335103684590988e-13 6.466312204119419e-13 -1.063626584553376e-12 -1.3974900121077587e-09 -1.1312213182844837e-09 1.423650984405665e-10
1270 6.956258148566038e-13 4.5128420075153824e-13 1.306373261698273e-12 8.593298320219812e-12 -1.8899985739788284e-09 8.610304753636412e-10
1271 4.973844474620093e-14 -9.048071896602799e-13 3.5377158747444416e-12 5.207383630091437e-10 -1.2628631531160654e-09 -7.067874519201945e-10
1272 2.167061612990233e-12 5.421109415147907e-13 7.191273369420537e-13 -4.530206086363723e-10 5.896971332811279e-10 1.0650676511657e-09
1273 7.364606173988967e-13 -4.848592513724811e-13 -6.415668877961968e-13 1.2134169887925431e-09 -4.978736575441e-10 7.668590068402862e-10
1274 2.2644507829591243e-13 -1.355510176656286e-13 2.2313389745623504e-13 -3.1471083587731654e-12 -1.530529108519064e-09 1.5507095908883094e-09
1275 1.4167102859911667e-13 -5.801292547027879e-13 1.476038741792256e-12 1.4341844560487232e-09 6.141738782110369e-10 3.200564732387116e-10
1276 5.790777234225304e-13 -9.942773201467374e-13 8.989992735501916e-14 1.861601737236685e-10 -4.5111834706274614e-10 -1.8905803474418625e-10
1277 2.0077935933478478e-12 7.838580747950299e-13 3.836201778578126e-12 -2.9332768236340595e-09 -6.190639960602427e-09 1.4777448862671022e-09
1278 1.62124983425278e-12 1.387051690032916e-12 4.130561148042211e-12 -3.373737728703283e-09 -9.34026036481905e-10 2.3973615631830175e-09
1279 6.495761819486935e-13 1.1756466966403866e-12 2.116001183739024e-12 9.862696471085497e-11 -3.694357735723917e-09 3.309842109160269e-10
1280 1.4890150423716849e-12 -5.267653584257283e-13 1.7897626455478217e-12 -3.4767954548170417e-09 -2.3231803486911856e-09 -3.765603492211797e-10
1281 1.355335649742832e-12 1.0818351161811017e-12 1.6631053256981373e-12 -2.1182593993666463e-09 5.787573184231761e-09 1.4359844646781425e-09
1282 7.620014713530108e-13 -5.3688617124820444e-14 3.9230525156634314e-13 -8.358880035094931e-10 5.008370827628185e-10 2.799172176748231e-10
1283 1.90687110784962e-12 -2.710283921496114e-13 -5.45311350240741e-13 1.6321141542362034e-09 -1.3899464347565391e-09 -4.0240730237206674e-09
1284 -1.084124849339062e-12 8.443542185584966e-13 2.5428316046122372e-12 -1.6225545094659695e-09 -1.5739055944425255e-09 1.953799133455143e-09
1285 -2.0701666516424914e-12 -1.0840226222197536e-12 7.69735606934903e-13 1.20574745274882e-09 1.3519852157889366e-09 -5.730621002379732e-10
1286 1.4368838582886018e-12 5.421191884595024e-13 1.4833222075477904e-14 -4.711571930141436e-10 2.0743919232703757e-10 1.9435547835857923e-10
1287 1.0647144681364456e-12 5.41953506921268e-13 1.8304809239280267e-12 9.089812256365528e-10 2.3065903427835242e-09 -3.32617221393583e-10
1288 1.0829375584714505e-12 -2.762698710780348e-13 -1.9761320411260067e-12 -9.540622914517853e-10 -1.5600259002302366e-09 4.03900509367643e-10
1289 -1.1475651867053918e-13 -6.173874828900236e-14 -1.4477929904837886e-12 -2.9247073619247096e-09 7.942221147618778e-10 3.511405171948111e-11
1290 -1.0832207728493263e-12 2.168657194787262e-12 -2.638739462674317e-12 -3.4659872508529e-09 6.057890851314269e-09 1.9173325035939554e-09
1291 5.419919121988909e-13 -4.088436989390416e-13 1.1163346114669471e-12 1.2906420579244226e-09 5.896723257286205e-10 2.988775400804416e-10
1292 1.3622473173875452e-13 1.6789226110476794e-12 2.9647670326642173e-12 3.385777135673418e-09 -2.193184574878973e-09 -1.6198635921659536e-10
1293 2.493667036813886e-13 -1.217165671991934e-14 3.213423788277159e-13 -1.667345223069186e-10 5.528190248377648e-10 8.414904804618379e-11
1294 6.410173101293942e-13 -5.419029596637341e-13 7.89057728484327e-13 1.7040383923419267e-09 9.153831692796696e-10 6.252072170789138e-10
1295 4.4646841461170936e-13 1.0822282022857013e-12 4.5664998162109845e-12 2.438934045857143e-09 -2.9502700567785114e-09 8.265365678899926e-10
1296 -8.66845879968767e-13 -3.8112155410482556e-13 4.605984409816075e-12 1.7781836159091437e-10 -2.378882773949808e-09 6.14185112861013e-10
1297 9.728077220947855e-13 -1.4203829643202791e-13 2.513716119526892e-12 -2.5452326966114992e-09 -6.45987022288524e-11 -4.188239016290322e-13
1298 1.0445636098995853e-12 2.7041393672009455e-13 -9.218771849995123e-13 -1.142954787658799e-09 -9.266643150035093e-10 -5.51961881036922e-10
1299 7.515596480721491e-13 -5.402867935105482e-13 -1.310267714674951e-12 7.186653878957931e-10 -4.318933990527462e-10 5.878537713898134e-10
1300 1.6159415960555848e-12 1.1540840110692732e-12 8.673182705720737e-12 -7.33013959447401e-09 1.2800895075344138e-09 1.7745379000568812e-09
1301 -1.3344053811884378e-13 -3.6380260599341595e-13 4.013394541490799e-12 3.340459781558351e-09 -1.3107721942297823e-09 2.075703843468458e-09
1302 -2.168152768687822e-12 1.0806384341772539e-12 4.876926871760549e-12 -1.6721849847756412e-09 -2.519991650771583e-09 1.2711182033024502e-09
1303 8.766605976407915e-13 1.0505157528570442e-13 1.4363211738629217e-12 1.6303884201765416e-09 -1.8086384147151959e-09 1.7228200205132757e-10
1304 -1.1389526647405033e-12 -5.419062357179362e-13 3.4538856032613892e-12 -5.403253834673453e-11 -2.8016796283837896e-09 5.0164743837556335e-09
1305 7.419054810738917e-13 -5.1947323179709454e-14 -1.4322456716986675e-12 -8.392419444900496e-10 -4.961741292209421e-10 4.969975241310193e-10
1306 -2.4761372618813693e-13 -5.425084032643658e-13 8.60997275639282e-15 -1.3189236195072186e-09 1.120060284911259e-09 -3.103434874051116e-10
1307 -2.2145047531797385e-13 -4.059049210857558e-13 8.664324354590764e-12 6.771761076329624e-09 -7.026156523806259e-10 -4.762304254456178e-09
1308 -1.8622164448120695e-12 -5.428430462017975e-13 5.1751026248935356e-12 -8.198469781522886e-10 5.691092141835057e-09 2.3479786891834046e-09
1309 2.7088148690310155e-13 -3.9925741189147626e-13 4.153202325337009e-13 -1.4326738534073513e-10 8.411455991932892e-10 -1.7429544166818423e-10
1310 5.420189769006603e-13 1.3884625693599451e-12 -2.7478763183348707e-12 1.8994454037124915e-09 -3.3034984722160876e-09 -3.2997565614367116e-09
1311 -1.2027683772261577e-12 9.707780690161209e-13 -1.4594129652295248e-12 -5.282073255136212e-10 1.7980951745226177e-09 1.7217748339197802e-09
1312 -2.710373350730106e-13 -5.408350331848502e-13 2.5857281435593773e-12 -1.3076607704186249e-09 -2.170778842944561e-09 -1.000502113206298e-09
1313 -1.0841062863918336e-12 1.0407798133353533e-12 2.05991533320603e-12 4.817438214710815e-09 4.205634022113233e-09 3.033603039992078e-09
1314 -3.895007242071015e-13 -1.0121625618474503e-12 3.994628874094725e-12 1.7018824709343623e-09 3.042145872922669e-09 3.085195823807514e-10
1315 2.0149099545011024e-12 4.851020029312177e-13 -1.0399140829458185e-12 -2.831728550162477e-09 -1.3084834884043989e-11 -1.4745722617121327e-09
1316 4.3559077527382274e-13 1.5961004423136308e-12 4.840027928299292e-13 -7.700093172656537e-10 -2.9170031285796327e-10 5.467717448047702e-10
1317 -8.305105503798792e-13 1.72805828322787e-12 3.5907464290407803e-12 6.352664258102964e-09 3.716676734761445e-09 1.7529011103213125e-09
1318 -1.531816478369132e-12 -2.708103914666054e-13 3.4785972268024267e-12 -1.0854488303989103e-09 -1.464685426611396e-10 1.1005094094062636e-09
1319 8.327598014737339e-13 1.7611782260177461e-12 -3.353908169419988e-12 -4.9304526391944765e-09 -1.6222836256456767e-09 -2.500521277811786e-10
1320 -7.662050271415206e-13 6.75278712841311e-13 2.269951612796008e-12 -6.14979309778066e-10 -6.023105415549339e-09 -2.876339405729383e-10
1321 1.2784776021476087e-12 6.574581445455084e-14 9.506782297619163e-14 -4.3347493887729533e-11 -1.265994277915074e-09 9.081189627165138e-11
1322 -2.1679120540865365e-12 1.0500154234631994e-12 3.79201496348801e-12 3.1052251587995434e-09 -1.3072006056151414e-09 -2.4135028265606144e-10
1323 5.421083665886245e-13 -2.011634912593034e-13 1.3515012647222175e-12 -1.3091566864278988e-10 -1.9455268859940338e-09 9.546259760723154e-10
1324 2.368444578829786e-13 -5.420410215129692e-13 1.103535957242949e-12 -4.705472873683904e-09 2.5567327603450162e-09 8.09271108312456e-10
1325 6.375064470602862e-14 -2.999821965612291e-13 -8.939257556466551e-13 -3.3116997241273554e-09 -1.5789355297599152e-09 -7.30413246007602e-10
1326 2.1671829955480487e-12 -5.421977766981821e-13 2.5890623125107643e-12 1.5006289892118705e-10 -1.7482370442124487e-09 -1.1153223430306315e-09
1327 -8.764805729001816e-14 -5.943130389134439e-13 1.4769945175257021e-12 -2.4236585607325558e-09 -8.510121853984369e-10 -2.039777726701035e-09
1328 1.0828790147208254e-12 5.326524396859393e-13 7.598292309590081e-12 6.153064515780317e-09 -5.404804512230226e-09 7.606585916367177e-09
1329 5.400320821498817e-13 -1.6685537402993837e-12 1.0768986113991759e-12 9.480518847236018e-10 2.09700228377516e-09 1.2358874034031514e-10
1330 2.077852496573313e-12 -5.393172562993751e-13 -1.4109898958141912e-12 -2.541692578930666e-10 3.113180465806975e-10 -8.655504434594454e-10
1331 -2.7190256721334596e-13 -1.357473642533978e-12 4.987796862177151e-12 5.6400502275116096e-11 1.1154316467947101e-09 1.2855152907483381e-09
1332 -1.083954375628081e-12 -4.643706662735487e-13 3.2166444003375863e-12 -2.296940401398951e-09 -2.711499517335491e-09 1.2375066091260597e-09
1333 1.0841951026274711e-12 -1.3560178561485543e-12 -2.318395468202883e-12 1.5679513121173332e-09 3.75240700765514e-10 -2.7509623213390153e-09
1334 5.420053282043529e-13 -1.166984179297008e-13 -3.936636366984046e-12 1.8052034617431306e-09 3.2073522623841494e-09 6.491065937547447e-10
1335 1.0842463886262655e-12 1.7243828869458892e-12 -2.5331908192344745e-12 1.4749560857068784e-09 -8.96306139121818e-09 -2.27827578697078e-09
1336 1.4632804055819685e-12 2.7059014901225537e-13 7.273115937589588e-13 -7.555903360317486e-10 -1.812638602033465e-09 -3.4568214917999337e-10
1337 -1.7827627900089036e-12 -1.9420045600152304e-12 -1.688698174041523e-12 -5.468021498380004e-09 3.89820528101713e-09 3.2599312927485145e-09
1338 2.1287309991770646e-13 -2.7009013277934117e-13 7.41889307560146e-13 5.499408468391525e-09 4.032957022485739e-09 2.6934869938349855e-09
1339 -2.1519827527961704e-12 -3.6691552375004887e-13 3.885685288684942e-12 1.363717140123098e-09 -4.5939631834296205e-09 7.666500033176737e-10
1340 2.3579410270321437e-13 -2.349737970624324e-13 5.568907953467122e-13 1.3375157072283133e-09 -9.270506814900367e-10 9.689645169111744e-10
1341 7.28661707459362e-13 -2.1671449312629455e-12 3.2717820647572176e-12 8.499864672892379e-10 -7.268089587434718e-10 2.1894857499335914e-09
1342 1.0839556763830396e-12 -2.1526398138214666e-12 3.1435076588125913e-12 -4.8834524976244135e-09 -1.9392722053884885e-09 3.882862996739963e-09
1343 -1.0820858593194676e-12 -1.16674703987738e-12 1.39940420940472e-12 2.140587463852658e-09 5.475396988791395e-10 6.710443604667869e-10
1344 1.9010285814840015e-12 -2.657712203553748e-13 -4.305126052393323e-13 -6.740090298710372e-10 5.542818409014447e-10 -1.269776749236481e-10
1345 -3.5102120378294625e-14 -1.083768213027237e-12 -4.755244852084996e-13 -4.1378557716431765e-09 1.6382823560636717e-09 -1.5460580610343738e-09
1346 -1.0836546792677574e-12 5.929766458180061e-13 -5.3528474168959874e-12 6.848243792173347e-10 3.1608412606050907e-09 2.2622325040932813e-09
1347 8.636093581407001e-13 1.0836657030004746e-12 2.783079363702307e-13 -4.259656200971223e-09 7.044753438337894e-11 -2.0012667165675896e-09
1348 5.405682887786803e-13 -1.92338279662238e-13 -1.6531907701131892e-12 -1.725171138456801e-09 3.3410824215123056e-09 -9.630706295913965e-10
1349 1.0840790615643418e-12 1.0838937669427203e-12 -3.2919825285658328e-12 -7.248929631396107e-10 -3.6406698054691548e-09 3.057012581843704e-09
1350 1.6295970240577845e-12 -7.26911632768745e-14 -6.295209608636933e-13 1.3291435862409764e-09 2.166220441770787e-09 5.68308766753474e-10
1351 -5.513590666902091e-13 5.41456572562317e-13 3.1285117041390298e-12 3.2163211672357853e-09 -1.4923138842487625e-09 -5.526593429683431e-10
1352 -1.4171172854312114e-12 -2.1639596839770065e-12 1.0704383860102697e-15 -8.146121452287576e-10 -6.243355899342649e-10 8.511345725246146e-10
1353 5.567396485508458e-13 -5.145774747506093e-13 4.390020932048241e-12 -8.233470781325339e-10 8.662830592679845e-10 4.3429293799081125e-10
1354 1.1216715647895993e-12 6.578365295602933e-14 5.382599269766929e-12 -2.8740853051743867e-09 -3.940652722319581e-09 -9.022190731090909e-10
1355 -5.413564536503239e-13 -5.375702189956115e-13 2.7781036460610153e-12 -1.562170775547428e-09 3.408107088379044e-10 1.4472510562002953e-09
1356 -8.247443855679069e-13 -9.723640688515272e-13 -1.1124791850438157e-12 1.4193910593392547e-09 -4.722498044648136e-10 1.0313833684151758e-10
1357 -2.7105683363992063e-13 3.476312878574423e-13 3.3898408636241726e-13 1.4535545546893362e-10 -1.0317180193750668e-09 1.2531290184140952e-09
1358 1.084229688786601e-12 -1.0840473877627277e-12 -3.677997488567856e-12 -4.660969859691771e-10 3.3081946349370937e-09 -7.43572983746207e-10
1359 2.1668505572835714e-12 -1.082912023649219e-12 1.6970858018943627e-12 -5.966305873957878e-09 2.0543686438160285e-09 3.971244557859276e-09
1360 5.931419348028994e-13 -5.420188655907351e-13 4.248384742801947e-13 7.535536696854832e-10 -3.793703620612641e-10 4.970152423144569e-10
1361 -1.6806547490666718e-13 6.069604187005733e-13 8.248399539535602e-13 -1.3672074647854948e-09 -2.051529711187395e-09 -3.874324911988377e-11
1362 4.4528902312484775e-13 -2.1676452246712608e-12 2.5177388530453903e-13 3.768498991892374e-09 -7.818536825518051e-10 -1.8685459780577514e-09
1363 2.1639961539952855e-12 1.570944974538507e-13 8.802294864082803e-13 3.545413562001544e-10 -8.956612491369396e-10 2.608201323852082e-10
1364 6.468739178077271e-13 7.220596141953908e-14 1.2342161833298659e-12 5.079827998081369e-10 -2.27152738912724e-09 3.924768161657728e-10
1365 -7.594712635672971e-13 8.642264492431188e-13 -2.419046367078874e-12 -1.442033605347252e-09 -2.4221130022227263e-09 -5.306101045723534e-10
1366 -1.0816462012625779e-12 1.875101852368429e-12 -8.239835468085297e-12 2.8140378041552914e-09 -2.7419933673460223e-09 2.3288017258734008e-09
1367 1.581667798387022e-13 5.410451770283026e-13 4.44820803750354e-12 7.38924419744431e-09 2.329766445790776e-09 3.6232003645268816e-09
1368 8.150201255500169e-13 -5.413620809043804e-13 1.0854448302383469e-13 4.107621931618912e-09 1.7375463341708315e-10 1.977781506277752e-11
1369 1.0837974299455776e-12 -8.477647288200235e-13 -2.1180104217298917e-12 -2.797613141845708e-09 1.028442735811695e-09 -1.5268147797056415e-10
1370 5.042936128844643e-13 -1.4710738560283884e-12 -3.2066519299567776e-13 1.1233866186477303e-09 7.933806567061245e-10 2.2704569421021344e-09
1371 1.0750236459391913e-12 -2.707961282957791e-13 -2.5112294236794208e-12 7.145467242406107e-10 -3.8436153619949173e-10 1.1150804117921106e-09
1372 1.0630859627428409e-12 1.0820306261315957e-12 -2.5234124861057677e-13 1.1719276398476261e-10 -4.768718850700658e-10 -1.8941633139008238e-09
1373 6.771740652641382e-13 -5.41864600564155e-13 -2.1477932616243424e-12 2.9158877150538277e-09 -3.040270911752369e-09 4.982645103424855e-10
1374 1.5513563470342145e-12 4.020705853805333e-13 1.3102317405736927e-13 -7.846342013146417e-10 -4.572247234959698e-10 -3.020372887831636e-10
1375 2.6418641584999894e-13 -2.116640004337147e-12 2.3698290248719082e-12 6.3741773451939235e-09 -2.1420042444662634e-09 -5.579665693083862e-09
1376 1.0842125820906055e-12 -2.168379455882729e-12 1.6265537652326977e-12 1.744032662706507e-09 1.5457339954489625e-09 -2.3514343014500047e-09
1377 -1.0756747136892451e-13 -2.514106847166335e-13 3.976591456723197e-13 -9.537286022382096e-10 -9.752863779672327e-11 -1.2516556231184607e-09
1378 1.9945065540584896e-12 1.2008916417400075e-13 -8.91140458974578e-13 -1.5777433722385587e-09 1.5974607723889368e-09 -7.60579722112642e-10
1379 2.1667799217978826e-12 -1.985738139183944e-12 1.0404687023379236e-12 -3.2888280380504946e-09 2.461286231491742e-09 8.126289937008228e-10
1380 -1.6262984839826497e-12 2.87167793991941e-12 -1.599782031634526e-12 -3.2768257367048696e-09 2.854482679559474e-09 2.508877697154009e-09
1381 1.0475855188430185e-12 -5.5022713242072e-13 1.8313999675295813e-12 2.007482745359108e-09 2.023786941442439e-09 9.659169766823242e-10
1382 5.42046214592146e-13 -9.51481699246035e-13 4.2824907011698445e-12 3.307352609244647e-09 8.054430171843829e-10 -1.2664224228199053e-09
1383 -1.8453896009175754e-12 2.1654109424167505e-12 -8.277110736944678e-13 -7.3483576234349736e-09 4.859501602849081e-09 -5.056306820515987e-10
1384 4.3571345460491946e-13 1.3555630222588625e-13 -3.1279747177327805e-14 -3.2896860139720186e-10 -1.616936083609128e-09 1.4341048474178779e-09
1385 1.0842444001475812e-12 -1.0839878506797174e-12 1.5622101550343221e-12 -5.791042248163561e-09 -2.7580187715040427e-09 6.4937298244954145e-09
1386 -2.9325013830025763e-13 -1.383440138626509e-12 3.8239564067155887e-13 -3.7349617144954624e-11 -8.72052193488651e-10 -1.3409746905610483e-09
1387 1.832197870236272e-12 3.768053908370083e-13 1.8362287888403002e-13 7.48281057954659e-10 1.1410978597548595e-10 -1.5327097626630017e-10
1388 7.524120709772627e-14 4.812671312447537e-13 6.82955841199769e-13 -9.20094574486663e-10 6.801789757526733e-11 -2.4049405474147585e-10
1389 -3.080905336378605e-13 2.1677327069536272e-12 2.8732462079233215e-12 -5.069745848116055e-09 -5.6184837430286754e-09 -6.571058322848598e-10
1390 -2.295873079257548e-15 -2.1682420502733885e-12 6.722135879998677e-12 1.466489545057325e-09 8.459327291232089e-10 3.427324545624976e-09
1391 -2.1585119469910523e-12 3.365578627293921e-13 -3.6864561131436126e-12 2.139373620920438e-12 -4.858015897036848e-09 4.5447711816619317e-10
1392 1.7868939438591686e-12 2.704005168031238e-13 3.575510368994078e-13 -4.77180417631993e-10 -5.409376488168003e-10 7.972921003169702e-11
1393 1.266376365124734e-12 -1.0838692356401747e-12 9.693643454688715e-13 -1.168177298688893e-09 -7.336267758423017e-10 -1.0333984430845119e-09
1394 4.936178519100447e-13 4.990433473619981e-13 -1.384783516488057e-12 1.4611672513830859e-09 -2.1021123091083457e-09 -7.424571826308842e-10
1395 6.7492864146396e-13 5.381667528725828e-13 -8.883420212288503e-13 -1.8022559081880492e-09 -2.977893915843995e-09 -1.8197059341342363e-09
1396 7.840270107428075e-13 -2.7109774471872986e-13 4.363010397514869e-12 -4.962092167702632e-10 1.728632718351313e-09 4.054809883030614e-10
1397 4.086103141425521e-12 2.335229464800332e-12 8.671590991297414e-12 9.60936349839719e-09 3.3875776477456393e-09 -6.5518949360970156e-09
1398 -5.420352938809838e-13 1.0405247119610472e-12 -4.6924363207410115e-12 -3.3674097264306134e-09 -4.51620955783389e-09 -1.1562713460601387e-10
1399 -4.152259733389555e-13 -1.0809927975770626e-12 3.9102098933623014e-13 1.4041098764376946e-10 5.655112845648252e-10 9.623933730305794e-10
1400 -1.060526509114341e-12 -1.1668683534515491e-12 -1.8259477369575446e-12 1.7183806206395036e-09 -1.6361977172800287e-09 7.727293269559618e-11
1401 3.9223740572458867e-13 6.740508177627319e-14 -7.887717633108144e-13 7.582457247604376e-10 8.475119774037666e-10 -3.829178336825445e-11
1402 1.6936960517113334e-12 -5.41902624686655e-13 2.766779418571745e-12 -1.23875901988602e-09 1.5039971799547152e-09 2.3459104408783084e-10
1403 2.616349111732246e-13 -1.0840941490146082e-12 2.2392991774837583e-12 -1.561794919261978e-09 7.450972597959223e-10 -5.750883939120574e-10
1404 1.982707231682087e-12 2.67920274126724e-13 -1.265771421148542e-12 -3.2377739266073634e-09 3.2899710137496826e-09 -1.91085902083919e-09
1405 1.083931152562774e-12 5.421685473041449e-13 2.8363331203451575e-12 -2.172772912949392e-09 -1.999716158617159e-09 6.972815545041566e-10
1406 -2.701132906979177e-13 6.743637653745926e-13 2.2290573777381285e-12 9.044891687236107e-10 4.1276753287940844e-10 2.1398349829062558e-10
1407 9.227839970820817e-13 2.709839603585153e-13 -6.96205632529635e-13 -2.7138147882831955e-09 -2.4541011679855274e-10 -2.0399437278565604e-12
1408 5.370547099523312e-13 -3.9709077620871244e-13 -8.224722445518469e-13 -4.359654354560268e-10 -1.5659785957390791e-09 7.977052043211142e-10
1409 -1.0841185311264338e-12 -5.41373428271004e-13 -2.4838045074512945e-14 9.906572914949578e-10 4.309397529434123e-09 -1.0330221549989133e-09
1410 5.83959998415996e-13 8.98216516655713e-13 4.3211377042791216e-13 -1.1230084725085127e-09 2.612109114931943e-10 -3.1993984340249146e-09
1411 -5.334770568866402e-13 8.029738716544742e-13 -2.753870188676872e-12 -3.1748285982880714e-09 5.252107320417899e-10 1.1772499859389502e-09
1412 1.0828741025388374e-12 -6.176205514175987e-13 2.5430798501578283e-12 9.241715768425928e-10 7.690719391989903e-10 -1.0432255118622391e-09
1413 -2.5983210340266275e-13 5.418776560330727e-13 -6.0833701313940046e-12 -2.0107582357071806e-09 1.2517819822986844e-09 3.8053958241906245e-09
1414 6.675070245367388e-13 -5.3549384337472455e-14 1.0529961734003992e-12 5.547531933645067e-10 -1.0215814088054912e-09 1.5245672918589835e-09
1415 2.033543112787078e-13 -5.420122753919942e-13 5.071205180533413e-12 -2.752298931589292e-09 1.0840279860234162e-10 -1.1682416471513782e-09
1416 -2.168531679957748e-12 1.1576216225193996e-12 4.813383206015928e-12 -4.792373721578846e-09 -7.868842226349863e-09 7.395837307632065e-09
1417 7.793620331438995e-13 -5.421428719884101e-13 -1.1812625828269108e-12 -3.4527740948520414e-09 -1.2827002972400337e-09 -3.0210356781120607e-10
1418 -1.0840257694348126e-12 1.6791106936841152e-12 -4.050417003713546e-12 -2.224295817044427e-09 -6.062908886838936e-09 -2.588977544006265e-09
1419 -1.1604139526030665e-12 1.1085624020752944e-12 2.016244424694675e-12 -1.6630849614995901e-09 2.0121565565527225e-09 -2.165028676295639e-09
1420 -7.919093057479335e-15 8.965577797783783e-13 -2.9216573354872045e-13 2.2712500080485152e-11 -1.032154311698431e-09 -2.038398797604853e-10
1421 8.048692547942698e-13 -1.4548934908559673e-12 -2.338615830431327e-12 -2.020217627971738e-09 3.178771135432815e-09 -1.0064184022295236e-10
1422 1.610010161593283e-12 2.342602008048881e-13 -8.181402698326114e-13 -3.5148970961165622e-09 9.143026515280356e-10 1.4373704216883372e-09
1423 -1.1954562510202195e-12 6.872265145191087e-13 1.5488264591402252e-12 4.206521953032923e-10 -2.508017129255563e-09 1.726852960228005e-09
1424 2.168109186436051e-12 6.535408376266409e-13 7.021867875535305e-13 -5.654729770820157e-10 -5.949983441749303e-09 2.5531379620767186e-09
1425 -1.084094796021526e-12 1.9875666643389335e-13 2.174083121618947e-12 -3.066914451594256e-09 4.343587044629915e-09 -3.212699925777476e-09
1426 -8.907862624005487e-13 1.9834355169162423e-13 2.705088796290999e-12 2.1664003590914743e-09 2.9642125720519403e-09 -2.745199474907375e-09
1427 -1.8579403500617367e-12 -2.0510284923565983e-13 -7.376326338397777e-13 2.085905847375943e-09 -1.8145973795824976e-09 -1.4076584123682647e-09
1428 1.0992864563581154e-13 -1.2996554811996888e-12 1.6229743282220547e-12 -9.630480815456511e-10 -2.3855479530621147e-09 -1.1453018453255023e-11
1429 -4.2253097099584037e-13 7.471202224296945e-13 -6.155770534228752e-13 2.0140373056637373e-09 5.3869278720463716e-09 6.414391420213183e-10
1430 5.768340117980254e-13 1.3558458376843199e-13 -2.6740049256516725e-13 -1.5628902010773403e-09 8.584847898098011e-10 1.1726460731874517e-09
1431 7.722196707654731e-13 -5.419167212867761e-13 -1.0829201160811737e-12 2.0967750677305616e-10 1.3110000056721929e-09 -5.568365701427183e-10
1432 1.0835629619525548e-12 2.166243085749909e-12 -4.9042901621633924e-12 -1.7084460233717695e-11 -2.216095716560525e-09 1.772085492210667e-09
1433 -2.7714910640179607e-14 -2.71491147899733e-13 1.852256405516021e-12 3.315731391400489e-11 -3.812080457347697e-10 -7.756163041329071e-10
1434 9.760676169128936e-13 6.740409841854891e-14 1.6614101479677945e-12 -4.345041718935329e-11 -2.3442187768900076e-09 6.760563931057738e-10
1435 5.420692072794101e-13 5.337869354958522e-13 2.4253206814898765e-12 8.453806016447416e-10 1.996324204031462e-09 2.1197984215840917e-10
1436 -2.159025567539073e-12 2.159521121529114e-12 2.95639504308559e-12 1.4040554508834337e-09 -4.835559329215612e-09 3.77387140117837e-09
1437 -1.0812076746092374e-12 2.13373271101306e-12 5.2389689117634555e-12 -1.5341937980983503e-09 1.3726888701063048e-09 7.525399629176714e-10
1438 -2.1281144677650273e-12 -1.7863123354229655e-12 1.881712203361864e-12 -6.058811836328526e-10 -3.411394801313136e-09 -1.7784593111959232e-10
1439 -1.2768736480784563e-12 2.0047303522013105e-12 -7.768875107057999e-14 2.5450031125954765e-10 -5.052852737465541e-09 -1.6289226100031737e-09
1440 1.0935855746614928e-12 2.168480259341524e-12 -2.909987885591103e-12 2.931250823591517e-10 1.897178876891678e-09 -1.6107520517156695e-09
1441 3.4317983375944117e-13 -2.1651144076665716e-12 8.514694983133375e-12 -5.9320433309643585e-09 6.934930466379056e-10 1.1586972829096939e-09
1442 -2.787427355592439e-13 2.110383746745215e-13 1.0603458904169449e-12 -1.0787433512208207e-09 1.1810798080017246e-09 -3.583953423336069e-10
1443 -7.130896493860655e-13 6.808553019837029e-13 5.490161644239484e-12 -2.5360607159052015e-09 -5.809213871780557e-11 5.247953385050111e-10
1444 1.1707088745557997e-13 -6.861187446170556e-13 9.99708585509328e-13 1.732073256987946e-09 -1.2866202047775432e-09 -1.2354585269738449e-11
1445 -5.2157040371486274e-14 1.5029706495364158e-13 -5.463933819231833e-13 -1.2915462270445485e-09 -6.692894227840584e-10 4.930452091883325e-10
1446 -1.0840650995911056e-12 1.2196198662576153e-13 2.6888225135974034e-12 1.1436459862131134e-09 -1.6577115855985177e-09 -2.030260767557849e-09
1447 -2.1685304873784623e-12 7.367872018967915e-13 -2.17377373239838e-12 -2.3509196668781025e-09 4.05740136461343e-09 1.52055737131219e-09
1448 3.693972005088651e-13 -1.0841114385382608e-12 3.031141023296603e-12 1.3761250251889855e-09 -1.5719603335713259e-09 -4.722677649556675e-10
1449 -1.082269620877603e-12 3.3392059710225076e-12 8.673443443170472e-12 -1.2575955031697682e-08 3.042268952182772e-09 -5.102687773614844e-09
1450 1.442208765629045e-13 5.420096344520213e-13 4.405097927261015e-12 -2.6541567944709313e-10 -3.719795092915115e-09 1.5383056147686639e-09
1451 3.2614062027344875e-13 -8.929261664252426e-13 1.0010564004458468e-12 -4.862346230938082e-10 3.0441356542803466e-09 -1.1744904800694668e-09
1452 -7.266302036878504e-13 -2.091768377144434e-12 -2.3429182344928936e-12 1.2156024819152572e-09 2.0620088570687133e-09 -1.8881363941838273e-09
1453 7.064874639991081e-13 2.3250218026328072e-14 6.478778986536125e-12 -3.928190954672718e-09 -3.3915609553658277e-09 2.1719902828192824e-10
1454 1.0838794386184507e-12 2.1420287803468713e-12 -1.5751126499404247e-12 7.0528887754148435e-09 1.9084936707219218e-09 -3.5195993784401017e-10
1455 1.6407406379629862e-13 1.6580130990146567e-12 -1.3234675979692274e-12 -4.763801687966559e-09 1.286586786467473e-08 -5.80862691784386e-10
1456 -1.9260680052777255e-13 -7.932017498909169e-13 2.298521473127996e-13 4.461560698917075e-09 -3.0169826367966705e-09 -8.204231980600199e-09
1457 -1.3432397550832223e-13 3.4747625552271236e-13 -8.67198268738996e-12 7.052918282731564e-10 -4.7597012096663244e-11 1.8239971717407116e-09
1458 -1.034336112979735e-12 3.581807154655302e-13 1.1838685816905557e-12 -2.977132547844369e-09 2.000680628928023e-09 -4.605898973863307e-10
1459 3.992781670996311e-14 1.185530165099872e-12 1.9550138141412842e-12 2.6625214393989824e-09 -8.956035087587955e-10 -4.4712120487322753e-10
1460 -1.0648924627473378e-12 2.7303708647060054e-13 1.3487430346252191e-12 8.628557056103143e-10 1.7060954736871621e-09 9.337992978249052e-10
1461 9.068561562691941e-13 2.129010968934356e-13 1.0318718823531155e-13 1.866336643506061e-10 7.337394010616114e-11 -4.0291831135220477e-10
1462 -5.0719676365808e-13 1.0841460643140167e-12 1.3711622413016604e-12 -1.7250837911821606e-09 3.6291945808672378e-09 1.4800760850244655e-09
1463 1.0824416049042324e-12 -2.1664792179220823e-12 1.0111766106694535e-12 1.6378014510466524e-09 -9.440691329396637e-10 8.844284091589707e-11
1464 6.708395684522374e-13 2.4969595884406363e-14 -1.3150988593728417e-12 7.00773472089947e-10 -3.66119121596866e-09 1.5789836178998067e-09
1465 1.0523002658100622e-12 6.750455285664384e-14 1.3397959358862705e-12 -4.270582342391511e-10 1.6721130574685131e-09 -2.350964619359094e-10
1466 7.907057780696366e-13 1.013011742728387e-12 1.987520612278454e-12 4.180287913009465e-09 3.215005254253789e-09 -4.524927121134954e-10
1467 -1.1991237556239715e-12 2.1646413075631174e-12 -2.7143015595932303e-12 3.0083782332884173e-09 -1.3184284182671155e-09 -2.248923698117372e-09
1468 -4.1098087697837377e-13 2.7606808478920585e-13 1.2181574587506018e-12 -3.875583255958889e-10 -1.030354231214025e-09 1.6529866140486972e-09
1469 -1.0840865857581959e-12 -5.414616603629656e-13 -6.852145755868784e-13 1.1838195143331183e-09 1.3005533003196034e-09 9.905702142190659e-10
1470 -2.262796035414195e-13 -4.848335666464521e-13 3.6204160505053995e-12 -1.3569803340257909e-09 5.062871348813327e-09 -1.2572434785411242e-09
1471 4.646669851847751e-13 -1.0846470420021003e-12 2.496170164939453e-12 1.7251127313480037e-09 -2.115038698597948e-09 1.0532768878402303e-09
1472 -2.1528127214809672e-12 -9.027798895942092e-14 -1.7965721504103352e-12 3.4127615311249562e-09 7.62964329068107e-09 2.0180221781089016e-09
1473 8.965678374272963e-13 1.8945351970452472e-12 -2.169727123022077e-12 -3.3955677283389396e-09 -2.3500393504142e-09 -4.881491322815967e-09
1474 7.015130861434454e-13 -5.329214909170548e-13 -2.3205626179496903e-12 3.5977482031680134e-10 1.8768637242400068e-10 6.3225504866801e-10
1475 2.1438197174618593e-12 2.708414970881287e-13 -2.2672377600632704e-12 -2.2001049224861826e-09 1.2455235431118627e-09 -2.0323892222200482e-09
1476 2.5134313700303483e-14 -7.31555172086163e-13 -1.6565506105054574e-13 -4.892004811473336e-09 1.5065934318933836e-09 -1.2859905505785026e-09
1477 4.057700276942645e-13 -2.1681226020358395e-12 1.875880437952517e-12 2.4961644498546486e-09 3.9493677294914754e-09 -8.010872813331291e-10
1478 -4.544368337452876e-13 -5.423542591923538e-13 1.9436762298933193e-12 1.810512568509323e-09 6.888697292953051e-10 1.6652290127734776e-09
1479 -6.055298061165709e-15 1.6605531739672166e-13 4.696631455195063e-13 -7.49544134371807e-10 6.234230581486044e-10 -1.26573521518187e-09
1480 -1.7054196981810757e-12 4.2794100930509584e-13 -1.1698914042915501e-12 -5.789641883688794e-09 5.7791501499411146e-09 -1.4757887128402646e-09
1481 2.067688129215623e-12 -1.0831617935838724e-12 -9.081145845413054e-13 8.830527704323064e-10 8.372496239150602e-10 -1.0787991405158077e-10
1482 2.1196657653812576e-13 -9.470951461043464e-13 1.0807710362327672e-12 -2.2283644975109905e-09 2.723005856832344e-09 -1.6957331876033222e-10
1483 -6.904109223355337e-13 1.8577079224932382e-12 2.5290914787544106e-12 6.074146897392851e-10 5.476778041615067e-09 2.1066402240109382e-09
1484 1.081906866547976e-12 -1.721669230718608e-12 -1.1536751893675063e-12 3.4889183543834756e-09 2.3847073251153343e-09 1.0055311055556931e-09
1485 2.166089208257021e-12 2.679028251838926e-13 7.681050467642819e-13 4.745438260182416e-10 1.4858260136619853e-09 2.023742758066255e-09
1486 2.1681980497565977e-12 4.8215024254561004e-14 -1.5814541121854765e-12 3.023976247949568e-09 1.9276322346059324e-09 1.90669849245485e-09
1487 -5.415382952306948e-13 1.0095869331280031e-12 5.026255676002232e-13 -3.727525663321509e-09 -5.096201789017965e-13 -5.599635288393001e-09
1488 3.6470338639465793e-13 6.782158655271878e-14 1.0021602158589536e-12 9.35770715884827e-10 1.1070852564925997e-09 2.2794166238775307e-11
1489 -1.9707805947149816e-13 -1.1255534883328883e-12 -6.087030484310481e-13 -2.473629114089078e-09 -2.7760547459661843e-09 -5.840969009821977e-10
1490 1.116245385092934e-12 5.410923207396146e-13 1.7640849516980555e-12 4.776721911727315e-10 -1.3299456517576397e-09 -5.996187699686558e-11
1491 1.0833896268219647e-12 2.1680069074432385e-12 -3.2049673541346796e-12 -1.441513449310201e-10 3.542809958867952e-09 2.0435126746805087e-09
1492 2.1644780818045676e-12 2.168249020733975e-12 -4.865762434395293e-12 -2.9173516456938997e-09 1.18086168149068e-09 2.7005032737887995e-10
1493 7.882564399630883e-13 -1.9007064371894098e-13 -2.990950626622198e-13 -5.7238715805568e-10 5.237497746836145e-10 -2.0100668739515958e-10
1494 3.7663529315342437e-13 5.399939445010495e-13 -5.555158234762506e-13 1.1503169711056243e-10 -3.2709463541938614e-09 1.3840859979990438e-09
1495 1.0101535207070392e-12 1.0717627449352494e-13 -1.813993227795072e-12 -2.9033963932878907e-09 1.4383797625816078e-10 -4.037191670790673e-10
1496 4.949243387259027e-13 2.147910982527768e-13 8.720652637901178e-13 2.5242275019034093e-09 -2.0166751873741184e-09 2.499747784422731e-09
1497 1.0840735068748506e-12 -5.418935232169582e-13 1.4528940381135115e-12 2.167407214050701e-09 -3.2224321658732707e-09 -8.488834718015445e-10
1498 5.419922502739499e-13 9.198262564830908e-13 2.1510173317000365e-12 -3.2551972613862276e-09 1.4965721720217267e-09 -1.8215717691134132e-10
1499 5.420690644634711e-13 -2.1674833161760256e-12 -2.226620055962696e-12 2.5616461578646068e-09 -9.133235348541483e-10 1.425774817395346e-09
1500 -2.1676301432631267e-12 -8.370864470426183e-13 -2.8922143369324955e-12 6.10194192526796e-09 4.7521666954110356e-09 -4.179554895745866e-09
1501 2.1680626966896627e-12 -6.904065713196034e-13 3.476042131070693e-12 3.763474175104809e-09 2.537268124090839e-09 -9.032748453584651e-10
1502 1.08346594719418e-12 2.166397709198902e-12 -1.6329509428403626e-12 -2.0343362668477842e-09 1.918398960398815e-09 -9.883951383198259e-10
1503 6.900682530980054e-13 -5.342580619886772e-13 6.1800631310583e-13 8.607745168061876e-10 1.0494843894623753e-09 8.330026023198471e-10
1504 1.220154823340945e-13 8.109821082145184e-13 -2.0264336709538234e-12 -3.0798690671185327e-09 4.289577654138247e-11 4.161758942492553e-10
1505 2.0890336581472227e-12 -3.52149344628844e-13 -1.3336860381415063e-12 -4.6436290174770625e-09 1.7808585407967305e-09 2.2061102322816958e-10
1506 1.0841636372415715e-12 -1.0838782162087301e-12 1.4884663936423746e-12 -4.6675398820921855e-09 2.1247143129152146e-09 3.252766620395779e-10
1507 -1.3075832219523623e-12 1.1530609302463948e-13 2.5712999520098806e-12 3.7499653406512985e-10 4.5547049113444325e-10 -1.3083075703221783e-09
1508 1.1458021687130653e-13 -6.091250189745394e-13 1.7924777189870552e-12 -4.02654429086787e-10 1.1328720607163733e-09 -8.598304869640461e-10
1509 -1.2657918040910296e-12 -6.142075537927218e-13 -1.1077224699732481e-12 -2.604675212780356e-09 1.1640895865549794e-09 2.6938205224050627e-09
1510 5.628174969303631e-13 1.0838404491150547e-12 -3.530002608807918e-12 9.089285355316607e-10 -3.6999335662067652e-09 -2.5717590850748435e-09
1511 4.217905390020915e-14 -2.0911714386329287e-12 4.6527124768512414e-14 3.434534071556941e-10 -3.289336330423924e-09 1.3596693486267671e-10
1512 -3.4405147799101883e-14 1.0837010083311154e-12 -1.4191321833786312e-12 -5.260038529472635e-09 -3.5964619230994446e-09 2.3644442287428306e-10
1513 -2.1659999616468143e-12 -5.417489742167791e-13 2.2748087141909156e-12 3.6546321921431198e-09 -4.184436508419629e-09 1.5813642114757493e-09
1514 -2.9953950443767123e-13 -7.080096972294191e-13 -1.3277537610331645e-14 7.13093922402619e-10 -1.2368292720262685e-09 9.91056486472995e-10
1515 -5.420803808870418e-13 2.1153482938571266e-12 2.3038643925413645e-12 -2.0684387247234339e-10 1.2999693711547506e-09 -1.46823098941243e-09
1516 -9.886863399120427e-13 5.138461330956282e-13 1.1009676744212874e-12 2.2812423554072262e-10 6.480694277649981e-09 1.7279190871923352e-09
1517 -6.716289082060732e-13 -1.9844450574719e-12 -3.3560744054249477e-12 1.872862031463218e-09 -5.865108659896029e-09 1.4786166172282903e-09
1518 1.9211047405773626e-12 -1.9613337834785093e-13 4.8874346550789804e-12 -5.924314344888108e-11 -2.3004386535797274e-09 -1.600970057484969e-09
1519 1.0841193861067983e-12 4.937022863355561e-13 1.4170023630990299e-12 5.982145272756259e-10 6.178353252345698e-09 1.0055688253817717e-09
1520 2.7499485722363737e-14 2.1680549619154154e-12 1.7839235977788193e-12 1.9421588523226804e-09 2.5775361925263e-09 1.1757997267535004e-09
1521 4.945981007082024e-13 -1.084150319765429e-12 2.816713361599824e-12 3.466618301157737e-09 9.485458712993947e-10 1.6994368878492023e-09
1522 1.9793455485117852e-12 -7.608694460468021e-13 -7.968268230627094e-13 -6.190486334149178e-10 -8.176878188605948e-10 -1.1960705348932257e-09
1523 1.0842025503134011e-12 -3.095388790680019e-13 3.2101394193844844e-12 -2.640771138698609e-10 -8.100031796270551e-10 1.0478493208859273e-09
1524 -1.628376530137564e-13 -7.615166392327517e-13 -1.6526763809713828e-12 4.121632340638607e-09 -7.49756865619562e-09 8.111164539310215e-10
1525 -9.97794171058755e-13 1.1701884563731144e-12 2.589419388159623e-12 1.771608294497966e-09 3.4381624303251534e-09 3.1968179779243153e-10
1526 -7.970717014916447e-13 1.010455779948826e-12 -2.435348001716592e-12 2.5810468981292737e-09 -7.770500620972622e-10 -8.25693864219928e-10
1527 7.051725977192907e-13 -3.8819238539611503e-13 -1.3669830264121032e-12 -1.1770054885644634e-09 1.3740562899306803e-09 -1.077618695013547e-09
1528 -2.708445503699862e-13 -1.843703447993222e-12 4.961569189316719e-12 -4.366659700870919e-09 7.595619355549543e-10 -1.6239853977960479e-09
1529 -2.708105592742942e-13 -3.434560438531732e-14 1.9922402353414865e-12 -2.416610662893527e-09 -2.8541369558535536e-09 -3.2995932155713565e-09
1530 -1.0837774180204188e-12 -2.1676134690741628e-12 9.584062454139364e-12 7.882803312619857e-09 -1.2012331603606208e-08 3.1904517495775068e-09
1531 1.0125994810675108e-12 2.397738932370648e-12 6.951994948623569e-12 -9.738354434057082e-09 2.926986875445505e-09 1.5938089880860264e-09
1532 -1.0840235141285575e-12 -1.3323310873948932e-12 -6.860193709454129e-13 8.070924680082294e-10 -5.213632581814531e-10 -2.313507259795171e-10
1533 7.768124451827957e-13 -1.0841608223241676e-12 -5.564886034118678e-13 1.980389168603766e-09 2.5491516243866e-09 -1.7890891590079762e-09
1534 5.422703774002527e-13 1.0255628153545136e-12 -8.313813244612614e-13 1.4192378572102996e-09 1.7902695657497225e-09 -1.4276169814123937e-10
1535 -4.167804673033117e-13 7.985993792672142e-13 -1.8725429160789917e-12 5.258594319572272e-09 -2.1770912027805958e-10 -3.060121761977779e-09
1536 -1.4727735540764824e-12 9.772142901966153e-14 -2.7966953143203112e-12 1.140205249569153e-09 7.773571769686682e-09 -2.7598281678043825e-09
1537 4.214377867497643e-13 -5.420405952258623e-13 3.110652271345608e-13 1.4276300572141304e-09 3.909405557713254e-09 1.7982485932896058e-10
1538 -1.1157308860852316e-12 -4.299237406929741e-13 4.263360802263342e-12 1.9209186532288147e-09 -1.2909629794161835e-09 1.4582674142968929e-09
1539 8.210171419593041e-13 2.1657376397642452e-12 1.0008615566679382e-12 -1.2331210687842176e-09 -5.757104712001051e-10 2.9319900002600287e-09
1540 -1.4717659902682082e-12 3.3388195653676867e-14 9.304361008083252e-16 9.594590028614425e-10 -2.8409577510284376e-10 -2.798894952301952e-10
1541 -8.746646219782582e-13 -2.167891077973005e-12 3.1264522618527227e-12 -2.0489908719302805e-09 3.622886875450752e-09 -5.683716743180411e-10
1542 -4.1762688134827654e-13 2.1671379251481227e-12 1.266972941204506e-12 7.207005569739593e-10 -1.833390726248112e-09 1.7322390385112545e-09
1543 -2.44331637208739e-13 9.559294891051077e-13 2.384798981165725e-12 2.1998477753475514e-10 -9.033564735402857e-10 4.0380764089338945e-10
1544 4.021061572838671e-13 7.889326366298415e-13 4.620153893603289e-12 1.822496301015425e-10 1.1534643043309371e-09 1.5737192761945383e-09
1545 1.6519271899180925e-12 -5.420441989284707e-13 -1.9705206095111746e-12 4.049516535071049e-10 2.2259094639346234e-09 3.930150113065285e-09
1546 5.513308507197617e-13 -2.7075935133327376e-13 -2.9085595245437465e-12 2.5519078348454066e-10 3.6410359654569836e-09 -2.79217251460289e-10
1547 -5.420163390944174e-13 6.341505456505994e-13 6.393552405994898e-13 1.158876662610914e-09 2.835734963217638e-10 -3.1737527345165874e-09
1548 -9.069907626894891e-13 -4.500983081524318e-13 9.563332229337972e-13 7.356378771101794e-10 1.0685533467553384e-09 6.49580684643742e-10
1549 -7.219651474822356e-13 -5.626024103017848e-14 -1.0158803887286067e-11 -3.925679645875238e-09 -5.577314862874144e-09 4.5814878441224986e-09
1550 -2.642512958749417e-13 1.9804017704011338e-13 -2.9471385062423357e-12 -3.0191078359474828e-09 -2.8000964005675013e-09 -4.76133481160204e-09
1551 5.420899372581055e-13 -8.309744463520761e-13 3.8392317432003465e-12 1.855756458691467e-09 -5.7152632184333855e-09 -2.826293206712743e-09
1552 -7.982150423622581e-13 1.7612902322097926e-13 5.524639298971994e-13 -8.276421327705981e-10 -1.943437055835411e-09 -2.5078907241238473e-09
1553 -1.0852769699214352e-12 -5.421525173996978e-13 -7.973137956063444e-12 -6.0289282970937994e-09 -2.9374047275730976e-09 2.335382473108304e-09
1554 7.200427671179185e-12 -2.1682380902866295e-12 -4.136206187125609e-12 -8.050834361220242e-09 2.240768049468263e-08 6.044508212075946e-09
1555 5.384769470455965e-13 5.417153290404579e-13 4.736276735187698e-12 2.1189469668668743e-09 -5.305890385628788e-09 2.402361541083265e-09
1556 -5.054600940519313e-13 1.453815740553784e-13 4.6514007992669845e-12 4.3376064583449743e-10 -3.621876589873905e-09 -4.257886411991084e-11
1557 -1.701295600623706e-12 -1.0241192295279647e-12 2.398323457952554e-12 -2.241244075559444e-09 3.1309167853162526e-10 4.588949798377864e-10
1558 -2.6560454459314054e-13 1.1807863809236498e-12 -1.5960822944510743e-12 -2.172059164902008e-09 1.562921947790944e-09 -7.641011127880009e-12
1559 7.438857475355767e-13 -2.051279078692962e-13 -7.418317667791016e-13 1.8011021345307924e-09 -4.9209245199566486e-09 -6.2387028094239e-10
1560 2.984922850733326e-13 1.0816202539485329e-12 2.986520292907476e-12 -1.4956672192124609e-09 -3.6229339157325426e-10 -9.86867486418713e-11
1561 -1.734173574750439e-13 -1.0841739459452704e-12 1.7789231965349647e-12 -1.9794712890816725e-09 -1.347690543388819e-09 2.399297994815461e-09
1562 -2.713370097682845e-13 -1.3160338841641959e-12 2.9275510610592006e-12 -2.3498365963121807e-09 2.559320559315548e-09 2.8271327289139572e-09
1563 -7.741045483431684e-13 1.6233810739328925e-13 6.300168115943785e-13 -4.729943010084934e-12 -4.1796237855390675e-10 -1.9897717083676632e-10
1564 -1.4817473795138417e-12 -5.414993515561716e-13 3.492667224359957e-12 9.062488717046197e-10 -1.627969200396198e-10 1.7785161240963538e-09
1565 1.083919856869305e-12 -3.8589288021269746e-14 4.054762424227805e-12 4.794791712480662e-10 8.397012127509307e-10 -1.1860810418014443e-09
1566 5.417857504816943e-13 6.52842859794254e-13 5.397431687581177e-12 5.546858791595444e-10 -2.5090051205876696e-10 -1.106913710627704e-09
1567 -2.152860673154202e-12 -2.1031428316674973e-13 1.7022641697874873e-12 1.4918792137628705e-09 -3.050297852586329e-09 1.8189938659262447e-09
1568 8.793604720666727e-13 -1.084130184647271e-12 5.017360178415569e-13 -9.68682316073744e-10 -1.1778797805066673e-09 -1.8173453887646215e-09
1569 -6.158537058824371e-14 -3.8229954623097465e-13 -9.24372821639528e-14 -3.9108330252118546e-09 -1.0023046477963993e-09 2.9532746624937497e-10
1570 1.0843707078126013e-12 -1.0841954949881395e-12 5.2576326784431845e-12 -1.4715847050441782e-09 -1.1363831377256879e-09 -1.732499229259648e-09
1571 5.41803473567876e-13 2.1664843699746645e-12 2.09551384592943e-12 -9.338052938455712e-09 2.479297118942112e-09 6.941953473188323e-10
1572 8.875488034575932e-13 -1.0842786946324496e-12 4.723613498526318e-13 -2.1756703769993538e-09 1.8547803980713256e-09 1.2654191994840991e-10
1573 -2.164921709382432e-12 -2.165956044942196e-12 -3.967252824735766e-12 1.6995117371162765e-09 3.6611498825276847e-09 -3.6287722335659714e-09
1574 -7.968332897457076e-13 -3.541804966462381e-13 1.3877063630469714e-12 1.5748398733058387e-11 1.361326096154839e-09 9.97482947672971e-10
1575 2.803992560708263e-13 -1.9710650281924526e-12 -9.658129921493262e-12 9.36897047042272e-09 8.48431112506404e-09 -4.380245799624231e-09
1576 -4.547820591895263e-13 2.1669931014888003e-12 1.0755054396729054e-12 -8.95414504555258e-10 6.184557206049681e-09 -7.285405959163164e-10
1577 -1.0837201811463284e-12 -1.084444470563608e-12 4.114493353690556e-12 1.8179448125464612e-09 -6.830331820652915e-09 1.0702755254093528e-09
1578 1.0801058032399381e-12 -5.534073124181493e-13 3.039726069727637e-12 -1.9577025523091006e-10 3.593828436369214e-09 -5.653447788280884e-10
1579 9.057141887308887e-13 -1.0841227030141623e-12 4.858098691119958e-13 -1.768195723097186e-09 -4.20351958234741e-09 1.786940256993029e-09
1580 8.732169077705827e-13 2.414403272403925e-13 -7.247420531239295e-13 -1.0953055387093813e-09 6.5707520081159315e-09 4.5330019507051386e-10
1581 2.731264929218316e-14 -6.720989091803122e-13 1.6658815761374936e-12 -4.712109986536404e-09 -3.487793264052153e-09 2.6669351219012888e-09
1582 1.555727467875061e-12 2.167293321593744e-12 1.925569301353292e-13 8.295343430715175e-10 -6.267849618912244e-10 -3.361469618731252e-09
1583 2.7559365615776737e-13 -5.421667270908461e-13 7.042260322388064e-14 -1.7779348624827663e-09 -1.570986121264334e-09 -2.357697670618694e-09
1584 1.0841597658857324e-12 1.08385102608055e-12 -4.487528439154873e-12 -2.025964749691238e-09 3.740906667956896e-09 -3.511557441089237e-10
1585 2.1611434568744442e-12 1.3975650855104746e-13 5.587801210566695e-12 -5.889931407898e-09 4.155099488936578e-09 -2.153600930686213e-09
1586 -1.0087216882326578e-13 -2.504987338739994e-13 -6.342206191300258e-14 -6.991575547507648e-10 -3.869216638170954e-10 1.9021097346668452e-10
1587 9.38193797260354e-13 -1.8901803738736116e-12 1.647620666505993e-12 3.0192025763078438e-09 -1.079117954890149e-09 -2.8200255433870538e-09
1588 -6.800466583153344e-13 1.5272916227206014e-13 -8.671552082023228e-12 -2.486297646315867e-09 -7.3022122681492125e-09 -3.841613996505324e-09
1589 -1.2653426879619828e-13 -1.0833873215938592e-12 -6.7318882841786894e-12 7.3334773009152896e-09 1.8073553552463974e-09 -2.3060204376021438e-09
1590 -1.083400053395417e-12 -1.8436884572612743e-12 4.2452591310737486e-13 -8.089837391461165e-11 6.797435130174207e-10 1.6110185425124188e-10
1591 8.097934570515732e-13 1.0709719215198407e-12 -5.864065142374159e-13 -3.659961034050938e-09 -1.0304514827785763e-09 9.018722357264467e-10
1592 1.0842152407811198e-12 -5.420877078432581e-13 9.343713440167891e-13 -2.850861295931255e-09 1.2673808680728631e-09 -6.209551374554853e-10
1593 -8.412378586372581e-13 -2.710637980709854e-13 1.025236486981223e-12 6.519587778510206e-10 2.124966268362172e-09 1.4494373448630712e-09
1594 7.93979433774425e-13 1.6516994008267832e-12 4.813757003437856e-12 -2.0290660543458823e-09 2.1376818709708037e-10 -5.615002379882338e-10
1595 -5.930934193408699e-13 9.188959523152468e-13 1.5228867344879823e-12 -3.3430668258934716e-09 -5.067234240553239e-10 1.6200389186946373e-09
1596 -1.0833716702946647e-12 1.0832695123106952e-12 2.6944898553451237e-12 -1.0350884752567243e-08 -1.2927551180617952e-09 -2.068104123572968e-09
1597 -1.7857059293547825e-13 2.166016256611956e-12 2.4480920491571925e-12 3.481281003482711e-10 1.1120696842402038e-09 -6.452810437470937e-10
1598 1.0840143657891593e-12 2.1678776611457556e-12 -7.062043705537682e-14 -4.234222710427937e-09 1.092415215271286e-09 1.7173207460909934e-10
1599 1.083997785101216e-12 -4.503770205312448e-13 3.6963156084131426e-12 -1.5967986996564571e-09 1.9711231898800407e-09 1.7690973932981515e-09
1600 1.0691814281270803e-13 1.0021319830983914e-12 -3.270536628224279e-13 3.0881249718653906e-09 1.0197996881908516e-09 -1.2031264588707635e-09
1601 -5.35769362432077e-13 -2.168444653813624e-12 4.696514095534949e-12 -1.4439421555116258e-09 -6.275510494820022e-09 2.1894319088065355e-09
1602 -8.426401695419401e-13 5.419913800506845e-13 1.4409065561121844e-12 -3.433470077033323e-10 -1.9472666876133246e-09 8.940639771204198e-10
1603 5.66652353328118e-13 -5.420760606034525e-13 1.360424351054748e-12 -1.670702422104288e-09 2.067086089235812e-09 7.203627946611001e-10
1604 -3.50886185487602e-13 2.166381404664401e-12 1.1655684706801647e-12 2.2142897018106894e-09 -4.203520925072222e-09 -4.5942490705757886e-11
1605 1.0286093079412857e-12 -1.7209843874401695e-12 6.728986079313065e-12 2.3864511756387705e-09 1.2029448676507268e-10 3.965661972628202e-09
1606 -1.340666090031391e-12 -7.169257482678135e-13 9.812940181605387e-13 1.2903118922353915e-09 2.180522440318863e-09 -3.1040955029380316e-10
1607 -1.4150103360378986e-13 -1.081678737479177e-13 -3.902241354575464e-13 -3.948705399627204e-09 -5.608495534680564e-10 -1.5300948913341448e-09
1608 9.613750726503515e-13 1.1443377528486673e-12 4.049756680436444e-12 5.163254612725709e-09 3.773201858195989e-10 -7.036787350364772e-10
1609 1.2084733860437194e-12 -1.4996824616404063e-13 -8.873021285145435e-14 1.3367932555300102e-10 -2.3184573925127432e-11 3.224920232041549e-11
1610 3.593059542343642e-13 1.0614480389398688e-12 1.1940176282134304e-13 -2.9404036846910585e-09 -1.299515880395501e-09 -8.225886730915983e-10
1611 -8.361056916020538e-13 9.181210770689711e-13 1.1581219354241677e-12 1.553121109970499e-09 1.0319437644729114e-10 1.4081880979678934e-09
1612 -3.250675847766094e-12 -2.1683065573078468e-12 -1.3385765628061354e-11 1.0977861575497112e-08 1.1424518099910985e-08 -5.344635238631269e-09
1613 1.725925037410343e-12 -4.3249425366225203e-13 5.386962445053924e-13 5.87194516343289e-09 9.855981174596809e-10 -1.7449582736179837e-09
1614 -1.4408915127998445e-12 -2.1684044488932506e-12 -7.613609821365107e-12 -1.061275669165574e-10 -8.122188460927037e-09 6.01414901330551e-09
1615 2.913844279330371e-14 -1.1001646148240973e-12 -2.1303634957128455e-12 1.2924616414377046e-09 -3.1536492724975954e-09 2.543055196818123e-10
1616 1.0840339474594778e-12 -1.0837482335197665e-12 7.2157457796027886e-12 1.8561864669554395e-09 1.5961962108785541e-09 -5.591442345413693e-10
1617 3.761778032598655e-13 -3.9972359345474e-13 1.1367338345233055e-12 1.301175706831516e-09 4.832796623962035e-10 -1.8949128078088535e-09
1618 -7.21279034548059e-13 4.839667973779174e-13 6.49976851150102e-13 -3.524310635106702e-09 4.557063366334897e-10 7.904199307671225e-10
1619 -1.779400187948491e-13 1.848423092593508e-13 -5.723100392330949e-13 2.9185456622686294e-09 1.8813385741820023e-09 2.199096271447812e-10
1620 1.084071112609422e-12 -2.881873996437124e-13 -6.711389819092409e-14 -1.8060469871566965e-09 -3.4268305853402465e-09 1.5138529289097819e-09
1621 -1.0278209290561634e-13 -1.100775335533364e-12 9.766114036318748e-13 4.26750061914824e-09 -1.5578901406680318e-09 2.0403064919127508e-09
1622 1.778659931044033e-12 5.393982068484705e-13 1.2994144310689146e-12 -1.530758129465854e-09 1.2431810481625752e-09 -4.852719407122236e-10
1623 1.3076838798483226e-12 5.415190896205428e-13 -5.109739351472749e-14 5.709265883111416e-10 -1.4437411015693852e-10 2.3057654613994182e-10
1624 5.563012019242737e-13 4.224583322619383e-13 5.8054555099575485e-12 3.979112453043374e-09 -1.5280700751250392e-09 -2.5266807441807067e-09
1625 -1.3667182594755798e-12 -2.1683776762097674e-12 4.7165979588953266e-12 7.37060713458133e-10 4.799734443296084e-09 2.553333345221826e-09
1626 -2.1676945110150656e-12 1.0839853380299536e-12 -3.188947254101994e-12 3.5429984195233565e-09 -4.205247604852297e-09 -8.289228350386894e-11
1627 9.09671341502048e-14 1.5940613799390354e-12 -8.413713007215531e-12 -2.855709713163622e-09 5.543607745606309e-10 -1.7109824842230458e-09
1628 5.265134597131331e-13 1.288349757779075e-12 2.930343516967945e-12 2.106730077875358e-09 -1.1569405305186938e-09 -1.1462450605165883e-09
1629 -2.640968864339558e-13 5.376894505448377e-13 1.3155338300073479e-12 -1.7427613961371622e-09 -1.8922980122958975e-09 -3.788820082352879e-10
1630 2.0694391459691796e-12 1.2477255271134393e-14 2.196750792118339e-12 4.960073177535488e-10 1.692590767068521e-09 1.1540864466408787e-09
1631 2.0900458452223534e-13 -1.6059741114855068e-12 -1.1389233605469019e-12 -1.1455112352764003e-09 1.8748105403628126e-09 -7.13377787327815e-10
1632 -8.744049489757178e-13 1.0835955277810285e-12 2.246483549272632e-12 -1.1150317934307352e-09 3.941619667203839e-09 -7.72072885318578e-10
1633 -1.007512187197683e-12 -1.0841600668129994e-12 1.4462393401509672e-12 1.0996304290102948e-09 3.3483380075347576e-10 -7.198178791015763e-10
1634 -5.419480100948394e-13 6.379690620118496e-13 4.161826008037933e-12 -3.308778029934811e-10 3.291653992627811e-09 7.999249185585076e-10
1635 -3.598670886027219e-13 -5.302861344443923e-13 5.387359661040141e-13 8.681943988516438e-10 -1.8241645644110375e-09 -8.561690754762736e-10
1636 6.31319559241458e-13 -1.084120112254971e-12 -7.781057042369275e-13 -1.6118877293430367e-09 5.066080390672558e-09 1.1245531007678999e-09
1637 1.0841812612863894e-12 -1.0840835902573753e-12 -2.1047264928856333e-12 4.2980761287108325e-10 -4.139094351412557e-09 -1.8438605833936046e-09
1638 6.985288187235362e-13 -1.3417070877033512e-12 3.755975865745889e-13 7.669149241575977e-10 -1.2384700000230263e-10 -1.797577332569603e-09
1639 2.166853823606829e-12 1.662619901904212e-13 1.3925015516540469e-12 9.5087819405662e-10 3.1543250585752547e-09 2.2712419618130684e-09
1640 4.9007931704135e-13 5.418707224828353e-13 1.076470101846084e-12 -6.994745143421722e-10 1.1851301315203565e-09 3.1639565591206965e-10
1641 5.054692179111101e-13 -2.1642546529488892e-12 7.729460527968347e-12 6.926581930221838e-09 6.221949058317497e-10 -9.67408320121749e-10
1642 -3.824311030254911e-14 -2.1561940701849116e-12 3.062987463919897e-12 1.3294684254195442e-09 -3.2428495674536144e-09 -1.0034104217325872e-09
1643 8.129033818194823e-13 -6.685254882509144e-13 -3.3036978425419955e-12 5.05197038456615e-09 -3.7833893215820826e-09 2.269526883327205e-09
1644 1.209385683431273e-12 -8.395113061412878e-13 -4.894117373720935e-13 -3.0693486327540402e-09 7.648988519171299e-10 4.786134737765672e-10
1645 -1.084046752925812e-12 -1.7916769318876797e-12 -1.4763071920942026e-13 5.773602532869523e-10 5.695579262122059e-10 -4.370574569510078e-10
1646 1.035984673745533e-12 -7.4622778763038e-13 2.8086693131181212e-12 6.648688658467054e-10 -4.345515097719196e-10 5.743655358890813e-10
1647 1.0832807008376286e-12 1.0842679105258157e-12 3.23030807441851e-12 -9.991426267834925e-10 -2.708329358180712e-10 7.218734325812649e-11
1648 -1.0262741941481215e-12 -8.634424834131081e-13 4.187458054231178e-12 4.684647242851582e-09 1.2797220453189887e-09 5.671506721554594e-10
1649 8.716429719773653e-13 2.7399874978721555e-12 -8.324356616715469e-13 -1.6900637641622873e-09 1.1515070351715476e-09 -8.687765220215316e-10
1650 8.630491465239294e-13 -1.6268091611061574e-12 7.60028080725819e-13 3.6133659156891014e-09 2.9631222868232605e-09 -1.2242062367152224e-09
1651 -2.166511033571861e-12 1.570878497587003e-12 -4.966609790725104e-12 1.8044957056154639e-09 5.2080624360384646e-09 -4.259114728692328e-09
1652 1.7961925522898747e-13 1.083995288261596e-12 1.2546171106973575e-12 7.042650145462211e-10 -2.0068769886213385e-09 2.0472326361527376e-10
1653 -1.4128343034285786e-12 -2.1684184631451073e-12 -1.469206784678713e-11 4.6861507705805785e-09 4.2570956957513746e-10 -1.370340692212525e-09
1654 -7.246729573838483e-13 1.0837170222258128e-12 -8.349024173057433e-12 -3.0956474412229976e-09 2.7905457057408125e-09 2.039902860689842e-09
1655 1.3403958620803309e-14 5.421903472731095e-13 -7.007637823558821e-13 -1.3861051124281738e-09 1.0869689470140491e-09 1.954918142151307e-09
1656 2.1594505384308924e-12 2.9551690886491514e-13 -1.9342957521913754e-12 -4.531095113126054e-09 -2.267902949966705e-09 -2.2967259355237153e-09
1657 -4.132718928092567e-12 2.1680202336105406e-12 1.1682419649559578e-11 -1.1833330315226375e-08 3.677667879572957e-09 -2.9747151790966033e-09
1658 5.17267859136487e-13 -2.1683099169474553e-12 -3.975743693363721e-13 -6.98266517845954e-09 -2.0514934643279328e-08 3.703534133775711e-09
1659 2.209630914701461e-14 5.419055866935602e-13 1.0985429119747594e-12 -1.6172455971396958e-10 -8.179238738523148e-10 3.971115263663684e-10
1660 -2.709275881768937e-13 5.42120615862799e-13 6.284976198067924e-13 2.05565691236643e-10 -3.080249902119467e-11 -1.0519280035530996e-09
1661 6.293138810117327e-13 -3.054602269695756e-13 1.5271823747137365e-12 9.412505863525355e-10 4.946855739270882e-10 2.490522912171219e-09
1662 1.4859629495687743e-12 2.167738449828938e-12 -1.168200098817971e-12 4.592727677233584e-09 -2.3907780208159187e-09 2.6483245374359687e-11
1663 5.42158956020914e-13 -7.844906654941416e-13 3.689118659276444e-12 -2.0507091376367195e-09 2.786938421471104e-09 1.1318561010554186e-09
1664 2.2305180431644936e-14 -1.1021916800922112e-12 -4.786763650487242e-13 9.129666887922292e-10 2.385551961368446e-10 1.0882823787964857e-09
1665 4.915741693627969e-13 -1.230874477137668e-12 3.5886728221283607e-13 1.4883865658538702e-09 1.6534826340488532e-09 1.611236235307374e-09
1666 -2.7338150131396807e-13 -9.112660687869771e-14 1.4275812690875876e-12 3.8865268786518945e-09 -1.1404861368770402e-09 4.3019995799097527e-10
1667 8.969631272101265e-13 -1.0832487841801645e-12 4.648328634335613e-13 2.7879110537623604e-09 -6.794072571475229e-10 6.078485130995698e-10
1668 -8.74472171780747e-13 -2.379458791552441e-13 -9.148498407377107e-13 6.488313156126943e-10 1.0786401576879634e-09 -3.910203606439357e-10
1669 1.978427782987568e-12 -8.11498704162694e-13 -1.946122131030486e-12 3.1066543557781605e-09 2.012173551192735e-09 1.0258742573932493e-09
1670 -2.168033455305298e-12 -2.1820461194216026e-13 2.793382377398859e-12 2.3018546026352813e-09 -8.035115365679984e-09 -3.415452052061019e-09
1671 -9.8294679244751e-13 -8.413465848728521e-13 1.3954141118813248e-12 -1.5927722188678915e-09 -9.300899117135643e-10 -7.406534761882059e-10
1672 8.546113816813265e-13 -6.81701702752295e-13 3.453492821453865e-12 6.615205880447072e-09 -2.757801844082052e-09 -1.390135141878496e-10
1673 5.41954004048246e-13 -1.4299324742746058e-12 -1.6663204738793383e-12 -1.6092254871127308e-09 -2.314999860930898e-09 -4.523089526593678e-10
1674 -1.084261383275354e-12 5.422603486881631e-13 -1.935119627531744e-12 5.558508412886587e-10 2.3504646006405266e-10 3.944590744126256e-09
1675 -1.0842279456218459e-12 -2.0612646155649403e-12 -3.113215032758193e-13 -1.986430828063214e-11 -6.195651636413344e-10 2.4150830564305887e-10
1676 -2.165306089348363e-12 -1.0848068498376475e-12 4.223237553180751e-13 -3.358036272642107e-09 1.5317675835616453e-09 -2.4969975981260968e-09
1677 1.3789230969825468e-12 2.7006364266449483e-13 4.630648936167062e-13 -1.4084798663075496e-09 3.444608183359956e-10 -2.6360045506211336e-10
1678 5.412375539525125e-13 -2.1682351138274493e-12 4.622484823639276e-12 -1.7010854222761074e-09 -4.026975201871269e-09 -4.0597683689716605e-09
1679 5.416474019389848e-13 -8.318879266239984e-13 3.8940095284209565e-12 -1.1770571257361095e-09 4.4599767139185016e-09 -1.9522207860444406e-09
1680 -2.757067418763928e-13 1.0841307845414207e-12 -1.6091415514020619e-12 7.522657321816811e-10 1.6753388472348768e-09 2.424042475659286e-09
1681 1.9250208100592593e-12 -1.543549494160293e-14 1.2346495695226775e-12 1.5038129035283371e-09 7.286102726459039e-10 -1.735684316915496e-09
1682 1.0841629212502564e-12 -1.0511548174939381e-12 -2.6885662896892963e-12 3.046713023077586e-09 -3.2340836497253512e-09 9.5583459015564e-10
1683 -3.8743994242302956e-13 6.439625101984081e-13 2.2096611632127825e-12 -4.530923223334635e-11 -4.673005125074796e-11 -1.944456423450179e-09
1684 -4.2508458288247165e-13 2.1663540028508738e-12 -1.9577443603670984e-12 6.332458993052608e-09 -4.101403349725048e-09 1.1105589981592738e-09
1685 -5.273674888469931e-13 -2.545004248213556e-13 4.5359868942426303e-13 -4.966697696236048e-09 7.875136760416743e-10 1.343358468316478e-09
1686 1.0844191936807457e-12 -1.0844535235048215e-12 -3.580934831964515e-12 1.270773718451214e-09 2.7620109491936606e-09 4.842928777609404e-10
1687 2.0944997366540078e-12 -1.0843210602834645e-12 8.95500863903324e-12 3.983462176304834e-09 1.9878017067278795e-09 6.332166940638282e-10
1688 -7.840314699192192e-13 1.4226830712725923e-13 2.0026513340111813e-12 -6.55646707104705e-10 6.696356154275989e-10 -9.792003610303046e-10
1689 -6.19593884434315e-13 7.178889982138321e-13 -3.9617010453550325e-12 7.200659733231177e-09 -1.137680628533537e-08 -8.257062009822149e-10
1690 2.156854115508948e-12 -1.0297207571546811e-12 -6.745384872982246e-12 3.1542974287572944e-09 9.981668998413645e-09 -2.15373946518005e-09
1691 -1.1212408837517366e-12 -1.0840999105780595e-12 -6.27097861056982e-13 4.506891512181945e-09 -1.104525042614175e-09 3.730357908794169e-09
1692 4.0303129262655457e-13 -1.08358609090352e-12 1.451354053839498e-12 -1.2942505907324857e-09 2.333731626803786e-09 -3.46073879199168e-09
1693 -1.0838390343719317e-12 -6.201746530897412e-13 5.397294664963936e-13 -8.38554631989134e-10 -3.620820029042349e-10 -1.2001150699184581e-09
1694 8.700513186165398e-13 1.0839194912718273e-12 1.7452448573291152e-13 -2.4699307461177777e-09 -1.0319506250541627e-09 -5.798086851772258e-10
1695 -4.4852498075843827e-13 8.883598389932819e-14 4.216113084058062e-14 6.987401818741304e-10 -2.1938521995119995e-09 -8.966534712448955e-10
1696 2.168411289274244e-12 1.1792666388024283e-12 -9.227022209353114e-13 5.095045643953931e-09 -2.5281378322174474e-09 -2.902587599325279e-09
1697 -5.418973312412087e-13 4.214196907515468e-13 1.5209355138532976e-12 1.585163904412023e-09 -1.0120781064199035e-09 9.577597307913745e-10
1698 1.3043590343668456e-12 4.0136138267027094e-13 1.0097295701746618e-12 -3.4418359826980407e-09 2.1318520956996366e-09 2.400189113140147e-09
1699 -3.3671221557772797e-13 5.418045164930973e-13 2.813530595869145e-13 3.60639039044575e-09 2.752314773142471e-10 1.9131326854938895e-09
1700 7.64043562428786e-16 3.5425683301311784e-13 1.0036913464678904e-12 -1.8804604817807888e-09 1.7741727310476652e-09 3.020873617921795e-10
1701 4.589150196777253e-13 -1.4602688664660636e-12 1.6209194625438105e-12 -3.061674075563977e-09 -4.0132962994861614e-09 1.1431953162711501e-10
1702 1.0251592123074384e-13 -4.448553706557343e-13 -1.2434719911105399e-12 3.037904980049606e-09 -5.487982789275468e-10 -2.434983318736825e-09
1703 -1.1515905676287308e-13 5.420431058770483e-13 2.725662395733756e-12 -1.2119834864101729e-09 -1.2565220133110495e-09 -7.608433037672322e-10
1704 -5.420889081134529e-13 -2.168332369168837e-12 -6.273269922784866e-12 8.793316228016696e-09 -4.576183686941547e-10 -3.770706011970597e-09
1705 -6.916469367140087e-13 1.084362751748959e-12 5.781481282763572e-12 8.233379747745995e-09 2.161696469905134e-09 -2.9544024289110965e-09
1706 -7.491058272437867e-13 1.0753745886554933e-12 -2.0073809995100623e-12 2.822571717159475e-09 1.2689422598342964e-09 7.031658258852913e-10
1707 1.0837823725425811e-12 -1.138949137576275e-13 1.4485663907961309e-13 8.212716072535075e-10 -2.6497339249290235e-09 1.3298902950578675e-09
1708 -1.8463343351041424e-12 -9.77379365090419e-14 5.5824286626278844e-14 -8.445678761446721e-10 4.5045286642138256e-11 -1.856386489217975e-10
1709 7.918132792000868e-13 -1.0839749160074919e-12 3.695918870624835e-12 1.2646335812889695e-09 -3.3782447387334243e-10 -1.9203832819611593e-09
1710 -1.084246020028192e-12 -1.083266114937055e-12 9.693399045572695e-13 -2.882157579097848e-09 -5.520471265538988e-09 1.866651118302158e-09
1711 -3.2800315946669565e-13 -9.008254516214572e-14 4.714627194572207e-12 2.574068749026988e-09 1.5161465016065096e-09 4.807522633443247e-10
1712 6.910217351504002e-13 6.208634362884109e-13 -1.6623949708115992e-12 3.235036376885816e-09 -2.146460336163901e-09 1.2799003681405047e-09
1713 2.9428995405232937e-13 3.89073122733649e-13 2.0571761992309773e-13 -1.9268195694425952e-10 -2.0645544229577073e-10 7.072528082006487e-10
1714 2.1659561827698646e-12 4.858258911811654e-13 5.644464478339087e-13 7.406407116617243e-10 3.4989509078788834e-10 -1.289727040009019e-09
1715 1.8369963190254637e-12 -2.167764500617495e-12 8.643195310845756e-12 -2.0945987039918555e-09 -1.3987204714348322e-09 1.8693912707089177e-09
1716 -2.0861310206789796e-12 -1.0710685623316378e-12 3.0949424152908347e-13 4.238401396262419e-09 -1.5550050982515857e-09 -1.6502471193318217e-09
1717 -1.7364908073868954e-12 6.530976819299672e-14 -9.091894959989232e-13 -1.868340583742105e-09 -1.7511020172970568e-09 -6.976049226828193e-10
1718 1.0840968481215998e-12 2.168055579585803e-12 1.1097162208721554e-12 -1.5474548106888584e-09 3.700753665405843e-10 2.195053202711021e-09
1719 4.318303355762111e-13 -2.806977084110255e-13 -2.5397501678455283e-12 -7.464910339792835e-10 5.073069599753673e-09 1.8571065013540396e-10
1720 5.421365974934005e-13 1.0839726801708835e-12 -2.3611466132056525e-12 -4.057594204029329e-09 -3.928705012659355e-09 9.950460742438562e-10
1721 -3.1125258554881517e-13 1.2600108570596766e-12 -8.571324566543715e-12 -1.5436952664595511e-09 -8.481195375955042e-10 -5.106611564224109e-10
1722 1.0029907208788856e-12 -2.1684083344307697e-12 9.700742436505196e-13 3.3177481961486407e-09 -1.7908955139439444e-09 2.325572025105138e-09
1723 -5.420296615217354e-13 -1.228989333130756e-12 -2.941308060579861e-12 6.361043935614912e-09 -3.6729361720933183e-09 -9.556289792886015e-10
1724 5.415265710930553e-13 2.7035141110108553e-13 -2.437007394603407e-13 -2.022403963982653e-09 -5.225004631236716e-09 9.374220173076141e-10
1725 5.423327417123889e-13 -2.167707956006217e-12 3.3025200301227356e-12 4.463846251557147e-11 5.575299906895294e-09 2.9259078145312195e-09
1726 8.983657994930517e-14 2.1675212886037687e-12 -7.424687788664757e-13 1.0633763496561369e-09 7.06498273813022e-11 1.89475774100313e-09
1727 1.0835017331860325e-12 6.323833437630451e-13 -2.167859300679205e-12 -6.068233050427303e-10 1.7119104469584613e-09 -1.629098151973125e-09
1728 -2.494113745518881e-13 -4.076799946089098e-13 1.0502263433927254e-12 -1.602325963303184e-09 1.6669948068148579e-09 5.785356634441814e-10
1729 -1.0833722582681023e-12 -5.350955454945746e-13 -9.01686642492789e-12 2.0518841371423176e-09 6.0747571307692e-10 -3.641712692118245e-09
1730 -5.420168223881947e-13 1.0836916816975128e-12 -1.3583396007750266e-11 -1.7831390653028689e-09 -9.511275285949145e-09 2.475499109585818e-10
1731 -2.121288455973258e-12 -1.0835722438600286e-12 -6.408061002845875e-12 2.8750584451087852e-09 9.375799383501153e-09 5.1847914582862515e-09
1732 8.597680012977772e-13 1.0842122877960586e-12 8.726303925766046e-13 8.575310343824761e-10 6.046708371365016e-09 -2.3932948994443827e-10
1733 -3.318517691269779e-13 -1.047958547359037e-13 -9.0377276253436e-13 -1.6938396111667855e-09 7.421687691048008e-10 -2.2821487071258664e-10
1734 -6.881735150860113e-13 -7.865219822227758e-13 1.0771955904479867e-11 -4.045804462751696e-09 -5.851509667962336e-09 1.3036687368504762e-09
1735 1.084188412245795e-12 -4.787849038431818e-13 7.749626592141812e-12 -4.798420869235584e-09 2.5229397218406034e-09 -1.8620885654754986e-09
1736 4.406686755539473e-14 -6.422901952305574e-13 9.796295089262682e-12 1.257061886477485e-08 -3.979127779282123e-09 1.9651261550889138e-10
1737 2.1677517949770727e-12 -7.075022344014926e-13 1.5452183729383887e-12 6.13461835821911e-10 -5.88457411070223e-09 9.47195207962473e-10
1738 -1.084200155752382e-12 -2.1676464866715014e-12 -5.524120498118266e-12 8.32433037742112e-09 -1.2374033707653652e-09 -3.0623680296466253e-09
1739 -1.0832989917427865e-12 8.405048479465449e-13 6.9212368594317835e-12 -6.331219070143453e-09 3.3014189006541047e-09 -3.0526075034422868e-09
1740 8.308368463961681e-13 -2.1106207372348545e-12 -1.1035449394439538e-11 4.739795531625964e-09 -5.56007249360612e-10 3.7604739582162774e-09
1741 1.0841169941626744e-12 5.487523489493446e-13 6.801638648507774e-12 -8.250134751406977e-10 3.946024015434285e-09 -4.036660641446211e-09
1742 -1.4978666115487314e-12 1.6313866384530404e-12 1.5242391082973676e-12 -1.1650414066968308e-09 -2.046759924635206e-09 7.907021962693032e-10
1743 4.5030604863599156e-13 2.150649512639624e-12 4.992040028503435e-13 1.4191426705087796e-09 2.526457955428796e-09 3.206019784683838e-10
1744 -7.281778125289254e-13 1.0838960488205277e-12 9.48540039518959e-12 -5.895696011447585e-09 -3.2530823100697456e-08 -8.455640053686445e-10
1745 -4.082103287043163e-13 -4.215657801171399e-13 7.390866140156947e-12 1.5548003499223796e-09 -6.342806785173069e-10 7.138349909330066e-09
1746 -5.420938093001012e-13 -2.1681489060841573e-12 3.3399683984890595e-12 -2.962267517025765e-09 -3.586041752148305e-09 -1.4223931056475413e-09
1747 2.061178741949976e-12 3.833143953704549e-13 -6.059907151406703e-12 3.5054795442881794e-09 1.474390724922749e-09 -2.8768477978722625e-09
1748 9.618610556524027e-13 -1.2153860793108983e-12 -1.1373202124046466e-12 -3.0196750856832375e-09 5.653759623923066e-09 -3.6659657740387688e-09
1749 -5.428110838320936e-13 -7.242217904453903e-13 2.2377526856694087e-12 1.235168461453526e-09 2.5635868271004045e-10 3.3853486185021997e-10
1750 9.856504101237241e-13 -3.0666011921012764e-13 9.16749702676225e-13 -2.6977174541754713e-09 -8.693799072860145e-10 1.0539514823845587e-09
1751 5.421303641206858e-13 9.315840396584867e-13 1.7555298867380382e-12 -6.150277616484256e-09 -1.0004013609785195e-09 4.733195590614871e-09
1752 -1.528929954294786e-12 1.7563086921335446e-13 -2.886333807147691e-12 3.797171035233069e-09 -5.126077402890993e-09 3.5330131032696677e-09
1753 7.250981622107445e-13 1.0194344208160929e-13 -2.737084045710745e-12 -3.5574862450330682e-09 -6.209061091921821e-10 -8.331287055737461e-10
1754 2.0372125305122677e-13 8.248281150737656e-13 8.028604102753761e-13 1.4182241689238064e-09 -2.151003020024025e-09 -4.2231700874348113e-10
1755 1.0842299942717855e-12 1.084316103243537e-12 -1.503868664136301e-11 -4.81870308983258e-09 2.1227471067289305e-09 1.7119505405840695e-09
1756 -8.466347229351714e-13 -2.167248103298745e-12 1.3084724243943182e-12 -1.5129883544408972e-09 2.0240806556068756e-09 -2.407527406740171e-10
1757 -5.419096757022468e-13 4.596915790916547e-13 -3.1444861873342726e-12 4.916245248776072e-09 -7.688282077775233e-09 4.679502798784223e-09
1758 -5.4252688064460974e-12 -2.532619919605229e-12 -1.568009143960159e-11 2.847967624527142e-09 -1.0366145447192477e-09 -5.811766554612052e-09
1759 6.030185689454259e-13 1.0845179029366948e-12 -2.1368122067642627e-12 -3.93811938796827e-09 -1.0469771576797096e-09 -2.6194013474724023e-09
1760 -3.342047005154985e-13 2.1218869072226036e-12 -3.7491365145092285e-12 -1.1570328547960817e-09 3.0114197885628812e-09 1.0367669979487896e-09
1761 -2.476021511513779e-12 -1.0857181439960322e-12 1.7342822511682193e-11 -9.037119128912583e-09 -1.03525410307942e-09 -7.267906268710671e-09
1762 -6.479796219410531e-14 -1.625077712082457e-12 -6.90458108077765e-12 -9.020394075875816e-09 1.2682144406777892e-08 -1.0010658134952068e-08
1763 5.990297565718011e-13 -1.8335132230672955e-12 3.585641785366628e-12 -4.322362037425465e-10 5.357181451521698e-09 -6.169579011758864e-09
1764 8.744048477183256e-13 -3.3797268594921337e-13 -3.580916505788869e-12 8.529238411207973e-10 7.78379813399122e-09 -1.0327212411640746e-09
1765 1.3374616676133016e-12 -1.7888689499445373e-13 -5.375575593504286e-13 2.308440980671904e-09 2.841068441282244e-09 -1.206188333306273e-09
1766 -3.117435284029905e-13 -2.1140010640320628e-12 -2.3457428508184323e-13 4.6305365390562216e-09 8.009519357204392e-09 1.6143607488114904e-09
1767 5.755958761527129e-13 -1.7650358660122678e-14 2.6212356404148934e-12 2.88578370392333e-09 1.4577201560088588e-09 -6.298974562424803e-10
1768 -5.023625065807742e-13 2.145124770960559e-12 -3.0251416688260188e-12 -4.984169536344675e-10 -2.31743820290499e-09 -2.6149534167634857e-09
1769 -7.866169387427515e-13 -2.168621352929203e-12 -4.247439185852798e-12 3.232188860496346e-09 -4.437912307644604e-09 -1.695979580462312e-09
1770 -1.18846323862952e-12 -3.648661709345349e-13 2.701641624789507e-12 -1.015046588055025e-08 2.313592669117208e-09 -3.4439204368045857e-09
1771 1.842000258436465e-12 5.547850272945822e-13 8.136931394159544e-12 1.1937405184713295e-10 1.1850438359517357e-08 -6.590345000737336e-09
1772 1.046797502348561e-12 -1.0840926118430297e-12 1.0928740094094177e-11 1.9617547633747779e-10 3.1729994449768645e-10 1.304819637276242e-09
1773 -3.467127434817176e-12 -3.2512226074443103e-12 1.5457548808425185e-11 1.7736189638460036e-08 8.279703874270579e-09 4.059610013262319e-09
1774 1.1013753123844336e-12 1.0376456443827702e-12 -3.1444680543731568e-12 -6.868547910305688e-10 3.933576443980672e-09 8.005238382172258e-10
1775 4.0745935616332036e-13 -8.541269334103263e-13 -1.12349107686581e-12 5.611759668152346e-09 -2.497333676004598e-09 -2.200890731549505e-09
1776 5.24990903736915e-13 -1.0841915819330021e-12 5.5506837552283365e-12 1.8320623663824295e-10 -4.010314396369958e-09 -2.1042206470449707e-09
1777 2.7086928743379524e-13 2.164705523737758e-12 -5.248061047267068e-13 -8.250641622726219e-10 -1.4035242202486256e-09 -2.3952990592815035e-10
1778 -1.9810079993331708e-12 7.986207614332767e-13 -1.6057170080479425e-12 -3.4659599013693064e-09 2.346803595289717e-09 -1.5684295914822377e-09
1779 5.419412989236345e-13 4.812550409755859e-13 6.051382416597435e-13 -5.421400433685193e-10 -2.0130981824628316e-09 -1.4145729290396293e-09
1780 -5.644766050806249e-13 -4.537465874395889e-13 -3.2830343088839812e-12 2.0031787525458135e-09 -4.001173508792529e-09 -1.9602088908885645e-09
1781 1.0520151981161198e-12 1.0841088458859595e-12 3.372240271725634e-12 -5.444566569064244e-09 4.719602462870218e-10 3.403519644661639e-09
1782 -9.517204826564651e-13 -3.1109560544654383e-13 5.432534411562289e-13 -1.130928129966212e-09 -2.4443691227682014e-10 2.7758144927153334e-09
1783 5.421375403305344e-13 6.624450712333291e-13 -6.257373736807194e-13 4.003012168396555e-09 -3.794761204666744e-09 9.6279473598589e-10
1784 2.717902619843275e-14 1.479397755865252e-14 -4.259885523806755e-12 -2.6123863260227186e-10 2.2941993869336863e-09 3.405726344180571e-09
1785 2.7136406860460306e-13 5.411730507842798e-13 -4.143497589228446e-12 2.501715095129012e-09 -1.4445796663447043e-09 4.757879106369679e-10
1786 1.0839948931478982e-12 -1.0860653759926074e-12 1.514404325949035e-12 2.9829280693675803e-09 -2.123322772107136e-09 -1.6163787657590645e-09
1787 1.193697439678577e-12 2.1684115596582438e-12 -9.508839164385049e-12 -2.6833915500595465e-10 -4.0359888002631024e-09 3.2644620321050736e-09
1788 1.3804967373167609e-12 -9.134337028486798e-13 -8.322789442990744e-14 -3.651862917802087e-09 4.24723978639134e-09 2.0575006816767585e-09
1789 -1.4967678926114817e-12 -1.6140892373764193e-12 1.1968838768583778e-12 -1.3187917322182025e-09 -1.261138338478615e-09 -5.39746190665163e-10
1790 2.1662182288982686e-12 -1.7886467771740502e-12 6.952578461778088e-13 2.147552040477908e-09 -3.4358759857786e-10 1.955957147570463e-10
1791 2.018279749237487e-12 2.3935827309209274e-13 1.958801790310819e-13 -5.415322561265524e-09 1.6918734289183758e-09 5.834969277819638e-09
1792 -1.1499121519649456e-13 -3.626244367022711e-13 6.420024844861188e-12 2.0672365633893535e-09 -3.606729842206879e-09 -2.4699910760312787e-09
1793 3.297253759275039e-13 2.4254361584098047e-12 -8.091476250503781e-12 -6.172001014294573e-10 1.6431057562920142e-08 -1.4952274053820926e-09
1794 9.817150090120877e-13 5.42688302007733e-13 9.947797830347987e-12 1.8478011125561026e-09 -1.2181779425947714e-09 8.361116983400076e-10
1795 2.7103448822592477e-13 2.167494798136806e-12 2.8599661330325766e-12 -1.1891856155547277e-09 -5.740266033471743e-10 -8.419141034567571e-10
1796 1.9544386480351802e-12 -1.0359504697591803e-12 9.632178291874871e-13 3.096915332094352e-09 4.367709324461204e-09 2.7246543838369573e-09
1797 1.9825096689522705e-12 1.2163491181570847e-13 5.7732966498051e-12 3.932866950435085e-09 5.543031412339093e-09 1.603312121507756e-10
1798 3.0964969739227776e-12 -1.0843079125783912e-12 2.570110626411466e-12 -3.084251777084549e-09 6.883781367670273e-09 2.403950000364592e-09
1799 9.629868174037837e-14 1.906252916376288e-12 -1.7662409458831119e-12 -2.6339168894553975e-09 -2.674842967942988e-10 -9.215955584979372e-11
1800 -1.0896043099143097e-13 8.623836884855531e-13 -1.5841036865743164e-12 8.924190948341374e-10 -2.5455185273391498e-09 -1.0033378356464505e-09
1801 1.2172274438844071e-12 1.0841376085123702e-12 -1.0676987286001226e-11 4.996715821969209e-09 -6.918453875926968e-09 -2.3025408010431774e-09
1802 1.907754231875995e-12 3.6532957771203425e-13 -6.693298952280052e-12 -4.996937000999333e-09 3.449606310069213e-09 1.4971450773987845e-09
1803 -5.415176127599402e-13 -5.422232870654979e-13 -3.252474533932996e-12 1.5830770124955086e-09 -5.2349288127362346e-09 -9.968873006763012e-10
1804 1.0843840492606891e-12 8.636897949614331e-13 1.580555472332495e-12 1.2458987134150524e-09 -7.782155685641412e-09 3.3489559193686552e-09
1805 1.1129404989737974e-12 -6.52514909422064e-13 -2.660641334345036e-12 4.434986353765278e-09 -2.603653689781016e-09 1.7807334790663785e-09
1806 2.168019997942218e-12 -2.598734344415648e-13 1.332567679227413e-12 -1.3570384104786438e-09 -3.4776107640135097e-09 9.286666518255842e-10
1807 9.042725964092195e-13 2.1682323800741845e-12 -1.112192902926482e-11 -8.786475211678668e-09 9.960487434441249e-11 2.617696793230391e-09
1808 -2.1670362626386197e-12 -2.0446085151407746e-12 5.997591153890512e-12 3.892823166459807e-09 -6.309823688924906e-09 -6.371464867487029e-10
1809 9.408817141413922e-13 1.4196774218687453e-12 8.347511084852468e-13 2.8676588807624657e-09 -2.409604611395088e-09 -1.2835280294760753e-09
1810 1.0019634311669988e-13 -1.6496159808257934e-12 1.855372749632064e-12 4.799315377372996e-09 4.097640690941842e-09 2.59552484928671e-09
1811 -1.2378645892226016e-12 -2.0361358066237742e-12 9.356312447657193e-12 1.9496872957174888e-09 -8.023523799963117e-10 -5.849233186728553e-09
1812 -2.7055745099669108e-12 -2.167940455931834e-12 -1.1373570389188063e-11 -1.0422023900851121e-08 -1.4523103259579975e-08 7.221292489042522e-09
1813 2.063327790700134e-12 -8.773260337373531e-13 9.69306259624979e-12 2.9573942870159027e-09 4.927448040165903e-09 -3.394259928441668e-09
1814 1.0986472457488813e-13 2.1672215606601167e-12 -5.109744120111998e-13 1.1055758787715428e-09 1.3240966543052995e-09 5.23249456435975e-10
1815 -1.5882752275464226e-12 -5.419874283138467e-13 4.61053632340694e-13 1.9630399192880654e-09 6.431794594273363e-10 -4.892455842241606e-09
1816 1.6532893121193846e-13 2.1682084407012936e-12 2.493757208849316e-12 1.6006355888601869e-09 2.645623014770082e-10 4.630718312645408e-10
1817 -6.112781394371113e-13 1.799281957412386e-12 4.285682860885723e-12 5.255429616426731e-10 -1.742531044555163e-09 -1.6114649220180615e-09
1818 -2.1683915469269407e-12 1.7995344191667367e-13 -1.318122452482044e-12 -1.0070785711041127e-08 -5.818171203497749e-09 3.6481642443726577e-09
1819 -6.844740097186157e-13 -2.1681536813342796e-12 7.933891999326908e-13 -1.2098869494866018e-09 1.02120396815232e-10 1.1578442068522727e-09
1820 1.066462335221412e-12 1.081716536279655e-12 -3.3380192948319362e-12 -1.7703884571672287e-09 -5.365862318543249e-09 -4.850816974573501e-10
1821 1.0069205490411151e-12 -2.1678374474433046e-12 -3.3936281865284995e-12 1.9158216860620793e-09 -2.9313210969601287e-09 2.736813971649246e-09
1822 -1.6928644684917913e-12 2.707236490842215e-13 -4.8805114351623466e-12 8.764579157531524e-09 -2.405188881950549e-09 1.9007821615933857e-10
1823 -1.193998152892737e-12 -4.673034067022919e-13 -6.322921183014741e-13 -6.735353319373626e-09 2.62230628327726e-09 -9.127451406599357e-10
1824 -1.0837718033190587e-12 -2.1671771926868434e-12 -5.3196243777711326e-14 2.1411739234710587e-10 -4.516850435347393e-12 -2.4779384632996226e-09
1825 -2.2845283693529603e-13 -2.0950502514301793e-12 1.5758043138837499e-12 -2.164032080143977e-09 7.316125523586975e-09 -3.2781894236253966e-11
1826 -5.41960553907031e-13 -2.1679856199305528e-12 -5.142717827900954e-12 9.338950372030088e-09 -2.1054723193910054e-09 4.363828414366942e-10
1827 -2.1684072973545053e-12 -1.8652324630420807e-12 -1.175286753313782e-11 -7.742838573532964e-10 1.4422054858031806e-09 3.343872469522066e-09
1828 -3.6799720791037853e-13 -2.167378446936063e-12 -5.383285001736804e-12 -7.071213972296257e-09 6.0744951990689886e-09 1.6449574961094405e-09
1829 1.0842279447339563e-12 1.1512253790356865e-12 5.939355720889969e-12 -8.012506770857775e-09 -3.1004761173367387e-09 3.6859438780491252e-09
1830 2.1682217282806848e-12 -1.5367978566498762e-12 -1.2370276749708723e-12 1.3676240708671914e-09 -1.1989577975804943e-09 2.1087068093461298e-09
1831 4.1956450327815216e-13 2.7169476345785435e-13 8.849343045814026e-12 5.095712535967294e-09 -9.285752997747806e-09 5.572478455357261e-09
1832 -3.2522580935031428e-12 -1.389252054174154e-12 -2.399685908054078e-12 -1.816275148480704e-08 -2.6429229908368418e-09 6.040153244940652e-09
1833 2.1678519907767405e-12 -2.168163329940525e-12 2.1995413423622683e-12 4.846197007589473e-09 6.302760905443236e-10 -2.4913221253778254e-09
1834 -1.0419062965267353e-12 -3.4422110137416217e-13 -2.0842238981191157e-12 -7.999059807201607e-10 -2.7293237905558236e-09 4.1014158285890556e-10
1835 3.3137315240585247e-13 -1.5396338863026637e-12 3.1198046930327057e-12 -3.2197097305304102e-09 5.0858067909000095e-09 6.358098063907142e-10
1836 -1.0839947918141444e-12 -7.711850649462068e-13 -1.5399674640713134e-11 6.593770524111639e-09 -4.731863814362622e-09 1.3579918198938064e-09
1837 -2.0061250840016522e-13 5.330185961877141e-13 -1.1002401451051856e-11 -2.0719143167946656e-09 2.423696416832795e-09 -4.808888312427825e-10
1838 -1.0842906546880144e-12 -2.1684594897986517e-12 9.217590202467869e-13 -2.718574101928996e-09 -4.289416081692631e-09 8.272486713397483e-09
1839 -6.212009947511174e-13 -1.0702535200094136e-12 -4.4698526654638584e-13 -7.238229012974459e-09 1.9817853059467013e-09 -1.8335440071951754e-09
1840 -4.189677011811984e-13 1.5114587151353572e-12 -2.075730685187615e-12 -2.9846082098800255e-09 -1.6815583151406705e-09 4.487037036982154e-09
1841 -1.4730305764629834e-12 1.0838445340083385e-12 -7.452708483731938e-12 -1.0433416394979846e-08 -2.7961657069376657e-09 1.0775981908582153e-09
1842 -1.235419964222493e-13 -2.1669554203764627e-12 2.208107142176468e-12 -2.3746739645461316e-09 -6.235798175269688e-09 -4.870185551892053e-10
1843 -1.6565518549250415e-12 -2.710628025570729e-13 -4.948907887308299e-13 1.2862814519759468e-09 8.637516027462589e-10 -2.0772713326172494e-10
1844 5.875745064959278e-13 9.943571819496908e-14 5.10716564535584e-12 3.2648680982586623e-09 1.1382403055869674e-09 -5.837144218390229e-09
1845 -2.146616905024096e-12 -1.4778535748326464e-13 1.4846436615949884e-12 4.26310175034233e-09 -2.1116039441495786e-09 -4.393436192447511e-10
1846 2.1656849816489377e-12 -4.7424492759419285e-14 9.026089502290479e-14 -3.607484091093823e-09 -4.9306819783390605e-09 9.914101671258213e-10
1847 -8.389248370039613e-13 1.357701874248299e-12 4.29401405836913e-13 -1.1124457161573262e-09 -3.7293314838026584e-09 1.611209307351587e-09
1848 1.4868582428042856e-12 -1.855602555922128e-14 -1.872630840342816e-12 -1.634756707319049e-08 -1.977160353668614e-09 1.1007920723390548e-08
1849 5.220449607163578e-13 1.0768134284651205e-12 -5.9247437989166234e-12 9.534205947131251e-10 -8.871243831619545e-10 4.6272976435134e-09
1850 1.0604906107537848e-12 -2.9905371244570784e-13 -2.2459304320445295e-12 -2.7619448773438506e-09 4.931825378129352e-09 -2.6328460915602506e-09
